    1C
    1UUSER                                                              
    1UDATE              31.march.2022                                   
    1UTIME              00:28:51                                        
    1UHOST                                                              
    1UPGM               CalculiX                                        
    1UVERSION           Version 2.19                             
    1UCOMPILETIME       Wed Mar 30 06:04:19 EDT 2022                    
    1UDIR                                                               
    1UDBN                                                               
    1UMAT    1STEEL                                                     
    2C                          1353                                     1
 -1         4 0.00000E+00 1.41421E+01-2.12132E+01
 -1         5 0.00000E+00 9.72272E+00-1.67938E+01
 -1         6 2.00000E+01 9.72272E+00-1.67938E+01
 -1         7 2.00000E+01 1.41421E+01-2.12132E+01
 -1         8 0.00000E+00 1.76777E+01-1.76777E+01
 -1         9 0.00000E+00 1.32583E+01-1.32583E+01
 -1        10 2.00000E+01 1.32583E+01-1.32583E+01
 -1        11 2.00000E+01 1.76777E+01-1.76777E+01
 -1        12 4.00000E+01 9.72272E+00-1.67938E+01
 -1        13 4.00000E+01 1.41421E+01-2.12132E+01
 -1        14 4.00000E+01 1.32583E+01-1.32583E+01
 -1        15 4.00000E+01 1.76777E+01-1.76777E+01
 -1        16 6.00000E+01 9.72272E+00-1.67938E+01
 -1        17 6.00000E+01 1.41421E+01-2.12132E+01
 -1        18 6.00000E+01 1.32583E+01-1.32583E+01
 -1        19 6.00000E+01 1.76777E+01-1.76777E+01
 -1        20 8.00000E+01 9.72272E+00-1.67938E+01
 -1        21 8.00000E+01 1.41421E+01-2.12132E+01
 -1        22 8.00000E+01 1.32583E+01-1.32583E+01
 -1        23 8.00000E+01 1.76777E+01-1.76777E+01
 -1        24 1.00000E+02 9.72272E+00-1.67938E+01
 -1        25 1.00000E+02 1.41421E+01-2.12132E+01
 -1        26 1.00000E+02 1.32583E+01-1.32583E+01
 -1        27 1.00000E+02 1.76777E+01-1.76777E+01
 -1        28 1.20000E+02 9.72272E+00-1.67938E+01
 -1        29 1.20000E+02 1.41421E+01-2.12132E+01
 -1        30 1.20000E+02 1.32583E+01-1.32583E+01
 -1        31 1.20000E+02 1.76777E+01-1.76777E+01
 -1        32 1.40000E+02 9.72272E+00-1.67938E+01
 -1        33 1.40000E+02 1.41421E+01-2.12132E+01
 -1        34 1.40000E+02 1.32583E+01-1.32583E+01
 -1        35 1.40000E+02 1.76777E+01-1.76777E+01
 -1        36 1.60000E+02 9.72272E+00-1.67938E+01
 -1        37 1.60000E+02 1.41421E+01-2.12132E+01
 -1        38 1.60000E+02 1.32583E+01-1.32583E+01
 -1        39 1.60000E+02 1.76777E+01-1.76777E+01
 -1        40 1.80000E+02 9.72272E+00-1.67938E+01
 -1        41 1.80000E+02 1.41421E+01-2.12132E+01
 -1        42 1.80000E+02 1.32583E+01-1.32583E+01
 -1        43 1.80000E+02 1.76777E+01-1.76777E+01
 -1        44 2.00000E+02 9.72272E+00-1.67938E+01
 -1        45 2.00000E+02 1.41421E+01-2.12132E+01
 -1        46 2.00000E+02 1.32583E+01-1.32583E+01
 -1        47 2.00000E+02 1.76777E+01-1.76777E+01
 -1        48 0.00000E+00 2.12132E+01-1.41421E+01
 -1        49 0.00000E+00 1.67938E+01-9.72272E+00
 -1        50 2.00000E+01 1.67938E+01-9.72272E+00
 -1        51 2.00000E+01 2.12132E+01-1.41421E+01
 -1        52 4.00000E+01 1.67938E+01-9.72272E+00
 -1        53 4.00000E+01 2.12132E+01-1.41421E+01
 -1        54 6.00000E+01 1.67938E+01-9.72272E+00
 -1        55 6.00000E+01 2.12132E+01-1.41421E+01
 -1        56 8.00000E+01 1.67938E+01-9.72272E+00
 -1        57 8.00000E+01 2.12132E+01-1.41421E+01
 -1        58 1.00000E+02 1.67938E+01-9.72272E+00
 -1        59 1.00000E+02 2.12132E+01-1.41421E+01
 -1        60 1.20000E+02 1.67938E+01-9.72272E+00
 -1        61 1.20000E+02 2.12132E+01-1.41421E+01
 -1        62 1.40000E+02 1.67938E+01-9.72272E+00
 -1        63 1.40000E+02 2.12132E+01-1.41421E+01
 -1        64 1.60000E+02 1.67938E+01-9.72272E+00
 -1        65 1.60000E+02 2.12132E+01-1.41421E+01
 -1        66 1.80000E+02 1.67938E+01-9.72272E+00
 -1        67 1.80000E+02 2.12132E+01-1.41421E+01
 -1        68 2.00000E+02 1.67938E+01-9.72272E+00
 -1        69 2.00000E+02 2.12132E+01-1.41421E+01
 -1        70 0.00000E+00 5.30330E+00-1.23744E+01
 -1        71 2.00000E+01 5.30330E+00-1.23744E+01
 -1        72 0.00000E+00 8.83883E+00-8.83883E+00
 -1        73 2.00000E+01 8.83883E+00-8.83883E+00
 -1        74 4.00000E+01 5.30330E+00-1.23744E+01
 -1        75 4.00000E+01 8.83883E+00-8.83883E+00
 -1        76 6.00000E+01 5.30330E+00-1.23744E+01
 -1        77 6.00000E+01 8.83883E+00-8.83883E+00
 -1        78 8.00000E+01 5.30330E+00-1.23744E+01
 -1        79 8.00000E+01 8.83883E+00-8.83883E+00
 -1        80 1.00000E+02 5.30330E+00-1.23744E+01
 -1        81 1.00000E+02 8.83883E+00-8.83883E+00
 -1        82 1.20000E+02 5.30330E+00-1.23744E+01
 -1        83 1.20000E+02 8.83883E+00-8.83883E+00
 -1        84 1.40000E+02 5.30330E+00-1.23744E+01
 -1        85 1.40000E+02 8.83883E+00-8.83883E+00
 -1        86 1.60000E+02 5.30330E+00-1.23744E+01
 -1        87 1.60000E+02 8.83883E+00-8.83883E+00
 -1        88 1.80000E+02 5.30330E+00-1.23744E+01
 -1        89 1.80000E+02 8.83883E+00-8.83883E+00
 -1        90 2.00000E+02 5.30330E+00-1.23744E+01
 -1        91 2.00000E+02 8.83883E+00-8.83883E+00
 -1        92 0.00000E+00 1.23744E+01-5.30330E+00
 -1        93 2.00000E+01 1.23744E+01-5.30330E+00
 -1        94 4.00000E+01 1.23744E+01-5.30330E+00
 -1        95 6.00000E+01 1.23744E+01-5.30330E+00
 -1        96 8.00000E+01 1.23744E+01-5.30330E+00
 -1        97 1.00000E+02 1.23744E+01-5.30330E+00
 -1        98 1.20000E+02 1.23744E+01-5.30330E+00
 -1        99 1.40000E+02 1.23744E+01-5.30330E+00
 -1       100 1.60000E+02 1.23744E+01-5.30330E+00
 -1       101 1.80000E+02 1.23744E+01-5.30330E+00
 -1       102 2.00000E+02 1.23744E+01-5.30330E+00
 -1       103 0.00000E+00 8.83883E-01-7.95495E+00
 -1       104 2.00000E+01 8.83883E-01-7.95495E+00
 -1       105 0.00000E+00 4.41942E+00-4.41942E+00
 -1       106 2.00000E+01 4.41942E+00-4.41942E+00
 -1       107 4.00000E+01 8.83883E-01-7.95495E+00
 -1       108 4.00000E+01 4.41942E+00-4.41942E+00
 -1       109 6.00000E+01 8.83883E-01-7.95495E+00
 -1       110 6.00000E+01 4.41942E+00-4.41942E+00
 -1       111 8.00000E+01 8.83883E-01-7.95495E+00
 -1       112 8.00000E+01 4.41942E+00-4.41942E+00
 -1       113 1.00000E+02 8.83883E-01-7.95495E+00
 -1       114 1.00000E+02 4.41942E+00-4.41942E+00
 -1       115 1.20000E+02 8.83883E-01-7.95495E+00
 -1       116 1.20000E+02 4.41942E+00-4.41942E+00
 -1       117 1.40000E+02 8.83883E-01-7.95495E+00
 -1       118 1.40000E+02 4.41942E+00-4.41942E+00
 -1       119 1.60000E+02 8.83883E-01-7.95495E+00
 -1       120 1.60000E+02 4.41942E+00-4.41942E+00
 -1       121 1.80000E+02 8.83883E-01-7.95495E+00
 -1       122 1.80000E+02 4.41942E+00-4.41942E+00
 -1       123 2.00000E+02 8.83883E-01-7.95495E+00
 -1       124 2.00000E+02 4.41942E+00-4.41942E+00
 -1       125 0.00000E+00 7.95495E+00-8.83883E-01
 -1       126 2.00000E+01 7.95495E+00-8.83883E-01
 -1       127 4.00000E+01 7.95495E+00-8.83883E-01
 -1       128 6.00000E+01 7.95495E+00-8.83883E-01
 -1       129 8.00000E+01 7.95495E+00-8.83883E-01
 -1       130 1.00000E+02 7.95495E+00-8.83883E-01
 -1       131 1.20000E+02 7.95495E+00-8.83883E-01
 -1       132 1.40000E+02 7.95495E+00-8.83883E-01
 -1       133 1.60000E+02 7.95495E+00-8.83883E-01
 -1       134 1.80000E+02 7.95495E+00-8.83883E-01
 -1       135 2.00000E+02 7.95495E+00-8.83883E-01
 -1       136 0.00000E+00-3.53553E+00-3.53553E+00
 -1       137 2.00000E+01-3.53553E+00-3.53553E+00
 -1       138 0.00000E+00 0.00000E+00 0.00000E+00
 -1       139 2.00000E+01-1.38778E-16 3.05311E-16
 -1       140 4.00000E+01-3.53553E+00-3.53553E+00
 -1       141 4.00000E+01-5.55112E-17-4.99600E-16
 -1       142 6.00000E+01-3.53553E+00-3.53553E+00
 -1       143 6.00000E+01 5.55112E-16 1.11022E-16
 -1       144 8.00000E+01-3.53553E+00-3.53553E+00
 -1       145 8.00000E+01-3.33067E-16-3.33067E-16
 -1       146 1.00000E+02-3.53553E+00-3.53553E+00
 -1       147 1.00000E+02-4.44089E-16 0.00000E+00
 -1       148 1.20000E+02-3.53553E+00-3.53553E+00
 -1       149 1.20000E+02 6.66134E-16-2.22045E-16
 -1       150 1.40000E+02-3.53553E+00-3.53553E+00
 -1       151 1.40000E+02 4.44089E-16-4.44089E-16
 -1       152 1.60000E+02-3.53553E+00-3.53553E+00
 -1       153 1.60000E+02 0.00000E+00 0.00000E+00
 -1       154 1.80000E+02-3.53553E+00-3.53553E+00
 -1       155 1.80000E+02 0.00000E+00 0.00000E+00
 -1       156 2.00000E+02-3.53553E+00-3.53553E+00
 -1       157 2.00000E+02 0.00000E+00 0.00000E+00
 -1       158 0.00000E+00 3.53553E+00 3.53553E+00
 -1       159 2.00000E+01 3.53553E+00 3.53553E+00
 -1       160 4.00000E+01 3.53553E+00 3.53553E+00
 -1       161 6.00000E+01 3.53553E+00 3.53553E+00
 -1       162 8.00000E+01 3.53553E+00 3.53553E+00
 -1       163 1.00000E+02 3.53553E+00 3.53553E+00
 -1       164 1.20000E+02 3.53553E+00 3.53553E+00
 -1       165 1.40000E+02 3.53553E+00 3.53553E+00
 -1       166 1.60000E+02 3.53553E+00 3.53553E+00
 -1       167 1.80000E+02 3.53553E+00 3.53553E+00
 -1       168 2.00000E+02 3.53553E+00 3.53553E+00
 -1       169 0.00000E+00-7.95495E+00 8.83883E-01
 -1       170 2.00000E+01-7.95495E+00 8.83883E-01
 -1       171 0.00000E+00-4.41942E+00 4.41942E+00
 -1       172 2.00000E+01-4.41942E+00 4.41942E+00
 -1       173 4.00000E+01-7.95495E+00 8.83883E-01
 -1       174 4.00000E+01-4.41942E+00 4.41942E+00
 -1       175 6.00000E+01-7.95495E+00 8.83883E-01
 -1       176 6.00000E+01-4.41942E+00 4.41942E+00
 -1       177 8.00000E+01-7.95495E+00 8.83883E-01
 -1       178 8.00000E+01-4.41942E+00 4.41942E+00
 -1       179 1.00000E+02-7.95495E+00 8.83883E-01
 -1       180 1.00000E+02-4.41942E+00 4.41942E+00
 -1       181 1.20000E+02-7.95495E+00 8.83883E-01
 -1       182 1.20000E+02-4.41942E+00 4.41942E+00
 -1       183 1.40000E+02-7.95495E+00 8.83883E-01
 -1       184 1.40000E+02-4.41942E+00 4.41942E+00
 -1       185 1.60000E+02-7.95495E+00 8.83883E-01
 -1       186 1.60000E+02-4.41942E+00 4.41942E+00
 -1       187 1.80000E+02-7.95495E+00 8.83883E-01
 -1       188 1.80000E+02-4.41942E+00 4.41942E+00
 -1       189 2.00000E+02-7.95495E+00 8.83883E-01
 -1       190 2.00000E+02-4.41942E+00 4.41942E+00
 -1       191 0.00000E+00-8.83883E-01 7.95495E+00
 -1       192 2.00000E+01-8.83883E-01 7.95495E+00
 -1       193 4.00000E+01-8.83883E-01 7.95495E+00
 -1       194 6.00000E+01-8.83883E-01 7.95495E+00
 -1       195 8.00000E+01-8.83883E-01 7.95495E+00
 -1       196 1.00000E+02-8.83883E-01 7.95495E+00
 -1       197 1.20000E+02-8.83883E-01 7.95495E+00
 -1       198 1.40000E+02-8.83883E-01 7.95495E+00
 -1       199 1.60000E+02-8.83883E-01 7.95495E+00
 -1       200 1.80000E+02-8.83883E-01 7.95495E+00
 -1       201 2.00000E+02-8.83883E-01 7.95495E+00
 -1       202 0.00000E+00-1.23744E+01 5.30330E+00
 -1       203 2.00000E+01-1.23744E+01 5.30330E+00
 -1       204 0.00000E+00-8.83883E+00 8.83883E+00
 -1       205 2.00000E+01-8.83883E+00 8.83883E+00
 -1       206 4.00000E+01-1.23744E+01 5.30330E+00
 -1       207 4.00000E+01-8.83883E+00 8.83883E+00
 -1       208 6.00000E+01-1.23744E+01 5.30330E+00
 -1       209 6.00000E+01-8.83883E+00 8.83883E+00
 -1       210 8.00000E+01-1.23744E+01 5.30330E+00
 -1       211 8.00000E+01-8.83883E+00 8.83883E+00
 -1       212 1.00000E+02-1.23744E+01 5.30330E+00
 -1       213 1.00000E+02-8.83883E+00 8.83883E+00
 -1       214 1.20000E+02-1.23744E+01 5.30330E+00
 -1       215 1.20000E+02-8.83883E+00 8.83883E+00
 -1       216 1.40000E+02-1.23744E+01 5.30330E+00
 -1       217 1.40000E+02-8.83883E+00 8.83883E+00
 -1       218 1.60000E+02-1.23744E+01 5.30330E+00
 -1       219 1.60000E+02-8.83883E+00 8.83883E+00
 -1       220 1.80000E+02-1.23744E+01 5.30330E+00
 -1       221 1.80000E+02-8.83883E+00 8.83883E+00
 -1       222 2.00000E+02-1.23744E+01 5.30330E+00
 -1       223 2.00000E+02-8.83883E+00 8.83883E+00
 -1       224 0.00000E+00-5.30330E+00 1.23744E+01
 -1       225 2.00000E+01-5.30330E+00 1.23744E+01
 -1       226 4.00000E+01-5.30330E+00 1.23744E+01
 -1       227 6.00000E+01-5.30330E+00 1.23744E+01
 -1       228 8.00000E+01-5.30330E+00 1.23744E+01
 -1       229 1.00000E+02-5.30330E+00 1.23744E+01
 -1       230 1.20000E+02-5.30330E+00 1.23744E+01
 -1       231 1.40000E+02-5.30330E+00 1.23744E+01
 -1       232 1.60000E+02-5.30330E+00 1.23744E+01
 -1       233 1.80000E+02-5.30330E+00 1.23744E+01
 -1       234 2.00000E+02-5.30330E+00 1.23744E+01
 -1       235 0.00000E+00-1.67938E+01 9.72272E+00
 -1       236 2.00000E+01-1.67938E+01 9.72272E+00
 -1       237 0.00000E+00-1.32583E+01 1.32583E+01
 -1       238 2.00000E+01-1.32583E+01 1.32583E+01
 -1       239 4.00000E+01-1.67938E+01 9.72272E+00
 -1       240 4.00000E+01-1.32583E+01 1.32583E+01
 -1       241 6.00000E+01-1.67938E+01 9.72272E+00
 -1       242 6.00000E+01-1.32583E+01 1.32583E+01
 -1       243 8.00000E+01-1.67938E+01 9.72272E+00
 -1       244 8.00000E+01-1.32583E+01 1.32583E+01
 -1       245 1.00000E+02-1.67938E+01 9.72272E+00
 -1       246 1.00000E+02-1.32583E+01 1.32583E+01
 -1       247 1.20000E+02-1.67938E+01 9.72272E+00
 -1       248 1.20000E+02-1.32583E+01 1.32583E+01
 -1       249 1.40000E+02-1.67938E+01 9.72272E+00
 -1       250 1.40000E+02-1.32583E+01 1.32583E+01
 -1       251 1.60000E+02-1.67938E+01 9.72272E+00
 -1       252 1.60000E+02-1.32583E+01 1.32583E+01
 -1       253 1.80000E+02-1.67938E+01 9.72272E+00
 -1       254 1.80000E+02-1.32583E+01 1.32583E+01
 -1       255 2.00000E+02-1.67938E+01 9.72272E+00
 -1       256 2.00000E+02-1.32583E+01 1.32583E+01
 -1       257 0.00000E+00-9.72272E+00 1.67938E+01
 -1       258 2.00000E+01-9.72272E+00 1.67938E+01
 -1       259 4.00000E+01-9.72272E+00 1.67938E+01
 -1       260 6.00000E+01-9.72272E+00 1.67938E+01
 -1       261 8.00000E+01-9.72272E+00 1.67938E+01
 -1       262 1.00000E+02-9.72272E+00 1.67938E+01
 -1       263 1.20000E+02-9.72272E+00 1.67938E+01
 -1       264 1.40000E+02-9.72272E+00 1.67938E+01
 -1       265 1.60000E+02-9.72272E+00 1.67938E+01
 -1       266 1.80000E+02-9.72272E+00 1.67938E+01
 -1       267 2.00000E+02-9.72272E+00 1.67938E+01
 -1       268 0.00000E+00-2.12132E+01 1.41421E+01
 -1       269 2.00000E+01-2.12132E+01 1.41421E+01
 -1       270 0.00000E+00-1.76777E+01 1.76777E+01
 -1       271 2.00000E+01-1.76777E+01 1.76777E+01
 -1       272 4.00000E+01-2.12132E+01 1.41421E+01
 -1       273 4.00000E+01-1.76777E+01 1.76777E+01
 -1       274 6.00000E+01-2.12132E+01 1.41421E+01
 -1       275 6.00000E+01-1.76777E+01 1.76777E+01
 -1       276 8.00000E+01-2.12132E+01 1.41421E+01
 -1       277 8.00000E+01-1.76777E+01 1.76777E+01
 -1       278 1.00000E+02-2.12132E+01 1.41421E+01
 -1       279 1.00000E+02-1.76777E+01 1.76777E+01
 -1       280 1.20000E+02-2.12132E+01 1.41421E+01
 -1       281 1.20000E+02-1.76777E+01 1.76777E+01
 -1       282 1.40000E+02-2.12132E+01 1.41421E+01
 -1       283 1.40000E+02-1.76777E+01 1.76777E+01
 -1       284 1.60000E+02-2.12132E+01 1.41421E+01
 -1       285 1.60000E+02-1.76777E+01 1.76777E+01
 -1       286 1.80000E+02-2.12132E+01 1.41421E+01
 -1       287 1.80000E+02-1.76777E+01 1.76777E+01
 -1       288 2.00000E+02-2.12132E+01 1.41421E+01
 -1       289 2.00000E+02-1.76777E+01 1.76777E+01
 -1       290 0.00000E+00-1.41421E+01 2.12132E+01
 -1       291 2.00000E+01-1.41421E+01 2.12132E+01
 -1       292 4.00000E+01-1.41421E+01 2.12132E+01
 -1       293 6.00000E+01-1.41421E+01 2.12132E+01
 -1       294 8.00000E+01-1.41421E+01 2.12132E+01
 -1       295 1.00000E+02-1.41421E+01 2.12132E+01
 -1       296 1.20000E+02-1.41421E+01 2.12132E+01
 -1       297 1.40000E+02-1.41421E+01 2.12132E+01
 -1       298 1.60000E+02-1.41421E+01 2.12132E+01
 -1       299 1.80000E+02-1.41421E+01 2.12132E+01
 -1       300 2.00000E+02-1.41421E+01 2.12132E+01
 -1       301 0.00000E+00-4.80000E+01 1.70000E+01
 -1       302 0.00000E+00-4.80000E+01 1.85000E+01
 -1       303 2.00000E+01-4.80000E+01 1.85000E+01
 -1       304 2.00000E+01-4.80000E+01 1.70000E+01
 -1       305 0.00000E+00-4.65000E+01 1.70000E+01
 -1       306 0.00000E+00-4.65000E+01 1.85000E+01
 -1       307 2.00000E+01-4.65000E+01 1.85000E+01
 -1       308 2.00000E+01-4.65000E+01 1.70000E+01
 -1       309 4.00000E+01-4.80000E+01 1.85000E+01
 -1       310 4.00000E+01-4.80000E+01 1.70000E+01
 -1       311 4.00000E+01-4.65000E+01 1.85000E+01
 -1       312 4.00000E+01-4.65000E+01 1.70000E+01
 -1       313 6.00000E+01-4.80000E+01 1.85000E+01
 -1       314 6.00000E+01-4.80000E+01 1.70000E+01
 -1       315 6.00000E+01-4.65000E+01 1.85000E+01
 -1       316 6.00000E+01-4.65000E+01 1.70000E+01
 -1       317 8.00000E+01-4.80000E+01 1.85000E+01
 -1       318 8.00000E+01-4.80000E+01 1.70000E+01
 -1       319 8.00000E+01-4.65000E+01 1.85000E+01
 -1       320 8.00000E+01-4.65000E+01 1.70000E+01
 -1       321 1.00000E+02-4.80000E+01 1.85000E+01
 -1       322 1.00000E+02-4.80000E+01 1.70000E+01
 -1       323 1.00000E+02-4.65000E+01 1.85000E+01
 -1       324 1.00000E+02-4.65000E+01 1.70000E+01
 -1       325 1.20000E+02-4.80000E+01 1.85000E+01
 -1       326 1.20000E+02-4.80000E+01 1.70000E+01
 -1       327 1.20000E+02-4.65000E+01 1.85000E+01
 -1       328 1.20000E+02-4.65000E+01 1.70000E+01
 -1       329 1.40000E+02-4.80000E+01 1.85000E+01
 -1       330 1.40000E+02-4.80000E+01 1.70000E+01
 -1       331 1.40000E+02-4.65000E+01 1.85000E+01
 -1       332 1.40000E+02-4.65000E+01 1.70000E+01
 -1       333 1.60000E+02-4.80000E+01 1.85000E+01
 -1       334 1.60000E+02-4.80000E+01 1.70000E+01
 -1       335 1.60000E+02-4.65000E+01 1.85000E+01
 -1       336 1.60000E+02-4.65000E+01 1.70000E+01
 -1       337 1.80000E+02-4.80000E+01 1.85000E+01
 -1       338 1.80000E+02-4.80000E+01 1.70000E+01
 -1       339 1.80000E+02-4.65000E+01 1.85000E+01
 -1       340 1.80000E+02-4.65000E+01 1.70000E+01
 -1       341 2.00000E+02-4.80000E+01 1.85000E+01
 -1       342 2.00000E+02-4.80000E+01 1.70000E+01
 -1       343 2.00000E+02-4.65000E+01 1.85000E+01
 -1       344 2.00000E+02-4.65000E+01 1.70000E+01
 -1       345 0.00000E+00-4.50000E+01 1.70000E+01
 -1       346 0.00000E+00-4.50000E+01 1.85000E+01
 -1       347 2.00000E+01-4.50000E+01 1.85000E+01
 -1       348 2.00000E+01-4.50000E+01 1.70000E+01
 -1       349 4.00000E+01-4.50000E+01 1.85000E+01
 -1       350 4.00000E+01-4.50000E+01 1.70000E+01
 -1       351 6.00000E+01-4.50000E+01 1.85000E+01
 -1       352 6.00000E+01-4.50000E+01 1.70000E+01
 -1       353 8.00000E+01-4.50000E+01 1.85000E+01
 -1       354 8.00000E+01-4.50000E+01 1.70000E+01
 -1       355 1.00000E+02-4.50000E+01 1.85000E+01
 -1       356 1.00000E+02-4.50000E+01 1.70000E+01
 -1       357 1.20000E+02-4.50000E+01 1.85000E+01
 -1       358 1.20000E+02-4.50000E+01 1.70000E+01
 -1       359 1.40000E+02-4.50000E+01 1.85000E+01
 -1       360 1.40000E+02-4.50000E+01 1.70000E+01
 -1       361 1.60000E+02-4.50000E+01 1.85000E+01
 -1       362 1.60000E+02-4.50000E+01 1.70000E+01
 -1       363 1.80000E+02-4.50000E+01 1.85000E+01
 -1       364 1.80000E+02-4.50000E+01 1.70000E+01
 -1       365 2.00000E+02-4.50000E+01 1.85000E+01
 -1       366 2.00000E+02-4.50000E+01 1.70000E+01
 -1       367 0.00000E+00-4.80000E+01 2.00000E+01
 -1       368 2.00000E+01-4.80000E+01 2.00000E+01
 -1       369 0.00000E+00-4.65000E+01 2.00000E+01
 -1       370 2.00000E+01-4.65000E+01 2.00000E+01
 -1       371 4.00000E+01-4.80000E+01 2.00000E+01
 -1       372 4.00000E+01-4.65000E+01 2.00000E+01
 -1       373 6.00000E+01-4.80000E+01 2.00000E+01
 -1       374 6.00000E+01-4.65000E+01 2.00000E+01
 -1       375 8.00000E+01-4.80000E+01 2.00000E+01
 -1       376 8.00000E+01-4.65000E+01 2.00000E+01
 -1       377 1.00000E+02-4.80000E+01 2.00000E+01
 -1       378 1.00000E+02-4.65000E+01 2.00000E+01
 -1       379 1.20000E+02-4.80000E+01 2.00000E+01
 -1       380 1.20000E+02-4.65000E+01 2.00000E+01
 -1       381 1.40000E+02-4.80000E+01 2.00000E+01
 -1       382 1.40000E+02-4.65000E+01 2.00000E+01
 -1       383 1.60000E+02-4.80000E+01 2.00000E+01
 -1       384 1.60000E+02-4.65000E+01 2.00000E+01
 -1       385 1.80000E+02-4.80000E+01 2.00000E+01
 -1       386 1.80000E+02-4.65000E+01 2.00000E+01
 -1       387 2.00000E+02-4.80000E+01 2.00000E+01
 -1       388 2.00000E+02-4.65000E+01 2.00000E+01
 -1       389 0.00000E+00-4.50000E+01 2.00000E+01
 -1       390 2.00000E+01-4.50000E+01 2.00000E+01
 -1       391 4.00000E+01-4.50000E+01 2.00000E+01
 -1       392 6.00000E+01-4.50000E+01 2.00000E+01
 -1       393 8.00000E+01-4.50000E+01 2.00000E+01
 -1       394 1.00000E+02-4.50000E+01 2.00000E+01
 -1       395 1.20000E+02-4.50000E+01 2.00000E+01
 -1       396 1.40000E+02-4.50000E+01 2.00000E+01
 -1       397 1.60000E+02-4.50000E+01 2.00000E+01
 -1       398 1.80000E+02-4.50000E+01 2.00000E+01
 -1       399 2.00000E+02-4.50000E+01 2.00000E+01
 -1       400 0.00000E+00-4.80000E+01-1.70000E+01
 -1       401 0.00000E+00-4.80000E+01-1.13333E+01
 -1       402 2.00000E+01-4.80000E+01-1.13333E+01
 -1       403 2.00000E+01-4.80000E+01-1.70000E+01
 -1       404 0.00000E+00-4.65000E+01-1.70000E+01
 -1       405 0.00000E+00-4.65000E+01-1.13333E+01
 -1       406 2.00000E+01-4.65000E+01-1.13333E+01
 -1       407 2.00000E+01-4.65000E+01-1.70000E+01
 -1       408 4.00000E+01-4.80000E+01-1.13333E+01
 -1       409 4.00000E+01-4.80000E+01-1.70000E+01
 -1       410 4.00000E+01-4.65000E+01-1.13333E+01
 -1       411 4.00000E+01-4.65000E+01-1.70000E+01
 -1       412 6.00000E+01-4.80000E+01-1.13333E+01
 -1       413 6.00000E+01-4.80000E+01-1.70000E+01
 -1       414 6.00000E+01-4.65000E+01-1.13333E+01
 -1       415 6.00000E+01-4.65000E+01-1.70000E+01
 -1       416 8.00000E+01-4.80000E+01-1.13333E+01
 -1       417 8.00000E+01-4.80000E+01-1.70000E+01
 -1       418 8.00000E+01-4.65000E+01-1.13333E+01
 -1       419 8.00000E+01-4.65000E+01-1.70000E+01
 -1       420 1.00000E+02-4.80000E+01-1.13333E+01
 -1       421 1.00000E+02-4.80000E+01-1.70000E+01
 -1       422 1.00000E+02-4.65000E+01-1.13333E+01
 -1       423 1.00000E+02-4.65000E+01-1.70000E+01
 -1       424 1.20000E+02-4.80000E+01-1.13333E+01
 -1       425 1.20000E+02-4.80000E+01-1.70000E+01
 -1       426 1.20000E+02-4.65000E+01-1.13333E+01
 -1       427 1.20000E+02-4.65000E+01-1.70000E+01
 -1       428 1.40000E+02-4.80000E+01-1.13333E+01
 -1       429 1.40000E+02-4.80000E+01-1.70000E+01
 -1       430 1.40000E+02-4.65000E+01-1.13333E+01
 -1       431 1.40000E+02-4.65000E+01-1.70000E+01
 -1       432 1.60000E+02-4.80000E+01-1.13333E+01
 -1       433 1.60000E+02-4.80000E+01-1.70000E+01
 -1       434 1.60000E+02-4.65000E+01-1.13333E+01
 -1       435 1.60000E+02-4.65000E+01-1.70000E+01
 -1       436 1.80000E+02-4.80000E+01-1.13333E+01
 -1       437 1.80000E+02-4.80000E+01-1.70000E+01
 -1       438 1.80000E+02-4.65000E+01-1.13333E+01
 -1       439 1.80000E+02-4.65000E+01-1.70000E+01
 -1       440 2.00000E+02-4.80000E+01-1.13333E+01
 -1       441 2.00000E+02-4.80000E+01-1.70000E+01
 -1       442 2.00000E+02-4.65000E+01-1.13333E+01
 -1       443 2.00000E+02-4.65000E+01-1.70000E+01
 -1       444 0.00000E+00-4.50000E+01-1.70000E+01
 -1       445 0.00000E+00-4.50000E+01-1.13333E+01
 -1       446 2.00000E+01-4.50000E+01-1.13333E+01
 -1       447 2.00000E+01-4.50000E+01-1.70000E+01
 -1       448 4.00000E+01-4.50000E+01-1.13333E+01
 -1       449 4.00000E+01-4.50000E+01-1.70000E+01
 -1       450 6.00000E+01-4.50000E+01-1.13333E+01
 -1       451 6.00000E+01-4.50000E+01-1.70000E+01
 -1       452 8.00000E+01-4.50000E+01-1.13333E+01
 -1       453 8.00000E+01-4.50000E+01-1.70000E+01
 -1       454 1.00000E+02-4.50000E+01-1.13333E+01
 -1       455 1.00000E+02-4.50000E+01-1.70000E+01
 -1       456 1.20000E+02-4.50000E+01-1.13333E+01
 -1       457 1.20000E+02-4.50000E+01-1.70000E+01
 -1       458 1.40000E+02-4.50000E+01-1.13333E+01
 -1       459 1.40000E+02-4.50000E+01-1.70000E+01
 -1       460 1.60000E+02-4.50000E+01-1.13333E+01
 -1       461 1.60000E+02-4.50000E+01-1.70000E+01
 -1       462 1.80000E+02-4.50000E+01-1.13333E+01
 -1       463 1.80000E+02-4.50000E+01-1.70000E+01
 -1       464 2.00000E+02-4.50000E+01-1.13333E+01
 -1       465 2.00000E+02-4.50000E+01-1.70000E+01
 -1       466 0.00000E+00-4.80000E+01-5.66667E+00
 -1       467 2.00000E+01-4.80000E+01-5.66667E+00
 -1       468 0.00000E+00-4.65000E+01-5.66667E+00
 -1       469 2.00000E+01-4.65000E+01-5.66667E+00
 -1       470 4.00000E+01-4.80000E+01-5.66667E+00
 -1       471 4.00000E+01-4.65000E+01-5.66667E+00
 -1       472 6.00000E+01-4.80000E+01-5.66667E+00
 -1       473 6.00000E+01-4.65000E+01-5.66667E+00
 -1       474 8.00000E+01-4.80000E+01-5.66667E+00
 -1       475 8.00000E+01-4.65000E+01-5.66667E+00
 -1       476 1.00000E+02-4.80000E+01-5.66667E+00
 -1       477 1.00000E+02-4.65000E+01-5.66667E+00
 -1       478 1.20000E+02-4.80000E+01-5.66667E+00
 -1       479 1.20000E+02-4.65000E+01-5.66667E+00
 -1       480 1.40000E+02-4.80000E+01-5.66667E+00
 -1       481 1.40000E+02-4.65000E+01-5.66667E+00
 -1       482 1.60000E+02-4.80000E+01-5.66667E+00
 -1       483 1.60000E+02-4.65000E+01-5.66667E+00
 -1       484 1.80000E+02-4.80000E+01-5.66667E+00
 -1       485 1.80000E+02-4.65000E+01-5.66667E+00
 -1       486 2.00000E+02-4.80000E+01-5.66667E+00
 -1       487 2.00000E+02-4.65000E+01-5.66667E+00
 -1       488 0.00000E+00-4.50000E+01-5.66667E+00
 -1       489 2.00000E+01-4.50000E+01-5.66667E+00
 -1       490 4.00000E+01-4.50000E+01-5.66667E+00
 -1       491 6.00000E+01-4.50000E+01-5.66667E+00
 -1       492 8.00000E+01-4.50000E+01-5.66667E+00
 -1       493 1.00000E+02-4.50000E+01-5.66667E+00
 -1       494 1.20000E+02-4.50000E+01-5.66667E+00
 -1       495 1.40000E+02-4.50000E+01-5.66667E+00
 -1       496 1.60000E+02-4.50000E+01-5.66667E+00
 -1       497 1.80000E+02-4.50000E+01-5.66667E+00
 -1       498 2.00000E+02-4.50000E+01-5.66667E+00
 -1       499 0.00000E+00-4.80000E+01 0.00000E+00
 -1       500 2.00000E+01-4.80000E+01 0.00000E+00
 -1       501 0.00000E+00-4.65000E+01 0.00000E+00
 -1       502 2.00000E+01-4.65000E+01 0.00000E+00
 -1       503 4.00000E+01-4.80000E+01 0.00000E+00
 -1       504 4.00000E+01-4.65000E+01 0.00000E+00
 -1       505 6.00000E+01-4.80000E+01 0.00000E+00
 -1       506 6.00000E+01-4.65000E+01 0.00000E+00
 -1       507 8.00000E+01-4.80000E+01 0.00000E+00
 -1       508 8.00000E+01-4.65000E+01 0.00000E+00
 -1       509 1.00000E+02-4.80000E+01 0.00000E+00
 -1       510 1.00000E+02-4.65000E+01 0.00000E+00
 -1       511 1.20000E+02-4.80000E+01 0.00000E+00
 -1       512 1.20000E+02-4.65000E+01 0.00000E+00
 -1       513 1.40000E+02-4.80000E+01 0.00000E+00
 -1       514 1.40000E+02-4.65000E+01 0.00000E+00
 -1       515 1.60000E+02-4.80000E+01 0.00000E+00
 -1       516 1.60000E+02-4.65000E+01 0.00000E+00
 -1       517 1.80000E+02-4.80000E+01 0.00000E+00
 -1       518 1.80000E+02-4.65000E+01 0.00000E+00
 -1       519 2.00000E+02-4.80000E+01 0.00000E+00
 -1       520 2.00000E+02-4.65000E+01 0.00000E+00
 -1       521 0.00000E+00-4.50000E+01 0.00000E+00
 -1       522 2.00000E+01-4.50000E+01 0.00000E+00
 -1       523 4.00000E+01-4.50000E+01 0.00000E+00
 -1       524 6.00000E+01-4.50000E+01 0.00000E+00
 -1       525 8.00000E+01-4.50000E+01 0.00000E+00
 -1       526 1.00000E+02-4.50000E+01 0.00000E+00
 -1       527 1.20000E+02-4.50000E+01 0.00000E+00
 -1       528 1.40000E+02-4.50000E+01 0.00000E+00
 -1       529 1.60000E+02-4.50000E+01 0.00000E+00
 -1       530 1.80000E+02-4.50000E+01 0.00000E+00
 -1       531 2.00000E+02-4.50000E+01 0.00000E+00
 -1       532 0.00000E+00-4.80000E+01 5.66667E+00
 -1       533 2.00000E+01-4.80000E+01 5.66667E+00
 -1       534 0.00000E+00-4.65000E+01 5.66667E+00
 -1       535 2.00000E+01-4.65000E+01 5.66667E+00
 -1       536 4.00000E+01-4.80000E+01 5.66667E+00
 -1       537 4.00000E+01-4.65000E+01 5.66667E+00
 -1       538 6.00000E+01-4.80000E+01 5.66667E+00
 -1       539 6.00000E+01-4.65000E+01 5.66667E+00
 -1       540 8.00000E+01-4.80000E+01 5.66667E+00
 -1       541 8.00000E+01-4.65000E+01 5.66667E+00
 -1       542 1.00000E+02-4.80000E+01 5.66667E+00
 -1       543 1.00000E+02-4.65000E+01 5.66667E+00
 -1       544 1.20000E+02-4.80000E+01 5.66667E+00
 -1       545 1.20000E+02-4.65000E+01 5.66667E+00
 -1       546 1.40000E+02-4.80000E+01 5.66667E+00
 -1       547 1.40000E+02-4.65000E+01 5.66667E+00
 -1       548 1.60000E+02-4.80000E+01 5.66667E+00
 -1       549 1.60000E+02-4.65000E+01 5.66667E+00
 -1       550 1.80000E+02-4.80000E+01 5.66667E+00
 -1       551 1.80000E+02-4.65000E+01 5.66667E+00
 -1       552 2.00000E+02-4.80000E+01 5.66667E+00
 -1       553 2.00000E+02-4.65000E+01 5.66667E+00
 -1       554 0.00000E+00-4.50000E+01 5.66667E+00
 -1       555 2.00000E+01-4.50000E+01 5.66667E+00
 -1       556 4.00000E+01-4.50000E+01 5.66667E+00
 -1       557 6.00000E+01-4.50000E+01 5.66667E+00
 -1       558 8.00000E+01-4.50000E+01 5.66667E+00
 -1       559 1.00000E+02-4.50000E+01 5.66667E+00
 -1       560 1.20000E+02-4.50000E+01 5.66667E+00
 -1       561 1.40000E+02-4.50000E+01 5.66667E+00
 -1       562 1.60000E+02-4.50000E+01 5.66667E+00
 -1       563 1.80000E+02-4.50000E+01 5.66667E+00
 -1       564 2.00000E+02-4.50000E+01 5.66667E+00
 -1       565 0.00000E+00-4.80000E+01 1.13333E+01
 -1       566 2.00000E+01-4.80000E+01 1.13333E+01
 -1       567 0.00000E+00-4.65000E+01 1.13333E+01
 -1       568 2.00000E+01-4.65000E+01 1.13333E+01
 -1       569 4.00000E+01-4.80000E+01 1.13333E+01
 -1       570 4.00000E+01-4.65000E+01 1.13333E+01
 -1       571 6.00000E+01-4.80000E+01 1.13333E+01
 -1       572 6.00000E+01-4.65000E+01 1.13333E+01
 -1       573 8.00000E+01-4.80000E+01 1.13333E+01
 -1       574 8.00000E+01-4.65000E+01 1.13333E+01
 -1       575 1.00000E+02-4.80000E+01 1.13333E+01
 -1       576 1.00000E+02-4.65000E+01 1.13333E+01
 -1       577 1.20000E+02-4.80000E+01 1.13333E+01
 -1       578 1.20000E+02-4.65000E+01 1.13333E+01
 -1       579 1.40000E+02-4.80000E+01 1.13333E+01
 -1       580 1.40000E+02-4.65000E+01 1.13333E+01
 -1       581 1.60000E+02-4.80000E+01 1.13333E+01
 -1       582 1.60000E+02-4.65000E+01 1.13333E+01
 -1       583 1.80000E+02-4.80000E+01 1.13333E+01
 -1       584 1.80000E+02-4.65000E+01 1.13333E+01
 -1       585 2.00000E+02-4.80000E+01 1.13333E+01
 -1       586 2.00000E+02-4.65000E+01 1.13333E+01
 -1       587 0.00000E+00-4.50000E+01 1.13333E+01
 -1       588 2.00000E+01-4.50000E+01 1.13333E+01
 -1       589 4.00000E+01-4.50000E+01 1.13333E+01
 -1       590 6.00000E+01-4.50000E+01 1.13333E+01
 -1       591 8.00000E+01-4.50000E+01 1.13333E+01
 -1       592 1.00000E+02-4.50000E+01 1.13333E+01
 -1       593 1.20000E+02-4.50000E+01 1.13333E+01
 -1       594 1.40000E+02-4.50000E+01 1.13333E+01
 -1       595 1.60000E+02-4.50000E+01 1.13333E+01
 -1       596 1.80000E+02-4.50000E+01 1.13333E+01
 -1       597 2.00000E+02-4.50000E+01 1.13333E+01
 -1       598 0.00000E+00-4.80000E+01-2.00000E+01
 -1       599 0.00000E+00-4.80000E+01-1.85000E+01
 -1       600 2.00000E+01-4.80000E+01-1.85000E+01
 -1       601 2.00000E+01-4.80000E+01-2.00000E+01
 -1       602 0.00000E+00-4.65000E+01-2.00000E+01
 -1       603 0.00000E+00-4.65000E+01-1.85000E+01
 -1       604 2.00000E+01-4.65000E+01-1.85000E+01
 -1       605 2.00000E+01-4.65000E+01-2.00000E+01
 -1       606 4.00000E+01-4.80000E+01-1.85000E+01
 -1       607 4.00000E+01-4.80000E+01-2.00000E+01
 -1       608 4.00000E+01-4.65000E+01-1.85000E+01
 -1       609 4.00000E+01-4.65000E+01-2.00000E+01
 -1       610 6.00000E+01-4.80000E+01-1.85000E+01
 -1       611 6.00000E+01-4.80000E+01-2.00000E+01
 -1       612 6.00000E+01-4.65000E+01-1.85000E+01
 -1       613 6.00000E+01-4.65000E+01-2.00000E+01
 -1       614 8.00000E+01-4.80000E+01-1.85000E+01
 -1       615 8.00000E+01-4.80000E+01-2.00000E+01
 -1       616 8.00000E+01-4.65000E+01-1.85000E+01
 -1       617 8.00000E+01-4.65000E+01-2.00000E+01
 -1       618 1.00000E+02-4.80000E+01-1.85000E+01
 -1       619 1.00000E+02-4.80000E+01-2.00000E+01
 -1       620 1.00000E+02-4.65000E+01-1.85000E+01
 -1       621 1.00000E+02-4.65000E+01-2.00000E+01
 -1       622 1.20000E+02-4.80000E+01-1.85000E+01
 -1       623 1.20000E+02-4.80000E+01-2.00000E+01
 -1       624 1.20000E+02-4.65000E+01-1.85000E+01
 -1       625 1.20000E+02-4.65000E+01-2.00000E+01
 -1       626 1.40000E+02-4.80000E+01-1.85000E+01
 -1       627 1.40000E+02-4.80000E+01-2.00000E+01
 -1       628 1.40000E+02-4.65000E+01-1.85000E+01
 -1       629 1.40000E+02-4.65000E+01-2.00000E+01
 -1       630 1.60000E+02-4.80000E+01-1.85000E+01
 -1       631 1.60000E+02-4.80000E+01-2.00000E+01
 -1       632 1.60000E+02-4.65000E+01-1.85000E+01
 -1       633 1.60000E+02-4.65000E+01-2.00000E+01
 -1       634 1.80000E+02-4.80000E+01-1.85000E+01
 -1       635 1.80000E+02-4.80000E+01-2.00000E+01
 -1       636 1.80000E+02-4.65000E+01-1.85000E+01
 -1       637 1.80000E+02-4.65000E+01-2.00000E+01
 -1       638 2.00000E+02-4.80000E+01-1.85000E+01
 -1       639 2.00000E+02-4.80000E+01-2.00000E+01
 -1       640 2.00000E+02-4.65000E+01-1.85000E+01
 -1       641 2.00000E+02-4.65000E+01-2.00000E+01
 -1       642 0.00000E+00-4.50000E+01-2.00000E+01
 -1       643 0.00000E+00-4.50000E+01-1.85000E+01
 -1       644 2.00000E+01-4.50000E+01-1.85000E+01
 -1       645 2.00000E+01-4.50000E+01-2.00000E+01
 -1       646 4.00000E+01-4.50000E+01-1.85000E+01
 -1       647 4.00000E+01-4.50000E+01-2.00000E+01
 -1       648 6.00000E+01-4.50000E+01-1.85000E+01
 -1       649 6.00000E+01-4.50000E+01-2.00000E+01
 -1       650 8.00000E+01-4.50000E+01-1.85000E+01
 -1       651 8.00000E+01-4.50000E+01-2.00000E+01
 -1       652 1.00000E+02-4.50000E+01-1.85000E+01
 -1       653 1.00000E+02-4.50000E+01-2.00000E+01
 -1       654 1.20000E+02-4.50000E+01-1.85000E+01
 -1       655 1.20000E+02-4.50000E+01-2.00000E+01
 -1       656 1.40000E+02-4.50000E+01-1.85000E+01
 -1       657 1.40000E+02-4.50000E+01-2.00000E+01
 -1       658 1.60000E+02-4.50000E+01-1.85000E+01
 -1       659 1.60000E+02-4.50000E+01-2.00000E+01
 -1       660 1.80000E+02-4.50000E+01-1.85000E+01
 -1       661 1.80000E+02-4.50000E+01-2.00000E+01
 -1       662 2.00000E+02-4.50000E+01-1.85000E+01
 -1       663 2.00000E+02-4.50000E+01-2.00000E+01
 -1       664 0.00000E+00-3.50000E+01 1.70000E+01
 -1       665 0.00000E+00-3.83333E+01 1.70000E+01
 -1       666 2.00000E+01-3.83333E+01 1.70000E+01
 -1       667 2.00000E+01-3.50000E+01 1.70000E+01
 -1       668 0.00000E+00-3.50000E+01 1.85000E+01
 -1       669 0.00000E+00-3.83333E+01 1.85000E+01
 -1       670 2.00000E+01-3.83333E+01 1.85000E+01
 -1       671 2.00000E+01-3.50000E+01 1.85000E+01
 -1       672 4.00000E+01-3.83333E+01 1.70000E+01
 -1       673 4.00000E+01-3.50000E+01 1.70000E+01
 -1       674 4.00000E+01-3.83333E+01 1.85000E+01
 -1       675 4.00000E+01-3.50000E+01 1.85000E+01
 -1       676 6.00000E+01-3.83333E+01 1.70000E+01
 -1       677 6.00000E+01-3.50000E+01 1.70000E+01
 -1       678 6.00000E+01-3.83333E+01 1.85000E+01
 -1       679 6.00000E+01-3.50000E+01 1.85000E+01
 -1       680 8.00000E+01-3.83333E+01 1.70000E+01
 -1       681 8.00000E+01-3.50000E+01 1.70000E+01
 -1       682 8.00000E+01-3.83333E+01 1.85000E+01
 -1       683 8.00000E+01-3.50000E+01 1.85000E+01
 -1       684 1.00000E+02-3.83333E+01 1.70000E+01
 -1       685 1.00000E+02-3.50000E+01 1.70000E+01
 -1       686 1.00000E+02-3.83333E+01 1.85000E+01
 -1       687 1.00000E+02-3.50000E+01 1.85000E+01
 -1       688 1.20000E+02-3.83333E+01 1.70000E+01
 -1       689 1.20000E+02-3.50000E+01 1.70000E+01
 -1       690 1.20000E+02-3.83333E+01 1.85000E+01
 -1       691 1.20000E+02-3.50000E+01 1.85000E+01
 -1       692 1.40000E+02-3.83333E+01 1.70000E+01
 -1       693 1.40000E+02-3.50000E+01 1.70000E+01
 -1       694 1.40000E+02-3.83333E+01 1.85000E+01
 -1       695 1.40000E+02-3.50000E+01 1.85000E+01
 -1       696 1.60000E+02-3.83333E+01 1.70000E+01
 -1       697 1.60000E+02-3.50000E+01 1.70000E+01
 -1       698 1.60000E+02-3.83333E+01 1.85000E+01
 -1       699 1.60000E+02-3.50000E+01 1.85000E+01
 -1       700 1.80000E+02-3.83333E+01 1.70000E+01
 -1       701 1.80000E+02-3.50000E+01 1.70000E+01
 -1       702 1.80000E+02-3.83333E+01 1.85000E+01
 -1       703 1.80000E+02-3.50000E+01 1.85000E+01
 -1       704 2.00000E+02-3.83333E+01 1.70000E+01
 -1       705 2.00000E+02-3.50000E+01 1.70000E+01
 -1       706 2.00000E+02-3.83333E+01 1.85000E+01
 -1       707 2.00000E+02-3.50000E+01 1.85000E+01
 -1       708 0.00000E+00-3.50000E+01 2.00000E+01
 -1       709 0.00000E+00-3.83333E+01 2.00000E+01
 -1       710 2.00000E+01-3.83333E+01 2.00000E+01
 -1       711 2.00000E+01-3.50000E+01 2.00000E+01
 -1       712 4.00000E+01-3.83333E+01 2.00000E+01
 -1       713 4.00000E+01-3.50000E+01 2.00000E+01
 -1       714 6.00000E+01-3.83333E+01 2.00000E+01
 -1       715 6.00000E+01-3.50000E+01 2.00000E+01
 -1       716 8.00000E+01-3.83333E+01 2.00000E+01
 -1       717 8.00000E+01-3.50000E+01 2.00000E+01
 -1       718 1.00000E+02-3.83333E+01 2.00000E+01
 -1       719 1.00000E+02-3.50000E+01 2.00000E+01
 -1       720 1.20000E+02-3.83333E+01 2.00000E+01
 -1       721 1.20000E+02-3.50000E+01 2.00000E+01
 -1       722 1.40000E+02-3.83333E+01 2.00000E+01
 -1       723 1.40000E+02-3.50000E+01 2.00000E+01
 -1       724 1.60000E+02-3.83333E+01 2.00000E+01
 -1       725 1.60000E+02-3.50000E+01 2.00000E+01
 -1       726 1.80000E+02-3.83333E+01 2.00000E+01
 -1       727 1.80000E+02-3.50000E+01 2.00000E+01
 -1       728 2.00000E+02-3.83333E+01 2.00000E+01
 -1       729 2.00000E+02-3.50000E+01 2.00000E+01
 -1       730 0.00000E+00-4.16667E+01 1.70000E+01
 -1       731 2.00000E+01-4.16667E+01 1.70000E+01
 -1       732 0.00000E+00-4.16667E+01 1.85000E+01
 -1       733 2.00000E+01-4.16667E+01 1.85000E+01
 -1       734 4.00000E+01-4.16667E+01 1.70000E+01
 -1       735 4.00000E+01-4.16667E+01 1.85000E+01
 -1       736 6.00000E+01-4.16667E+01 1.70000E+01
 -1       737 6.00000E+01-4.16667E+01 1.85000E+01
 -1       738 8.00000E+01-4.16667E+01 1.70000E+01
 -1       739 8.00000E+01-4.16667E+01 1.85000E+01
 -1       740 1.00000E+02-4.16667E+01 1.70000E+01
 -1       741 1.00000E+02-4.16667E+01 1.85000E+01
 -1       742 1.20000E+02-4.16667E+01 1.70000E+01
 -1       743 1.20000E+02-4.16667E+01 1.85000E+01
 -1       744 1.40000E+02-4.16667E+01 1.70000E+01
 -1       745 1.40000E+02-4.16667E+01 1.85000E+01
 -1       746 1.60000E+02-4.16667E+01 1.70000E+01
 -1       747 1.60000E+02-4.16667E+01 1.85000E+01
 -1       748 1.80000E+02-4.16667E+01 1.70000E+01
 -1       749 1.80000E+02-4.16667E+01 1.85000E+01
 -1       750 2.00000E+02-4.16667E+01 1.70000E+01
 -1       751 2.00000E+02-4.16667E+01 1.85000E+01
 -1       752 0.00000E+00-4.16667E+01 2.00000E+01
 -1       753 2.00000E+01-4.16667E+01 2.00000E+01
 -1       754 4.00000E+01-4.16667E+01 2.00000E+01
 -1       755 6.00000E+01-4.16667E+01 2.00000E+01
 -1       756 8.00000E+01-4.16667E+01 2.00000E+01
 -1       757 1.00000E+02-4.16667E+01 2.00000E+01
 -1       758 1.20000E+02-4.16667E+01 2.00000E+01
 -1       759 1.40000E+02-4.16667E+01 2.00000E+01
 -1       760 1.60000E+02-4.16667E+01 2.00000E+01
 -1       761 1.80000E+02-4.16667E+01 2.00000E+01
 -1       762 2.00000E+02-4.16667E+01 2.00000E+01
 -1       763 0.00000E+00-5.80000E+01-1.70000E+01
 -1       764 0.00000E+00-5.46667E+01-1.70000E+01
 -1       765 2.00000E+01-5.46667E+01-1.70000E+01
 -1       766 2.00000E+01-5.80000E+01-1.70000E+01
 -1       767 0.00000E+00-5.80000E+01-1.85000E+01
 -1       768 0.00000E+00-5.46667E+01-1.85000E+01
 -1       769 2.00000E+01-5.46667E+01-1.85000E+01
 -1       770 2.00000E+01-5.80000E+01-1.85000E+01
 -1       771 4.00000E+01-5.46667E+01-1.70000E+01
 -1       772 4.00000E+01-5.80000E+01-1.70000E+01
 -1       773 4.00000E+01-5.46667E+01-1.85000E+01
 -1       774 4.00000E+01-5.80000E+01-1.85000E+01
 -1       775 6.00000E+01-5.46667E+01-1.70000E+01
 -1       776 6.00000E+01-5.80000E+01-1.70000E+01
 -1       777 6.00000E+01-5.46667E+01-1.85000E+01
 -1       778 6.00000E+01-5.80000E+01-1.85000E+01
 -1       779 8.00000E+01-5.46667E+01-1.70000E+01
 -1       780 8.00000E+01-5.80000E+01-1.70000E+01
 -1       781 8.00000E+01-5.46667E+01-1.85000E+01
 -1       782 8.00000E+01-5.80000E+01-1.85000E+01
 -1       783 1.00000E+02-5.46667E+01-1.70000E+01
 -1       784 1.00000E+02-5.80000E+01-1.70000E+01
 -1       785 1.00000E+02-5.46667E+01-1.85000E+01
 -1       786 1.00000E+02-5.80000E+01-1.85000E+01
 -1       787 1.20000E+02-5.46667E+01-1.70000E+01
 -1       788 1.20000E+02-5.80000E+01-1.70000E+01
 -1       789 1.20000E+02-5.46667E+01-1.85000E+01
 -1       790 1.20000E+02-5.80000E+01-1.85000E+01
 -1       791 1.40000E+02-5.46667E+01-1.70000E+01
 -1       792 1.40000E+02-5.80000E+01-1.70000E+01
 -1       793 1.40000E+02-5.46667E+01-1.85000E+01
 -1       794 1.40000E+02-5.80000E+01-1.85000E+01
 -1       795 1.60000E+02-5.46667E+01-1.70000E+01
 -1       796 1.60000E+02-5.80000E+01-1.70000E+01
 -1       797 1.60000E+02-5.46667E+01-1.85000E+01
 -1       798 1.60000E+02-5.80000E+01-1.85000E+01
 -1       799 1.80000E+02-5.46667E+01-1.70000E+01
 -1       800 1.80000E+02-5.80000E+01-1.70000E+01
 -1       801 1.80000E+02-5.46667E+01-1.85000E+01
 -1       802 1.80000E+02-5.80000E+01-1.85000E+01
 -1       803 2.00000E+02-5.46667E+01-1.70000E+01
 -1       804 2.00000E+02-5.80000E+01-1.70000E+01
 -1       805 2.00000E+02-5.46667E+01-1.85000E+01
 -1       806 2.00000E+02-5.80000E+01-1.85000E+01
 -1       807 0.00000E+00-5.80000E+01-2.00000E+01
 -1       808 0.00000E+00-5.46667E+01-2.00000E+01
 -1       809 2.00000E+01-5.46667E+01-2.00000E+01
 -1       810 2.00000E+01-5.80000E+01-2.00000E+01
 -1       811 4.00000E+01-5.46667E+01-2.00000E+01
 -1       812 4.00000E+01-5.80000E+01-2.00000E+01
 -1       813 6.00000E+01-5.46667E+01-2.00000E+01
 -1       814 6.00000E+01-5.80000E+01-2.00000E+01
 -1       815 8.00000E+01-5.46667E+01-2.00000E+01
 -1       816 8.00000E+01-5.80000E+01-2.00000E+01
 -1       817 1.00000E+02-5.46667E+01-2.00000E+01
 -1       818 1.00000E+02-5.80000E+01-2.00000E+01
 -1       819 1.20000E+02-5.46667E+01-2.00000E+01
 -1       820 1.20000E+02-5.80000E+01-2.00000E+01
 -1       821 1.40000E+02-5.46667E+01-2.00000E+01
 -1       822 1.40000E+02-5.80000E+01-2.00000E+01
 -1       823 1.60000E+02-5.46667E+01-2.00000E+01
 -1       824 1.60000E+02-5.80000E+01-2.00000E+01
 -1       825 1.80000E+02-5.46667E+01-2.00000E+01
 -1       826 1.80000E+02-5.80000E+01-2.00000E+01
 -1       827 2.00000E+02-5.46667E+01-2.00000E+01
 -1       828 2.00000E+02-5.80000E+01-2.00000E+01
 -1       829 0.00000E+00-5.13333E+01-1.70000E+01
 -1       830 2.00000E+01-5.13333E+01-1.70000E+01
 -1       831 0.00000E+00-5.13333E+01-1.85000E+01
 -1       832 2.00000E+01-5.13333E+01-1.85000E+01
 -1       833 4.00000E+01-5.13333E+01-1.70000E+01
 -1       834 4.00000E+01-5.13333E+01-1.85000E+01
 -1       835 6.00000E+01-5.13333E+01-1.70000E+01
 -1       836 6.00000E+01-5.13333E+01-1.85000E+01
 -1       837 8.00000E+01-5.13333E+01-1.70000E+01
 -1       838 8.00000E+01-5.13333E+01-1.85000E+01
 -1       839 1.00000E+02-5.13333E+01-1.70000E+01
 -1       840 1.00000E+02-5.13333E+01-1.85000E+01
 -1       841 1.20000E+02-5.13333E+01-1.70000E+01
 -1       842 1.20000E+02-5.13333E+01-1.85000E+01
 -1       843 1.40000E+02-5.13333E+01-1.70000E+01
 -1       844 1.40000E+02-5.13333E+01-1.85000E+01
 -1       845 1.60000E+02-5.13333E+01-1.70000E+01
 -1       846 1.60000E+02-5.13333E+01-1.85000E+01
 -1       847 1.80000E+02-5.13333E+01-1.70000E+01
 -1       848 1.80000E+02-5.13333E+01-1.85000E+01
 -1       849 2.00000E+02-5.13333E+01-1.70000E+01
 -1       850 2.00000E+02-5.13333E+01-1.85000E+01
 -1       851 0.00000E+00-5.13333E+01-2.00000E+01
 -1       852 2.00000E+01-5.13333E+01-2.00000E+01
 -1       853 4.00000E+01-5.13333E+01-2.00000E+01
 -1       854 6.00000E+01-5.13333E+01-2.00000E+01
 -1       855 8.00000E+01-5.13333E+01-2.00000E+01
 -1       856 1.00000E+02-5.13333E+01-2.00000E+01
 -1       857 1.20000E+02-5.13333E+01-2.00000E+01
 -1       858 1.40000E+02-5.13333E+01-2.00000E+01
 -1       859 1.60000E+02-5.13333E+01-2.00000E+01
 -1       860 1.80000E+02-5.13333E+01-2.00000E+01
 -1       861 2.00000E+02-5.13333E+01-2.00000E+01
 -1       862 0.00000E+00-9.30000E+01 1.70000E+01
 -1       863 0.00000E+00-9.30000E+01 1.85000E+01
 -1       864 2.00000E+01-9.30000E+01 1.85000E+01
 -1       865 2.00000E+01-9.30000E+01 1.70000E+01
 -1       866 0.00000E+00-9.15000E+01 1.70000E+01
 -1       867 0.00000E+00-9.15000E+01 1.85000E+01
 -1       868 2.00000E+01-9.15000E+01 1.85000E+01
 -1       869 2.00000E+01-9.15000E+01 1.70000E+01
 -1       870 4.00000E+01-9.30000E+01 1.85000E+01
 -1       871 4.00000E+01-9.30000E+01 1.70000E+01
 -1       872 4.00000E+01-9.15000E+01 1.85000E+01
 -1       873 4.00000E+01-9.15000E+01 1.70000E+01
 -1       874 6.00000E+01-9.30000E+01 1.85000E+01
 -1       875 6.00000E+01-9.30000E+01 1.70000E+01
 -1       876 6.00000E+01-9.15000E+01 1.85000E+01
 -1       877 6.00000E+01-9.15000E+01 1.70000E+01
 -1       878 8.00000E+01-9.30000E+01 1.85000E+01
 -1       879 8.00000E+01-9.30000E+01 1.70000E+01
 -1       880 8.00000E+01-9.15000E+01 1.85000E+01
 -1       881 8.00000E+01-9.15000E+01 1.70000E+01
 -1       882 1.00000E+02-9.30000E+01 1.85000E+01
 -1       883 1.00000E+02-9.30000E+01 1.70000E+01
 -1       884 1.00000E+02-9.15000E+01 1.85000E+01
 -1       885 1.00000E+02-9.15000E+01 1.70000E+01
 -1       886 1.20000E+02-9.30000E+01 1.85000E+01
 -1       887 1.20000E+02-9.30000E+01 1.70000E+01
 -1       888 1.20000E+02-9.15000E+01 1.85000E+01
 -1       889 1.20000E+02-9.15000E+01 1.70000E+01
 -1       890 1.40000E+02-9.30000E+01 1.85000E+01
 -1       891 1.40000E+02-9.30000E+01 1.70000E+01
 -1       892 1.40000E+02-9.15000E+01 1.85000E+01
 -1       893 1.40000E+02-9.15000E+01 1.70000E+01
 -1       894 1.60000E+02-9.30000E+01 1.85000E+01
 -1       895 1.60000E+02-9.30000E+01 1.70000E+01
 -1       896 1.60000E+02-9.15000E+01 1.85000E+01
 -1       897 1.60000E+02-9.15000E+01 1.70000E+01
 -1       898 1.80000E+02-9.30000E+01 1.85000E+01
 -1       899 1.80000E+02-9.30000E+01 1.70000E+01
 -1       900 1.80000E+02-9.15000E+01 1.85000E+01
 -1       901 1.80000E+02-9.15000E+01 1.70000E+01
 -1       902 2.00000E+02-9.30000E+01 1.85000E+01
 -1       903 2.00000E+02-9.30000E+01 1.70000E+01
 -1       904 2.00000E+02-9.15000E+01 1.85000E+01
 -1       905 2.00000E+02-9.15000E+01 1.70000E+01
 -1       906 0.00000E+00-9.00000E+01 1.70000E+01
 -1       907 0.00000E+00-9.00000E+01 1.85000E+01
 -1       908 2.00000E+01-9.00000E+01 1.85000E+01
 -1       909 2.00000E+01-9.00000E+01 1.70000E+01
 -1       910 4.00000E+01-9.00000E+01 1.85000E+01
 -1       911 4.00000E+01-9.00000E+01 1.70000E+01
 -1       912 6.00000E+01-9.00000E+01 1.85000E+01
 -1       913 6.00000E+01-9.00000E+01 1.70000E+01
 -1       914 8.00000E+01-9.00000E+01 1.85000E+01
 -1       915 8.00000E+01-9.00000E+01 1.70000E+01
 -1       916 1.00000E+02-9.00000E+01 1.85000E+01
 -1       917 1.00000E+02-9.00000E+01 1.70000E+01
 -1       918 1.20000E+02-9.00000E+01 1.85000E+01
 -1       919 1.20000E+02-9.00000E+01 1.70000E+01
 -1       920 1.40000E+02-9.00000E+01 1.85000E+01
 -1       921 1.40000E+02-9.00000E+01 1.70000E+01
 -1       922 1.60000E+02-9.00000E+01 1.85000E+01
 -1       923 1.60000E+02-9.00000E+01 1.70000E+01
 -1       924 1.80000E+02-9.00000E+01 1.85000E+01
 -1       925 1.80000E+02-9.00000E+01 1.70000E+01
 -1       926 2.00000E+02-9.00000E+01 1.85000E+01
 -1       927 2.00000E+02-9.00000E+01 1.70000E+01
 -1       928 0.00000E+00-9.30000E+01 2.00000E+01
 -1       929 2.00000E+01-9.30000E+01 2.00000E+01
 -1       930 0.00000E+00-9.15000E+01 2.00000E+01
 -1       931 2.00000E+01-9.15000E+01 2.00000E+01
 -1       932 4.00000E+01-9.30000E+01 2.00000E+01
 -1       933 4.00000E+01-9.15000E+01 2.00000E+01
 -1       934 6.00000E+01-9.30000E+01 2.00000E+01
 -1       935 6.00000E+01-9.15000E+01 2.00000E+01
 -1       936 8.00000E+01-9.30000E+01 2.00000E+01
 -1       937 8.00000E+01-9.15000E+01 2.00000E+01
 -1       938 1.00000E+02-9.30000E+01 2.00000E+01
 -1       939 1.00000E+02-9.15000E+01 2.00000E+01
 -1       940 1.20000E+02-9.30000E+01 2.00000E+01
 -1       941 1.20000E+02-9.15000E+01 2.00000E+01
 -1       942 1.40000E+02-9.30000E+01 2.00000E+01
 -1       943 1.40000E+02-9.15000E+01 2.00000E+01
 -1       944 1.60000E+02-9.30000E+01 2.00000E+01
 -1       945 1.60000E+02-9.15000E+01 2.00000E+01
 -1       946 1.80000E+02-9.30000E+01 2.00000E+01
 -1       947 1.80000E+02-9.15000E+01 2.00000E+01
 -1       948 2.00000E+02-9.30000E+01 2.00000E+01
 -1       949 2.00000E+02-9.15000E+01 2.00000E+01
 -1       950 0.00000E+00-9.00000E+01 2.00000E+01
 -1       951 2.00000E+01-9.00000E+01 2.00000E+01
 -1       952 4.00000E+01-9.00000E+01 2.00000E+01
 -1       953 6.00000E+01-9.00000E+01 2.00000E+01
 -1       954 8.00000E+01-9.00000E+01 2.00000E+01
 -1       955 1.00000E+02-9.00000E+01 2.00000E+01
 -1       956 1.20000E+02-9.00000E+01 2.00000E+01
 -1       957 1.40000E+02-9.00000E+01 2.00000E+01
 -1       958 1.60000E+02-9.00000E+01 2.00000E+01
 -1       959 1.80000E+02-9.00000E+01 2.00000E+01
 -1       960 2.00000E+02-9.00000E+01 2.00000E+01
 -1       961 0.00000E+00-1.10000E+02 1.70000E+01
 -1       962 0.00000E+00-1.10000E+02 1.85000E+01
 -1       963 2.00000E+01-1.10000E+02 1.85000E+01
 -1       964 2.00000E+01-1.10000E+02 1.70000E+01
 -1       965 0.00000E+00-1.05750E+02 1.70000E+01
 -1       966 0.00000E+00-1.05750E+02 1.85000E+01
 -1       967 2.00000E+01-1.05750E+02 1.85000E+01
 -1       968 2.00000E+01-1.05750E+02 1.70000E+01
 -1       969 4.00000E+01-1.10000E+02 1.85000E+01
 -1       970 4.00000E+01-1.10000E+02 1.70000E+01
 -1       971 4.00000E+01-1.05750E+02 1.85000E+01
 -1       972 4.00000E+01-1.05750E+02 1.70000E+01
 -1       973 6.00000E+01-1.10000E+02 1.85000E+01
 -1       974 6.00000E+01-1.10000E+02 1.70000E+01
 -1       975 6.00000E+01-1.05750E+02 1.85000E+01
 -1       976 6.00000E+01-1.05750E+02 1.70000E+01
 -1       977 8.00000E+01-1.10000E+02 1.85000E+01
 -1       978 8.00000E+01-1.10000E+02 1.70000E+01
 -1       979 8.00000E+01-1.05750E+02 1.85000E+01
 -1       980 8.00000E+01-1.05750E+02 1.70000E+01
 -1       981 1.00000E+02-1.10000E+02 1.85000E+01
 -1       982 1.00000E+02-1.10000E+02 1.70000E+01
 -1       983 1.00000E+02-1.05750E+02 1.85000E+01
 -1       984 1.00000E+02-1.05750E+02 1.70000E+01
 -1       985 1.20000E+02-1.10000E+02 1.85000E+01
 -1       986 1.20000E+02-1.10000E+02 1.70000E+01
 -1       987 1.20000E+02-1.05750E+02 1.85000E+01
 -1       988 1.20000E+02-1.05750E+02 1.70000E+01
 -1       989 1.40000E+02-1.10000E+02 1.85000E+01
 -1       990 1.40000E+02-1.10000E+02 1.70000E+01
 -1       991 1.40000E+02-1.05750E+02 1.85000E+01
 -1       992 1.40000E+02-1.05750E+02 1.70000E+01
 -1       993 1.60000E+02-1.10000E+02 1.85000E+01
 -1       994 1.60000E+02-1.10000E+02 1.70000E+01
 -1       995 1.60000E+02-1.05750E+02 1.85000E+01
 -1       996 1.60000E+02-1.05750E+02 1.70000E+01
 -1       997 1.80000E+02-1.10000E+02 1.85000E+01
 -1       998 1.80000E+02-1.10000E+02 1.70000E+01
 -1       999 1.80000E+02-1.05750E+02 1.85000E+01
 -1      1000 1.80000E+02-1.05750E+02 1.70000E+01
 -1      1001 2.00000E+02-1.10000E+02 1.85000E+01
 -1      1002 2.00000E+02-1.10000E+02 1.70000E+01
 -1      1003 2.00000E+02-1.05750E+02 1.85000E+01
 -1      1004 2.00000E+02-1.05750E+02 1.70000E+01
 -1      1005 0.00000E+00-1.01500E+02 1.70000E+01
 -1      1006 0.00000E+00-1.01500E+02 1.85000E+01
 -1      1007 2.00000E+01-1.01500E+02 1.85000E+01
 -1      1008 2.00000E+01-1.01500E+02 1.70000E+01
 -1      1009 4.00000E+01-1.01500E+02 1.85000E+01
 -1      1010 4.00000E+01-1.01500E+02 1.70000E+01
 -1      1011 6.00000E+01-1.01500E+02 1.85000E+01
 -1      1012 6.00000E+01-1.01500E+02 1.70000E+01
 -1      1013 8.00000E+01-1.01500E+02 1.85000E+01
 -1      1014 8.00000E+01-1.01500E+02 1.70000E+01
 -1      1015 1.00000E+02-1.01500E+02 1.85000E+01
 -1      1016 1.00000E+02-1.01500E+02 1.70000E+01
 -1      1017 1.20000E+02-1.01500E+02 1.85000E+01
 -1      1018 1.20000E+02-1.01500E+02 1.70000E+01
 -1      1019 1.40000E+02-1.01500E+02 1.85000E+01
 -1      1020 1.40000E+02-1.01500E+02 1.70000E+01
 -1      1021 1.60000E+02-1.01500E+02 1.85000E+01
 -1      1022 1.60000E+02-1.01500E+02 1.70000E+01
 -1      1023 1.80000E+02-1.01500E+02 1.85000E+01
 -1      1024 1.80000E+02-1.01500E+02 1.70000E+01
 -1      1025 2.00000E+02-1.01500E+02 1.85000E+01
 -1      1026 2.00000E+02-1.01500E+02 1.70000E+01
 -1      1027 0.00000E+00-9.72500E+01 1.70000E+01
 -1      1028 0.00000E+00-9.72500E+01 1.85000E+01
 -1      1029 2.00000E+01-9.72500E+01 1.85000E+01
 -1      1030 2.00000E+01-9.72500E+01 1.70000E+01
 -1      1031 4.00000E+01-9.72500E+01 1.85000E+01
 -1      1032 4.00000E+01-9.72500E+01 1.70000E+01
 -1      1033 6.00000E+01-9.72500E+01 1.85000E+01
 -1      1034 6.00000E+01-9.72500E+01 1.70000E+01
 -1      1035 8.00000E+01-9.72500E+01 1.85000E+01
 -1      1036 8.00000E+01-9.72500E+01 1.70000E+01
 -1      1037 1.00000E+02-9.72500E+01 1.85000E+01
 -1      1038 1.00000E+02-9.72500E+01 1.70000E+01
 -1      1039 1.20000E+02-9.72500E+01 1.85000E+01
 -1      1040 1.20000E+02-9.72500E+01 1.70000E+01
 -1      1041 1.40000E+02-9.72500E+01 1.85000E+01
 -1      1042 1.40000E+02-9.72500E+01 1.70000E+01
 -1      1043 1.60000E+02-9.72500E+01 1.85000E+01
 -1      1044 1.60000E+02-9.72500E+01 1.70000E+01
 -1      1045 1.80000E+02-9.72500E+01 1.85000E+01
 -1      1046 1.80000E+02-9.72500E+01 1.70000E+01
 -1      1047 2.00000E+02-9.72500E+01 1.85000E+01
 -1      1048 2.00000E+02-9.72500E+01 1.70000E+01
 -1      1049 0.00000E+00-1.10000E+02 2.00000E+01
 -1      1050 2.00000E+01-1.10000E+02 2.00000E+01
 -1      1051 0.00000E+00-1.05750E+02 2.00000E+01
 -1      1052 2.00000E+01-1.05750E+02 2.00000E+01
 -1      1053 4.00000E+01-1.10000E+02 2.00000E+01
 -1      1054 4.00000E+01-1.05750E+02 2.00000E+01
 -1      1055 6.00000E+01-1.10000E+02 2.00000E+01
 -1      1056 6.00000E+01-1.05750E+02 2.00000E+01
 -1      1057 8.00000E+01-1.10000E+02 2.00000E+01
 -1      1058 8.00000E+01-1.05750E+02 2.00000E+01
 -1      1059 1.00000E+02-1.10000E+02 2.00000E+01
 -1      1060 1.00000E+02-1.05750E+02 2.00000E+01
 -1      1061 1.20000E+02-1.10000E+02 2.00000E+01
 -1      1062 1.20000E+02-1.05750E+02 2.00000E+01
 -1      1063 1.40000E+02-1.10000E+02 2.00000E+01
 -1      1064 1.40000E+02-1.05750E+02 2.00000E+01
 -1      1065 1.60000E+02-1.10000E+02 2.00000E+01
 -1      1066 1.60000E+02-1.05750E+02 2.00000E+01
 -1      1067 1.80000E+02-1.10000E+02 2.00000E+01
 -1      1068 1.80000E+02-1.05750E+02 2.00000E+01
 -1      1069 2.00000E+02-1.10000E+02 2.00000E+01
 -1      1070 2.00000E+02-1.05750E+02 2.00000E+01
 -1      1071 0.00000E+00-1.01500E+02 2.00000E+01
 -1      1072 2.00000E+01-1.01500E+02 2.00000E+01
 -1      1073 4.00000E+01-1.01500E+02 2.00000E+01
 -1      1074 6.00000E+01-1.01500E+02 2.00000E+01
 -1      1075 8.00000E+01-1.01500E+02 2.00000E+01
 -1      1076 1.00000E+02-1.01500E+02 2.00000E+01
 -1      1077 1.20000E+02-1.01500E+02 2.00000E+01
 -1      1078 1.40000E+02-1.01500E+02 2.00000E+01
 -1      1079 1.60000E+02-1.01500E+02 2.00000E+01
 -1      1080 1.80000E+02-1.01500E+02 2.00000E+01
 -1      1081 2.00000E+02-1.01500E+02 2.00000E+01
 -1      1082 0.00000E+00-9.72500E+01 2.00000E+01
 -1      1083 2.00000E+01-9.72500E+01 2.00000E+01
 -1      1084 4.00000E+01-9.72500E+01 2.00000E+01
 -1      1085 6.00000E+01-9.72500E+01 2.00000E+01
 -1      1086 8.00000E+01-9.72500E+01 2.00000E+01
 -1      1087 1.00000E+02-9.72500E+01 2.00000E+01
 -1      1088 1.20000E+02-9.72500E+01 2.00000E+01
 -1      1089 1.40000E+02-9.72500E+01 2.00000E+01
 -1      1090 1.60000E+02-9.72500E+01 2.00000E+01
 -1      1091 1.80000E+02-9.72500E+01 2.00000E+01
 -1      1092 2.00000E+02-9.72500E+01 2.00000E+01
 -1      1093 0.00000E+00-9.30000E+01-2.00000E+01
 -1      1094 0.00000E+00-9.30000E+01-1.53750E+01
 -1      1095 2.00000E+01-9.30000E+01-1.53750E+01
 -1      1096 2.00000E+01-9.30000E+01-2.00000E+01
 -1      1097 0.00000E+00-9.15000E+01-2.00000E+01
 -1      1098 0.00000E+00-9.15000E+01-1.53750E+01
 -1      1099 2.00000E+01-9.15000E+01-1.53750E+01
 -1      1100 2.00000E+01-9.15000E+01-2.00000E+01
 -1      1101 4.00000E+01-9.30000E+01-1.53750E+01
 -1      1102 4.00000E+01-9.30000E+01-2.00000E+01
 -1      1103 4.00000E+01-9.15000E+01-1.53750E+01
 -1      1104 4.00000E+01-9.15000E+01-2.00000E+01
 -1      1105 6.00000E+01-9.30000E+01-1.53750E+01
 -1      1106 6.00000E+01-9.30000E+01-2.00000E+01
 -1      1107 6.00000E+01-9.15000E+01-1.53750E+01
 -1      1108 6.00000E+01-9.15000E+01-2.00000E+01
 -1      1109 8.00000E+01-9.30000E+01-1.53750E+01
 -1      1110 8.00000E+01-9.30000E+01-2.00000E+01
 -1      1111 8.00000E+01-9.15000E+01-1.53750E+01
 -1      1112 8.00000E+01-9.15000E+01-2.00000E+01
 -1      1113 1.00000E+02-9.30000E+01-1.53750E+01
 -1      1114 1.00000E+02-9.30000E+01-2.00000E+01
 -1      1115 1.00000E+02-9.15000E+01-1.53750E+01
 -1      1116 1.00000E+02-9.15000E+01-2.00000E+01
 -1      1117 1.20000E+02-9.30000E+01-1.53750E+01
 -1      1118 1.20000E+02-9.30000E+01-2.00000E+01
 -1      1119 1.20000E+02-9.15000E+01-1.53750E+01
 -1      1120 1.20000E+02-9.15000E+01-2.00000E+01
 -1      1121 1.40000E+02-9.30000E+01-1.53750E+01
 -1      1122 1.40000E+02-9.30000E+01-2.00000E+01
 -1      1123 1.40000E+02-9.15000E+01-1.53750E+01
 -1      1124 1.40000E+02-9.15000E+01-2.00000E+01
 -1      1125 1.60000E+02-9.30000E+01-1.53750E+01
 -1      1126 1.60000E+02-9.30000E+01-2.00000E+01
 -1      1127 1.60000E+02-9.15000E+01-1.53750E+01
 -1      1128 1.60000E+02-9.15000E+01-2.00000E+01
 -1      1129 1.80000E+02-9.30000E+01-1.53750E+01
 -1      1130 1.80000E+02-9.30000E+01-2.00000E+01
 -1      1131 1.80000E+02-9.15000E+01-1.53750E+01
 -1      1132 1.80000E+02-9.15000E+01-2.00000E+01
 -1      1133 2.00000E+02-9.30000E+01-1.53750E+01
 -1      1134 2.00000E+02-9.30000E+01-2.00000E+01
 -1      1135 2.00000E+02-9.15000E+01-1.53750E+01
 -1      1136 2.00000E+02-9.15000E+01-2.00000E+01
 -1      1137 0.00000E+00-9.00000E+01-2.00000E+01
 -1      1138 0.00000E+00-9.00000E+01-1.53750E+01
 -1      1139 2.00000E+01-9.00000E+01-1.53750E+01
 -1      1140 2.00000E+01-9.00000E+01-2.00000E+01
 -1      1141 4.00000E+01-9.00000E+01-1.53750E+01
 -1      1142 4.00000E+01-9.00000E+01-2.00000E+01
 -1      1143 6.00000E+01-9.00000E+01-1.53750E+01
 -1      1144 6.00000E+01-9.00000E+01-2.00000E+01
 -1      1145 8.00000E+01-9.00000E+01-1.53750E+01
 -1      1146 8.00000E+01-9.00000E+01-2.00000E+01
 -1      1147 1.00000E+02-9.00000E+01-1.53750E+01
 -1      1148 1.00000E+02-9.00000E+01-2.00000E+01
 -1      1149 1.20000E+02-9.00000E+01-1.53750E+01
 -1      1150 1.20000E+02-9.00000E+01-2.00000E+01
 -1      1151 1.40000E+02-9.00000E+01-1.53750E+01
 -1      1152 1.40000E+02-9.00000E+01-2.00000E+01
 -1      1153 1.60000E+02-9.00000E+01-1.53750E+01
 -1      1154 1.60000E+02-9.00000E+01-2.00000E+01
 -1      1155 1.80000E+02-9.00000E+01-1.53750E+01
 -1      1156 1.80000E+02-9.00000E+01-2.00000E+01
 -1      1157 2.00000E+02-9.00000E+01-1.53750E+01
 -1      1158 2.00000E+02-9.00000E+01-2.00000E+01
 -1      1159 0.00000E+00-9.30000E+01-1.07500E+01
 -1      1160 2.00000E+01-9.30000E+01-1.07500E+01
 -1      1161 0.00000E+00-9.15000E+01-1.07500E+01
 -1      1162 2.00000E+01-9.15000E+01-1.07500E+01
 -1      1163 4.00000E+01-9.30000E+01-1.07500E+01
 -1      1164 4.00000E+01-9.15000E+01-1.07500E+01
 -1      1165 6.00000E+01-9.30000E+01-1.07500E+01
 -1      1166 6.00000E+01-9.15000E+01-1.07500E+01
 -1      1167 8.00000E+01-9.30000E+01-1.07500E+01
 -1      1168 8.00000E+01-9.15000E+01-1.07500E+01
 -1      1169 1.00000E+02-9.30000E+01-1.07500E+01
 -1      1170 1.00000E+02-9.15000E+01-1.07500E+01
 -1      1171 1.20000E+02-9.30000E+01-1.07500E+01
 -1      1172 1.20000E+02-9.15000E+01-1.07500E+01
 -1      1173 1.40000E+02-9.30000E+01-1.07500E+01
 -1      1174 1.40000E+02-9.15000E+01-1.07500E+01
 -1      1175 1.60000E+02-9.30000E+01-1.07500E+01
 -1      1176 1.60000E+02-9.15000E+01-1.07500E+01
 -1      1177 1.80000E+02-9.30000E+01-1.07500E+01
 -1      1178 1.80000E+02-9.15000E+01-1.07500E+01
 -1      1179 2.00000E+02-9.30000E+01-1.07500E+01
 -1      1180 2.00000E+02-9.15000E+01-1.07500E+01
 -1      1181 0.00000E+00-9.00000E+01-1.07500E+01
 -1      1182 2.00000E+01-9.00000E+01-1.07500E+01
 -1      1183 4.00000E+01-9.00000E+01-1.07500E+01
 -1      1184 6.00000E+01-9.00000E+01-1.07500E+01
 -1      1185 8.00000E+01-9.00000E+01-1.07500E+01
 -1      1186 1.00000E+02-9.00000E+01-1.07500E+01
 -1      1187 1.20000E+02-9.00000E+01-1.07500E+01
 -1      1188 1.40000E+02-9.00000E+01-1.07500E+01
 -1      1189 1.60000E+02-9.00000E+01-1.07500E+01
 -1      1190 1.80000E+02-9.00000E+01-1.07500E+01
 -1      1191 2.00000E+02-9.00000E+01-1.07500E+01
 -1      1192 0.00000E+00-9.30000E+01-6.12500E+00
 -1      1193 2.00000E+01-9.30000E+01-6.12500E+00
 -1      1194 0.00000E+00-9.15000E+01-6.12500E+00
 -1      1195 2.00000E+01-9.15000E+01-6.12500E+00
 -1      1196 4.00000E+01-9.30000E+01-6.12500E+00
 -1      1197 4.00000E+01-9.15000E+01-6.12500E+00
 -1      1198 6.00000E+01-9.30000E+01-6.12500E+00
 -1      1199 6.00000E+01-9.15000E+01-6.12500E+00
 -1      1200 8.00000E+01-9.30000E+01-6.12500E+00
 -1      1201 8.00000E+01-9.15000E+01-6.12500E+00
 -1      1202 1.00000E+02-9.30000E+01-6.12500E+00
 -1      1203 1.00000E+02-9.15000E+01-6.12500E+00
 -1      1204 1.20000E+02-9.30000E+01-6.12500E+00
 -1      1205 1.20000E+02-9.15000E+01-6.12500E+00
 -1      1206 1.40000E+02-9.30000E+01-6.12500E+00
 -1      1207 1.40000E+02-9.15000E+01-6.12500E+00
 -1      1208 1.60000E+02-9.30000E+01-6.12500E+00
 -1      1209 1.60000E+02-9.15000E+01-6.12500E+00
 -1      1210 1.80000E+02-9.30000E+01-6.12500E+00
 -1      1211 1.80000E+02-9.15000E+01-6.12500E+00
 -1      1212 2.00000E+02-9.30000E+01-6.12500E+00
 -1      1213 2.00000E+02-9.15000E+01-6.12500E+00
 -1      1214 0.00000E+00-9.00000E+01-6.12500E+00
 -1      1215 2.00000E+01-9.00000E+01-6.12500E+00
 -1      1216 4.00000E+01-9.00000E+01-6.12500E+00
 -1      1217 6.00000E+01-9.00000E+01-6.12500E+00
 -1      1218 8.00000E+01-9.00000E+01-6.12500E+00
 -1      1219 1.00000E+02-9.00000E+01-6.12500E+00
 -1      1220 1.20000E+02-9.00000E+01-6.12500E+00
 -1      1221 1.40000E+02-9.00000E+01-6.12500E+00
 -1      1222 1.60000E+02-9.00000E+01-6.12500E+00
 -1      1223 1.80000E+02-9.00000E+01-6.12500E+00
 -1      1224 2.00000E+02-9.00000E+01-6.12500E+00
 -1      1225 0.00000E+00-9.30000E+01-1.50000E+00
 -1      1226 2.00000E+01-9.30000E+01-1.50000E+00
 -1      1227 0.00000E+00-9.15000E+01-1.50000E+00
 -1      1228 2.00000E+01-9.15000E+01-1.50000E+00
 -1      1229 4.00000E+01-9.30000E+01-1.50000E+00
 -1      1230 4.00000E+01-9.15000E+01-1.50000E+00
 -1      1231 6.00000E+01-9.30000E+01-1.50000E+00
 -1      1232 6.00000E+01-9.15000E+01-1.50000E+00
 -1      1233 8.00000E+01-9.30000E+01-1.50000E+00
 -1      1234 8.00000E+01-9.15000E+01-1.50000E+00
 -1      1235 1.00000E+02-9.30000E+01-1.50000E+00
 -1      1236 1.00000E+02-9.15000E+01-1.50000E+00
 -1      1237 1.20000E+02-9.30000E+01-1.50000E+00
 -1      1238 1.20000E+02-9.15000E+01-1.50000E+00
 -1      1239 1.40000E+02-9.30000E+01-1.50000E+00
 -1      1240 1.40000E+02-9.15000E+01-1.50000E+00
 -1      1241 1.60000E+02-9.30000E+01-1.50000E+00
 -1      1242 1.60000E+02-9.15000E+01-1.50000E+00
 -1      1243 1.80000E+02-9.30000E+01-1.50000E+00
 -1      1244 1.80000E+02-9.15000E+01-1.50000E+00
 -1      1245 2.00000E+02-9.30000E+01-1.50000E+00
 -1      1246 2.00000E+02-9.15000E+01-1.50000E+00
 -1      1247 0.00000E+00-9.00000E+01-1.50000E+00
 -1      1248 2.00000E+01-9.00000E+01-1.50000E+00
 -1      1249 4.00000E+01-9.00000E+01-1.50000E+00
 -1      1250 6.00000E+01-9.00000E+01-1.50000E+00
 -1      1251 8.00000E+01-9.00000E+01-1.50000E+00
 -1      1252 1.00000E+02-9.00000E+01-1.50000E+00
 -1      1253 1.20000E+02-9.00000E+01-1.50000E+00
 -1      1254 1.40000E+02-9.00000E+01-1.50000E+00
 -1      1255 1.60000E+02-9.00000E+01-1.50000E+00
 -1      1256 1.80000E+02-9.00000E+01-1.50000E+00
 -1      1257 2.00000E+02-9.00000E+01-1.50000E+00
 -1      1258 0.00000E+00-9.30000E+01 3.12500E+00
 -1      1259 2.00000E+01-9.30000E+01 3.12500E+00
 -1      1260 0.00000E+00-9.15000E+01 3.12500E+00
 -1      1261 2.00000E+01-9.15000E+01 3.12500E+00
 -1      1262 4.00000E+01-9.30000E+01 3.12500E+00
 -1      1263 4.00000E+01-9.15000E+01 3.12500E+00
 -1      1264 6.00000E+01-9.30000E+01 3.12500E+00
 -1      1265 6.00000E+01-9.15000E+01 3.12500E+00
 -1      1266 8.00000E+01-9.30000E+01 3.12500E+00
 -1      1267 8.00000E+01-9.15000E+01 3.12500E+00
 -1      1268 1.00000E+02-9.30000E+01 3.12500E+00
 -1      1269 1.00000E+02-9.15000E+01 3.12500E+00
 -1      1270 1.20000E+02-9.30000E+01 3.12500E+00
 -1      1271 1.20000E+02-9.15000E+01 3.12500E+00
 -1      1272 1.40000E+02-9.30000E+01 3.12500E+00
 -1      1273 1.40000E+02-9.15000E+01 3.12500E+00
 -1      1274 1.60000E+02-9.30000E+01 3.12500E+00
 -1      1275 1.60000E+02-9.15000E+01 3.12500E+00
 -1      1276 1.80000E+02-9.30000E+01 3.12500E+00
 -1      1277 1.80000E+02-9.15000E+01 3.12500E+00
 -1      1278 2.00000E+02-9.30000E+01 3.12500E+00
 -1      1279 2.00000E+02-9.15000E+01 3.12500E+00
 -1      1280 0.00000E+00-9.00000E+01 3.12500E+00
 -1      1281 2.00000E+01-9.00000E+01 3.12500E+00
 -1      1282 4.00000E+01-9.00000E+01 3.12500E+00
 -1      1283 6.00000E+01-9.00000E+01 3.12500E+00
 -1      1284 8.00000E+01-9.00000E+01 3.12500E+00
 -1      1285 1.00000E+02-9.00000E+01 3.12500E+00
 -1      1286 1.20000E+02-9.00000E+01 3.12500E+00
 -1      1287 1.40000E+02-9.00000E+01 3.12500E+00
 -1      1288 1.60000E+02-9.00000E+01 3.12500E+00
 -1      1289 1.80000E+02-9.00000E+01 3.12500E+00
 -1      1290 2.00000E+02-9.00000E+01 3.12500E+00
 -1      1291 0.00000E+00-9.30000E+01 7.75000E+00
 -1      1292 2.00000E+01-9.30000E+01 7.75000E+00
 -1      1293 0.00000E+00-9.15000E+01 7.75000E+00
 -1      1294 2.00000E+01-9.15000E+01 7.75000E+00
 -1      1295 4.00000E+01-9.30000E+01 7.75000E+00
 -1      1296 4.00000E+01-9.15000E+01 7.75000E+00
 -1      1297 6.00000E+01-9.30000E+01 7.75000E+00
 -1      1298 6.00000E+01-9.15000E+01 7.75000E+00
 -1      1299 8.00000E+01-9.30000E+01 7.75000E+00
 -1      1300 8.00000E+01-9.15000E+01 7.75000E+00
 -1      1301 1.00000E+02-9.30000E+01 7.75000E+00
 -1      1302 1.00000E+02-9.15000E+01 7.75000E+00
 -1      1303 1.20000E+02-9.30000E+01 7.75000E+00
 -1      1304 1.20000E+02-9.15000E+01 7.75000E+00
 -1      1305 1.40000E+02-9.30000E+01 7.75000E+00
 -1      1306 1.40000E+02-9.15000E+01 7.75000E+00
 -1      1307 1.60000E+02-9.30000E+01 7.75000E+00
 -1      1308 1.60000E+02-9.15000E+01 7.75000E+00
 -1      1309 1.80000E+02-9.30000E+01 7.75000E+00
 -1      1310 1.80000E+02-9.15000E+01 7.75000E+00
 -1      1311 2.00000E+02-9.30000E+01 7.75000E+00
 -1      1312 2.00000E+02-9.15000E+01 7.75000E+00
 -1      1313 0.00000E+00-9.00000E+01 7.75000E+00
 -1      1314 2.00000E+01-9.00000E+01 7.75000E+00
 -1      1315 4.00000E+01-9.00000E+01 7.75000E+00
 -1      1316 6.00000E+01-9.00000E+01 7.75000E+00
 -1      1317 8.00000E+01-9.00000E+01 7.75000E+00
 -1      1318 1.00000E+02-9.00000E+01 7.75000E+00
 -1      1319 1.20000E+02-9.00000E+01 7.75000E+00
 -1      1320 1.40000E+02-9.00000E+01 7.75000E+00
 -1      1321 1.60000E+02-9.00000E+01 7.75000E+00
 -1      1322 1.80000E+02-9.00000E+01 7.75000E+00
 -1      1323 2.00000E+02-9.00000E+01 7.75000E+00
 -1      1324 0.00000E+00-9.30000E+01 1.23750E+01
 -1      1325 2.00000E+01-9.30000E+01 1.23750E+01
 -1      1326 0.00000E+00-9.15000E+01 1.23750E+01
 -1      1327 2.00000E+01-9.15000E+01 1.23750E+01
 -1      1328 4.00000E+01-9.30000E+01 1.23750E+01
 -1      1329 4.00000E+01-9.15000E+01 1.23750E+01
 -1      1330 6.00000E+01-9.30000E+01 1.23750E+01
 -1      1331 6.00000E+01-9.15000E+01 1.23750E+01
 -1      1332 8.00000E+01-9.30000E+01 1.23750E+01
 -1      1333 8.00000E+01-9.15000E+01 1.23750E+01
 -1      1334 1.00000E+02-9.30000E+01 1.23750E+01
 -1      1335 1.00000E+02-9.15000E+01 1.23750E+01
 -1      1336 1.20000E+02-9.30000E+01 1.23750E+01
 -1      1337 1.20000E+02-9.15000E+01 1.23750E+01
 -1      1338 1.40000E+02-9.30000E+01 1.23750E+01
 -1      1339 1.40000E+02-9.15000E+01 1.23750E+01
 -1      1340 1.60000E+02-9.30000E+01 1.23750E+01
 -1      1341 1.60000E+02-9.15000E+01 1.23750E+01
 -1      1342 1.80000E+02-9.30000E+01 1.23750E+01
 -1      1343 1.80000E+02-9.15000E+01 1.23750E+01
 -1      1344 2.00000E+02-9.30000E+01 1.23750E+01
 -1      1345 2.00000E+02-9.15000E+01 1.23750E+01
 -1      1346 0.00000E+00-9.00000E+01 1.23750E+01
 -1      1347 2.00000E+01-9.00000E+01 1.23750E+01
 -1      1348 4.00000E+01-9.00000E+01 1.23750E+01
 -1      1349 6.00000E+01-9.00000E+01 1.23750E+01
 -1      1350 8.00000E+01-9.00000E+01 1.23750E+01
 -1      1351 1.00000E+02-9.00000E+01 1.23750E+01
 -1      1352 1.20000E+02-9.00000E+01 1.23750E+01
 -1      1353 1.40000E+02-9.00000E+01 1.23750E+01
 -1      1354 1.60000E+02-9.00000E+01 1.23750E+01
 -1      1355 1.80000E+02-9.00000E+01 1.23750E+01
 -1      1356 2.00000E+02-9.00000E+01 1.23750E+01
 -3
    3C                           760                                     1
 -1         1    1    0    1
 -2         4         5         6         7         8         9        10        11
 -1         2    1    0    1
 -2         7         6        12        13        11        10        14        15
 -1         3    1    0    1
 -2        13        12        16        17        15        14        18        19
 -1         4    1    0    1
 -2        17        16        20        21        19        18        22        23
 -1         5    1    0    1
 -2        21        20        24        25        23        22        26        27
 -1         6    1    0    1
 -2        25        24        28        29        27        26        30        31
 -1         7    1    0    1
 -2        29        28        32        33        31        30        34        35
 -1         8    1    0    1
 -2        33        32        36        37        35        34        38        39
 -1         9    1    0    1
 -2        37        36        40        41        39        38        42        43
 -1        10    1    0    1
 -2        41        40        44        45        43        42        46        47
 -1        11    1    0    1
 -2         8         9        10        11        48        49        50        51
 -1        12    1    0    1
 -2        11        10        14        15        51        50        52        53
 -1        13    1    0    1
 -2        15        14        18        19        53        52        54        55
 -1        14    1    0    1
 -2        19        18        22        23        55        54        56        57
 -1        15    1    0    1
 -2        23        22        26        27        57        56        58        59
 -1        16    1    0    1
 -2        27        26        30        31        59        58        60        61
 -1        17    1    0    1
 -2        31        30        34        35        61        60        62        63
 -1        18    1    0    1
 -2        35        34        38        39        63        62        64        65
 -1        19    1    0    1
 -2        39        38        42        43        65        64        66        67
 -1        20    1    0    1
 -2        43        42        46        47        67        66        68        69
 -1        21    1    0    1
 -2         5        70        71         6         9        72        73        10
 -1        22    1    0    1
 -2         6        71        74        12        10        73        75        14
 -1        23    1    0    1
 -2        12        74        76        16        14        75        77        18
 -1        24    1    0    1
 -2        16        76        78        20        18        77        79        22
 -1        25    1    0    1
 -2        20        78        80        24        22        79        81        26
 -1        26    1    0    1
 -2        24        80        82        28        26        81        83        30
 -1        27    1    0    1
 -2        28        82        84        32        30        83        85        34
 -1        28    1    0    1
 -2        32        84        86        36        34        85        87        38
 -1        29    1    0    1
 -2        36        86        88        40        38        87        89        42
 -1        30    1    0    1
 -2        40        88        90        44        42        89        91        46
 -1        31    1    0    1
 -2         9        72        73        10        49        92        93        50
 -1        32    1    0    1
 -2        10        73        75        14        50        93        94        52
 -1        33    1    0    1
 -2        14        75        77        18        52        94        95        54
 -1        34    1    0    1
 -2        18        77        79        22        54        95        96        56
 -1        35    1    0    1
 -2        22        79        81        26        56        96        97        58
 -1        36    1    0    1
 -2        26        81        83        30        58        97        98        60
 -1        37    1    0    1
 -2        30        83        85        34        60        98        99        62
 -1        38    1    0    1
 -2        34        85        87        38        62        99       100        64
 -1        39    1    0    1
 -2        38        87        89        42        64       100       101        66
 -1        40    1    0    1
 -2        42        89        91        46        66       101       102        68
 -1        41    1    0    1
 -2        70       103       104        71        72       105       106        73
 -1        42    1    0    1
 -2        71       104       107        74        73       106       108        75
 -1        43    1    0    1
 -2        74       107       109        76        75       108       110        77
 -1        44    1    0    1
 -2        76       109       111        78        77       110       112        79
 -1        45    1    0    1
 -2        78       111       113        80        79       112       114        81
 -1        46    1    0    1
 -2        80       113       115        82        81       114       116        83
 -1        47    1    0    1
 -2        82       115       117        84        83       116       118        85
 -1        48    1    0    1
 -2        84       117       119        86        85       118       120        87
 -1        49    1    0    1
 -2        86       119       121        88        87       120       122        89
 -1        50    1    0    1
 -2        88       121       123        90        89       122       124        91
 -1        51    1    0    1
 -2        72       105       106        73        92       125       126        93
 -1        52    1    0    1
 -2        73       106       108        75        93       126       127        94
 -1        53    1    0    1
 -2        75       108       110        77        94       127       128        95
 -1        54    1    0    1
 -2        77       110       112        79        95       128       129        96
 -1        55    1    0    1
 -2        79       112       114        81        96       129       130        97
 -1        56    1    0    1
 -2        81       114       116        83        97       130       131        98
 -1        57    1    0    1
 -2        83       116       118        85        98       131       132        99
 -1        58    1    0    1
 -2        85       118       120        87        99       132       133       100
 -1        59    1    0    1
 -2        87       120       122        89       100       133       134       101
 -1        60    1    0    1
 -2        89       122       124        91       101       134       135       102
 -1        61    1    0    1
 -2       103       136       137       104       105       138       139       106
 -1        62    1    0    1
 -2       104       137       140       107       106       139       141       108
 -1        63    1    0    1
 -2       107       140       142       109       108       141       143       110
 -1        64    1    0    1
 -2       109       142       144       111       110       143       145       112
 -1        65    1    0    1
 -2       111       144       146       113       112       145       147       114
 -1        66    1    0    1
 -2       113       146       148       115       114       147       149       116
 -1        67    1    0    1
 -2       115       148       150       117       116       149       151       118
 -1        68    1    0    1
 -2       117       150       152       119       118       151       153       120
 -1        69    1    0    1
 -2       119       152       154       121       120       153       155       122
 -1        70    1    0    1
 -2       121       154       156       123       122       155       157       124
 -1        71    1    0    1
 -2       105       138       139       106       125       158       159       126
 -1        72    1    0    1
 -2       106       139       141       108       126       159       160       127
 -1        73    1    0    1
 -2       108       141       143       110       127       160       161       128
 -1        74    1    0    1
 -2       110       143       145       112       128       161       162       129
 -1        75    1    0    1
 -2       112       145       147       114       129       162       163       130
 -1        76    1    0    1
 -2       114       147       149       116       130       163       164       131
 -1        77    1    0    1
 -2       116       149       151       118       131       164       165       132
 -1        78    1    0    1
 -2       118       151       153       120       132       165       166       133
 -1        79    1    0    1
 -2       120       153       155       122       133       166       167       134
 -1        80    1    0    1
 -2       122       155       157       124       134       167       168       135
 -1        81    1    0    1
 -2       136       169       170       137       138       171       172       139
 -1        82    1    0    1
 -2       137       170       173       140       139       172       174       141
 -1        83    1    0    1
 -2       140       173       175       142       141       174       176       143
 -1        84    1    0    1
 -2       142       175       177       144       143       176       178       145
 -1        85    1    0    1
 -2       144       177       179       146       145       178       180       147
 -1        86    1    0    1
 -2       146       179       181       148       147       180       182       149
 -1        87    1    0    1
 -2       148       181       183       150       149       182       184       151
 -1        88    1    0    1
 -2       150       183       185       152       151       184       186       153
 -1        89    1    0    1
 -2       152       185       187       154       153       186       188       155
 -1        90    1    0    1
 -2       154       187       189       156       155       188       190       157
 -1        91    1    0    1
 -2       138       171       172       139       158       191       192       159
 -1        92    1    0    1
 -2       139       172       174       141       159       192       193       160
 -1        93    1    0    1
 -2       141       174       176       143       160       193       194       161
 -1        94    1    0    1
 -2       143       176       178       145       161       194       195       162
 -1        95    1    0    1
 -2       145       178       180       147       162       195       196       163
 -1        96    1    0    1
 -2       147       180       182       149       163       196       197       164
 -1        97    1    0    1
 -2       149       182       184       151       164       197       198       165
 -1        98    1    0    1
 -2       151       184       186       153       165       198       199       166
 -1        99    1    0    1
 -2       153       186       188       155       166       199       200       167
 -1       100    1    0    1
 -2       155       188       190       157       167       200       201       168
 -1       101    1    0    1
 -2       169       202       203       170       171       204       205       172
 -1       102    1    0    1
 -2       170       203       206       173       172       205       207       174
 -1       103    1    0    1
 -2       173       206       208       175       174       207       209       176
 -1       104    1    0    1
 -2       175       208       210       177       176       209       211       178
 -1       105    1    0    1
 -2       177       210       212       179       178       211       213       180
 -1       106    1    0    1
 -2       179       212       214       181       180       213       215       182
 -1       107    1    0    1
 -2       181       214       216       183       182       215       217       184
 -1       108    1    0    1
 -2       183       216       218       185       184       217       219       186
 -1       109    1    0    1
 -2       185       218       220       187       186       219       221       188
 -1       110    1    0    1
 -2       187       220       222       189       188       221       223       190
 -1       111    1    0    1
 -2       171       204       205       172       191       224       225       192
 -1       112    1    0    1
 -2       172       205       207       174       192       225       226       193
 -1       113    1    0    1
 -2       174       207       209       176       193       226       227       194
 -1       114    1    0    1
 -2       176       209       211       178       194       227       228       195
 -1       115    1    0    1
 -2       178       211       213       180       195       228       229       196
 -1       116    1    0    1
 -2       180       213       215       182       196       229       230       197
 -1       117    1    0    1
 -2       182       215       217       184       197       230       231       198
 -1       118    1    0    1
 -2       184       217       219       186       198       231       232       199
 -1       119    1    0    1
 -2       186       219       221       188       199       232       233       200
 -1       120    1    0    1
 -2       188       221       223       190       200       233       234       201
 -1       121    1    0    1
 -2       202       235       236       203       204       237       238       205
 -1       122    1    0    1
 -2       203       236       239       206       205       238       240       207
 -1       123    1    0    1
 -2       206       239       241       208       207       240       242       209
 -1       124    1    0    1
 -2       208       241       243       210       209       242       244       211
 -1       125    1    0    1
 -2       210       243       245       212       211       244       246       213
 -1       126    1    0    1
 -2       212       245       247       214       213       246       248       215
 -1       127    1    0    1
 -2       214       247       249       216       215       248       250       217
 -1       128    1    0    1
 -2       216       249       251       218       217       250       252       219
 -1       129    1    0    1
 -2       218       251       253       220       219       252       254       221
 -1       130    1    0    1
 -2       220       253       255       222       221       254       256       223
 -1       131    1    0    1
 -2       204       237       238       205       224       257       258       225
 -1       132    1    0    1
 -2       205       238       240       207       225       258       259       226
 -1       133    1    0    1
 -2       207       240       242       209       226       259       260       227
 -1       134    1    0    1
 -2       209       242       244       211       227       260       261       228
 -1       135    1    0    1
 -2       211       244       246       213       228       261       262       229
 -1       136    1    0    1
 -2       213       246       248       215       229       262       263       230
 -1       137    1    0    1
 -2       215       248       250       217       230       263       264       231
 -1       138    1    0    1
 -2       217       250       252       219       231       264       265       232
 -1       139    1    0    1
 -2       219       252       254       221       232       265       266       233
 -1       140    1    0    1
 -2       221       254       256       223       233       266       267       234
 -1       141    1    0    1
 -2       235       268       269       236       237       270       271       238
 -1       142    1    0    1
 -2       236       269       272       239       238       271       273       240
 -1       143    1    0    1
 -2       239       272       274       241       240       273       275       242
 -1       144    1    0    1
 -2       241       274       276       243       242       275       277       244
 -1       145    1    0    1
 -2       243       276       278       245       244       277       279       246
 -1       146    1    0    1
 -2       245       278       280       247       246       279       281       248
 -1       147    1    0    1
 -2       247       280       282       249       248       281       283       250
 -1       148    1    0    1
 -2       249       282       284       251       250       283       285       252
 -1       149    1    0    1
 -2       251       284       286       253       252       285       287       254
 -1       150    1    0    1
 -2       253       286       288       255       254       287       289       256
 -1       151    1    0    1
 -2       237       270       271       238       257       290       291       258
 -1       152    1    0    1
 -2       238       271       273       240       258       291       292       259
 -1       153    1    0    1
 -2       240       273       275       242       259       292       293       260
 -1       154    1    0    1
 -2       242       275       277       244       260       293       294       261
 -1       155    1    0    1
 -2       244       277       279       246       261       294       295       262
 -1       156    1    0    1
 -2       246       279       281       248       262       295       296       263
 -1       157    1    0    1
 -2       248       281       283       250       263       296       297       264
 -1       158    1    0    1
 -2       250       283       285       252       264       297       298       265
 -1       159    1    0    1
 -2       252       285       287       254       265       298       299       266
 -1       160    1    0    1
 -2       254       287       289       256       266       299       300       267
 -1       161    1    0    1
 -2       301       302       303       304       305       306       307       308
 -1       162    1    0    1
 -2       304       303       309       310       308       307       311       312
 -1       163    1    0    1
 -2       310       309       313       314       312       311       315       316
 -1       164    1    0    1
 -2       314       313       317       318       316       315       319       320
 -1       165    1    0    1
 -2       318       317       321       322       320       319       323       324
 -1       166    1    0    1
 -2       322       321       325       326       324       323       327       328
 -1       167    1    0    1
 -2       326       325       329       330       328       327       331       332
 -1       168    1    0    1
 -2       330       329       333       334       332       331       335       336
 -1       169    1    0    1
 -2       334       333       337       338       336       335       339       340
 -1       170    1    0    1
 -2       338       337       341       342       340       339       343       344
 -1       171    1    0    1
 -2       305       306       307       308       345       346       347       348
 -1       172    1    0    1
 -2       308       307       311       312       348       347       349       350
 -1       173    1    0    1
 -2       312       311       315       316       350       349       351       352
 -1       174    1    0    1
 -2       316       315       319       320       352       351       353       354
 -1       175    1    0    1
 -2       320       319       323       324       354       353       355       356
 -1       176    1    0    1
 -2       324       323       327       328       356       355       357       358
 -1       177    1    0    1
 -2       328       327       331       332       358       357       359       360
 -1       178    1    0    1
 -2       332       331       335       336       360       359       361       362
 -1       179    1    0    1
 -2       336       335       339       340       362       361       363       364
 -1       180    1    0    1
 -2       340       339       343       344       364       363       365       366
 -1       181    1    0    1
 -2       302       367       368       303       306       369       370       307
 -1       182    1    0    1
 -2       303       368       371       309       307       370       372       311
 -1       183    1    0    1
 -2       309       371       373       313       311       372       374       315
 -1       184    1    0    1
 -2       313       373       375       317       315       374       376       319
 -1       185    1    0    1
 -2       317       375       377       321       319       376       378       323
 -1       186    1    0    1
 -2       321       377       379       325       323       378       380       327
 -1       187    1    0    1
 -2       325       379       381       329       327       380       382       331
 -1       188    1    0    1
 -2       329       381       383       333       331       382       384       335
 -1       189    1    0    1
 -2       333       383       385       337       335       384       386       339
 -1       190    1    0    1
 -2       337       385       387       341       339       386       388       343
 -1       191    1    0    1
 -2       306       369       370       307       346       389       390       347
 -1       192    1    0    1
 -2       307       370       372       311       347       390       391       349
 -1       193    1    0    1
 -2       311       372       374       315       349       391       392       351
 -1       194    1    0    1
 -2       315       374       376       319       351       392       393       353
 -1       195    1    0    1
 -2       319       376       378       323       353       393       394       355
 -1       196    1    0    1
 -2       323       378       380       327       355       394       395       357
 -1       197    1    0    1
 -2       327       380       382       331       357       395       396       359
 -1       198    1    0    1
 -2       331       382       384       335       359       396       397       361
 -1       199    1    0    1
 -2       335       384       386       339       361       397       398       363
 -1       200    1    0    1
 -2       339       386       388       343       363       398       399       365
 -1       201    1    0    1
 -2       400       401       402       403       404       405       406       407
 -1       202    1    0    1
 -2       403       402       408       409       407       406       410       411
 -1       203    1    0    1
 -2       409       408       412       413       411       410       414       415
 -1       204    1    0    1
 -2       413       412       416       417       415       414       418       419
 -1       205    1    0    1
 -2       417       416       420       421       419       418       422       423
 -1       206    1    0    1
 -2       421       420       424       425       423       422       426       427
 -1       207    1    0    1
 -2       425       424       428       429       427       426       430       431
 -1       208    1    0    1
 -2       429       428       432       433       431       430       434       435
 -1       209    1    0    1
 -2       433       432       436       437       435       434       438       439
 -1       210    1    0    1
 -2       437       436       440       441       439       438       442       443
 -1       211    1    0    1
 -2       404       405       406       407       444       445       446       447
 -1       212    1    0    1
 -2       407       406       410       411       447       446       448       449
 -1       213    1    0    1
 -2       411       410       414       415       449       448       450       451
 -1       214    1    0    1
 -2       415       414       418       419       451       450       452       453
 -1       215    1    0    1
 -2       419       418       422       423       453       452       454       455
 -1       216    1    0    1
 -2       423       422       426       427       455       454       456       457
 -1       217    1    0    1
 -2       427       426       430       431       457       456       458       459
 -1       218    1    0    1
 -2       431       430       434       435       459       458       460       461
 -1       219    1    0    1
 -2       435       434       438       439       461       460       462       463
 -1       220    1    0    1
 -2       439       438       442       443       463       462       464       465
 -1       221    1    0    1
 -2       401       466       467       402       405       468       469       406
 -1       222    1    0    1
 -2       402       467       470       408       406       469       471       410
 -1       223    1    0    1
 -2       408       470       472       412       410       471       473       414
 -1       224    1    0    1
 -2       412       472       474       416       414       473       475       418
 -1       225    1    0    1
 -2       416       474       476       420       418       475       477       422
 -1       226    1    0    1
 -2       420       476       478       424       422       477       479       426
 -1       227    1    0    1
 -2       424       478       480       428       426       479       481       430
 -1       228    1    0    1
 -2       428       480       482       432       430       481       483       434
 -1       229    1    0    1
 -2       432       482       484       436       434       483       485       438
 -1       230    1    0    1
 -2       436       484       486       440       438       485       487       442
 -1       231    1    0    1
 -2       405       468       469       406       445       488       489       446
 -1       232    1    0    1
 -2       406       469       471       410       446       489       490       448
 -1       233    1    0    1
 -2       410       471       473       414       448       490       491       450
 -1       234    1    0    1
 -2       414       473       475       418       450       491       492       452
 -1       235    1    0    1
 -2       418       475       477       422       452       492       493       454
 -1       236    1    0    1
 -2       422       477       479       426       454       493       494       456
 -1       237    1    0    1
 -2       426       479       481       430       456       494       495       458
 -1       238    1    0    1
 -2       430       481       483       434       458       495       496       460
 -1       239    1    0    1
 -2       434       483       485       438       460       496       497       462
 -1       240    1    0    1
 -2       438       485       487       442       462       497       498       464
 -1       241    1    0    1
 -2       466       499       500       467       468       501       502       469
 -1       242    1    0    1
 -2       467       500       503       470       469       502       504       471
 -1       243    1    0    1
 -2       470       503       505       472       471       504       506       473
 -1       244    1    0    1
 -2       472       505       507       474       473       506       508       475
 -1       245    1    0    1
 -2       474       507       509       476       475       508       510       477
 -1       246    1    0    1
 -2       476       509       511       478       477       510       512       479
 -1       247    1    0    1
 -2       478       511       513       480       479       512       514       481
 -1       248    1    0    1
 -2       480       513       515       482       481       514       516       483
 -1       249    1    0    1
 -2       482       515       517       484       483       516       518       485
 -1       250    1    0    1
 -2       484       517       519       486       485       518       520       487
 -1       251    1    0    1
 -2       468       501       502       469       488       521       522       489
 -1       252    1    0    1
 -2       469       502       504       471       489       522       523       490
 -1       253    1    0    1
 -2       471       504       506       473       490       523       524       491
 -1       254    1    0    1
 -2       473       506       508       475       491       524       525       492
 -1       255    1    0    1
 -2       475       508       510       477       492       525       526       493
 -1       256    1    0    1
 -2       477       510       512       479       493       526       527       494
 -1       257    1    0    1
 -2       479       512       514       481       494       527       528       495
 -1       258    1    0    1
 -2       481       514       516       483       495       528       529       496
 -1       259    1    0    1
 -2       483       516       518       485       496       529       530       497
 -1       260    1    0    1
 -2       485       518       520       487       497       530       531       498
 -1       261    1    0    1
 -2       499       532       533       500       501       534       535       502
 -1       262    1    0    1
 -2       500       533       536       503       502       535       537       504
 -1       263    1    0    1
 -2       503       536       538       505       504       537       539       506
 -1       264    1    0    1
 -2       505       538       540       507       506       539       541       508
 -1       265    1    0    1
 -2       507       540       542       509       508       541       543       510
 -1       266    1    0    1
 -2       509       542       544       511       510       543       545       512
 -1       267    1    0    1
 -2       511       544       546       513       512       545       547       514
 -1       268    1    0    1
 -2       513       546       548       515       514       547       549       516
 -1       269    1    0    1
 -2       515       548       550       517       516       549       551       518
 -1       270    1    0    1
 -2       517       550       552       519       518       551       553       520
 -1       271    1    0    1
 -2       501       534       535       502       521       554       555       522
 -1       272    1    0    1
 -2       502       535       537       504       522       555       556       523
 -1       273    1    0    1
 -2       504       537       539       506       523       556       557       524
 -1       274    1    0    1
 -2       506       539       541       508       524       557       558       525
 -1       275    1    0    1
 -2       508       541       543       510       525       558       559       526
 -1       276    1    0    1
 -2       510       543       545       512       526       559       560       527
 -1       277    1    0    1
 -2       512       545       547       514       527       560       561       528
 -1       278    1    0    1
 -2       514       547       549       516       528       561       562       529
 -1       279    1    0    1
 -2       516       549       551       518       529       562       563       530
 -1       280    1    0    1
 -2       518       551       553       520       530       563       564       531
 -1       281    1    0    1
 -2       532       565       566       533       534       567       568       535
 -1       282    1    0    1
 -2       533       566       569       536       535       568       570       537
 -1       283    1    0    1
 -2       536       569       571       538       537       570       572       539
 -1       284    1    0    1
 -2       538       571       573       540       539       572       574       541
 -1       285    1    0    1
 -2       540       573       575       542       541       574       576       543
 -1       286    1    0    1
 -2       542       575       577       544       543       576       578       545
 -1       287    1    0    1
 -2       544       577       579       546       545       578       580       547
 -1       288    1    0    1
 -2       546       579       581       548       547       580       582       549
 -1       289    1    0    1
 -2       548       581       583       550       549       582       584       551
 -1       290    1    0    1
 -2       550       583       585       552       551       584       586       553
 -1       291    1    0    1
 -2       534       567       568       535       554       587       588       555
 -1       292    1    0    1
 -2       535       568       570       537       555       588       589       556
 -1       293    1    0    1
 -2       537       570       572       539       556       589       590       557
 -1       294    1    0    1
 -2       539       572       574       541       557       590       591       558
 -1       295    1    0    1
 -2       541       574       576       543       558       591       592       559
 -1       296    1    0    1
 -2       543       576       578       545       559       592       593       560
 -1       297    1    0    1
 -2       545       578       580       547       560       593       594       561
 -1       298    1    0    1
 -2       547       580       582       549       561       594       595       562
 -1       299    1    0    1
 -2       549       582       584       551       562       595       596       563
 -1       300    1    0    1
 -2       551       584       586       553       563       596       597       564
 -1       301    1    0    1
 -2       565       301       304       566       567       305       308       568
 -1       302    1    0    1
 -2       566       304       310       569       568       308       312       570
 -1       303    1    0    1
 -2       569       310       314       571       570       312       316       572
 -1       304    1    0    1
 -2       571       314       318       573       572       316       320       574
 -1       305    1    0    1
 -2       573       318       322       575       574       320       324       576
 -1       306    1    0    1
 -2       575       322       326       577       576       324       328       578
 -1       307    1    0    1
 -2       577       326       330       579       578       328       332       580
 -1       308    1    0    1
 -2       579       330       334       581       580       332       336       582
 -1       309    1    0    1
 -2       581       334       338       583       582       336       340       584
 -1       310    1    0    1
 -2       583       338       342       585       584       340       344       586
 -1       311    1    0    1
 -2       567       305       308       568       587       345       348       588
 -1       312    1    0    1
 -2       568       308       312       570       588       348       350       589
 -1       313    1    0    1
 -2       570       312       316       572       589       350       352       590
 -1       314    1    0    1
 -2       572       316       320       574       590       352       354       591
 -1       315    1    0    1
 -2       574       320       324       576       591       354       356       592
 -1       316    1    0    1
 -2       576       324       328       578       592       356       358       593
 -1       317    1    0    1
 -2       578       328       332       580       593       358       360       594
 -1       318    1    0    1
 -2       580       332       336       582       594       360       362       595
 -1       319    1    0    1
 -2       582       336       340       584       595       362       364       596
 -1       320    1    0    1
 -2       584       340       344       586       596       364       366       597
 -1       321    1    0    1
 -2       598       599       600       601       602       603       604       605
 -1       322    1    0    1
 -2       601       600       606       607       605       604       608       609
 -1       323    1    0    1
 -2       607       606       610       611       609       608       612       613
 -1       324    1    0    1
 -2       611       610       614       615       613       612       616       617
 -1       325    1    0    1
 -2       615       614       618       619       617       616       620       621
 -1       326    1    0    1
 -2       619       618       622       623       621       620       624       625
 -1       327    1    0    1
 -2       623       622       626       627       625       624       628       629
 -1       328    1    0    1
 -2       627       626       630       631       629       628       632       633
 -1       329    1    0    1
 -2       631       630       634       635       633       632       636       637
 -1       330    1    0    1
 -2       635       634       638       639       637       636       640       641
 -1       331    1    0    1
 -2       602       603       604       605       642       643       644       645
 -1       332    1    0    1
 -2       605       604       608       609       645       644       646       647
 -1       333    1    0    1
 -2       609       608       612       613       647       646       648       649
 -1       334    1    0    1
 -2       613       612       616       617       649       648       650       651
 -1       335    1    0    1
 -2       617       616       620       621       651       650       652       653
 -1       336    1    0    1
 -2       621       620       624       625       653       652       654       655
 -1       337    1    0    1
 -2       625       624       628       629       655       654       656       657
 -1       338    1    0    1
 -2       629       628       632       633       657       656       658       659
 -1       339    1    0    1
 -2       633       632       636       637       659       658       660       661
 -1       340    1    0    1
 -2       637       636       640       641       661       660       662       663
 -1       341    1    0    1
 -2       599       400       403       600       603       404       407       604
 -1       342    1    0    1
 -2       600       403       409       606       604       407       411       608
 -1       343    1    0    1
 -2       606       409       413       610       608       411       415       612
 -1       344    1    0    1
 -2       610       413       417       614       612       415       419       616
 -1       345    1    0    1
 -2       614       417       421       618       616       419       423       620
 -1       346    1    0    1
 -2       618       421       425       622       620       423       427       624
 -1       347    1    0    1
 -2       622       425       429       626       624       427       431       628
 -1       348    1    0    1
 -2       626       429       433       630       628       431       435       632
 -1       349    1    0    1
 -2       630       433       437       634       632       435       439       636
 -1       350    1    0    1
 -2       634       437       441       638       636       439       443       640
 -1       351    1    0    1
 -2       603       404       407       604       643       444       447       644
 -1       352    1    0    1
 -2       604       407       411       608       644       447       449       646
 -1       353    1    0    1
 -2       608       411       415       612       646       449       451       648
 -1       354    1    0    1
 -2       612       415       419       616       648       451       453       650
 -1       355    1    0    1
 -2       616       419       423       620       650       453       455       652
 -1       356    1    0    1
 -2       620       423       427       624       652       455       457       654
 -1       357    1    0    1
 -2       624       427       431       628       654       457       459       656
 -1       358    1    0    1
 -2       628       431       435       632       656       459       461       658
 -1       359    1    0    1
 -2       632       435       439       636       658       461       463       660
 -1       360    1    0    1
 -2       636       439       443       640       660       463       465       662
 -1       361    1    0    1
 -2       664       665       666       667       668       669       670       671
 -1       362    1    0    1
 -2       667       666       672       673       671       670       674       675
 -1       363    1    0    1
 -2       673       672       676       677       675       674       678       679
 -1       364    1    0    1
 -2       677       676       680       681       679       678       682       683
 -1       365    1    0    1
 -2       681       680       684       685       683       682       686       687
 -1       366    1    0    1
 -2       685       684       688       689       687       686       690       691
 -1       367    1    0    1
 -2       689       688       692       693       691       690       694       695
 -1       368    1    0    1
 -2       693       692       696       697       695       694       698       699
 -1       369    1    0    1
 -2       697       696       700       701       699       698       702       703
 -1       370    1    0    1
 -2       701       700       704       705       703       702       706       707
 -1       371    1    0    1
 -2       668       669       670       671       708       709       710       711
 -1       372    1    0    1
 -2       671       670       674       675       711       710       712       713
 -1       373    1    0    1
 -2       675       674       678       679       713       712       714       715
 -1       374    1    0    1
 -2       679       678       682       683       715       714       716       717
 -1       375    1    0    1
 -2       683       682       686       687       717       716       718       719
 -1       376    1    0    1
 -2       687       686       690       691       719       718       720       721
 -1       377    1    0    1
 -2       691       690       694       695       721       720       722       723
 -1       378    1    0    1
 -2       695       694       698       699       723       722       724       725
 -1       379    1    0    1
 -2       699       698       702       703       725       724       726       727
 -1       380    1    0    1
 -2       703       702       706       707       727       726       728       729
 -1       381    1    0    1
 -2       665       730       731       666       669       732       733       670
 -1       382    1    0    1
 -2       666       731       734       672       670       733       735       674
 -1       383    1    0    1
 -2       672       734       736       676       674       735       737       678
 -1       384    1    0    1
 -2       676       736       738       680       678       737       739       682
 -1       385    1    0    1
 -2       680       738       740       684       682       739       741       686
 -1       386    1    0    1
 -2       684       740       742       688       686       741       743       690
 -1       387    1    0    1
 -2       688       742       744       692       690       743       745       694
 -1       388    1    0    1
 -2       692       744       746       696       694       745       747       698
 -1       389    1    0    1
 -2       696       746       748       700       698       747       749       702
 -1       390    1    0    1
 -2       700       748       750       704       702       749       751       706
 -1       391    1    0    1
 -2       669       732       733       670       709       752       753       710
 -1       392    1    0    1
 -2       670       733       735       674       710       753       754       712
 -1       393    1    0    1
 -2       674       735       737       678       712       754       755       714
 -1       394    1    0    1
 -2       678       737       739       682       714       755       756       716
 -1       395    1    0    1
 -2       682       739       741       686       716       756       757       718
 -1       396    1    0    1
 -2       686       741       743       690       718       757       758       720
 -1       397    1    0    1
 -2       690       743       745       694       720       758       759       722
 -1       398    1    0    1
 -2       694       745       747       698       722       759       760       724
 -1       399    1    0    1
 -2       698       747       749       702       724       760       761       726
 -1       400    1    0    1
 -2       702       749       751       706       726       761       762       728
 -1       401    1    0    1
 -2       730       345       348       731       732       346       347       733
 -1       402    1    0    1
 -2       731       348       350       734       733       347       349       735
 -1       403    1    0    1
 -2       734       350       352       736       735       349       351       737
 -1       404    1    0    1
 -2       736       352       354       738       737       351       353       739
 -1       405    1    0    1
 -2       738       354       356       740       739       353       355       741
 -1       406    1    0    1
 -2       740       356       358       742       741       355       357       743
 -1       407    1    0    1
 -2       742       358       360       744       743       357       359       745
 -1       408    1    0    1
 -2       744       360       362       746       745       359       361       747
 -1       409    1    0    1
 -2       746       362       364       748       747       361       363       749
 -1       410    1    0    1
 -2       748       364       366       750       749       363       365       751
 -1       411    1    0    1
 -2       732       346       347       733       752       389       390       753
 -1       412    1    0    1
 -2       733       347       349       735       753       390       391       754
 -1       413    1    0    1
 -2       735       349       351       737       754       391       392       755
 -1       414    1    0    1
 -2       737       351       353       739       755       392       393       756
 -1       415    1    0    1
 -2       739       353       355       741       756       393       394       757
 -1       416    1    0    1
 -2       741       355       357       743       757       394       395       758
 -1       417    1    0    1
 -2       743       357       359       745       758       395       396       759
 -1       418    1    0    1
 -2       745       359       361       747       759       396       397       760
 -1       419    1    0    1
 -2       747       361       363       749       760       397       398       761
 -1       420    1    0    1
 -2       749       363       365       751       761       398       399       762
 -1       421    1    0    1
 -2       763       764       765       766       767       768       769       770
 -1       422    1    0    1
 -2       766       765       771       772       770       769       773       774
 -1       423    1    0    1
 -2       772       771       775       776       774       773       777       778
 -1       424    1    0    1
 -2       776       775       779       780       778       777       781       782
 -1       425    1    0    1
 -2       780       779       783       784       782       781       785       786
 -1       426    1    0    1
 -2       784       783       787       788       786       785       789       790
 -1       427    1    0    1
 -2       788       787       791       792       790       789       793       794
 -1       428    1    0    1
 -2       792       791       795       796       794       793       797       798
 -1       429    1    0    1
 -2       796       795       799       800       798       797       801       802
 -1       430    1    0    1
 -2       800       799       803       804       802       801       805       806
 -1       431    1    0    1
 -2       767       768       769       770       807       808       809       810
 -1       432    1    0    1
 -2       770       769       773       774       810       809       811       812
 -1       433    1    0    1
 -2       774       773       777       778       812       811       813       814
 -1       434    1    0    1
 -2       778       777       781       782       814       813       815       816
 -1       435    1    0    1
 -2       782       781       785       786       816       815       817       818
 -1       436    1    0    1
 -2       786       785       789       790       818       817       819       820
 -1       437    1    0    1
 -2       790       789       793       794       820       819       821       822
 -1       438    1    0    1
 -2       794       793       797       798       822       821       823       824
 -1       439    1    0    1
 -2       798       797       801       802       824       823       825       826
 -1       440    1    0    1
 -2       802       801       805       806       826       825       827       828
 -1       441    1    0    1
 -2       764       829       830       765       768       831       832       769
 -1       442    1    0    1
 -2       765       830       833       771       769       832       834       773
 -1       443    1    0    1
 -2       771       833       835       775       773       834       836       777
 -1       444    1    0    1
 -2       775       835       837       779       777       836       838       781
 -1       445    1    0    1
 -2       779       837       839       783       781       838       840       785
 -1       446    1    0    1
 -2       783       839       841       787       785       840       842       789
 -1       447    1    0    1
 -2       787       841       843       791       789       842       844       793
 -1       448    1    0    1
 -2       791       843       845       795       793       844       846       797
 -1       449    1    0    1
 -2       795       845       847       799       797       846       848       801
 -1       450    1    0    1
 -2       799       847       849       803       801       848       850       805
 -1       451    1    0    1
 -2       768       831       832       769       808       851       852       809
 -1       452    1    0    1
 -2       769       832       834       773       809       852       853       811
 -1       453    1    0    1
 -2       773       834       836       777       811       853       854       813
 -1       454    1    0    1
 -2       777       836       838       781       813       854       855       815
 -1       455    1    0    1
 -2       781       838       840       785       815       855       856       817
 -1       456    1    0    1
 -2       785       840       842       789       817       856       857       819
 -1       457    1    0    1
 -2       789       842       844       793       819       857       858       821
 -1       458    1    0    1
 -2       793       844       846       797       821       858       859       823
 -1       459    1    0    1
 -2       797       846       848       801       823       859       860       825
 -1       460    1    0    1
 -2       801       848       850       805       825       860       861       827
 -1       461    1    0    1
 -2       829       400       403       830       831       599       600       832
 -1       462    1    0    1
 -2       830       403       409       833       832       600       606       834
 -1       463    1    0    1
 -2       833       409       413       835       834       606       610       836
 -1       464    1    0    1
 -2       835       413       417       837       836       610       614       838
 -1       465    1    0    1
 -2       837       417       421       839       838       614       618       840
 -1       466    1    0    1
 -2       839       421       425       841       840       618       622       842
 -1       467    1    0    1
 -2       841       425       429       843       842       622       626       844
 -1       468    1    0    1
 -2       843       429       433       845       844       626       630       846
 -1       469    1    0    1
 -2       845       433       437       847       846       630       634       848
 -1       470    1    0    1
 -2       847       437       441       849       848       634       638       850
 -1       471    1    0    1
 -2       831       599       600       832       851       598       601       852
 -1       472    1    0    1
 -2       832       600       606       834       852       601       607       853
 -1       473    1    0    1
 -2       834       606       610       836       853       607       611       854
 -1       474    1    0    1
 -2       836       610       614       838       854       611       615       855
 -1       475    1    0    1
 -2       838       614       618       840       855       615       619       856
 -1       476    1    0    1
 -2       840       618       622       842       856       619       623       857
 -1       477    1    0    1
 -2       842       622       626       844       857       623       627       858
 -1       478    1    0    1
 -2       844       626       630       846       858       627       631       859
 -1       479    1    0    1
 -2       846       630       634       848       859       631       635       860
 -1       480    1    0    1
 -2       848       634       638       850       860       635       639       861
 -1       481    1    0    1
 -2       862       863       864       865       866       867       868       869
 -1       482    1    0    1
 -2       865       864       870       871       869       868       872       873
 -1       483    1    0    1
 -2       871       870       874       875       873       872       876       877
 -1       484    1    0    1
 -2       875       874       878       879       877       876       880       881
 -1       485    1    0    1
 -2       879       878       882       883       881       880       884       885
 -1       486    1    0    1
 -2       883       882       886       887       885       884       888       889
 -1       487    1    0    1
 -2       887       886       890       891       889       888       892       893
 -1       488    1    0    1
 -2       891       890       894       895       893       892       896       897
 -1       489    1    0    1
 -2       895       894       898       899       897       896       900       901
 -1       490    1    0    1
 -2       899       898       902       903       901       900       904       905
 -1       491    1    0    1
 -2       866       867       868       869       906       907       908       909
 -1       492    1    0    1
 -2       869       868       872       873       909       908       910       911
 -1       493    1    0    1
 -2       873       872       876       877       911       910       912       913
 -1       494    1    0    1
 -2       877       876       880       881       913       912       914       915
 -1       495    1    0    1
 -2       881       880       884       885       915       914       916       917
 -1       496    1    0    1
 -2       885       884       888       889       917       916       918       919
 -1       497    1    0    1
 -2       889       888       892       893       919       918       920       921
 -1       498    1    0    1
 -2       893       892       896       897       921       920       922       923
 -1       499    1    0    1
 -2       897       896       900       901       923       922       924       925
 -1       500    1    0    1
 -2       901       900       904       905       925       924       926       927
 -1       501    1    0    1
 -2       863       928       929       864       867       930       931       868
 -1       502    1    0    1
 -2       864       929       932       870       868       931       933       872
 -1       503    1    0    1
 -2       870       932       934       874       872       933       935       876
 -1       504    1    0    1
 -2       874       934       936       878       876       935       937       880
 -1       505    1    0    1
 -2       878       936       938       882       880       937       939       884
 -1       506    1    0    1
 -2       882       938       940       886       884       939       941       888
 -1       507    1    0    1
 -2       886       940       942       890       888       941       943       892
 -1       508    1    0    1
 -2       890       942       944       894       892       943       945       896
 -1       509    1    0    1
 -2       894       944       946       898       896       945       947       900
 -1       510    1    0    1
 -2       898       946       948       902       900       947       949       904
 -1       511    1    0    1
 -2       867       930       931       868       907       950       951       908
 -1       512    1    0    1
 -2       868       931       933       872       908       951       952       910
 -1       513    1    0    1
 -2       872       933       935       876       910       952       953       912
 -1       514    1    0    1
 -2       876       935       937       880       912       953       954       914
 -1       515    1    0    1
 -2       880       937       939       884       914       954       955       916
 -1       516    1    0    1
 -2       884       939       941       888       916       955       956       918
 -1       517    1    0    1
 -2       888       941       943       892       918       956       957       920
 -1       518    1    0    1
 -2       892       943       945       896       920       957       958       922
 -1       519    1    0    1
 -2       896       945       947       900       922       958       959       924
 -1       520    1    0    1
 -2       900       947       949       904       924       959       960       926
 -1       521    1    0    1
 -2       961       962       963       964       965       966       967       968
 -1       522    1    0    1
 -2       964       963       969       970       968       967       971       972
 -1       523    1    0    1
 -2       970       969       973       974       972       971       975       976
 -1       524    1    0    1
 -2       974       973       977       978       976       975       979       980
 -1       525    1    0    1
 -2       978       977       981       982       980       979       983       984
 -1       526    1    0    1
 -2       982       981       985       986       984       983       987       988
 -1       527    1    0    1
 -2       986       985       989       990       988       987       991       992
 -1       528    1    0    1
 -2       990       989       993       994       992       991       995       996
 -1       529    1    0    1
 -2       994       993       997       998       996       995       999      1000
 -1       530    1    0    1
 -2       998       997      1001      1002      1000       999      1003      1004
 -1       531    1    0    1
 -2       965       966       967       968      1005      1006      1007      1008
 -1       532    1    0    1
 -2       968       967       971       972      1008      1007      1009      1010
 -1       533    1    0    1
 -2       972       971       975       976      1010      1009      1011      1012
 -1       534    1    0    1
 -2       976       975       979       980      1012      1011      1013      1014
 -1       535    1    0    1
 -2       980       979       983       984      1014      1013      1015      1016
 -1       536    1    0    1
 -2       984       983       987       988      1016      1015      1017      1018
 -1       537    1    0    1
 -2       988       987       991       992      1018      1017      1019      1020
 -1       538    1    0    1
 -2       992       991       995       996      1020      1019      1021      1022
 -1       539    1    0    1
 -2       996       995       999      1000      1022      1021      1023      1024
 -1       540    1    0    1
 -2      1000       999      1003      1004      1024      1023      1025      1026
 -1       541    1    0    1
 -2      1005      1006      1007      1008      1027      1028      1029      1030
 -1       542    1    0    1
 -2      1008      1007      1009      1010      1030      1029      1031      1032
 -1       543    1    0    1
 -2      1010      1009      1011      1012      1032      1031      1033      1034
 -1       544    1    0    1
 -2      1012      1011      1013      1014      1034      1033      1035      1036
 -1       545    1    0    1
 -2      1014      1013      1015      1016      1036      1035      1037      1038
 -1       546    1    0    1
 -2      1016      1015      1017      1018      1038      1037      1039      1040
 -1       547    1    0    1
 -2      1018      1017      1019      1020      1040      1039      1041      1042
 -1       548    1    0    1
 -2      1020      1019      1021      1022      1042      1041      1043      1044
 -1       549    1    0    1
 -2      1022      1021      1023      1024      1044      1043      1045      1046
 -1       550    1    0    1
 -2      1024      1023      1025      1026      1046      1045      1047      1048
 -1       551    1    0    1
 -2      1027      1028      1029      1030       862       863       864       865
 -1       552    1    0    1
 -2      1030      1029      1031      1032       865       864       870       871
 -1       553    1    0    1
 -2      1032      1031      1033      1034       871       870       874       875
 -1       554    1    0    1
 -2      1034      1033      1035      1036       875       874       878       879
 -1       555    1    0    1
 -2      1036      1035      1037      1038       879       878       882       883
 -1       556    1    0    1
 -2      1038      1037      1039      1040       883       882       886       887
 -1       557    1    0    1
 -2      1040      1039      1041      1042       887       886       890       891
 -1       558    1    0    1
 -2      1042      1041      1043      1044       891       890       894       895
 -1       559    1    0    1
 -2      1044      1043      1045      1046       895       894       898       899
 -1       560    1    0    1
 -2      1046      1045      1047      1048       899       898       902       903
 -1       561    1    0    1
 -2       962      1049      1050       963       966      1051      1052       967
 -1       562    1    0    1
 -2       963      1050      1053       969       967      1052      1054       971
 -1       563    1    0    1
 -2       969      1053      1055       973       971      1054      1056       975
 -1       564    1    0    1
 -2       973      1055      1057       977       975      1056      1058       979
 -1       565    1    0    1
 -2       977      1057      1059       981       979      1058      1060       983
 -1       566    1    0    1
 -2       981      1059      1061       985       983      1060      1062       987
 -1       567    1    0    1
 -2       985      1061      1063       989       987      1062      1064       991
 -1       568    1    0    1
 -2       989      1063      1065       993       991      1064      1066       995
 -1       569    1    0    1
 -2       993      1065      1067       997       995      1066      1068       999
 -1       570    1    0    1
 -2       997      1067      1069      1001       999      1068      1070      1003
 -1       571    1    0    1
 -2       966      1051      1052       967      1006      1071      1072      1007
 -1       572    1    0    1
 -2       967      1052      1054       971      1007      1072      1073      1009
 -1       573    1    0    1
 -2       971      1054      1056       975      1009      1073      1074      1011
 -1       574    1    0    1
 -2       975      1056      1058       979      1011      1074      1075      1013
 -1       575    1    0    1
 -2       979      1058      1060       983      1013      1075      1076      1015
 -1       576    1    0    1
 -2       983      1060      1062       987      1015      1076      1077      1017
 -1       577    1    0    1
 -2       987      1062      1064       991      1017      1077      1078      1019
 -1       578    1    0    1
 -2       991      1064      1066       995      1019      1078      1079      1021
 -1       579    1    0    1
 -2       995      1066      1068       999      1021      1079      1080      1023
 -1       580    1    0    1
 -2       999      1068      1070      1003      1023      1080      1081      1025
 -1       581    1    0    1
 -2      1006      1071      1072      1007      1028      1082      1083      1029
 -1       582    1    0    1
 -2      1007      1072      1073      1009      1029      1083      1084      1031
 -1       583    1    0    1
 -2      1009      1073      1074      1011      1031      1084      1085      1033
 -1       584    1    0    1
 -2      1011      1074      1075      1013      1033      1085      1086      1035
 -1       585    1    0    1
 -2      1013      1075      1076      1015      1035      1086      1087      1037
 -1       586    1    0    1
 -2      1015      1076      1077      1017      1037      1087      1088      1039
 -1       587    1    0    1
 -2      1017      1077      1078      1019      1039      1088      1089      1041
 -1       588    1    0    1
 -2      1019      1078      1079      1021      1041      1089      1090      1043
 -1       589    1    0    1
 -2      1021      1079      1080      1023      1043      1090      1091      1045
 -1       590    1    0    1
 -2      1023      1080      1081      1025      1045      1091      1092      1047
 -1       591    1    0    1
 -2      1028      1082      1083      1029       863       928       929       864
 -1       592    1    0    1
 -2      1029      1083      1084      1031       864       929       932       870
 -1       593    1    0    1
 -2      1031      1084      1085      1033       870       932       934       874
 -1       594    1    0    1
 -2      1033      1085      1086      1035       874       934       936       878
 -1       595    1    0    1
 -2      1035      1086      1087      1037       878       936       938       882
 -1       596    1    0    1
 -2      1037      1087      1088      1039       882       938       940       886
 -1       597    1    0    1
 -2      1039      1088      1089      1041       886       940       942       890
 -1       598    1    0    1
 -2      1041      1089      1090      1043       890       942       944       894
 -1       599    1    0    1
 -2      1043      1090      1091      1045       894       944       946       898
 -1       600    1    0    1
 -2      1045      1091      1092      1047       898       946       948       902
 -1       601    1    0    1
 -2      1093      1094      1095      1096      1097      1098      1099      1100
 -1       602    1    0    1
 -2      1096      1095      1101      1102      1100      1099      1103      1104
 -1       603    1    0    1
 -2      1102      1101      1105      1106      1104      1103      1107      1108
 -1       604    1    0    1
 -2      1106      1105      1109      1110      1108      1107      1111      1112
 -1       605    1    0    1
 -2      1110      1109      1113      1114      1112      1111      1115      1116
 -1       606    1    0    1
 -2      1114      1113      1117      1118      1116      1115      1119      1120
 -1       607    1    0    1
 -2      1118      1117      1121      1122      1120      1119      1123      1124
 -1       608    1    0    1
 -2      1122      1121      1125      1126      1124      1123      1127      1128
 -1       609    1    0    1
 -2      1126      1125      1129      1130      1128      1127      1131      1132
 -1       610    1    0    1
 -2      1130      1129      1133      1134      1132      1131      1135      1136
 -1       611    1    0    1
 -2      1097      1098      1099      1100      1137      1138      1139      1140
 -1       612    1    0    1
 -2      1100      1099      1103      1104      1140      1139      1141      1142
 -1       613    1    0    1
 -2      1104      1103      1107      1108      1142      1141      1143      1144
 -1       614    1    0    1
 -2      1108      1107      1111      1112      1144      1143      1145      1146
 -1       615    1    0    1
 -2      1112      1111      1115      1116      1146      1145      1147      1148
 -1       616    1    0    1
 -2      1116      1115      1119      1120      1148      1147      1149      1150
 -1       617    1    0    1
 -2      1120      1119      1123      1124      1150      1149      1151      1152
 -1       618    1    0    1
 -2      1124      1123      1127      1128      1152      1151      1153      1154
 -1       619    1    0    1
 -2      1128      1127      1131      1132      1154      1153      1155      1156
 -1       620    1    0    1
 -2      1132      1131      1135      1136      1156      1155      1157      1158
 -1       621    1    0    1
 -2      1094      1159      1160      1095      1098      1161      1162      1099
 -1       622    1    0    1
 -2      1095      1160      1163      1101      1099      1162      1164      1103
 -1       623    1    0    1
 -2      1101      1163      1165      1105      1103      1164      1166      1107
 -1       624    1    0    1
 -2      1105      1165      1167      1109      1107      1166      1168      1111
 -1       625    1    0    1
 -2      1109      1167      1169      1113      1111      1168      1170      1115
 -1       626    1    0    1
 -2      1113      1169      1171      1117      1115      1170      1172      1119
 -1       627    1    0    1
 -2      1117      1171      1173      1121      1119      1172      1174      1123
 -1       628    1    0    1
 -2      1121      1173      1175      1125      1123      1174      1176      1127
 -1       629    1    0    1
 -2      1125      1175      1177      1129      1127      1176      1178      1131
 -1       630    1    0    1
 -2      1129      1177      1179      1133      1131      1178      1180      1135
 -1       631    1    0    1
 -2      1098      1161      1162      1099      1138      1181      1182      1139
 -1       632    1    0    1
 -2      1099      1162      1164      1103      1139      1182      1183      1141
 -1       633    1    0    1
 -2      1103      1164      1166      1107      1141      1183      1184      1143
 -1       634    1    0    1
 -2      1107      1166      1168      1111      1143      1184      1185      1145
 -1       635    1    0    1
 -2      1111      1168      1170      1115      1145      1185      1186      1147
 -1       636    1    0    1
 -2      1115      1170      1172      1119      1147      1186      1187      1149
 -1       637    1    0    1
 -2      1119      1172      1174      1123      1149      1187      1188      1151
 -1       638    1    0    1
 -2      1123      1174      1176      1127      1151      1188      1189      1153
 -1       639    1    0    1
 -2      1127      1176      1178      1131      1153      1189      1190      1155
 -1       640    1    0    1
 -2      1131      1178      1180      1135      1155      1190      1191      1157
 -1       641    1    0    1
 -2      1159      1192      1193      1160      1161      1194      1195      1162
 -1       642    1    0    1
 -2      1160      1193      1196      1163      1162      1195      1197      1164
 -1       643    1    0    1
 -2      1163      1196      1198      1165      1164      1197      1199      1166
 -1       644    1    0    1
 -2      1165      1198      1200      1167      1166      1199      1201      1168
 -1       645    1    0    1
 -2      1167      1200      1202      1169      1168      1201      1203      1170
 -1       646    1    0    1
 -2      1169      1202      1204      1171      1170      1203      1205      1172
 -1       647    1    0    1
 -2      1171      1204      1206      1173      1172      1205      1207      1174
 -1       648    1    0    1
 -2      1173      1206      1208      1175      1174      1207      1209      1176
 -1       649    1    0    1
 -2      1175      1208      1210      1177      1176      1209      1211      1178
 -1       650    1    0    1
 -2      1177      1210      1212      1179      1178      1211      1213      1180
 -1       651    1    0    1
 -2      1161      1194      1195      1162      1181      1214      1215      1182
 -1       652    1    0    1
 -2      1162      1195      1197      1164      1182      1215      1216      1183
 -1       653    1    0    1
 -2      1164      1197      1199      1166      1183      1216      1217      1184
 -1       654    1    0    1
 -2      1166      1199      1201      1168      1184      1217      1218      1185
 -1       655    1    0    1
 -2      1168      1201      1203      1170      1185      1218      1219      1186
 -1       656    1    0    1
 -2      1170      1203      1205      1172      1186      1219      1220      1187
 -1       657    1    0    1
 -2      1172      1205      1207      1174      1187      1220      1221      1188
 -1       658    1    0    1
 -2      1174      1207      1209      1176      1188      1221      1222      1189
 -1       659    1    0    1
 -2      1176      1209      1211      1178      1189      1222      1223      1190
 -1       660    1    0    1
 -2      1178      1211      1213      1180      1190      1223      1224      1191
 -1       661    1    0    1
 -2      1192      1225      1226      1193      1194      1227      1228      1195
 -1       662    1    0    1
 -2      1193      1226      1229      1196      1195      1228      1230      1197
 -1       663    1    0    1
 -2      1196      1229      1231      1198      1197      1230      1232      1199
 -1       664    1    0    1
 -2      1198      1231      1233      1200      1199      1232      1234      1201
 -1       665    1    0    1
 -2      1200      1233      1235      1202      1201      1234      1236      1203
 -1       666    1    0    1
 -2      1202      1235      1237      1204      1203      1236      1238      1205
 -1       667    1    0    1
 -2      1204      1237      1239      1206      1205      1238      1240      1207
 -1       668    1    0    1
 -2      1206      1239      1241      1208      1207      1240      1242      1209
 -1       669    1    0    1
 -2      1208      1241      1243      1210      1209      1242      1244      1211
 -1       670    1    0    1
 -2      1210      1243      1245      1212      1211      1244      1246      1213
 -1       671    1    0    1
 -2      1194      1227      1228      1195      1214      1247      1248      1215
 -1       672    1    0    1
 -2      1195      1228      1230      1197      1215      1248      1249      1216
 -1       673    1    0    1
 -2      1197      1230      1232      1199      1216      1249      1250      1217
 -1       674    1    0    1
 -2      1199      1232      1234      1201      1217      1250      1251      1218
 -1       675    1    0    1
 -2      1201      1234      1236      1203      1218      1251      1252      1219
 -1       676    1    0    1
 -2      1203      1236      1238      1205      1219      1252      1253      1220
 -1       677    1    0    1
 -2      1205      1238      1240      1207      1220      1253      1254      1221
 -1       678    1    0    1
 -2      1207      1240      1242      1209      1221      1254      1255      1222
 -1       679    1    0    1
 -2      1209      1242      1244      1211      1222      1255      1256      1223
 -1       680    1    0    1
 -2      1211      1244      1246      1213      1223      1256      1257      1224
 -1       681    1    0    1
 -2      1225      1258      1259      1226      1227      1260      1261      1228
 -1       682    1    0    1
 -2      1226      1259      1262      1229      1228      1261      1263      1230
 -1       683    1    0    1
 -2      1229      1262      1264      1231      1230      1263      1265      1232
 -1       684    1    0    1
 -2      1231      1264      1266      1233      1232      1265      1267      1234
 -1       685    1    0    1
 -2      1233      1266      1268      1235      1234      1267      1269      1236
 -1       686    1    0    1
 -2      1235      1268      1270      1237      1236      1269      1271      1238
 -1       687    1    0    1
 -2      1237      1270      1272      1239      1238      1271      1273      1240
 -1       688    1    0    1
 -2      1239      1272      1274      1241      1240      1273      1275      1242
 -1       689    1    0    1
 -2      1241      1274      1276      1243      1242      1275      1277      1244
 -1       690    1    0    1
 -2      1243      1276      1278      1245      1244      1277      1279      1246
 -1       691    1    0    1
 -2      1227      1260      1261      1228      1247      1280      1281      1248
 -1       692    1    0    1
 -2      1228      1261      1263      1230      1248      1281      1282      1249
 -1       693    1    0    1
 -2      1230      1263      1265      1232      1249      1282      1283      1250
 -1       694    1    0    1
 -2      1232      1265      1267      1234      1250      1283      1284      1251
 -1       695    1    0    1
 -2      1234      1267      1269      1236      1251      1284      1285      1252
 -1       696    1    0    1
 -2      1236      1269      1271      1238      1252      1285      1286      1253
 -1       697    1    0    1
 -2      1238      1271      1273      1240      1253      1286      1287      1254
 -1       698    1    0    1
 -2      1240      1273      1275      1242      1254      1287      1288      1255
 -1       699    1    0    1
 -2      1242      1275      1277      1244      1255      1288      1289      1256
 -1       700    1    0    1
 -2      1244      1277      1279      1246      1256      1289      1290      1257
 -1       701    1    0    1
 -2      1258      1291      1292      1259      1260      1293      1294      1261
 -1       702    1    0    1
 -2      1259      1292      1295      1262      1261      1294      1296      1263
 -1       703    1    0    1
 -2      1262      1295      1297      1264      1263      1296      1298      1265
 -1       704    1    0    1
 -2      1264      1297      1299      1266      1265      1298      1300      1267
 -1       705    1    0    1
 -2      1266      1299      1301      1268      1267      1300      1302      1269
 -1       706    1    0    1
 -2      1268      1301      1303      1270      1269      1302      1304      1271
 -1       707    1    0    1
 -2      1270      1303      1305      1272      1271      1304      1306      1273
 -1       708    1    0    1
 -2      1272      1305      1307      1274      1273      1306      1308      1275
 -1       709    1    0    1
 -2      1274      1307      1309      1276      1275      1308      1310      1277
 -1       710    1    0    1
 -2      1276      1309      1311      1278      1277      1310      1312      1279
 -1       711    1    0    1
 -2      1260      1293      1294      1261      1280      1313      1314      1281
 -1       712    1    0    1
 -2      1261      1294      1296      1263      1281      1314      1315      1282
 -1       713    1    0    1
 -2      1263      1296      1298      1265      1282      1315      1316      1283
 -1       714    1    0    1
 -2      1265      1298      1300      1267      1283      1316      1317      1284
 -1       715    1    0    1
 -2      1267      1300      1302      1269      1284      1317      1318      1285
 -1       716    1    0    1
 -2      1269      1302      1304      1271      1285      1318      1319      1286
 -1       717    1    0    1
 -2      1271      1304      1306      1273      1286      1319      1320      1287
 -1       718    1    0    1
 -2      1273      1306      1308      1275      1287      1320      1321      1288
 -1       719    1    0    1
 -2      1275      1308      1310      1277      1288      1321      1322      1289
 -1       720    1    0    1
 -2      1277      1310      1312      1279      1289      1322      1323      1290
 -1       721    1    0    1
 -2      1291      1324      1325      1292      1293      1326      1327      1294
 -1       722    1    0    1
 -2      1292      1325      1328      1295      1294      1327      1329      1296
 -1       723    1    0    1
 -2      1295      1328      1330      1297      1296      1329      1331      1298
 -1       724    1    0    1
 -2      1297      1330      1332      1299      1298      1331      1333      1300
 -1       725    1    0    1
 -2      1299      1332      1334      1301      1300      1333      1335      1302
 -1       726    1    0    1
 -2      1301      1334      1336      1303      1302      1335      1337      1304
 -1       727    1    0    1
 -2      1303      1336      1338      1305      1304      1337      1339      1306
 -1       728    1    0    1
 -2      1305      1338      1340      1307      1306      1339      1341      1308
 -1       729    1    0    1
 -2      1307      1340      1342      1309      1308      1341      1343      1310
 -1       730    1    0    1
 -2      1309      1342      1344      1311      1310      1343      1345      1312
 -1       731    1    0    1
 -2      1293      1326      1327      1294      1313      1346      1347      1314
 -1       732    1    0    1
 -2      1294      1327      1329      1296      1314      1347      1348      1315
 -1       733    1    0    1
 -2      1296      1329      1331      1298      1315      1348      1349      1316
 -1       734    1    0    1
 -2      1298      1331      1333      1300      1316      1349      1350      1317
 -1       735    1    0    1
 -2      1300      1333      1335      1302      1317      1350      1351      1318
 -1       736    1    0    1
 -2      1302      1335      1337      1304      1318      1351      1352      1319
 -1       737    1    0    1
 -2      1304      1337      1339      1306      1319      1352      1353      1320
 -1       738    1    0    1
 -2      1306      1339      1341      1308      1320      1353      1354      1321
 -1       739    1    0    1
 -2      1308      1341      1343      1310      1321      1354      1355      1322
 -1       740    1    0    1
 -2      1310      1343      1345      1312      1322      1355      1356      1323
 -1       741    1    0    1
 -2      1324       862       865      1325      1326       866       869      1327
 -1       742    1    0    1
 -2      1325       865       871      1328      1327       869       873      1329
 -1       743    1    0    1
 -2      1328       871       875      1330      1329       873       877      1331
 -1       744    1    0    1
 -2      1330       875       879      1332      1331       877       881      1333
 -1       745    1    0    1
 -2      1332       879       883      1334      1333       881       885      1335
 -1       746    1    0    1
 -2      1334       883       887      1336      1335       885       889      1337
 -1       747    1    0    1
 -2      1336       887       891      1338      1337       889       893      1339
 -1       748    1    0    1
 -2      1338       891       895      1340      1339       893       897      1341
 -1       749    1    0    1
 -2      1340       895       899      1342      1341       897       901      1343
 -1       750    1    0    1
 -2      1342       899       903      1344      1343       901       905      1345
 -1       751    1    0    1
 -2      1326       866       869      1327      1346       906       909      1347
 -1       752    1    0    1
 -2      1327       869       873      1329      1347       909       911      1348
 -1       753    1    0    1
 -2      1329       873       877      1331      1348       911       913      1349
 -1       754    1    0    1
 -2      1331       877       881      1333      1349       913       915      1350
 -1       755    1    0    1
 -2      1333       881       885      1335      1350       915       917      1351
 -1       756    1    0    1
 -2      1335       885       889      1337      1351       917       919      1352
 -1       757    1    0    1
 -2      1337       889       893      1339      1352       919       921      1353
 -1       758    1    0    1
 -2      1339       893       897      1341      1353       921       923      1354
 -1       759    1    0    1
 -2      1341       897       901      1343      1354       923       925      1355
 -1       760    1    0    1
 -2      1343       901       905      1345      1355       925       927      1356
 -3
    1PSTEP                         1           1           1          
  100CL  101 1.000000000        1353                     0    1           1
 -4  DISP        4    1
 -5  D1          1    2    1    0
 -5  D2          1    2    2    0
 -5  D3          1    2    3    0
 -5  ALL         1    2    0    0    1ALL
 -1         4 0.00000E+00 0.00000E+00 0.00000E+00
 -1         5 0.00000E+00 0.00000E+00 0.00000E+00
 -1         6 7.99922E-05 8.40708E-05 1.14057E-04
 -1         7 8.33922E-05 6.16996E-05 1.05276E-04
 -1         8 0.00000E+00 0.00000E+00 0.00000E+00
 -1         9 0.00000E+00 0.00000E+00 0.00000E+00
 -1        10 1.07512E-05 9.05758E-05 1.00178E-04
 -1        11 1.48532E-05 7.37452E-05 8.56587E-05
 -1        12 1.75954E-04 3.80417E-04 4.44550E-04
 -1        13 1.83192E-04 3.53152E-04 4.29540E-04
 -1        14 2.35082E-05 3.92105E-04 4.27605E-04
 -1        15 3.10711E-05 3.69880E-04 4.07150E-04
 -1        16 2.68432E-04 9.02576E-04 1.01337E-03
 -1        17 2.80357E-04 8.73700E-04 9.97049E-04
 -1        18 3.53173E-05 9.15276E-04 9.94986E-04
 -1        19 4.72050E-05 8.91514E-04 9.73124E-04
 -1        20 3.61450E-04 1.64444E-03 1.81843E-03
 -1        21 3.77209E-04 1.61512E-03 1.80169E-03
 -1        22 4.75948E-05 1.65750E-03 1.79982E-03
 -1        23 6.34095E-05 1.63332E-03 1.77751E-03
 -1        24 4.54390E-04 2.60607E-03 2.86114E-03
 -1        25 4.74305E-04 2.57661E-03 2.84426E-03
 -1        26 5.96382E-05 2.61923E-03 2.84240E-03
 -1        27 7.95411E-05 2.59491E-03 2.81995E-03
 -1        28 5.47317E-04 3.78720E-03 4.14147E-03
 -1        29 5.71231E-04 3.75770E-03 4.12455E-03
 -1        30 7.18005E-05 3.80038E-03 4.12271E-03
 -1        31 9.57227E-05 3.77603E-03 4.10022E-03
 -1        32 6.40259E-04 5.18777E-03 5.65949E-03
 -1        33 6.68233E-04 5.15826E-03 5.64257E-03
 -1        34 8.39010E-05 5.20097E-03 5.64072E-03
 -1        35 1.11874E-04 5.17660E-03 5.61823E-03
 -1        36 7.33188E-04 6.80779E-03 7.41523E-03
 -1        37 7.65195E-04 6.77827E-03 7.39830E-03
 -1        38 9.60341E-05 6.82098E-03 7.39646E-03
 -1        39 1.28043E-04 6.79661E-03 7.37396E-03
 -1        40 8.26125E-04 8.64723E-03 9.40867E-03
 -1        41 8.62176E-04 8.61771E-03 9.39175E-03
 -1        42 1.08150E-04 8.66043E-03 9.38990E-03
 -1        43 1.44202E-04 8.63605E-03 9.36740E-03
 -1        44 9.19058E-04 1.07061E-02 1.16398E-02
 -1        45 9.59149E-04 1.06766E-02 1.16229E-02
 -1        46 1.20274E-04 1.07193E-02 1.16211E-02
 -1        47 1.60365E-04 1.06949E-02 1.15986E-02
 -1        48 0.00000E+00 0.00000E+00 0.00000E+00
 -1        49 0.00000E+00 0.00000E+00 0.00000E+00
 -1        50-5.81660E-05 1.03005E-04 9.18217E-05
 -1        51-5.33060E-05 9.14187E-05 7.12741E-05
 -1        52-1.29220E-04 4.08018E-04 4.14568E-04
 -1        53-1.21370E-04 3.90847E-04 3.88680E-04
 -1        54-1.97607E-04 9.32533E-04 9.80805E-04
 -1        55-1.85732E-04 9.13861E-04 9.53381E-04
 -1        56-2.66379E-04 1.67499E-03 1.78531E-03
 -1        57-2.50523E-04 1.65596E-03 1.75744E-03
 -1        58-3.35044E-04 2.63685E-03 2.82779E-03
 -1        59-3.15144E-04 2.61767E-03 2.79977E-03
 -1        60-4.03756E-04 3.81803E-03 4.10806E-03
 -1        61-3.79831E-04 3.79881E-03 4.08001E-03
 -1        62-4.72434E-04 5.21863E-03 5.62607E-03
 -1        63-4.44461E-04 5.19940E-03 5.59800E-03
 -1        64-5.41132E-04 6.83864E-03 7.38180E-03
 -1        65-5.09123E-04 6.81941E-03 7.35373E-03
 -1        66-6.09818E-04 8.67808E-03 9.37525E-03
 -1        67-5.73767E-04 8.65885E-03 9.34718E-03
 -1        68-6.78510E-04 1.07370E-02 1.16064E-02
 -1        69-6.38419E-04 1.07177E-02 1.15783E-02
 -1        70 0.00000E+00 0.00000E+00 0.00000E+00
 -1        71 8.02265E-05 9.81735E-05 1.17843E-04
 -1        72 0.00000E+00 0.00000E+00 0.00000E+00
 -1        73 7.11332E-06 1.00293E-04 1.08353E-04
 -1        74 1.68549E-04 4.00927E-04 4.53619E-04
 -1        75 1.56209E-05 4.07831E-04 4.41974E-04
 -1        76 2.56904E-04 9.24450E-04 1.02342E-03
 -1        77 2.35953E-05 9.32082E-04 1.01048E-03
 -1        78 3.45635E-04 1.66680E-03 1.82878E-03
 -1        79 3.17028E-05 1.67475E-03 1.81572E-03
 -1        80 4.34532E-04 2.62857E-03 2.87160E-03
 -1        81 3.97712E-05 2.63659E-03 2.85843E-03
 -1        82 5.23387E-04 3.80973E-03 4.15195E-03
 -1        83 4.78615E-05 3.81778E-03 4.13876E-03
 -1        84 6.12293E-04 5.21032E-03 5.66999E-03
 -1        85 5.59366E-05 5.21838E-03 5.65679E-03
 -1        86 7.01177E-04 6.83034E-03 7.42573E-03
 -1        87 6.40216E-05 6.83839E-03 7.41253E-03
 -1        88 7.90074E-04 8.66978E-03 9.41917E-03
 -1        89 7.21008E-05 8.67784E-03 9.40597E-03
 -1        90 8.78966E-04 1.07287E-02 1.16503E-02
 -1        91 8.01826E-05 1.07367E-02 1.16371E-02
 -1        92 0.00000E+00 0.00000E+00 0.00000E+00
 -1        93-6.57801E-05 1.08881E-04 1.04902E-04
 -1        94-1.37505E-04 4.18839E-04 4.34115E-04
 -1        95-2.09579E-04 9.44337E-04 1.00180E-03
 -1        96-2.82312E-04 1.68712E-03 1.80675E-03
 -1        97-3.54940E-04 2.64908E-03 2.84938E-03
 -1        98-4.27694E-04 3.83028E-03 4.12969E-03
 -1        99-5.00403E-04 5.23089E-03 5.64771E-03
 -1       100-5.73143E-04 6.85091E-03 7.40344E-03
 -1       101-6.45869E-04 8.69035E-03 9.39689E-03
 -1       102-7.18601E-04 1.07492E-02 1.16280E-02
 -1       103 0.00000E+00 0.00000E+00 0.00000E+00
 -1       104 7.89401E-05 1.06274E-04 1.18548E-04
 -1       105 0.00000E+00 0.00000E+00 0.00000E+00
 -1       106 3.53966E-06 1.05232E-04 1.12413E-04
 -1       107 1.61325E-04 4.14729E-04 4.57074E-04
 -1       108 7.80228E-06 4.17118E-04 4.50421E-04
 -1       109 2.45139E-04 9.39509E-04 1.02728E-03
 -1       110 1.17981E-05 9.42134E-04 1.01974E-03
 -1       111 3.29882E-04 1.68221E-03 1.83278E-03
 -1       112 1.58573E-05 1.68507E-03 1.82524E-03
 -1       113 4.14632E-04 2.64412E-03 2.87566E-03
 -1       114 1.98797E-05 2.64701E-03 2.86804E-03
 -1       115 4.99473E-04 3.82531E-03 4.15602E-03
 -1       116 2.39345E-05 3.82822E-03 4.14839E-03
 -1       117 5.84320E-04 5.22591E-03 5.67406E-03
 -1       118 2.79662E-05 5.22882E-03 5.66643E-03
 -1       119 6.69170E-04 6.84593E-03 7.42980E-03
 -1       120 3.20118E-05 6.84884E-03 7.42217E-03
 -1       121 7.54023E-04 8.68537E-03 9.42324E-03
 -1       122 3.60500E-05 8.68828E-03 9.41562E-03
 -1       123 8.38875E-04 1.07442E-02 1.16544E-02
 -1       124 4.00913E-05 1.07472E-02 1.16468E-02
 -1       125 0.00000E+00 0.00000E+00 0.00000E+00
 -1       126-7.17499E-05 1.11025E-04 1.12672E-04
 -1       127-1.45821E-04 4.23533E-04 4.47475E-04
 -1       128-2.21474E-04 9.49418E-04 1.01650E-03
 -1       129-2.98210E-04 1.69235E-03 1.82178E-03
 -1       130-3.74847E-04 2.65437E-03 2.86455E-03
 -1       131-4.51619E-04 3.83558E-03 4.14489E-03
 -1       132-5.28378E-04 5.23619E-03 5.66292E-03
 -1       133-6.05151E-04 6.85621E-03 7.41865E-03
 -1       134-6.81921E-04 8.69565E-03 9.41210E-03
 -1       135-7.58693E-04 1.07545E-02 1.16433E-02
 -1       136 0.00000E+00 0.00000E+00 0.00000E+00
 -1       137 7.61067E-05 1.10217E-04 1.16890E-04
 -1       138 0.00000E+00 0.00000E+00 0.00000E+00
 -1       139 2.97197E-18 1.06736E-04 1.13630E-04
 -1       140 1.53800E-04 4.22181E-04 4.55041E-04
 -1       141 6.28169E-18 4.20179E-04 4.53199E-04
 -1       142 2.33321E-04 9.47817E-04 1.02498E-03
 -1       143 1.02186E-17 9.45482E-04 1.02282E-03
 -1       144 3.14073E-04 1.69071E-03 1.83045E-03
 -1       145 1.32569E-17 1.68850E-03 1.82840E-03
 -1       146 3.94741E-04 2.65272E-03 2.87331E-03
 -1       147 1.72422E-17 2.65048E-03 2.87124E-03
 -1       148 4.75548E-04 3.83392E-03 4.15366E-03
 -1       149 2.14624E-17 3.83169E-03 4.15161E-03
 -1       150 5.56350E-04 5.23453E-03 5.67170E-03
 -1       151 2.38192E-17 5.23230E-03 5.66964E-03
 -1       152 6.37160E-04 6.85455E-03 7.42744E-03
 -1       153 2.06159E-17 6.85232E-03 7.42538E-03
 -1       154 7.17972E-04 8.69399E-03 9.42089E-03
 -1       155 2.29763E-17 8.69177E-03 9.41883E-03
 -1       156 7.98784E-04 1.07529E-02 1.16520E-02
 -1       157 2.54985E-17 1.07506E-02 1.16500E-02
 -1       158 0.00000E+00 0.00000E+00 0.00000E+00
 -1       159-7.61067E-05 1.10217E-04 1.16890E-04
 -1       160-1.53800E-04 4.22181E-04 4.55041E-04
 -1       161-2.33321E-04 9.47817E-04 1.02498E-03
 -1       162-3.14073E-04 1.69071E-03 1.83045E-03
 -1       163-3.94741E-04 2.65272E-03 2.87331E-03
 -1       164-4.75548E-04 3.83392E-03 4.15366E-03
 -1       165-5.56350E-04 5.23453E-03 5.67170E-03
 -1       166-6.37160E-04 6.85455E-03 7.42744E-03
 -1       167-7.17972E-04 8.69399E-03 9.42089E-03
 -1       168-7.98784E-04 1.07529E-02 1.16520E-02
 -1       169 0.00000E+00 0.00000E+00 0.00000E+00
 -1       170 7.17499E-05 1.11025E-04 1.12672E-04
 -1       171 0.00000E+00 0.00000E+00 0.00000E+00
 -1       172-3.53966E-06 1.05232E-04 1.12413E-04
 -1       173 1.45821E-04 4.23533E-04 4.47475E-04
 -1       174-7.80228E-06 4.17118E-04 4.50421E-04
 -1       175 2.21474E-04 9.49418E-04 1.01650E-03
 -1       176-1.17981E-05 9.42134E-04 1.01974E-03
 -1       177 2.98210E-04 1.69235E-03 1.82178E-03
 -1       178-1.58573E-05 1.68507E-03 1.82524E-03
 -1       179 3.74847E-04 2.65437E-03 2.86455E-03
 -1       180-1.98797E-05 2.64701E-03 2.86804E-03
 -1       181 4.51619E-04 3.83558E-03 4.14489E-03
 -1       182-2.39345E-05 3.82822E-03 4.14839E-03
 -1       183 5.28378E-04 5.23619E-03 5.66292E-03
 -1       184-2.79662E-05 5.22882E-03 5.66643E-03
 -1       185 6.05151E-04 6.85621E-03 7.41865E-03
 -1       186-3.20118E-05 6.84884E-03 7.42217E-03
 -1       187 6.81921E-04 8.69565E-03 9.41210E-03
 -1       188-3.60500E-05 8.68828E-03 9.41562E-03
 -1       189 7.58693E-04 1.07545E-02 1.16433E-02
 -1       190-4.00913E-05 1.07472E-02 1.16468E-02
 -1       191 0.00000E+00 0.00000E+00 0.00000E+00
 -1       192-7.89401E-05 1.06274E-04 1.18548E-04
 -1       193-1.61325E-04 4.14729E-04 4.57074E-04
 -1       194-2.45139E-04 9.39509E-04 1.02728E-03
 -1       195-3.29882E-04 1.68221E-03 1.83278E-03
 -1       196-4.14632E-04 2.64412E-03 2.87566E-03
 -1       197-4.99473E-04 3.82531E-03 4.15602E-03
 -1       198-5.84320E-04 5.22591E-03 5.67406E-03
 -1       199-6.69170E-04 6.84593E-03 7.42980E-03
 -1       200-7.54023E-04 8.68537E-03 9.42324E-03
 -1       201-8.38875E-04 1.07442E-02 1.16544E-02
 -1       202 0.00000E+00 0.00000E+00 0.00000E+00
 -1       203 6.57801E-05 1.08881E-04 1.04902E-04
 -1       204 0.00000E+00 0.00000E+00 0.00000E+00
 -1       205-7.11332E-06 1.00293E-04 1.08353E-04
 -1       206 1.37505E-04 4.18839E-04 4.34115E-04
 -1       207-1.56209E-05 4.07831E-04 4.41974E-04
 -1       208 2.09579E-04 9.44337E-04 1.00180E-03
 -1       209-2.35953E-05 9.32082E-04 1.01048E-03
 -1       210 2.82312E-04 1.68712E-03 1.80675E-03
 -1       211-3.17028E-05 1.67475E-03 1.81572E-03
 -1       212 3.54940E-04 2.64908E-03 2.84938E-03
 -1       213-3.97712E-05 2.63659E-03 2.85843E-03
 -1       214 4.27694E-04 3.83028E-03 4.12969E-03
 -1       215-4.78615E-05 3.81778E-03 4.13876E-03
 -1       216 5.00403E-04 5.23089E-03 5.64771E-03
 -1       217-5.59366E-05 5.21838E-03 5.65679E-03
 -1       218 5.73143E-04 6.85091E-03 7.40344E-03
 -1       219-6.40216E-05 6.83839E-03 7.41253E-03
 -1       220 6.45869E-04 8.69035E-03 9.39689E-03
 -1       221-7.21008E-05 8.67784E-03 9.40597E-03
 -1       222 7.18601E-04 1.07492E-02 1.16280E-02
 -1       223-8.01826E-05 1.07367E-02 1.16371E-02
 -1       224 0.00000E+00 0.00000E+00 0.00000E+00
 -1       225-8.02265E-05 9.81735E-05 1.17843E-04
 -1       226-1.68549E-04 4.00927E-04 4.53619E-04
 -1       227-2.56904E-04 9.24450E-04 1.02342E-03
 -1       228-3.45635E-04 1.66680E-03 1.82878E-03
 -1       229-4.34532E-04 2.62857E-03 2.87160E-03
 -1       230-5.23387E-04 3.80973E-03 4.15195E-03
 -1       231-6.12293E-04 5.21032E-03 5.66999E-03
 -1       232-7.01177E-04 6.83034E-03 7.42573E-03
 -1       233-7.90074E-04 8.66978E-03 9.41917E-03
 -1       234-8.78966E-04 1.07287E-02 1.16503E-02
 -1       235 0.00000E+00 0.00000E+00 0.00000E+00
 -1       236 5.81660E-05 1.03005E-04 9.18217E-05
 -1       237 0.00000E+00 0.00000E+00 0.00000E+00
 -1       238-1.07512E-05 9.05758E-05 1.00178E-04
 -1       239 1.29220E-04 4.08018E-04 4.14568E-04
 -1       240-2.35082E-05 3.92105E-04 4.27605E-04
 -1       241 1.97607E-04 9.32533E-04 9.80805E-04
 -1       242-3.53173E-05 9.15276E-04 9.94986E-04
 -1       243 2.66379E-04 1.67499E-03 1.78531E-03
 -1       244-4.75948E-05 1.65750E-03 1.79982E-03
 -1       245 3.35044E-04 2.63685E-03 2.82779E-03
 -1       246-5.96382E-05 2.61923E-03 2.84240E-03
 -1       247 4.03756E-04 3.81803E-03 4.10806E-03
 -1       248-7.18005E-05 3.80038E-03 4.12271E-03
 -1       249 4.72434E-04 5.21863E-03 5.62607E-03
 -1       250-8.39010E-05 5.20097E-03 5.64072E-03
 -1       251 5.41132E-04 6.83864E-03 7.38180E-03
 -1       252-9.60341E-05 6.82098E-03 7.39646E-03
 -1       253 6.09818E-04 8.67808E-03 9.37525E-03
 -1       254-1.08150E-04 8.66043E-03 9.38990E-03
 -1       255 6.78510E-04 1.07370E-02 1.16064E-02
 -1       256-1.20274E-04 1.07193E-02 1.16211E-02
 -1       257 0.00000E+00 0.00000E+00 0.00000E+00
 -1       258-7.99922E-05 8.40708E-05 1.14057E-04
 -1       259-1.75954E-04 3.80417E-04 4.44550E-04
 -1       260-2.68432E-04 9.02576E-04 1.01337E-03
 -1       261-3.61450E-04 1.64444E-03 1.81843E-03
 -1       262-4.54390E-04 2.60607E-03 2.86114E-03
 -1       263-5.47317E-04 3.78720E-03 4.14147E-03
 -1       264-6.40259E-04 5.18777E-03 5.65949E-03
 -1       265-7.33188E-04 6.80779E-03 7.41523E-03
 -1       266-8.26125E-04 8.64723E-03 9.40867E-03
 -1       267-9.19058E-04 1.07061E-02 1.16398E-02
 -1       268 0.00000E+00 0.00000E+00 0.00000E+00
 -1       269 5.33060E-05 9.14187E-05 7.12741E-05
 -1       270 0.00000E+00 0.00000E+00 0.00000E+00
 -1       271-1.48532E-05 7.37452E-05 8.56587E-05
 -1       272 1.21370E-04 3.90847E-04 3.88680E-04
 -1       273-3.10711E-05 3.69880E-04 4.07150E-04
 -1       274 1.85732E-04 9.13861E-04 9.53381E-04
 -1       275-4.72050E-05 8.91514E-04 9.73124E-04
 -1       276 2.50523E-04 1.65596E-03 1.75744E-03
 -1       277-6.34095E-05 1.63332E-03 1.77751E-03
 -1       278 3.15144E-04 2.61767E-03 2.79977E-03
 -1       279-7.95411E-05 2.59491E-03 2.81995E-03
 -1       280 3.79831E-04 3.79881E-03 4.08001E-03
 -1       281-9.57227E-05 3.77603E-03 4.10022E-03
 -1       282 4.44461E-04 5.19940E-03 5.59800E-03
 -1       283-1.11874E-04 5.17660E-03 5.61823E-03
 -1       284 5.09123E-04 6.81941E-03 7.35373E-03
 -1       285-1.28043E-04 6.79661E-03 7.37396E-03
 -1       286 5.73767E-04 8.65885E-03 9.34718E-03
 -1       287-1.44202E-04 8.63605E-03 9.36740E-03
 -1       288 6.38419E-04 1.07177E-02 1.15783E-02
 -1       289-1.60365E-04 1.06949E-02 1.15986E-02
 -1       290 0.00000E+00 0.00000E+00 0.00000E+00
 -1       291-8.33922E-05 6.16996E-05 1.05276E-04
 -1       292-1.83192E-04 3.53152E-04 4.29540E-04
 -1       293-2.80357E-04 8.73700E-04 9.97049E-04
 -1       294-3.77209E-04 1.61512E-03 1.80169E-03
 -1       295-4.74305E-04 2.57661E-03 2.84426E-03
 -1       296-5.71231E-04 3.75770E-03 4.12455E-03
 -1       297-6.68233E-04 5.15826E-03 5.64257E-03
 -1       298-7.65195E-04 6.77827E-03 7.39830E-03
 -1       299-8.62176E-04 8.61771E-03 9.39175E-03
 -1       300-9.59149E-04 1.06766E-02 1.16229E-02
 -1       301 0.00000E+00 0.00000E+00 0.00000E+00
 -1       302 0.00000E+00 0.00000E+00 0.00000E+00
 -1       303-9.59542E-05-1.06206E-04 5.44781E-05
 -1       304-8.91492E-05-1.07759E-04 5.16869E-05
 -1       305 0.00000E+00 0.00000E+00 0.00000E+00
 -1       306 0.00000E+00 0.00000E+00 0.00000E+00
 -1       307-8.03655E-05-1.03461E-04 5.25752E-05
 -1       308-7.33983E-05-1.05165E-04 5.02016E-05
 -1       309-2.01674E-04-4.17373E-04 1.90356E-04
 -1       310-1.88231E-04-4.20574E-04 1.88272E-04
 -1       311-1.70304E-04-4.15367E-04 1.86914E-04
 -1       312-1.56838E-04-4.18701E-04 1.85112E-04
 -1       313-3.06944E-04-9.52028E-04 4.22402E-04
 -1       314-2.85905E-04-9.55832E-04 4.20098E-04
 -1       315-2.58242E-04-9.49796E-04 4.18312E-04
 -1       316-2.37187E-04-9.53763E-04 4.16386E-04
 -1       317-4.11672E-04-1.70717E-03 7.50161E-04
 -1       318-3.83591E-04-1.71125E-03 7.47887E-04
 -1       319-3.47001E-04-1.70501E-03 7.45825E-04
 -1       320-3.18903E-04-1.70925E-03 7.43911E-04
 -1       321-5.16817E-04-2.68291E-03 1.17284E-03
 -1       322-4.81531E-04-2.68707E-03 1.17057E-03
 -1       323-4.35185E-04-2.68073E-03 1.16840E-03
 -1       324-3.99909E-04-2.68505E-03 1.16650E-03
 -1       325-6.21733E-04-3.87956E-03 1.69142E-03
 -1       326-5.79254E-04-3.88378E-03 1.68913E-03
 -1       327-5.23824E-04-3.87739E-03 1.68693E-03
 -1       328-4.81330E-04-3.88177E-03 1.68502E-03
 -1       329-7.26765E-04-5.29684E-03 2.30536E-03
 -1       330-6.77148E-04-5.30107E-03 2.30308E-03
 -1       331-6.12113E-04-5.29466E-03 2.30086E-03
 -1       332-5.62506E-04-5.29905E-03 2.29896E-03
 -1       333-8.31746E-04-6.93494E-03 3.01504E-03
 -1       334-7.74926E-04-6.93919E-03 3.01275E-03
 -1       335-7.00658E-04-6.93277E-03 3.01053E-03
 -1       336-6.43830E-04-6.93717E-03 3.00862E-03
 -1       337-9.36747E-04-8.79374E-03 3.82023E-03
 -1       338-8.72777E-04-8.79798E-03 3.81795E-03
 -1       339-7.89036E-04-8.79156E-03 3.81572E-03
 -1       340-7.25070E-04-8.79597E-03 3.81382E-03
 -1       341-1.04174E-03-1.08733E-02 4.72111E-03
 -1       342-9.70594E-04-1.08776E-02 4.71882E-03
 -1       343-8.77497E-04-1.08711E-02 4.71659E-03
 -1       344-8.06348E-04-1.08756E-02 4.71468E-03
 -1       345 0.00000E+00 0.00000E+00 0.00000E+00
 -1       346 0.00000E+00 0.00000E+00 0.00000E+00
 -1       347-6.50355E-05-1.01203E-04 5.04501E-05
 -1       348-5.79556E-05-1.03110E-04 4.85210E-05
 -1       349-1.38587E-04-4.13689E-04 1.83345E-04
 -1       350-1.25232E-04-4.17165E-04 1.81870E-04
 -1       351-2.09840E-04-9.47964E-04 4.14034E-04
 -1       352-1.88690E-04-9.52105E-04 4.12492E-04
 -1       353-2.82077E-04-1.70321E-03 7.41342E-04
 -1       354-2.54044E-04-1.70760E-03 7.39793E-04
 -1       355-3.53748E-04-2.67893E-03 1.16380E-03
 -1       356-3.18429E-04-2.68342E-03 1.16227E-03
 -1       357-4.25768E-04-3.87558E-03 1.68229E-03
 -1       358-3.83301E-04-3.88012E-03 1.68075E-03
 -1       359-4.97564E-04-5.29286E-03 2.29620E-03
 -1       360-4.47940E-04-5.29741E-03 2.29466E-03
 -1       361-5.69504E-04-6.93096E-03 3.00586E-03
 -1       362-5.12686E-04-6.93553E-03 3.00432E-03
 -1       363-6.41357E-04-8.78976E-03 3.81105E-03
 -1       364-5.77387E-04-8.79433E-03 3.80952E-03
 -1       365-7.13251E-04-1.08693E-02 4.71192E-03
 -1       366-6.42103E-04-1.08739E-02 4.71038E-03
 -1       367 0.00000E+00 0.00000E+00 0.00000E+00
 -1       368-1.03482E-04-1.04186E-04 5.75258E-05
 -1       369 0.00000E+00 0.00000E+00 0.00000E+00
 -1       370-8.78727E-05-1.01250E-04 5.51791E-05
 -1       371-2.14552E-04-4.13859E-04 1.92608E-04
 -1       372-1.83212E-04-4.11717E-04 1.88830E-04
 -1       373-3.28540E-04-9.47835E-04 4.24906E-04
 -1       374-2.79806E-04-9.45428E-04 4.20433E-04
 -1       375-4.39344E-04-1.70273E-03 7.52579E-04
 -1       376-3.74704E-04-1.70042E-03 7.47878E-04
 -1       377-5.52422E-04-2.67837E-03 1.17530E-03
 -1       378-4.70764E-04-2.67602E-03 1.17048E-03
 -1       379-6.63984E-04-3.87497E-03 1.69386E-03
 -1       380-5.66095E-04-3.87264E-03 1.68900E-03
 -1       381-7.76543E-04-5.29223E-03 2.30780E-03
 -1       382-6.61877E-04-5.28989E-03 2.30293E-03
 -1       383-8.88466E-04-6.93033E-03 3.01748E-03
 -1       384-7.57387E-04-6.92799E-03 3.01260E-03
 -1       385-1.00077E-03-8.78912E-03 3.82268E-03
 -1       386-8.53051E-04-8.78679E-03 3.81779E-03
 -1       387-1.11289E-03-1.08687E-02 4.72355E-03
 -1       388-9.48645E-04-1.08664E-02 4.71866E-03
 -1       389 0.00000E+00 0.00000E+00 0.00000E+00
 -1       390-7.23274E-05-9.88199E-05 5.25990E-05
 -1       391-1.51534E-04-4.09934E-04 1.84941E-04
 -1       392-2.31304E-04-9.43423E-04 4.15774E-04
 -1       393-3.09839E-04-1.69847E-03 7.43029E-04
 -1       394-3.89271E-04-2.67406E-03 1.16550E-03
 -1       395-4.68076E-04-3.87067E-03 1.68399E-03
 -1       396-5.47300E-04-5.28793E-03 2.29789E-03
 -1       397-6.26250E-04-6.92603E-03 3.00756E-03
 -1       398-7.05363E-04-8.78482E-03 3.81275E-03
 -1       399-7.84400E-04-1.08644E-02 4.71362E-03
 -1       400 0.00000E+00 0.00000E+00 0.00000E+00
 -1       401 0.00000E+00 0.00000E+00 0.00000E+00
 -1       402 3.21473E-05-1.07792E-04 4.25183E-05
 -1       403 5.79556E-05-1.03110E-04 4.85210E-05
 -1       404 0.00000E+00 0.00000E+00 0.00000E+00
 -1       405 0.00000E+00 0.00000E+00 0.00000E+00
 -1       406 4.82815E-05-1.09080E-04 4.32896E-05
 -1       407 7.33983E-05-1.05165E-04 5.02016E-05
 -1       408 7.27372E-05-4.28043E-04 1.77238E-04
 -1       409 1.25232E-04-4.17165E-04 1.81870E-04
 -1       410 1.04676E-04-4.28977E-04 1.79473E-04
 -1       411 1.56838E-04-4.18701E-04 1.85112E-04
 -1       412 1.09696E-04-9.64498E-04 4.08140E-04
 -1       413 1.88690E-04-9.52105E-04 4.12492E-04
 -1       414 1.58227E-04-9.65542E-04 4.10710E-04
 -1       415 2.37187E-04-9.53763E-04 4.16386E-04
 -1       416 1.47561E-04-1.72098E-03 7.35323E-04
 -1       417 2.54044E-04-1.70760E-03 7.39793E-04
 -1       418 2.12502E-04-1.72201E-03 7.38094E-04
 -1       419 3.18903E-04-1.70925E-03 7.43911E-04
 -1       420 1.85194E-04-2.69706E-03 1.15794E-03
 -1       421 3.18429E-04-2.68342E-03 1.16227E-03
 -1       422 2.66673E-04-2.69809E-03 1.16079E-03
 -1       423 3.99909E-04-2.68505E-03 1.16650E-03
 -1       424 2.22805E-04-3.89393E-03 1.67636E-03
 -1       425 3.83301E-04-3.88012E-03 1.68075E-03
 -1       426 3.20849E-04-3.89497E-03 1.67924E-03
 -1       427 4.81330E-04-3.88177E-03 1.68502E-03
 -1       428 2.60460E-04-5.31127E-03 2.29033E-03
 -1       429 4.47940E-04-5.29741E-03 2.29466E-03
 -1       430 3.75025E-04-5.31230E-03 2.29321E-03
 -1       431 5.62506E-04-5.29905E-03 2.29896E-03
 -1       432 2.98063E-04-6.94941E-03 2.99996E-03
 -1       433 5.12686E-04-6.93553E-03 3.00432E-03
 -1       434 4.29209E-04-6.95044E-03 3.00285E-03
 -1       435 6.43830E-04-6.93717E-03 3.00862E-03
 -1       436 3.35701E-04-8.80822E-03 3.80517E-03
 -1       437 5.77387E-04-8.79433E-03 3.80952E-03
 -1       438 4.83385E-04-8.80925E-03 3.80807E-03
 -1       439 7.25070E-04-8.79597E-03 3.81382E-03
 -1       440 3.73320E-04-1.08878E-02 4.70603E-03
 -1       441 6.42103E-04-1.08739E-02 4.71038E-03
 -1       442 5.37566E-04-1.08888E-02 4.70892E-03
 -1       443 8.06348E-04-1.08756E-02 4.71468E-03
 -1       444 0.00000E+00 0.00000E+00 0.00000E+00
 -1       445 0.00000E+00 0.00000E+00 0.00000E+00
 -1       446 6.45843E-05-1.10965E-04 4.38527E-05
 -1       447 8.91492E-05-1.07759E-04 5.16869E-05
 -1       448 1.36406E-04-4.30265E-04 1.81526E-04
 -1       449 1.88231E-04-4.20574E-04 1.88272E-04
 -1       450 2.06930E-04-9.66993E-04 4.13114E-04
 -1       451 2.85905E-04-9.55832E-04 4.20098E-04
 -1       452 2.77303E-04-1.72340E-03 7.40698E-04
 -1       453 3.83591E-04-1.71125E-03 7.47887E-04
 -1       454 3.48259E-04-2.69951E-03 1.16347E-03
 -1       455 4.81531E-04-2.68707E-03 1.17057E-03
 -1       456 4.18811E-04-3.89637E-03 1.68195E-03
 -1       457 5.79254E-04-3.88378E-03 1.68913E-03
 -1       458 4.89649E-04-5.31371E-03 2.29594E-03
 -1       459 6.77148E-04-5.30107E-03 2.30308E-03
 -1       460 5.60318E-04-6.95185E-03 3.00558E-03
 -1       461 7.74926E-04-6.93919E-03 3.01275E-03
 -1       462 6.31087E-04-8.81066E-03 3.81080E-03
 -1       463 8.72777E-04-8.79798E-03 3.81795E-03
 -1       464 7.01811E-04-1.08902E-02 4.71165E-03
 -1       465 9.70594E-04-1.08776E-02 4.71882E-03
 -1       466 0.00000E+00 0.00000E+00 0.00000E+00
 -1       467 7.53440E-06-1.10250E-04 3.89458E-05
 -1       468 0.00000E+00 0.00000E+00 0.00000E+00
 -1       469 2.40289E-05-1.10723E-04 3.93109E-05
 -1       470 2.01549E-05-4.34609E-04 1.74817E-04
 -1       471 5.22808E-05-4.35000E-04 1.75918E-04
 -1       472 3.06444E-05-9.72206E-04 4.06014E-04
 -1       473 7.91691E-05-9.72623E-04 4.07349E-04
 -1       474 4.12398E-05-1.72915E-03 7.33193E-04
 -1       475 1.06236E-04-1.72957E-03 7.34598E-04
 -1       476 5.18557E-05-2.70553E-03 1.15588E-03
 -1       477 1.33329E-04-2.70595E-03 1.15735E-03
 -1       478 6.23859E-05-3.90243E-03 1.67431E-03
 -1       479 1.60437E-04-3.90285E-03 1.67578E-03
 -1       480 7.29338E-05-5.31984E-03 2.28828E-03
 -1       481 1.87502E-04-5.32027E-03 2.28976E-03
 -1       482 8.34666E-05-6.95798E-03 2.99791E-03
 -1       483 2.14611E-04-6.95840E-03 2.99940E-03
 -1       484 9.40038E-05-8.81680E-03 3.80313E-03
 -1       485 2.41689E-04-8.81723E-03 3.80461E-03
 -1       486 1.04537E-04-1.08964E-02 4.70398E-03
 -1       487 2.68783E-04-1.08968E-02 4.70546E-03
 -1       488 0.00000E+00 0.00000E+00 0.00000E+00
 -1       489 4.06187E-05-1.11843E-04 3.94712E-05
 -1       490 8.43054E-05-4.35728E-04 1.76890E-04
 -1       491 1.27786E-04-9.73450E-04 4.08524E-04
 -1       492 1.71159E-04-1.73036E-03 7.35846E-04
 -1       493 2.14860E-04-2.70675E-03 1.15866E-03
 -1       494 2.58444E-04-3.90365E-03 1.67709E-03
 -1       495 3.02103E-04-5.32106E-03 2.29109E-03
 -1       496 3.45735E-04-6.95919E-03 3.00072E-03
 -1       497 3.89385E-04-8.81802E-03 3.80594E-03
 -1       498 4.33028E-04-1.08976E-02 4.70679E-03
 -1       499 0.00000E+00 0.00000E+00 0.00000E+00
 -1       500-1.66409E-05-1.11528E-04 3.79068E-05
 -1       501 0.00000E+00 0.00000E+00 0.00000E+00
 -1       502 5.38942E-17-1.11202E-04 3.80150E-05
 -1       503-3.21774E-05-4.37114E-04 1.74650E-04
 -1       504 1.01399E-16-4.36943E-04 1.74731E-04
 -1       505-4.85487E-05-9.75213E-04 4.06146E-04
 -1       506 1.23527E-16-9.75010E-04 4.06231E-04
 -1       507-6.49934E-05-1.73225E-03 7.33359E-04
 -1       508 1.26331E-16-1.73206E-03 7.33440E-04
 -1       509-8.14913E-05-2.70877E-03 1.15612E-03
 -1       510 1.21475E-16-2.70859E-03 1.15620E-03
 -1       511-9.80380E-05-3.90566E-03 1.67454E-03
 -1       512 1.13324E-16-3.90547E-03 1.67462E-03
 -1       513-1.14581E-04-5.32311E-03 2.28853E-03
 -1       514 9.89879E-17-5.32292E-03 2.28861E-03
 -1       515-1.31136E-04-6.96123E-03 2.99816E-03
 -1       516 8.07189E-17-6.96105E-03 2.99824E-03
 -1       517-1.47690E-04-8.82007E-03 3.80338E-03
 -1       518 6.29340E-17-8.81989E-03 3.80346E-03
 -1       519-1.64245E-04-1.08996E-02 4.70423E-03
 -1       520 2.59666E-17-1.08995E-02 4.70431E-03
 -1       521 0.00000E+00 0.00000E+00 0.00000E+00
 -1       522 1.66409E-05-1.11528E-04 3.79068E-05
 -1       523 3.21774E-05-4.37114E-04 1.74650E-04
 -1       524 4.85487E-05-9.75213E-04 4.06146E-04
 -1       525 6.49934E-05-1.73225E-03 7.33359E-04
 -1       526 8.14913E-05-2.70877E-03 1.15612E-03
 -1       527 9.80380E-05-3.90566E-03 1.67454E-03
 -1       528 1.14581E-04-5.32311E-03 2.28853E-03
 -1       529 1.31136E-04-6.96123E-03 2.99816E-03
 -1       530 1.47690E-04-8.82007E-03 3.80338E-03
 -1       531 1.64245E-04-1.08996E-02 4.70423E-03
 -1       532 0.00000E+00 0.00000E+00 0.00000E+00
 -1       533-4.06187E-05-1.11843E-04 3.94712E-05
 -1       534 0.00000E+00 0.00000E+00 0.00000E+00
 -1       535-2.40289E-05-1.10723E-04 3.93109E-05
 -1       536-8.43054E-05-4.35728E-04 1.76890E-04
 -1       537-5.22808E-05-4.35000E-04 1.75918E-04
 -1       538-1.27786E-04-9.73450E-04 4.08524E-04
 -1       539-7.91691E-05-9.72623E-04 4.07349E-04
 -1       540-1.71159E-04-1.73036E-03 7.35846E-04
 -1       541-1.06236E-04-1.72957E-03 7.34598E-04
 -1       542-2.14860E-04-2.70675E-03 1.15866E-03
 -1       543-1.33329E-04-2.70595E-03 1.15735E-03
 -1       544-2.58444E-04-3.90365E-03 1.67709E-03
 -1       545-1.60437E-04-3.90285E-03 1.67578E-03
 -1       546-3.02103E-04-5.32106E-03 2.29109E-03
 -1       547-1.87502E-04-5.32027E-03 2.28976E-03
 -1       548-3.45735E-04-6.95919E-03 3.00072E-03
 -1       549-2.14611E-04-6.95840E-03 2.99940E-03
 -1       550-3.89385E-04-8.81802E-03 3.80594E-03
 -1       551-2.41689E-04-8.81723E-03 3.80461E-03
 -1       552-4.33028E-04-1.08976E-02 4.70679E-03
 -1       553-2.68783E-04-1.08968E-02 4.70546E-03
 -1       554 0.00000E+00 0.00000E+00 0.00000E+00
 -1       555-7.53440E-06-1.10250E-04 3.89458E-05
 -1       556-2.01549E-05-4.34609E-04 1.74817E-04
 -1       557-3.06444E-05-9.72206E-04 4.06014E-04
 -1       558-4.12398E-05-1.72915E-03 7.33193E-04
 -1       559-5.18557E-05-2.70553E-03 1.15588E-03
 -1       560-6.23859E-05-3.90243E-03 1.67431E-03
 -1       561-7.29338E-05-5.31984E-03 2.28828E-03
 -1       562-8.34666E-05-6.95798E-03 2.99791E-03
 -1       563-9.40038E-05-8.81680E-03 3.80313E-03
 -1       564-1.04537E-04-1.08964E-02 4.70398E-03
 -1       565 0.00000E+00 0.00000E+00 0.00000E+00
 -1       566-6.45843E-05-1.10965E-04 4.38527E-05
 -1       567 0.00000E+00 0.00000E+00 0.00000E+00
 -1       568-4.82815E-05-1.09080E-04 4.32896E-05
 -1       569-1.36406E-04-4.30265E-04 1.81526E-04
 -1       570-1.04676E-04-4.28977E-04 1.79473E-04
 -1       571-2.06930E-04-9.66993E-04 4.13114E-04
 -1       572-1.58227E-04-9.65542E-04 4.10710E-04
 -1       573-2.77303E-04-1.72340E-03 7.40698E-04
 -1       574-2.12502E-04-1.72201E-03 7.38094E-04
 -1       575-3.48259E-04-2.69951E-03 1.16347E-03
 -1       576-2.66673E-04-2.69809E-03 1.16079E-03
 -1       577-4.18811E-04-3.89637E-03 1.68195E-03
 -1       578-3.20849E-04-3.89497E-03 1.67924E-03
 -1       579-4.89649E-04-5.31371E-03 2.29594E-03
 -1       580-3.75025E-04-5.31230E-03 2.29321E-03
 -1       581-5.60318E-04-6.95185E-03 3.00558E-03
 -1       582-4.29209E-04-6.95044E-03 3.00285E-03
 -1       583-6.31087E-04-8.81066E-03 3.81080E-03
 -1       584-4.83385E-04-8.80925E-03 3.80807E-03
 -1       585-7.01811E-04-1.08902E-02 4.71165E-03
 -1       586-5.37566E-04-1.08888E-02 4.70892E-03
 -1       587 0.00000E+00 0.00000E+00 0.00000E+00
 -1       588-3.21473E-05-1.07792E-04 4.25183E-05
 -1       589-7.27372E-05-4.28043E-04 1.77238E-04
 -1       590-1.09696E-04-9.64498E-04 4.08140E-04
 -1       591-1.47561E-04-1.72098E-03 7.35323E-04
 -1       592-1.85194E-04-2.69706E-03 1.15794E-03
 -1       593-2.22805E-04-3.89393E-03 1.67636E-03
 -1       594-2.60460E-04-5.31127E-03 2.29033E-03
 -1       595-2.98063E-04-6.94941E-03 2.99996E-03
 -1       596-3.35701E-04-8.80822E-03 3.80517E-03
 -1       597-3.73320E-04-1.08878E-02 4.70603E-03
 -1       598 0.00000E+00 0.00000E+00 0.00000E+00
 -1       599 0.00000E+00 0.00000E+00 0.00000E+00
 -1       600 6.50355E-05-1.01203E-04 5.04501E-05
 -1       601 7.23274E-05-9.88199E-05 5.25990E-05
 -1       602 0.00000E+00 0.00000E+00 0.00000E+00
 -1       603 0.00000E+00 0.00000E+00 0.00000E+00
 -1       604 8.03655E-05-1.03461E-04 5.25752E-05
 -1       605 8.78727E-05-1.01250E-04 5.51791E-05
 -1       606 1.38587E-04-4.13689E-04 1.83345E-04
 -1       607 1.51534E-04-4.09934E-04 1.84941E-04
 -1       608 1.70304E-04-4.15367E-04 1.86914E-04
 -1       609 1.83212E-04-4.11717E-04 1.88830E-04
 -1       610 2.09840E-04-9.47964E-04 4.14034E-04
 -1       611 2.31304E-04-9.43423E-04 4.15774E-04
 -1       612 2.58242E-04-9.49796E-04 4.18312E-04
 -1       613 2.79806E-04-9.45428E-04 4.20433E-04
 -1       614 2.82077E-04-1.70321E-03 7.41342E-04
 -1       615 3.09839E-04-1.69847E-03 7.43029E-04
 -1       616 3.47001E-04-1.70501E-03 7.45825E-04
 -1       617 3.74704E-04-1.70042E-03 7.47878E-04
 -1       618 3.53748E-04-2.67893E-03 1.16380E-03
 -1       619 3.89271E-04-2.67406E-03 1.16550E-03
 -1       620 4.35185E-04-2.68073E-03 1.16840E-03
 -1       621 4.70764E-04-2.67602E-03 1.17048E-03
 -1       622 4.25768E-04-3.87558E-03 1.68229E-03
 -1       623 4.68076E-04-3.87067E-03 1.68399E-03
 -1       624 5.23824E-04-3.87739E-03 1.68693E-03
 -1       625 5.66095E-04-3.87264E-03 1.68900E-03
 -1       626 4.97564E-04-5.29286E-03 2.29620E-03
 -1       627 5.47300E-04-5.28793E-03 2.29789E-03
 -1       628 6.12113E-04-5.29466E-03 2.30086E-03
 -1       629 6.61877E-04-5.28989E-03 2.30293E-03
 -1       630 5.69504E-04-6.93096E-03 3.00586E-03
 -1       631 6.26250E-04-6.92603E-03 3.00756E-03
 -1       632 7.00658E-04-6.93277E-03 3.01053E-03
 -1       633 7.57387E-04-6.92799E-03 3.01260E-03
 -1       634 6.41357E-04-8.78976E-03 3.81105E-03
 -1       635 7.05363E-04-8.78482E-03 3.81275E-03
 -1       636 7.89036E-04-8.79156E-03 3.81572E-03
 -1       637 8.53051E-04-8.78679E-03 3.81779E-03
 -1       638 7.13251E-04-1.08693E-02 4.71192E-03
 -1       639 7.84400E-04-1.08644E-02 4.71362E-03
 -1       640 8.77497E-04-1.08711E-02 4.71659E-03
 -1       641 9.48645E-04-1.08664E-02 4.71866E-03
 -1       642 0.00000E+00 0.00000E+00 0.00000E+00
 -1       643 0.00000E+00 0.00000E+00 0.00000E+00
 -1       644 9.59542E-05-1.06206E-04 5.44781E-05
 -1       645 1.03482E-04-1.04186E-04 5.75258E-05
 -1       646 2.01674E-04-4.17373E-04 1.90356E-04
 -1       647 2.14552E-04-4.13859E-04 1.92608E-04
 -1       648 3.06944E-04-9.52028E-04 4.22402E-04
 -1       649 3.28540E-04-9.47835E-04 4.24906E-04
 -1       650 4.11672E-04-1.70717E-03 7.50161E-04
 -1       651 4.39344E-04-1.70273E-03 7.52579E-04
 -1       652 5.16817E-04-2.68291E-03 1.17284E-03
 -1       653 5.52422E-04-2.67837E-03 1.17530E-03
 -1       654 6.21733E-04-3.87956E-03 1.69142E-03
 -1       655 6.63984E-04-3.87497E-03 1.69386E-03
 -1       656 7.26765E-04-5.29684E-03 2.30536E-03
 -1       657 7.76543E-04-5.29223E-03 2.30780E-03
 -1       658 8.31746E-04-6.93494E-03 3.01504E-03
 -1       659 8.88466E-04-6.93033E-03 3.01748E-03
 -1       660 9.36747E-04-8.79374E-03 3.82023E-03
 -1       661 1.00077E-03-8.78912E-03 3.82268E-03
 -1       662 1.04174E-03-1.08733E-02 4.72111E-03
 -1       663 1.11289E-03-1.08687E-02 4.72355E-03
 -1       664 0.00000E+00 0.00000E+00 0.00000E+00
 -1       665 0.00000E+00 0.00000E+00 0.00000E+00
 -1       666 7.35913E-06-9.94013E-05 3.97374E-05
 -1       667 3.99655E-05-1.01045E-04 3.44409E-05
 -1       668 0.00000E+00 0.00000E+00 0.00000E+00
 -1       669 0.00000E+00 0.00000E+00 0.00000E+00
 -1       670 1.45490E-06-9.69449E-05 3.95875E-05
 -1       671 3.44326E-05-9.82461E-05 3.32794E-05
 -1       672 1.62635E-05-4.14320E-04 1.66344E-04
 -1       673 8.73208E-05-4.15602E-04 1.57346E-04
 -1       674 3.17879E-06-4.10284E-04 1.66226E-04
 -1       675 7.42652E-05-4.11196E-04 1.56439E-04
 -1       676 2.57864E-05-9.49336E-04 3.93256E-04
 -1       677 1.32908E-04-9.50729E-04 3.82549E-04
 -1       678 4.85286E-06-9.44500E-04 3.93131E-04
 -1       679 1.12071E-04-9.45537E-04 3.81592E-04
 -1       680 3.45477E-05-1.70474E-03 7.19646E-04
 -1       681 1.78937E-04-1.70610E-03 7.08339E-04
 -1       682 6.52923E-06-1.69965E-03 7.19529E-04
 -1       683 1.50901E-04-1.70065E-03 7.07392E-04
 -1       684 4.35274E-05-2.68065E-03 1.14154E-03
 -1       685 2.24466E-04-2.68201E-03 1.13001E-03
 -1       686 8.25758E-06-2.67545E-03 1.14142E-03
 -1       687 1.89221E-04-2.67646E-03 1.12907E-03
 -1       688 5.23820E-05-3.87731E-03 1.65981E-03
 -1       689 2.70253E-04-3.87868E-03 1.64814E-03
 -1       690 9.91835E-06-3.87205E-03 1.65970E-03
 -1       691 2.27784E-04-3.87306E-03 1.64719E-03
 -1       692 6.12690E-05-5.29463E-03 2.27366E-03
 -1       693 3.15857E-04-5.29599E-03 2.26197E-03
 -1       694 1.16491E-05-5.28936E-03 2.27354E-03
 -1       695 2.66241E-04-5.29037E-03 2.26102E-03
 -1       696 7.01357E-05-6.93273E-03 2.98327E-03
 -1       697 3.61558E-04-6.93409E-03 2.97154E-03
 -1       698 1.33215E-05-6.92745E-03 2.98315E-03
 -1       699 3.04743E-04-6.92845E-03 2.97059E-03
 -1       700 7.90073E-05-8.79154E-03 3.78846E-03
 -1       701 4.07199E-04-8.79290E-03 3.77674E-03
 -1       702 1.50354E-05-8.78626E-03 3.78834E-03
 -1       703 3.43227E-04-8.78726E-03 3.77579E-03
 -1       704 8.78764E-05-1.08711E-02 4.68931E-03
 -1       705 4.52866E-04-1.08725E-02 4.67758E-03
 -1       706 1.67280E-05-1.08658E-02 4.68919E-03
 -1       707 3.81718E-04-1.08668E-02 4.67663E-03
 -1       708 0.00000E+00 0.00000E+00 0.00000E+00
 -1       709 0.00000E+00 0.00000E+00 0.00000E+00
 -1       710-4.45740E-06-9.40176E-05 3.96467E-05
 -1       711 2.89630E-05-9.49946E-05 3.23124E-05
 -1       712-9.87491E-06-4.05915E-04 1.66266E-04
 -1       713 6.11707E-05-4.06428E-04 1.55702E-04
 -1       714-1.61207E-05-9.39287E-04 3.93186E-04
 -1       715 9.12410E-05-9.39967E-04 3.80807E-04
 -1       716-2.14411E-05-1.69419E-03 7.19565E-04
 -1       717 1.22877E-04-1.69482E-03 7.06602E-04
 -1       718-2.70606E-05-2.66989E-03 1.14147E-03
 -1       719 1.53955E-04-2.67054E-03 1.12829E-03
 -1       720-3.25011E-05-3.86642E-03 1.65974E-03
 -1       721 1.85340E-04-3.86706E-03 1.64640E-03
 -1       722-3.80066E-05-5.28372E-03 2.27358E-03
 -1       723 2.16603E-04-5.28437E-03 2.26024E-03
 -1       724-4.34675E-05-6.92179E-03 2.98319E-03
 -1       725 2.47945E-04-6.92243E-03 2.96981E-03
 -1       726-4.89494E-05-8.78060E-03 3.78838E-03
 -1       727 2.79247E-04-8.78125E-03 3.77501E-03
 -1       728-5.44204E-05-1.08602E-02 4.68923E-03
 -1       729 3.10569E-04-1.08608E-02 4.67584E-03
 -1       730 0.00000E+00 0.00000E+00 0.00000E+00
 -1       731-2.50506E-05-1.00136E-04 4.43403E-05
 -1       732 0.00000E+00 0.00000E+00 0.00000E+00
 -1       733-3.15738E-05-9.79273E-05 4.52550E-05
 -1       734-5.47278E-05-4.14798E-04 1.74542E-04
 -1       735-6.78339E-05-4.11146E-04 1.75166E-04
 -1       736-8.13409E-05-9.49811E-04 4.03198E-04
 -1       737-1.02435E-04-9.45299E-04 4.03920E-04
 -1       738-1.09791E-04-1.70523E-03 7.30148E-04
 -1       739-1.37779E-04-1.70052E-03 7.30853E-04
 -1       740-1.37447E-04-2.68112E-03 1.15228E-03
 -1       741-1.72758E-04-2.67627E-03 1.15298E-03
 -1       742-1.65452E-04-3.87779E-03 1.67069E-03
 -1       743-2.07908E-04-3.87290E-03 1.67140E-03
 -1       744-1.93345E-04-5.29511E-03 2.28455E-03
 -1       745-2.42972E-04-5.29019E-03 2.28526E-03
 -1       746-2.21268E-04-6.93321E-03 2.99420E-03
 -1       747-2.78082E-04-6.92828E-03 2.99491E-03
 -1       748-2.49193E-04-8.79201E-03 3.79938E-03
 -1       749-3.13165E-04-8.78709E-03 3.80009E-03
 -1       750-2.77113E-04-1.08716E-02 4.70025E-03
 -1       751-3.48262E-04-1.08667E-02 4.70096E-03
 -1       752 0.00000E+00 0.00000E+00 0.00000E+00
 -1       753-3.82454E-05-9.52492E-05 4.63876E-05
 -1       754-8.07939E-05-4.07115E-04 1.75965E-04
 -1       755-1.23687E-04-9.40409E-04 4.04826E-04
 -1       756-1.65630E-04-1.69542E-03 7.31711E-04
 -1       757-2.08187E-04-2.67105E-03 1.15386E-03
 -1       758-2.50269E-04-3.86763E-03 1.67227E-03
 -1       759-2.92668E-04-5.28491E-03 2.28613E-03
 -1       760-3.34849E-04-6.92299E-03 2.99578E-03
 -1       761-3.77161E-04-8.78179E-03 3.80096E-03
 -1       762-4.19410E-04-1.08614E-02 4.70183E-03
 -1       763 0.00000E+00 0.00000E+00 0.00000E+00
 -1       764 0.00000E+00 0.00000E+00 0.00000E+00
 -1       765-7.35913E-06-9.94013E-05 3.97374E-05
 -1       766-3.99655E-05-1.01045E-04 3.44409E-05
 -1       767 0.00000E+00 0.00000E+00 0.00000E+00
 -1       768 0.00000E+00 0.00000E+00 0.00000E+00
 -1       769-1.45490E-06-9.69449E-05 3.95875E-05
 -1       770-3.44326E-05-9.82461E-05 3.32794E-05
 -1       771-1.62635E-05-4.14320E-04 1.66344E-04
 -1       772-8.73208E-05-4.15602E-04 1.57346E-04
 -1       773-3.17879E-06-4.10284E-04 1.66226E-04
 -1       774-7.42652E-05-4.11196E-04 1.56439E-04
 -1       775-2.57864E-05-9.49336E-04 3.93256E-04
 -1       776-1.32908E-04-9.50729E-04 3.82549E-04
 -1       777-4.85286E-06-9.44500E-04 3.93131E-04
 -1       778-1.12071E-04-9.45537E-04 3.81592E-04
 -1       779-3.45477E-05-1.70474E-03 7.19646E-04
 -1       780-1.78937E-04-1.70610E-03 7.08339E-04
 -1       781-6.52923E-06-1.69965E-03 7.19529E-04
 -1       782-1.50901E-04-1.70065E-03 7.07392E-04
 -1       783-4.35274E-05-2.68065E-03 1.14154E-03
 -1       784-2.24466E-04-2.68201E-03 1.13001E-03
 -1       785-8.25758E-06-2.67545E-03 1.14142E-03
 -1       786-1.89221E-04-2.67646E-03 1.12907E-03
 -1       787-5.23820E-05-3.87731E-03 1.65981E-03
 -1       788-2.70253E-04-3.87868E-03 1.64814E-03
 -1       789-9.91835E-06-3.87205E-03 1.65970E-03
 -1       790-2.27784E-04-3.87306E-03 1.64719E-03
 -1       791-6.12690E-05-5.29463E-03 2.27366E-03
 -1       792-3.15857E-04-5.29599E-03 2.26197E-03
 -1       793-1.16491E-05-5.28936E-03 2.27354E-03
 -1       794-2.66241E-04-5.29037E-03 2.26102E-03
 -1       795-7.01357E-05-6.93273E-03 2.98327E-03
 -1       796-3.61558E-04-6.93409E-03 2.97154E-03
 -1       797-1.33215E-05-6.92745E-03 2.98315E-03
 -1       798-3.04743E-04-6.92845E-03 2.97059E-03
 -1       799-7.90073E-05-8.79154E-03 3.78846E-03
 -1       800-4.07199E-04-8.79290E-03 3.77674E-03
 -1       801-1.50354E-05-8.78626E-03 3.78834E-03
 -1       802-3.43227E-04-8.78726E-03 3.77579E-03
 -1       803-8.78764E-05-1.08711E-02 4.68931E-03
 -1       804-4.52866E-04-1.08725E-02 4.67758E-03
 -1       805-1.67280E-05-1.08658E-02 4.68919E-03
 -1       806-3.81718E-04-1.08668E-02 4.67663E-03
 -1       807 0.00000E+00 0.00000E+00 0.00000E+00
 -1       808 0.00000E+00 0.00000E+00 0.00000E+00
 -1       809 4.45740E-06-9.40176E-05 3.96467E-05
 -1       810-2.89630E-05-9.49946E-05 3.23124E-05
 -1       811 9.87491E-06-4.05915E-04 1.66266E-04
 -1       812-6.11707E-05-4.06428E-04 1.55702E-04
 -1       813 1.61207E-05-9.39287E-04 3.93186E-04
 -1       814-9.12410E-05-9.39967E-04 3.80807E-04
 -1       815 2.14411E-05-1.69419E-03 7.19565E-04
 -1       816-1.22877E-04-1.69482E-03 7.06602E-04
 -1       817 2.70606E-05-2.66989E-03 1.14147E-03
 -1       818-1.53955E-04-2.67054E-03 1.12829E-03
 -1       819 3.25011E-05-3.86642E-03 1.65974E-03
 -1       820-1.85340E-04-3.86706E-03 1.64640E-03
 -1       821 3.80066E-05-5.28372E-03 2.27358E-03
 -1       822-2.16603E-04-5.28437E-03 2.26024E-03
 -1       823 4.34675E-05-6.92179E-03 2.98319E-03
 -1       824-2.47945E-04-6.92243E-03 2.96981E-03
 -1       825 4.89494E-05-8.78060E-03 3.78838E-03
 -1       826-2.79247E-04-8.78125E-03 3.77501E-03
 -1       827 5.44204E-05-1.08602E-02 4.68923E-03
 -1       828-3.10569E-04-1.08608E-02 4.67584E-03
 -1       829 0.00000E+00 0.00000E+00 0.00000E+00
 -1       830 2.50506E-05-1.00136E-04 4.43403E-05
 -1       831 0.00000E+00 0.00000E+00 0.00000E+00
 -1       832 3.15738E-05-9.79273E-05 4.52550E-05
 -1       833 5.47278E-05-4.14798E-04 1.74542E-04
 -1       834 6.78339E-05-4.11146E-04 1.75166E-04
 -1       835 8.13409E-05-9.49811E-04 4.03198E-04
 -1       836 1.02435E-04-9.45299E-04 4.03920E-04
 -1       837 1.09791E-04-1.70523E-03 7.30148E-04
 -1       838 1.37779E-04-1.70052E-03 7.30853E-04
 -1       839 1.37447E-04-2.68112E-03 1.15228E-03
 -1       840 1.72758E-04-2.67627E-03 1.15298E-03
 -1       841 1.65452E-04-3.87779E-03 1.67069E-03
 -1       842 2.07908E-04-3.87290E-03 1.67140E-03
 -1       843 1.93345E-04-5.29511E-03 2.28455E-03
 -1       844 2.42972E-04-5.29019E-03 2.28526E-03
 -1       845 2.21268E-04-6.93321E-03 2.99420E-03
 -1       846 2.78082E-04-6.92828E-03 2.99491E-03
 -1       847 2.49193E-04-8.79201E-03 3.79938E-03
 -1       848 3.13165E-04-8.78709E-03 3.80009E-03
 -1       849 2.77113E-04-1.08716E-02 4.70025E-03
 -1       850 3.48262E-04-1.08667E-02 4.70096E-03
 -1       851 0.00000E+00 0.00000E+00 0.00000E+00
 -1       852 3.82454E-05-9.52492E-05 4.63876E-05
 -1       853 8.07939E-05-4.07115E-04 1.75965E-04
 -1       854 1.23687E-04-9.40409E-04 4.04826E-04
 -1       855 1.65630E-04-1.69542E-03 7.31711E-04
 -1       856 2.08187E-04-2.67105E-03 1.15386E-03
 -1       857 2.50269E-04-3.86763E-03 1.67227E-03
 -1       858 2.92668E-04-5.28491E-03 2.28613E-03
 -1       859 3.34849E-04-6.92299E-03 2.99578E-03
 -1       860 3.77161E-04-8.78179E-03 3.80096E-03
 -1       861 4.19410E-04-1.08614E-02 4.70183E-03
 -1       862 0.00000E+00 0.00000E+00 0.00000E+00
 -1       863 0.00000E+00 0.00000E+00 0.00000E+00
 -1       864-6.67417E-05 6.44004E-05 5.14216E-05
 -1       865-5.94772E-05 6.50096E-05 4.94446E-05
 -1       866 0.00000E+00 0.00000E+00 0.00000E+00
 -1       867 0.00000E+00 0.00000E+00 0.00000E+00
 -1       868-7.62453E-05 6.66105E-05 5.21536E-05
 -1       869-6.90840E-05 6.70211E-05 4.99085E-05
 -1       870-1.42400E-04 2.52969E-04 1.89543E-04
 -1       871-1.28612E-04 2.54187E-04 1.88037E-04
 -1       872-1.61408E-04 2.54631E-04 1.90786E-04
 -1       873-1.47488E-04 2.55708E-04 1.89089E-04
 -1       874-2.15561E-04 5.75569E-04 4.27773E-04
 -1       875-1.93748E-04 5.77030E-04 4.26189E-04
 -1       876-2.44857E-04 5.77365E-04 4.29296E-04
 -1       877-2.23153E-04 5.78647E-04 4.27474E-04
 -1       878-2.89741E-04 1.03185E-03 7.65305E-04
 -1       879-2.60854E-04 1.03338E-03 7.63719E-04
 -1       880-3.28927E-04 1.03363E-03 7.66841E-04
 -1       881-2.99965E-04 1.03499E-03 7.65037E-04
 -1       882-3.63318E-04 1.62083E-03 1.20076E-03
 -1       883-3.26915E-04 1.62236E-03 1.19919E-03
 -1       884-4.12476E-04 1.62260E-03 1.20233E-03
 -1       885-3.76120E-04 1.62396E-03 1.20054E-03
 -1       886-4.37289E-04 2.34328E-03 1.73511E-03
 -1       887-3.93531E-04 2.34482E-03 1.73353E-03
 -1       888-4.96491E-04 2.34506E-03 1.73668E-03
 -1       889-4.52704E-04 2.34643E-03 1.73487E-03
 -1       890-5.11010E-04 3.19875E-03 2.36776E-03
 -1       891-4.59870E-04 3.20029E-03 2.36618E-03
 -1       892-5.80141E-04 3.20052E-03 2.36933E-03
 -1       893-5.29018E-04 3.20190E-03 2.36753E-03
 -1       894-5.84887E-04 4.18751E-03 3.09905E-03
 -1       895-5.26340E-04 4.18905E-03 3.09746E-03
 -1       896-6.64056E-04 4.18929E-03 3.10061E-03
 -1       897-6.05500E-04 4.19066E-03 3.09881E-03
 -1       898-6.58673E-04 5.30940E-03 3.92876E-03
 -1       899-5.92754E-04 5.31093E-03 3.92719E-03
 -1       900-7.47801E-04 5.31117E-03 3.93033E-03
 -1       901-6.81885E-04 5.31254E-03 3.92853E-03
 -1       902-7.32502E-04 6.56451E-03 4.85705E-03
 -1       903-6.59188E-04 6.56605E-03 4.85547E-03
 -1       904-8.31628E-04 6.56629E-03 4.85862E-03
 -1       905-7.58315E-04 6.56766E-03 4.85681E-03
 -1       906 0.00000E+00 0.00000E+00 0.00000E+00
 -1       907 0.00000E+00 0.00000E+00 0.00000E+00
 -1       908-8.61085E-05 6.91266E-05 5.26499E-05
 -1       909-7.89859E-05 6.93601E-05 5.01453E-05
 -1       910-1.79979E-04 2.56477E-04 1.91905E-04
 -1       911-1.66090E-04 2.57420E-04 1.90070E-04
 -1       912-2.74541E-04 5.79415E-04 4.30623E-04
 -1       913-2.52815E-04 5.80527E-04 4.28563E-04
 -1       914-3.67796E-04 1.03560E-03 7.68227E-04
 -1       915-3.38862E-04 1.03681E-03 7.66208E-04
 -1       916-4.61877E-04 1.62460E-03 1.20373E-03
 -1       917-4.25496E-04 1.62580E-03 1.20171E-03
 -1       918-5.55514E-04 2.34705E-03 1.73808E-03
 -1       919-5.11748E-04 2.34826E-03 1.73605E-03
 -1       920-6.49398E-04 3.20252E-03 2.37073E-03
 -1       921-5.98260E-04 3.20373E-03 2.36871E-03
 -1       922-7.43146E-04 4.19128E-03 3.10202E-03
 -1       923-6.84600E-04 4.19249E-03 3.09999E-03
 -1       924-8.36966E-04 5.31316E-03 3.93173E-03
 -1       925-7.71046E-04 5.31437E-03 3.92971E-03
 -1       926-9.30755E-04 6.56828E-03 4.86002E-03
 -1       927-8.57442E-04 6.56949E-03 4.85799E-03
 -1       928 0.00000E+00 0.00000E+00 0.00000E+00
 -1       929-7.42473E-05 6.34821E-05 5.36367E-05
 -1       930 0.00000E+00 0.00000E+00 0.00000E+00
 -1       931-8.38303E-05 6.58837E-05 5.46319E-05
 -1       932-1.55865E-04 2.51623E-04 1.91178E-04
 -1       933-1.74855E-04 2.53379E-04 1.92606E-04
 -1       934-2.37647E-04 5.73851E-04 4.29562E-04
 -1       935-2.66992E-04 5.75828E-04 4.31316E-04
 -1       936-3.18402E-04 1.03012E-03 7.67035E-04
 -1       937-3.57548E-04 1.03205E-03 7.68790E-04
 -1       938-3.99899E-04 1.61906E-03 1.20251E-03
 -1       939-4.49092E-04 1.62100E-03 1.20431E-03
 -1       940-4.80913E-04 2.34152E-03 1.73685E-03
 -1       941-5.40087E-04 2.34346E-03 1.73864E-03
 -1       942-5.62246E-04 3.19699E-03 2.36950E-03
 -1       943-6.31398E-04 3.19892E-03 2.37130E-03
 -1       944-6.43372E-04 4.18575E-03 3.10079E-03
 -1       945-7.22528E-04 4.18769E-03 3.10258E-03
 -1       946-7.24623E-04 5.30763E-03 3.93050E-03
 -1       947-8.13757E-04 5.30957E-03 3.93230E-03
 -1       948-8.05815E-04 6.56275E-03 4.85879E-03
 -1       949-9.04942E-04 6.56469E-03 4.86059E-03
 -1       950 0.00000E+00 0.00000E+00 0.00000E+00
 -1       951-9.37109E-05 6.85972E-05 5.53954E-05
 -1       952-1.93401E-04 2.55363E-04 1.93918E-04
 -1       953-2.96704E-04 5.78058E-04 4.32880E-04
 -1       954-3.96388E-04 1.03419E-03 7.70393E-04
 -1       955-4.98519E-04 1.62318E-03 1.20594E-03
 -1       956-5.99089E-04 2.34562E-03 1.74027E-03
 -1       957-7.00670E-04 3.20109E-03 2.37293E-03
 -1       958-8.01607E-04 4.18985E-03 3.10421E-03
 -1       959-9.02927E-04 5.31173E-03 3.93393E-03
 -1       960-1.00407E-03 6.56685E-03 4.86221E-03
 -1       961 0.00000E+00 0.00000E+00 0.00000E+00
 -1       962 0.00000E+00 0.00000E+00 0.00000E+00
 -1       963 3.53872E-05 5.94555E-05 3.62665E-05
 -1       964 4.12202E-05 6.13051E-05 3.74721E-05
 -1       965 0.00000E+00 0.00000E+00 0.00000E+00
 -1       966 0.00000E+00 0.00000E+00 0.00000E+00
 -1       967 1.00142E-05 5.73685E-05 4.12291E-05
 -1       968 1.62042E-05 5.87826E-05 4.16547E-05
 -1       969 7.62614E-05 2.48394E-04 1.65975E-04
 -1       970 8.99322E-05 2.51350E-04 1.66900E-04
 -1       971 2.15363E-05 2.46927E-04 1.73971E-04
 -1       972 3.52227E-05 2.49385E-04 1.74289E-04
 -1       973 1.15081E-04 5.71386E-04 3.99922E-04
 -1       974 1.36542E-04 5.74614E-04 4.00902E-04
 -1       975 3.24248E-05 5.69742E-04 4.08697E-04
 -1       976 5.39511E-05 5.72493E-04 4.09037E-04
 -1       977 1.54636E-04 1.02734E-03 7.36048E-04
 -1       978 1.83607E-04 1.03077E-03 7.37018E-04
 -1       979 4.35543E-05 1.02574E-03 7.45417E-04
 -1       980 7.25213E-05 1.02870E-03 7.45749E-04
 -1       981 1.93968E-04 1.61650E-03 1.17159E-03
 -1       982 2.30322E-04 1.61989E-03 1.17256E-03
 -1       983 5.46374E-05 1.61489E-03 1.18086E-03
 -1       984 9.09929E-05 1.61781E-03 1.18119E-03
 -1       985 2.33375E-04 2.33886E-03 1.70566E-03
 -1       986 2.77137E-04 2.34229E-03 1.70663E-03
 -1       987 6.57127E-05 2.33725E-03 1.71503E-03
 -1       988 1.09479E-04 2.34021E-03 1.71537E-03
 -1       989 2.72757E-04 3.19438E-03 2.33840E-03
 -1       990 3.23903E-04 3.19780E-03 2.33937E-03
 -1       991 7.68146E-05 3.19277E-03 2.34774E-03
 -1       992 1.27957E-04 3.19572E-03 2.34807E-03
 -1       993 3.12155E-04 4.18311E-03 3.06962E-03
 -1       994 3.70693E-04 4.18654E-03 3.07059E-03
 -1       995 8.78938E-05 4.18150E-03 3.07898E-03
 -1       996 1.46435E-04 4.18446E-03 3.07931E-03
 -1       997 3.51543E-04 5.30501E-03 3.89937E-03
 -1       998 4.17467E-04 5.30844E-03 3.90034E-03
 -1       999 9.89889E-05 5.30340E-03 3.90872E-03
 -1      1000 1.64912E-04 5.30635E-03 3.90905E-03
 -1      1001 3.90935E-04 6.56011E-03 4.82763E-03
 -1      1002 4.64249E-04 6.56354E-03 4.82860E-03
 -1      1003 1.10076E-04 6.55851E-03 4.83698E-03
 -1      1004 1.83390E-04 6.56146E-03 4.83732E-03
 -1      1005 0.00000E+00 0.00000E+00 0.00000E+00
 -1      1006 0.00000E+00 0.00000E+00 0.00000E+00
 -1      1007-1.52850E-05 5.74919E-05 4.51693E-05
 -1      1008-8.60884E-06 5.86286E-05 4.47843E-05
 -1      1009-3.31969E-05 2.47206E-04 1.80570E-04
 -1      1010-1.95164E-05 2.49168E-04 1.80294E-04
 -1      1011-5.02621E-05 5.69887E-04 4.16167E-04
 -1      1012-2.86138E-05 5.72208E-04 4.15864E-04
 -1      1013-6.74933E-05 1.02596E-03 7.53454E-04
 -1      1014-3.85548E-05 1.02844E-03 7.53149E-04
 -1      1015-8.47197E-05 1.61507E-03 1.18878E-03
 -1      1016-4.83510E-05 1.61753E-03 1.18848E-03
 -1      1017-1.01932E-04 2.33745E-03 1.72308E-03
 -1      1018-5.81647E-05 2.33994E-03 1.72277E-03
 -1      1019-1.19138E-04 3.19296E-03 2.35573E-03
 -1      1020-6.79993E-05 3.19544E-03 2.35543E-03
 -1      1021-1.36362E-04 4.18170E-03 3.08701E-03
 -1      1022-7.78168E-05 4.18418E-03 3.08670E-03
 -1      1023-1.53567E-04 5.30360E-03 3.91673E-03
 -1      1024-8.76460E-05 5.30608E-03 3.91643E-03
 -1      1025-1.70783E-04 6.55870E-03 4.84501E-03
 -1      1026-9.74694E-05 6.56119E-03 4.84471E-03
 -1      1027 0.00000E+00 0.00000E+00 0.00000E+00
 -1      1028 0.00000E+00 0.00000E+00 0.00000E+00
 -1      1029-4.07101E-05 5.97977E-05 4.85668E-05
 -1      1030-3.36870E-05 6.07784E-05 4.73553E-05
 -1      1031-8.79450E-05 2.49277E-04 1.85688E-04
 -1      1032-7.42725E-05 2.50720E-04 1.84848E-04
 -1      1033-1.32882E-04 5.71810E-04 4.22511E-04
 -1      1034-1.11112E-04 5.73746E-04 4.21553E-04
 -1      1035-1.78597E-04 1.02801E-03 7.60094E-04
 -1      1036-1.49703E-04 1.02998E-03 7.59156E-04
 -1      1037-2.24048E-04 1.61705E-03 1.19540E-03
 -1      1038-1.87654E-04 1.61906E-03 1.19446E-03
 -1      1039-2.69587E-04 2.33946E-03 1.72978E-03
 -1      1040-2.25828E-04 2.34147E-03 1.72884E-03
 -1      1041-3.15089E-04 3.19496E-03 2.36240E-03
 -1      1042-2.63949E-04 3.19697E-03 2.36146E-03
 -1      1043-3.60616E-04 4.18370E-03 3.09370E-03
 -1      1044-3.02070E-04 4.18571E-03 3.09276E-03
 -1      1045-4.06124E-04 5.30560E-03 3.92341E-03
 -1      1046-3.40204E-04 5.30761E-03 3.92247E-03
 -1      1047-4.51642E-04 6.56070E-03 4.85170E-03
 -1      1048-3.78329E-04 6.56272E-03 4.85076E-03
 -1      1049 0.00000E+00 0.00000E+00 0.00000E+00
 -1      1050 2.96424E-05 5.73330E-05 3.52698E-05
 -1      1051 0.00000E+00 0.00000E+00 0.00000E+00
 -1      1052 3.85186E-06 5.56696E-05 4.10273E-05
 -1      1053 6.25181E-05 2.45227E-04 1.65219E-04
 -1      1054 7.82899E-06 2.44253E-04 1.73816E-04
 -1      1055 9.36646E-05 5.67933E-04 3.99118E-04
 -1      1056 1.09061E-05 5.66761E-04 4.08539E-04
 -1      1057 1.25640E-04 1.02369E-03 7.35245E-04
 -1      1058 1.45897E-05 1.02256E-03 7.45248E-04
 -1      1059 1.57624E-04 1.61288E-03 1.17079E-03
 -1      1060 1.82737E-05 1.61174E-03 1.18069E-03
 -1      1061 1.89610E-04 2.33520E-03 1.70486E-03
 -1      1062 2.19567E-05 2.33407E-03 1.71487E-03
 -1      1063 2.21611E-04 3.19074E-03 2.33760E-03
 -1      1064 2.56627E-05 3.18960E-03 2.34757E-03
 -1      1065 2.53618E-04 4.17946E-03 3.06881E-03
 -1      1066 2.93602E-05 4.17832E-03 3.07881E-03
 -1      1067 2.85617E-04 5.30137E-03 3.89857E-03
 -1      1068 3.30617E-05 5.30023E-03 3.90855E-03
 -1      1069 3.17622E-04 6.55646E-03 4.82682E-03
 -1      1070 3.67624E-05 6.55533E-03 4.83682E-03
 -1      1071 0.00000E+00 0.00000E+00 0.00000E+00
 -1      1072-2.20245E-05 5.60602E-05 4.58060E-05
 -1      1073-4.67998E-05 2.45053E-04 1.80993E-04
 -1      1074-7.19833E-05 5.67337E-04 4.16664E-04
 -1      1075-9.63669E-05 1.02326E-03 7.53915E-04
 -1      1076-1.21144E-04 1.61239E-03 1.18926E-03
 -1      1077-1.45655E-04 2.33474E-03 1.72355E-03
 -1      1078-1.70310E-04 3.19026E-03 2.35621E-03
 -1      1079-1.94884E-04 4.17899E-03 3.08748E-03
 -1      1080-2.19500E-04 5.30089E-03 3.91720E-03
 -1      1081-2.44097E-04 6.55599E-03 4.84548E-03
 -1      1082 0.00000E+00 0.00000E+00 0.00000E+00
 -1      1083-4.78985E-05 5.85465E-05 5.00201E-05
 -1      1084-1.01439E-04 2.47587E-04 1.86700E-04
 -1      1085-1.54820E-04 5.69648E-04 4.23660E-04
 -1      1086-2.07348E-04 1.02580E-03 7.61186E-04
 -1      1087-2.60558E-04 1.61483E-03 1.19652E-03
 -1      1088-3.13257E-04 2.33723E-03 1.73088E-03
 -1      1089-3.66295E-04 3.19272E-03 2.36351E-03
 -1      1090-4.19118E-04 4.18146E-03 3.09480E-03
 -1      1091-4.72066E-04 5.30336E-03 3.92452E-03
 -1      1092-5.24956E-04 6.55847E-03 4.85281E-03
 -1      1093 0.00000E+00 0.00000E+00 0.00000E+00
 -1      1094 0.00000E+00 0.00000E+00 0.00000E+00
 -1      1095 8.31038E-05 5.81699E-05 5.28787E-05
 -1      1096 1.05758E-04 5.29546E-05 6.16828E-05
 -1      1097 0.00000E+00 0.00000E+00 0.00000E+00
 -1      1098 0.00000E+00 0.00000E+00 0.00000E+00
 -1      1099 7.46352E-05 5.56096E-05 5.14105E-05
 -1      1100 9.77465E-05 4.98116E-05 5.95451E-05
 -1      1101 1.79369E-04 2.39040E-04 1.93660E-04
 -1      1102 2.21695E-04 2.29302E-04 2.00513E-04
 -1      1103 1.60649E-04 2.37218E-04 1.90782E-04
 -1      1104 2.03059E-04 2.27012E-04 1.96930E-04
 -1      1105 2.71372E-04 5.58454E-04 4.32402E-04
 -1      1106 3.38652E-04 5.47713E-04 4.39742E-04
 -1      1107 2.42233E-04 5.56428E-04 4.29174E-04
 -1      1108 3.09550E-04 5.45143E-04 4.35821E-04
 -1      1109 3.65043E-04 1.01263E-03 7.69995E-04
 -1      1110 4.54005E-04 1.00127E-03 7.77228E-04
 -1      1111 3.26029E-04 1.01066E-03 7.66580E-04
 -1      1112 4.15018E-04 9.98801E-04 7.73114E-04
 -1      1113 4.57906E-04 1.60122E-03 1.20567E-03
 -1      1114 5.70259E-04 1.58969E-03 1.21291E-03
 -1      1115 4.08659E-04 1.59924E-03 1.20219E-03
 -1      1116 5.21009E-04 1.58719E-03 1.20874E-03
 -1      1117 5.51040E-04 2.32336E-03 1.73995E-03
 -1      1118 6.85850E-04 2.31176E-03 1.74720E-03
 -1      1119 4.91946E-04 2.32138E-03 1.73645E-03
 -1      1120 6.26763E-04 2.30927E-03 1.74301E-03
 -1      1121 6.44052E-04 3.17881E-03 2.37266E-03
 -1      1122 8.01825E-04 3.16720E-03 2.37990E-03
 -1      1123 5.74847E-04 3.17684E-03 2.36916E-03
 -1      1124 7.32616E-04 3.16471E-03 2.37570E-03
 -1      1125 7.37095E-04 4.16752E-03 3.10391E-03
 -1      1126 9.17550E-04 4.15590E-03 3.11116E-03
 -1      1127 6.57979E-04 4.16554E-03 3.10041E-03
 -1      1128 8.38437E-04 4.15340E-03 3.10696E-03
 -1      1129 8.30132E-04 5.28942E-03 3.93365E-03
 -1      1130 1.03342E-03 5.27780E-03 3.94090E-03
 -1      1131 7.40979E-04 5.28744E-03 3.93015E-03
 -1      1132 9.44263E-04 5.27530E-03 3.93670E-03
 -1      1133 9.23167E-04 6.54451E-03 4.86192E-03
 -1      1134 1.14922E-03 6.53289E-03 4.86917E-03
 -1      1135 8.24040E-04 6.54253E-03 4.85841E-03
 -1      1136 1.05009E-03 6.53040E-03 4.86497E-03
 -1      1137 0.00000E+00 0.00000E+00 0.00000E+00
 -1      1138 0.00000E+00 0.00000E+00 0.00000E+00
 -1      1139 6.64467E-05 5.33545E-05 4.97427E-05
 -1      1140 9.00607E-05 4.69559E-05 5.72197E-05
 -1      1141 1.41622E-04 2.35619E-04 1.87752E-04
 -1      1142 1.84079E-04 2.24951E-04 1.93197E-04
 -1      1143 2.13366E-04 5.54635E-04 4.25771E-04
 -1      1144 2.80749E-04 5.42802E-04 4.31722E-04
 -1      1145 2.86791E-04 1.00891E-03 7.63003E-04
 -1      1146 3.75784E-04 9.96562E-04 7.68841E-04
 -1      1147 3.59588E-04 1.59748E-03 1.19854E-03
 -1      1148 4.71952E-04 1.58491E-03 1.20440E-03
 -1      1149 4.32717E-04 2.31962E-03 1.73279E-03
 -1      1150 5.67530E-04 2.30701E-03 1.73865E-03
 -1      1151 5.05737E-04 3.17508E-03 2.36549E-03
 -1      1152 6.63512E-04 3.16244E-03 2.37134E-03
 -1      1153 5.78800E-04 4.16378E-03 3.09674E-03
 -1      1154 7.59255E-04 4.15113E-03 3.10260E-03
 -1      1155 6.51857E-04 5.28568E-03 3.92648E-03
 -1      1156 8.55142E-04 5.27303E-03 3.93233E-03
 -1      1157 7.24913E-04 6.54077E-03 4.85474E-03
 -1      1158 9.50964E-04 6.52813E-03 4.86060E-03
 -1      1159 0.00000E+00 0.00000E+00 0.00000E+00
 -1      1160 6.27436E-05 6.15144E-05 4.64577E-05
 -1      1161 0.00000E+00 0.00000E+00 0.00000E+00
 -1      1162 5.37244E-05 5.95814E-05 4.54961E-05
 -1      1163 1.35235E-04 2.46696E-04 1.88083E-04
 -1      1164 1.16393E-04 2.45344E-04 1.85860E-04
 -1      1165 2.05240E-04 5.67091E-04 4.26821E-04
 -1      1166 1.76065E-04 5.65590E-04 4.24269E-04
 -1      1167 2.75441E-04 1.02184E-03 7.64286E-04
 -1      1168 2.36378E-04 1.02038E-03 7.61561E-04
 -1      1169 3.45917E-04 1.61062E-03 1.20003E-03
 -1      1170 2.96683E-04 1.60915E-03 1.19724E-03
 -1      1171 4.16029E-04 2.33281E-03 1.73427E-03
 -1      1172 3.56918E-04 2.33134E-03 1.73147E-03
 -1      1173 4.86392E-04 3.18829E-03 2.36700E-03
 -1      1174 4.17196E-04 3.18683E-03 2.36419E-03
 -1      1175 5.56581E-04 4.17700E-03 3.09824E-03
 -1      1176 4.77458E-04 4.17553E-03 3.09543E-03
 -1      1177 6.26873E-04 5.29890E-03 3.92799E-03
 -1      1178 5.37723E-04 5.29743E-03 3.92518E-03
 -1      1179 6.97116E-04 6.55400E-03 4.85625E-03
 -1      1180 5.97989E-04 6.55253E-03 4.85344E-03
 -1      1181 0.00000E+00 0.00000E+00 0.00000E+00
 -1      1182 4.49134E-05 5.79848E-05 4.43218E-05
 -1      1183 9.73166E-05 2.44207E-04 1.83485E-04
 -1      1184 1.47098E-04 5.64327E-04 4.21548E-04
 -1      1185 1.97144E-04 1.01914E-03 7.58671E-04
 -1      1186 2.47586E-04 1.60791E-03 1.19429E-03
 -1      1187 2.97701E-04 2.33010E-03 1.72850E-03
 -1      1188 3.48076E-04 3.18558E-03 2.36121E-03
 -1      1189 3.98286E-04 4.17429E-03 3.09245E-03
 -1      1190 4.48598E-04 5.29619E-03 3.92220E-03
 -1      1191 4.98862E-04 6.55129E-03 4.85046E-03
 -1      1192 0.00000E+00 0.00000E+00 0.00000E+00
 -1      1193 4.26260E-05 6.35774E-05 4.22540E-05
 -1      1194 0.00000E+00 0.00000E+00 0.00000E+00
 -1      1195 3.32421E-05 6.22903E-05 4.16286E-05
 -1      1196 9.12879E-05 2.52385E-04 1.84009E-04
 -1      1197 7.23059E-05 2.51505E-04 1.82398E-04
 -1      1198 1.38723E-04 5.73669E-04 4.22824E-04
 -1      1199 1.09538E-04 5.72689E-04 4.20937E-04
 -1      1200 1.86156E-04 1.02894E-03 7.60202E-04
 -1      1201 1.47036E-04 1.02799E-03 7.58155E-04
 -1      1202 2.33704E-04 1.61790E-03 1.19595E-03
 -1      1203 1.84493E-04 1.61694E-03 1.19385E-03
 -1      1204 2.81159E-04 2.34013E-03 1.73019E-03
 -1      1205 2.22025E-04 2.33917E-03 1.72808E-03
 -1      1206 3.28647E-04 3.19564E-03 2.36292E-03
 -1      1207 2.59464E-04 3.19468E-03 2.36080E-03
 -1      1208 3.76115E-04 4.18434E-03 3.09416E-03
 -1      1209 2.96983E-04 4.18339E-03 3.09204E-03
 -1      1210 4.23593E-04 5.30625E-03 3.92391E-03
 -1      1211 3.34447E-04 5.30530E-03 3.92179E-03
 -1      1212 4.71065E-04 6.56135E-03 4.85217E-03
 -1      1213 3.71938E-04 6.56039E-03 4.85005E-03
 -1      1214 0.00000E+00 0.00000E+00 0.00000E+00
 -1      1215 2.39896E-05 6.13631E-05 4.07888E-05
 -1      1216 5.31750E-05 2.50836E-04 1.80633E-04
 -1      1217 8.04856E-05 5.71950E-04 4.18880E-04
 -1      1218 1.07806E-04 1.02726E-03 7.55942E-04
 -1      1219 1.35370E-04 1.61621E-03 1.19159E-03
 -1      1220 1.62823E-04 2.33844E-03 1.72580E-03
 -1      1221 1.90330E-04 3.19395E-03 2.35851E-03
 -1      1222 2.17818E-04 4.18266E-03 3.08976E-03
 -1      1223 2.45317E-04 5.30457E-03 3.91950E-03
 -1      1224 2.72812E-04 6.55966E-03 4.84777E-03
 -1      1225 0.00000E+00 0.00000E+00 0.00000E+00
 -1      1226 2.26103E-05 6.47867E-05 4.00361E-05
 -1      1227 0.00000E+00 0.00000E+00 0.00000E+00
 -1      1228 1.29806E-05 6.41601E-05 3.96361E-05
 -1      1229 4.73875E-05 2.56247E-04 1.81567E-04
 -1      1230 2.82879E-05 2.55839E-04 1.80524E-04
 -1      1231 7.21518E-05 5.78210E-04 4.20376E-04
 -1      1232 4.29618E-05 5.77751E-04 4.19146E-04
 -1      1233 9.68437E-05 1.03397E-03 7.57728E-04
 -1      1234 5.76703E-05 1.03353E-03 7.56346E-04
 -1      1235 1.21541E-04 1.62304E-03 1.19344E-03
 -1      1236 7.23569E-05 1.62260E-03 1.19204E-03
 -1      1237 1.46239E-04 2.34532E-03 1.72769E-03
 -1      1238 8.70797E-05 2.34487E-03 1.72627E-03
 -1      1239 1.70938E-04 3.20085E-03 2.36041E-03
 -1      1240 1.01771E-04 3.20040E-03 2.35899E-03
 -1      1241 1.95625E-04 4.18955E-03 3.09166E-03
 -1      1242 1.16483E-04 4.18911E-03 3.09023E-03
 -1      1243 2.20323E-04 5.31146E-03 3.92140E-03
 -1      1244 1.31183E-04 5.31102E-03 3.91998E-03
 -1      1245 2.45015E-04 6.56656E-03 4.84967E-03
 -1      1246 1.45888E-04 6.56612E-03 4.84824E-03
 -1      1247 0.00000E+00 0.00000E+00 0.00000E+00
 -1      1248 3.40293E-06 6.39094E-05 3.90188E-05
 -1      1249 9.12870E-06 2.55638E-04 1.79331E-04
 -1      1250 1.38247E-05 5.77537E-04 4.17748E-04
 -1      1251 1.84529E-05 1.03331E-03 7.54799E-04
 -1      1252 2.32077E-05 1.62238E-03 1.19047E-03
 -1      1253 2.78931E-05 2.34465E-03 1.72468E-03
 -1      1254 3.26236E-05 3.20018E-03 2.35740E-03
 -1      1255 3.73270E-05 4.18889E-03 3.08864E-03
 -1      1256 4.20484E-05 5.31080E-03 3.91838E-03
 -1      1257 4.67610E-05 6.56590E-03 4.84665E-03
 -1      1258 0.00000E+00 0.00000E+00 0.00000E+00
 -1      1259 2.56036E-06 6.54304E-05 3.96889E-05
 -1      1260 0.00000E+00 0.00000E+00 0.00000E+00
 -1      1261-7.22043E-06 6.54716E-05 3.94358E-05
 -1      1262 3.46630E-06 2.58388E-04 1.80775E-04
 -1      1263-1.56807E-05 2.58450E-04 1.80288E-04
 -1      1264 5.57778E-06 5.80733E-04 4.19482E-04
 -1      1265-2.36389E-05 5.80795E-04 4.18899E-04
 -1      1266 7.51278E-06 1.03697E-03 7.56848E-04
 -1      1267-3.16913E-05 1.03704E-03 7.56126E-04
 -1      1268 9.38425E-06 1.62604E-03 1.19251E-03
 -1      1269-3.97811E-05 1.62611E-03 1.19180E-03
 -1      1270 1.13201E-05 2.34839E-03 1.72678E-03
 -1      1271-4.78604E-05 2.34846E-03 1.72604E-03
 -1      1272 1.32234E-05 3.20391E-03 2.35949E-03
 -1      1273-5.59288E-05 3.20398E-03 2.35876E-03
 -1      1274 1.51411E-05 4.19263E-03 3.09074E-03
 -1      1275-6.40118E-05 4.19270E-03 3.09000E-03
 -1      1276 1.70506E-05 5.31454E-03 3.92048E-03
 -1      1277-7.20850E-05 5.31461E-03 3.91975E-03
 -1      1278 1.89640E-05 6.56964E-03 4.84875E-03
 -1      1279-8.01628E-05 6.56970E-03 4.84801E-03
 -1      1280 0.00000E+00 0.00000E+00 0.00000E+00
 -1      1281-1.70286E-05 6.58975E-05 3.89654E-05
 -1      1282-3.47964E-05 2.58719E-04 1.79642E-04
 -1      1283-5.28836E-05 5.81106E-04 4.18143E-04
 -1      1284-7.08718E-05 1.03733E-03 7.55238E-04
 -1      1285-8.89657E-05 1.62641E-03 1.19093E-03
 -1      1286-1.07026E-04 2.34875E-03 1.72514E-03
 -1      1287-1.25092E-04 3.20427E-03 2.35786E-03
 -1      1288-1.43158E-04 4.19299E-03 3.08910E-03
 -1      1289-1.61224E-04 5.31490E-03 3.91885E-03
 -1      1290-1.79290E-04 6.57000E-03 4.84711E-03
 -1      1291 0.00000E+00 0.00000E+00 0.00000E+00
 -1      1292-1.76295E-05 6.57208E-05 4.11795E-05
 -1      1293 0.00000E+00 0.00000E+00 0.00000E+00
 -1      1294-2.74743E-05 6.64287E-05 4.10222E-05
 -1      1295-4.05643E-05 2.58797E-04 1.81603E-04
 -1      1296-5.96662E-05 2.59334E-04 1.81680E-04
 -1      1297-6.09288E-05 5.81307E-04 4.20165E-04
 -1      1298-9.02107E-05 5.81889E-04 4.20191E-04
 -1      1299-8.18652E-05 1.03792E-03 7.57545E-04
 -1      1300-1.21058E-04 1.03850E-03 7.57496E-04
 -1      1301-1.02758E-04 1.62690E-03 1.19317E-03
 -1      1302-1.51925E-04 1.62748E-03 1.19315E-03
 -1      1303-1.23606E-04 2.34935E-03 1.72744E-03
 -1      1304-1.82795E-04 2.34993E-03 1.72740E-03
 -1      1305-1.44486E-04 3.20483E-03 2.36014E-03
 -1      1306-2.13630E-04 3.20541E-03 2.36010E-03
 -1      1307-1.65347E-04 4.19358E-03 3.09140E-03
 -1      1308-2.44506E-04 4.19416E-03 3.09136E-03
 -1      1309-1.86220E-04 5.31547E-03 3.92113E-03
 -1      1310-2.75352E-04 5.31605E-03 3.92110E-03
 -1      1311-2.07087E-04 6.57058E-03 4.84941E-03
 -1      1312-3.06213E-04 6.57116E-03 4.84936E-03
 -1      1313 0.00000E+00 0.00000E+00 0.00000E+00
 -1      1314-3.74276E-05 6.75250E-05 4.06468E-05
 -1      1315-7.86482E-05 2.60069E-04 1.81619E-04
 -1      1316-1.19601E-04 5.82727E-04 4.20049E-04
 -1      1317-1.60161E-04 1.03930E-03 7.57284E-04
 -1      1318-2.01165E-04 1.62829E-03 1.19296E-03
 -1      1319-2.41926E-04 2.35073E-03 1.72718E-03
 -1      1320-2.82816E-04 3.20622E-03 2.35990E-03
 -1      1321-3.23639E-04 4.19497E-03 3.09115E-03
 -1      1322-3.64498E-04 5.31686E-03 3.92089E-03
 -1      1323-4.05340E-04 6.57197E-03 4.84916E-03
 -1      1324 0.00000E+00 0.00000E+00 0.00000E+00
 -1      1325-3.81205E-05 6.57105E-05 4.44820E-05
 -1      1326 0.00000E+00 0.00000E+00 0.00000E+00
 -1      1327-4.79374E-05 6.71031E-05 4.44567E-05
 -1      1328-8.47179E-05 2.57394E-04 1.83997E-04
 -1      1329-1.03712E-04 2.58379E-04 1.84685E-04
 -1      1330-1.27310E-04 5.80058E-04 4.22423E-04
 -1      1331-1.56683E-04 5.81170E-04 4.23028E-04
 -1      1332-1.71328E-04 1.03675E-03 7.59819E-04
 -1      1333-2.10472E-04 1.03784E-03 7.60474E-04
 -1      1334-2.14873E-04 1.62566E-03 1.19541E-03
 -1      1335-2.64064E-04 1.62675E-03 1.19606E-03
 -1      1336-2.58538E-04 2.34817E-03 1.72969E-03
 -1      1337-3.17718E-04 2.34926E-03 1.73034E-03
 -1      1338-3.02199E-04 3.20362E-03 2.36238E-03
 -1      1339-3.71345E-04 3.20471E-03 2.36303E-03
 -1      1340-3.45831E-04 4.19239E-03 3.09364E-03
 -1      1341-4.24992E-04 4.19348E-03 3.09429E-03
 -1      1342-3.89493E-04 5.31427E-03 3.92337E-03
 -1      1343-4.78624E-04 5.31536E-03 3.92402E-03
 -1      1344-4.33137E-04 6.56939E-03 4.85165E-03
 -1      1345-5.32264E-04 6.57048E-03 4.85230E-03
 -1      1346 0.00000E+00 0.00000E+00 0.00000E+00
 -1      1347-5.79329E-05 6.88478E-05 4.42303E-05
 -1      1348-1.22494E-04 2.59587E-04 1.85182E-04
 -1      1349-1.86241E-04 5.82534E-04 4.23466E-04
 -1      1350-2.49461E-04 1.03914E-03 7.60959E-04
 -1      1351-3.13379E-04 1.62808E-03 1.19655E-03
 -1      1352-3.76803E-04 2.35058E-03 1.73082E-03
 -1      1353-4.40560E-04 3.20603E-03 2.36352E-03
 -1      1354-5.04107E-04 4.19480E-03 3.09477E-03
 -1      1355-5.67777E-04 5.31668E-03 3.92451E-03
 -1      1356-6.31391E-04 6.57180E-03 4.85278E-03
 -3
    1PSTEP                         2           1           1          
  100CL  101 1.000000000        1353                     0    1           1
 -4  STRESS      6    1
 -5  SXX         1    4    1    1
 -5  SYY         1    4    2    2
 -5  SZZ         1    4    3    3
 -5  SXY         1    4    1    2
 -5  SYZ         1    4    2    3
 -5  SZX         1    4    3    1
 -1         4 9.82820E-01 2.92767E-01 3.58085E-01-1.26653E-01-4.55686E-02-1.00530E-03
 -1         5 9.44453E-01 3.15220E-01 3.08531E-01-5.65172E-02-5.15566E-02 4.17059E-02
 -1         6 9.42180E-01-3.88202E-02-6.25626E-02-4.18175E-02-2.59877E-02 4.96028E-02
 -1         7 9.71094E-01-4.35138E-02-1.01320E-01-7.95836E-02-9.30865E-03 5.90465E-03
 -1         8 1.73628E-01 3.63224E-02 1.02057E-01-6.78528E-02 3.11008E-03-6.20232E-02
 -1         9 1.25200E-01 5.69549E-02 5.16575E-02-1.00748E-02-9.54949E-05-6.07111E-03
 -1        10 1.28111E-01 1.54229E-04-2.61628E-02 3.09605E-03-1.27291E-03 4.57886E-03
 -1        11 1.67564E-01 1.21627E-02-4.70827E-02-3.78099E-02-9.82299E-04-3.62086E-02
 -1        12 9.90168E-01 1.70205E-02 1.77751E-02-1.66692E-02-1.82026E-03 1.45345E-02
 -1        13 1.03348E+00 1.45749E-02 1.93319E-02-2.21935E-02-1.15811E-04 3.41247E-03
 -1        14 1.27813E-01 1.30414E-03 4.35614E-03-5.59810E-04 7.06950E-04-1.57296E-03
 -1        15 1.68635E-01 1.35561E-03 7.25012E-03-8.89702E-03 3.85425E-04-1.00928E-02
 -1        16 9.75878E-01 8.16372E-04-1.70241E-03-3.80834E-03-2.80292E-03 4.52033E-03
 -1        17 1.02000E+00-4.08277E-04-2.72175E-03-7.02922E-03-1.56070E-03 1.44260E-04
 -1        18 1.26714E-01 1.07287E-03-2.03967E-03 1.79905E-04-2.14989E-04 5.22287E-04
 -1        19 1.70031E-01-4.58483E-05-2.32060E-03-3.69949E-03-1.09501E-04-3.22357E-03
 -1        20 9.76255E-01 8.01114E-04 6.48011E-04-1.48189E-03-1.03133E-04 1.20262E-03
 -1        21 1.01810E+00 7.62922E-04 7.24393E-04-1.87160E-03 9.12530E-05 3.98133E-04
 -1        22 1.27618E-01-3.69711E-05 3.03738E-05-7.33467E-05 2.65479E-05-1.92914E-04
 -1        23 1.69718E-01 3.49685E-04 2.21061E-04-6.39391E-04-1.50833E-06-8.22029E-04
 -1        24 9.75963E-01 1.78702E-04 8.50029E-05-2.91795E-04-2.32760E-04 4.00304E-04
 -1        25 1.01870E+00 4.76792E-05-1.13195E-04-6.18568E-04-1.29363E-04-1.67305E-05
 -1        26 1.27090E-01 1.39632E-04 1.48629E-06 1.74080E-05 1.75252E-05 7.69031E-05
 -1        27 1.69639E-01-4.67459E-07-5.98723E-05-3.68338E-04 2.74658E-05-2.86661E-04
 -1        28 9.75783E-01 3.68054E-05-2.01143E-05-1.52584E-04-2.14910E-05 1.08613E-04
 -1        29 1.01810E+00 3.19725E-05 4.34488E-05-1.67232E-04-7.59844E-06 4.29520E-05
 -1        30 1.27370E-01-3.64004E-05-7.45596E-05 4.88244E-07-2.02032E-05-3.40425E-05
 -1        31 1.69741E-01-3.75880E-06-4.57241E-05-3.72624E-05-2.54413E-05-7.74977E-05
 -1        32 9.75815E-01 3.57129E-05 4.10244E-05-1.31212E-05-1.17934E-05 3.09501E-05
 -1        33 1.01829E+00 2.86483E-05 5.12256E-07-4.97733E-05 3.70241E-07-3.79369E-06
 -1        34 1.27222E-01 3.49522E-05 3.37949E-05-4.18330E-06 1.53485E-05 1.52115E-05
 -1        35 1.69674E-01 2.55803E-05 2.80822E-05-3.99469E-05 1.84744E-05-2.00087E-05
 -1        36 9.75771E-01-1.01831E-05-2.01167E-05-1.91505E-05-7.66646E-06 1.16860E-05
 -1        37 1.01818E+00-1.48004E-05-4.58141E-06-1.68474E-05-8.78181E-06 4.33598E-06
 -1        38 1.27304E-01-1.77868E-05-2.33249E-05 3.23463E-06-1.08596E-05-6.82816E-06
 -1        39 1.69716E-01-1.71840E-05-2.31388E-05 1.46758E-07-1.28143E-05-9.34396E-06
 -1        40 9.75795E-01 1.27926E-05 1.60116E-05 1.22007E-06 3.19246E-06 1.53818E-06
 -1        41 1.01823E+00 1.58663E-05 6.78389E-06-2.98326E-06 6.14572E-06-4.23179E-07
 -1        42 1.27254E-01 1.33990E-05 1.36977E-05-1.61514E-06 8.11521E-06 2.63539E-06
 -1        43 1.69687E-01 1.45947E-05 1.56557E-05-4.36689E-06 9.48980E-06-5.64217E-07
 -1        44 9.75773E-01-9.06689E-06-1.28076E-05-1.44109E-05-4.79373E-06-1.21228E-05
 -1        45 1.01819E+00-1.30829E-05-6.28668E-06-1.25408E-05-6.46549E-06-1.82960E-05
 -1        46 1.27291E-01-1.09200E-05-1.19947E-05-3.40368E-07-7.21264E-06 7.12813E-08
 -1        47 1.69710E-01-1.26777E-05-1.41389E-05 1.39063E-06-8.41469E-06-2.72878E-06
 -1        48-6.31088E-01-2.16629E-01-1.55837E-01-8.84644E-03 5.11938E-02-1.24431E-01
 -1        49-6.90235E-01-1.96854E-01-2.08281E-01 3.69411E-02 5.08589E-02-5.48995E-02
 -1        50-6.87783E-01 3.44840E-02 1.37346E-02 4.91136E-02 2.38628E-02-4.14402E-02
 -1        51-6.37918E-01 6.46402E-02 9.44160E-03 4.81098E-03 7.67973E-03-7.91409E-02
 -1        52-7.35289E-01-1.17852E-02-1.18477E-02 1.50412E-02 3.35739E-03-1.69784E-02
 -1        53-6.97117E-01-1.03669E-02-6.47395E-03 4.28561E-03 9.80048E-04-2.29375E-02
 -1        54-7.21483E-01 7.59241E-04-1.46100E-03 4.51527E-03 2.22472E-03-3.91793E-03
 -1        55-6.78906E-01 1.44457E-04-1.57219E-03-1.36075E-04 1.22896E-03-6.85718E-03
 -1        56-7.21716E-01-7.15441E-04-9.53198E-04 1.11518E-03 2.49243E-04-1.32784E-03
 -1        57-6.79402E-01-1.54692E-05-4.06900E-04 4.61792E-04-2.31591E-05-1.86665E-03
 -1        58-7.21348E-01 9.85184E-05 1.09977E-05 4.57479E-04 2.16512E-04-3.89819E-04
 -1        59-6.78957E-01-3.29500E-05-8.58980E-06-3.07893E-05 1.45528E-04-6.41468E-04
 -1        60-7.21299E-01-1.14658E-04-1.59456E-04 8.00198E-05 8.98114E-06-9.88969E-05
 -1        61-6.78897E-01-4.03755E-05-1.24041E-04 4.71935E-05-2.27860E-05-1.51311E-04
 -1        62-7.21219E-01 4.03636E-05 3.37767E-05 4.50147E-05 2.68991E-05-4.20721E-05
 -1        63-6.78781E-01 2.08337E-05 4.29658E-05-5.43523E-06 2.55207E-05-5.96237E-05
 -1        64-7.21256E-01-2.79356E-05-2.92197E-05 4.77304E-06-4.79266E-06-4.04365E-06
 -1        65-6.78843E-01-1.52333E-05-3.33154E-05 5.01485E-06-1.05077E-05-1.11507E-05
 -1        66-7.21222E-01 1.54479E-05 1.23406E-05 4.40720E-06 6.78634E-06-5.25665E-06
 -1        67-6.78789E-01 9.05139E-06 1.82235E-05-6.85033E-07 8.67969E-06-5.57858E-06
 -1        68-7.21246E-01-1.37358E-05-1.19324E-05 1.36937E-05-4.26826E-06 1.25117E-05
 -1        69-6.78828E-01-7.98444E-06-1.65406E-05 1.80439E-05-6.84555E-06 9.85973E-06
 -1        70 9.53254E-01 3.08206E-01 3.02207E-01-1.76931E-02-5.52425E-02 4.46700E-02
 -1        71 9.19175E-01 9.34677E-04-2.60485E-02-3.69597E-02-5.72831E-02 4.44556E-02
 -1        72 8.28743E-02 3.79468E-02 3.35541E-02 1.28798E-02 4.61711E-05 1.29102E-02
 -1        73 8.53135E-02 7.19877E-03-2.26305E-02 3.34972E-03-1.76478E-03 4.07114E-03
 -1        74 9.30701E-01 1.77006E-02 2.03031E-02-1.36172E-02-5.76799E-03 1.86081E-02
 -1        75 8.58133E-02-1.50269E-03 3.85539E-03 2.79434E-03 9.44898E-04 2.38023E-03
 -1        76 9.32325E-01 1.12194E-03-1.70308E-03-3.57701E-03-4.92831E-03 4.10143E-03
 -1        77 8.45037E-02 1.84126E-03-1.87633E-03 1.32629E-04-2.52950E-04 3.04098E-04
 -1        78 9.32893E-01 1.51676E-03 1.38331E-03-1.14626E-03-5.82081E-04 1.57498E-03
 -1        79 8.49293E-02-1.66231E-04 4.07450E-05 2.92555E-04 1.93840E-05 1.90812E-04
 -1        80 9.33393E-01 7.46503E-05 3.99137E-06-2.92952E-04-3.93182E-04 3.48936E-04
 -1        81 8.48197E-02 1.17902E-04-4.52454E-05-2.27515E-05 2.27325E-05 5.00679E-05
 -1        82 9.33259E-01 1.28808E-04 6.28516E-05-1.20674E-04-6.45468E-05 1.50628E-04
 -1        83 8.48711E-02-6.21170E-06-3.47402E-05 4.73908E-05-2.07517E-05-1.48212E-06
 -1        84 9.33391E-01 1.64956E-05 2.55668E-05-1.16221E-05-2.75662E-05 2.10398E-05
 -1        85 8.48332E-02 1.53467E-05 9.60567E-06-1.42728E-05 1.43531E-05 1.54354E-05
 -1        86 9.33331E-01 3.24346E-06-8.11445E-06-1.79819E-05-9.91235E-06 1.81325E-05
 -1        87 8.48611E-02-6.51810E-06-9.45853E-06 1.03097E-05-9.74888E-06-5.98214E-06
 -1        88 9.33374E-01 7.39006E-06 1.16691E-05 2.10326E-06 5.40610E-07-3.79515E-07
 -1        89 8.48404E-02 6.18029E-06 5.19035E-06-3.55644E-06 7.15913E-06 3.55476E-06
 -1        90 9.33343E-01-3.99712E-06-8.69062E-06-1.16640E-05-4.24254E-06-8.36370E-06
 -1        91 8.48575E-02-4.91128E-06-5.05932E-06-3.36489E-07-6.32854E-06 7.94511E-07
 -1        92-7.84913E-01-2.27768E-01-2.38692E-01 4.44899E-02 5.49926E-02-1.95448E-02
 -1        93-7.49886E-01 8.43758E-03-1.51913E-02 4.49317E-02 5.41281E-02-3.76309E-02
 -1        94-7.59569E-01-1.75972E-02-1.58547E-02 1.82252E-02 7.77331E-03-1.30088E-02
 -1        95-7.62614E-01 1.75964E-03-9.02686E-04 4.44283E-03 4.28994E-03-4.05695E-03
 -1        96-7.63541E-01-1.62785E-03-1.73554E-03 1.36916E-03 7.02559E-04-8.56525E-04
 -1        97-7.63438E-01 1.48682E-04 2.54808E-05 4.53796E-04 3.92100E-04-4.47841E-04
 -1        98-7.63708E-01-1.51683E-04-1.78061E-04 9.82386E-05 5.00007E-05-3.97085E-05
 -1        99-7.63609E-01 2.76416E-05 1.20408E-05 4.81642E-05 4.02377E-05-5.43628E-05
 -1       100-7.63682E-01-2.51849E-05-2.14560E-05 4.16431E-06 3.99937E-07 4.00714E-06
 -1       101-7.63642E-01 1.16104E-05 5.67730E-06 5.60962E-06 6.82595E-06-7.26186E-06
 -1       102-7.63673E-01-1.15633E-05-7.50816E-06 1.04502E-05-2.38233E-06 1.04060E-05
 -1       103 9.41595E-01 2.94420E-01 2.92428E-01 5.85363E-03-5.89367E-02 3.09633E-02
 -1       104 8.93143E-01 2.46245E-02 8.20350E-03-1.26309E-02-7.87134E-02 2.65547E-02
 -1       105 4.13186E-02 1.89804E-02 1.66745E-02 1.96127E-02 2.49127E-05 1.64586E-02
 -1       106 4.26659E-02 4.99920E-03-1.21386E-02 7.09794E-03-1.12934E-03 6.80336E-03
 -1       107 8.78137E-01 2.17460E-02 2.34290E-02-7.91149E-03-9.68514E-03 1.20977E-02
 -1       108 4.30171E-02-1.01092E-03 1.89290E-03 2.06829E-03 5.80319E-04 2.28198E-03
 -1       109 8.88109E-01-1.17453E-04-1.44290E-03-1.11728E-03-6.13312E-03 2.66088E-03
 -1       110 4.23058E-02 8.44628E-04-8.63150E-04 6.52658E-04-1.24347E-04 8.24992E-04
 -1       111 8.90471E-01 2.39115E-03 2.14818E-03-6.72838E-04-1.04891E-03 9.63943E-04
 -1       112 4.24319E-02 6.47361E-05-3.89037E-05 2.61956E-04-9.33550E-06 6.87227E-05
 -1       113 8.90594E-01-7.68834E-05-3.49554E-05-7.66183E-05-4.85119E-04 2.33899E-04
 -1       114 4.24042E-02-1.57009E-05-6.22615E-06 8.01969E-06 2.17552E-05 1.31748E-04
 -1       115 8.90893E-01 1.98057E-04 1.29853E-04-8.25560E-05-1.01144E-04 9.83819E-05
 -1       116 4.24516E-02 2.60256E-05-2.59389E-05 4.78852E-05-1.40641E-05-2.26562E-05
 -1       117 8.90912E-01 6.41709E-06 2.41846E-05 9.19263E-06-3.96734E-05 8.99018E-06
 -1       118 4.24039E-02 7.17385E-07 9.28702E-06-1.29766E-05 8.25597E-06 2.65510E-05
 -1       119 8.90924E-01 9.80768E-06-2.17347E-06-1.55814E-05-1.04875E-05 1.48444E-05
 -1       120 4.24382E-02-2.87777E-06-7.84122E-06 1.14037E-05-5.20626E-06-9.78820E-06
 -1       121 8.90936E-01 4.91782E-06 1.06157E-05 4.07553E-06-2.38067E-06-1.84256E-06
 -1       122 4.24157E-02 4.32183E-06 4.68882E-06-3.98610E-06 3.73464E-06 5.24880E-06
 -1       123 8.90928E-01-1.31079E-06-6.64072E-06-5.43993E-06-2.98056E-06-4.54947E-06
 -1       124 4.24324E-02-3.85113E-06-4.33291E-06 5.60902E-07-3.28886E-06-2.53656E-07
 -1       125-8.57658E-01-2.54006E-01-2.61078E-01 3.44948E-02 5.88085E-02 1.30344E-03
 -1       126-8.08464E-01-1.72871E-02-3.02334E-02 2.81263E-02 7.66153E-02-1.43023E-02
 -1       127-7.92344E-01-2.21188E-02-2.13542E-02 1.09508E-02 1.08955E-02-6.64353E-03
 -1       128-8.03161E-01 1.40453E-03 2.25344E-04 3.08256E-03 5.83345E-03-1.62050E-03
 -1       129-8.05848E-01-2.16359E-03-2.37916E-03 7.97794E-04 1.06151E-03-4.54871E-04
 -1       130-8.05632E-01 5.13018E-05 4.80460E-05 3.24168E-04 5.08641E-04-1.97597E-04
 -1       131-8.06086E-01-1.58374E-04-1.92271E-04 4.29780E-05 8.62968E-05-1.00966E-05
 -1       132-8.06044E-01 5.74181E-06 5.72072E-07 4.18582E-05 4.75143E-05-3.27687E-05
 -1       133-8.06086E-01-2.21171E-05-1.88204E-05-3.09120E-06 5.73006E-06 6.97258E-06
 -1       134-8.06077E-01 8.26425E-06 2.86735E-06 5.99907E-06 5.84890E-06-5.70799E-06
 -1       135-8.06087E-01-1.02166E-05-5.76631E-06 5.89401E-06-1.15597E-07 4.70323E-06
 -1       136 9.09550E-01 2.76165E-01 2.78725E-01 2.18862E-02-6.01539E-02 1.68145E-02
 -1       137 8.56690E-01 2.95802E-02 2.78231E-02 9.00093E-03-8.53242E-02 7.00035E-03
 -1       138 3.42105E-14 1.67436E-14 1.19973E-14 2.13119E-02-1.87350E-16 1.71333E-02
 -1       139 3.42257E-14-5.23687E-14 4.32779E-14 8.34442E-03-2.49844E-15 7.67994E-03
 -1       140 8.32027E-01 2.33882E-02 2.38596E-02 1.33028E-03-1.15613E-02 2.75747E-03
 -1       141 3.83226E-14 2.41408E-15 4.23164E-15 1.89583E-03 6.33185E-15 2.30988E-03
 -1       142 8.44859E-01-7.68677E-04-8.45807E-04 1.07430E-03-6.46251E-03 6.39514E-04
 -1       143 2.36673E-14-2.46009E-14-1.51207E-14 7.39414E-04 3.00183E-15 9.50506E-04
 -1       144 8.48159E-01 2.42825E-03 2.41831E-03 9.92838E-05-1.20309E-03 2.56417E-04
 -1       145 3.80737E-14-9.33035E-15-7.22282E-16 3.01531E-04 8.03943E-16 6.43205E-05
 -1       146 8.48013E-01-2.42413E-05-3.32765E-06 1.15940E-04-5.34437E-04 1.58782E-05
 -1       147 4.00457E-14 2.69473E-14 1.60737E-14-2.35324E-06 1.83756E-15 1.34562E-04
 -1       148 8.48482E-01 1.71501E-04 1.53872E-04-1.47652E-05-1.05847E-04 5.46203E-05
 -1       149 4.50898E-14-6.65242E-14 2.02410E-14 5.50963E-05 2.81097E-14-1.55030E-05
 -1       150 8.48475E-01 9.58905E-06 2.23876E-05 2.54812E-05-4.75020E-05-1.74313E-05
 -1       151 1.83460E-14 1.22391E-13-1.06897E-14-1.45510E-05-8.05948E-14 2.29764E-05
 -1       152 8.48502E-01 1.44478E-05 5.50097E-06-9.45966E-06-8.93461E-06 1.40519E-05
 -1       153-3.59096E-14-1.26652E-14-3.93556E-14 1.22007E-05-1.06082E-14-7.70258E-06
 -1       154 8.48507E-01-1.01839E-06 5.59937E-06 5.27379E-06-4.55618E-06-4.94311E-06
 -1       155-3.09856E-14-6.39701E-14-1.26208E-13-4.17211E-06 4.89277E-15 4.54069E-06
 -1       156 8.48507E-01 4.55521E-06-1.29634E-06-1.33801E-06-1.54793E-06 1.69638E-06
 -1       157 9.21971E-14-3.94694E-14 1.60603E-13-1.09540E-06 3.77464E-14 1.44118E-06
 -1       158-9.09550E-01-2.76165E-01-2.78725E-01 2.18862E-02 6.01539E-02 1.68145E-02
 -1       159-8.56690E-01-2.95802E-02-2.78231E-02 9.00093E-03 8.53242E-02 7.00035E-03
 -1       160-8.32027E-01-2.33882E-02-2.38596E-02 1.33028E-03 1.15613E-02 2.75747E-03
 -1       161-8.44859E-01 7.68677E-04 8.45807E-04 1.07430E-03 6.46251E-03 6.39514E-04
 -1       162-8.48159E-01-2.42825E-03-2.41831E-03 9.92838E-05 1.20309E-03 2.56417E-04
 -1       163-8.48013E-01 2.42413E-05 3.32765E-06 1.15940E-04 5.34437E-04 1.58782E-05
 -1       164-8.48482E-01-1.71501E-04-1.53872E-04-1.47652E-05 1.05847E-04 5.46203E-05
 -1       165-8.48475E-01-9.58905E-06-2.23876E-05 2.54812E-05 4.75020E-05-1.74313E-05
 -1       166-8.48502E-01-1.44478E-05-5.50097E-06-9.45966E-06 8.93461E-06 1.40519E-05
 -1       167-8.48507E-01 1.01839E-06-5.59937E-06 5.27379E-06 4.55618E-06-4.94311E-06
 -1       168-8.48507E-01-4.55521E-06 1.29634E-06-1.33801E-06 1.54793E-06 1.69638E-06
 -1       169 8.57658E-01 2.54006E-01 2.61078E-01 3.44948E-02-5.88085E-02 1.30344E-03
 -1       170 8.08464E-01 1.72871E-02 3.02334E-02 2.81263E-02-7.66153E-02-1.43023E-02
 -1       171-4.13186E-02-1.89804E-02-1.66745E-02 1.96127E-02-2.49127E-05 1.64586E-02
 -1       172-4.26659E-02-4.99920E-03 1.21386E-02 7.09794E-03 1.12934E-03 6.80336E-03
 -1       173 7.92344E-01 2.21188E-02 2.13542E-02 1.09508E-02-1.08955E-02-6.64353E-03
 -1       174-4.30171E-02 1.01092E-03-1.89290E-03 2.06829E-03-5.80319E-04 2.28198E-03
 -1       175 8.03161E-01-1.40453E-03-2.25344E-04 3.08256E-03-5.83345E-03-1.62050E-03
 -1       176-4.23058E-02-8.44628E-04 8.63150E-04 6.52658E-04 1.24347E-04 8.24992E-04
 -1       177 8.05848E-01 2.16359E-03 2.37916E-03 7.97794E-04-1.06151E-03-4.54871E-04
 -1       178-4.24319E-02-6.47361E-05 3.89037E-05 2.61956E-04 9.33550E-06 6.87227E-05
 -1       179 8.05632E-01-5.13018E-05-4.80460E-05 3.24168E-04-5.08641E-04-1.97597E-04
 -1       180-4.24042E-02 1.57009E-05 6.22615E-06 8.01969E-06-2.17552E-05 1.31748E-04
 -1       181 8.06086E-01 1.58374E-04 1.92271E-04 4.29780E-05-8.62968E-05-1.00966E-05
 -1       182-4.24516E-02-2.60256E-05 2.59389E-05 4.78852E-05 1.40641E-05-2.26562E-05
 -1       183 8.06044E-01-5.74181E-06-5.72072E-07 4.18582E-05-4.75143E-05-3.27687E-05
 -1       184-4.24039E-02-7.17385E-07-9.28702E-06-1.29766E-05-8.25597E-06 2.65510E-05
 -1       185 8.06086E-01 2.21171E-05 1.88204E-05-3.09120E-06-5.73006E-06 6.97258E-06
 -1       186-4.24382E-02 2.87777E-06 7.84122E-06 1.14037E-05 5.20626E-06-9.78820E-06
 -1       187 8.06077E-01-8.26425E-06-2.86735E-06 5.99907E-06-5.84890E-06-5.70799E-06
 -1       188-4.24157E-02-4.32183E-06-4.68882E-06-3.98610E-06-3.73464E-06 5.24880E-06
 -1       189 8.06087E-01 1.02166E-05 5.76631E-06 5.89401E-06 1.15597E-07 4.70323E-06
 -1       190-4.24324E-02 3.85113E-06 4.33291E-06 5.60901E-07 3.28886E-06-2.53656E-07
 -1       191-9.41595E-01-2.94420E-01-2.92428E-01 5.85363E-03 5.89367E-02 3.09633E-02
 -1       192-8.93143E-01-2.46245E-02-8.20350E-03-1.26309E-02 7.87134E-02 2.65547E-02
 -1       193-8.78137E-01-2.17460E-02-2.34290E-02-7.91149E-03 9.68514E-03 1.20977E-02
 -1       194-8.88109E-01 1.17453E-04 1.44290E-03-1.11728E-03 6.13312E-03 2.66088E-03
 -1       195-8.90471E-01-2.39115E-03-2.14818E-03-6.72838E-04 1.04891E-03 9.63943E-04
 -1       196-8.90594E-01 7.68834E-05 3.49554E-05-7.66183E-05 4.85119E-04 2.33899E-04
 -1       197-8.90893E-01-1.98057E-04-1.29853E-04-8.25560E-05 1.01144E-04 9.83819E-05
 -1       198-8.90912E-01-6.41709E-06-2.41846E-05 9.19263E-06 3.96734E-05 8.99018E-06
 -1       199-8.90924E-01-9.80768E-06 2.17347E-06-1.55814E-05 1.04875E-05 1.48444E-05
 -1       200-8.90936E-01-4.91782E-06-1.06157E-05 4.07553E-06 2.38067E-06-1.84256E-06
 -1       201-8.90928E-01 1.31079E-06 6.64072E-06-5.43993E-06 2.98056E-06-4.54947E-06
 -1       202 7.84913E-01 2.27768E-01 2.38692E-01 4.44899E-02-5.49926E-02-1.95448E-02
 -1       203 7.49886E-01-8.43758E-03 1.51913E-02 4.49317E-02-5.41281E-02-3.76309E-02
 -1       204-8.28743E-02-3.79468E-02-3.35541E-02 1.28798E-02-4.61711E-05 1.29102E-02
 -1       205-8.53135E-02-7.19877E-03 2.26305E-02 3.34972E-03 1.76478E-03 4.07114E-03
 -1       206 7.59569E-01 1.75972E-02 1.58547E-02 1.82252E-02-7.77331E-03-1.30088E-02
 -1       207-8.58133E-02 1.50269E-03-3.85539E-03 2.79434E-03-9.44898E-04 2.38023E-03
 -1       208 7.62614E-01-1.75964E-03 9.02686E-04 4.44283E-03-4.28994E-03-4.05695E-03
 -1       209-8.45037E-02-1.84126E-03 1.87633E-03 1.32629E-04 2.52950E-04 3.04098E-04
 -1       210 7.63541E-01 1.62785E-03 1.73554E-03 1.36916E-03-7.02559E-04-8.56525E-04
 -1       211-8.49293E-02 1.66231E-04-4.07450E-05 2.92555E-04-1.93840E-05 1.90812E-04
 -1       212 7.63438E-01-1.48682E-04-2.54808E-05 4.53796E-04-3.92100E-04-4.47841E-04
 -1       213-8.48197E-02-1.17902E-04 4.52454E-05-2.27515E-05-2.27325E-05 5.00679E-05
 -1       214 7.63708E-01 1.51683E-04 1.78061E-04 9.82386E-05-5.00007E-05-3.97085E-05
 -1       215-8.48711E-02 6.21170E-06 3.47402E-05 4.73908E-05 2.07517E-05-1.48212E-06
 -1       216 7.63609E-01-2.76416E-05-1.20408E-05 4.81642E-05-4.02377E-05-5.43628E-05
 -1       217-8.48332E-02-1.53467E-05-9.60567E-06-1.42728E-05-1.43531E-05 1.54354E-05
 -1       218 7.63682E-01 2.51849E-05 2.14560E-05 4.16431E-06-3.99937E-07 4.00714E-06
 -1       219-8.48611E-02 6.51810E-06 9.45853E-06 1.03097E-05 9.74888E-06-5.98214E-06
 -1       220 7.63642E-01-1.16104E-05-5.67730E-06 5.60962E-06-6.82595E-06-7.26186E-06
 -1       221-8.48404E-02-6.18029E-06-5.19035E-06-3.55644E-06-7.15913E-06 3.55476E-06
 -1       222 7.63673E-01 1.15633E-05 7.50817E-06 1.04502E-05 2.38233E-06 1.04060E-05
 -1       223-8.48575E-02 4.91128E-06 5.05932E-06-3.36489E-07 6.32854E-06 7.94511E-07
 -1       224-9.53254E-01-3.08206E-01-3.02207E-01-1.76931E-02 5.52425E-02 4.46700E-02
 -1       225-9.19175E-01-9.34677E-04 2.60485E-02-3.69597E-02 5.72831E-02 4.44556E-02
 -1       226-9.30701E-01-1.77006E-02-2.03031E-02-1.36172E-02 5.76799E-03 1.86081E-02
 -1       227-9.32325E-01-1.12194E-03 1.70308E-03-3.57701E-03 4.92831E-03 4.10143E-03
 -1       228-9.32893E-01-1.51676E-03-1.38331E-03-1.14626E-03 5.82081E-04 1.57498E-03
 -1       229-9.33393E-01-7.46503E-05-3.99137E-06-2.92952E-04 3.93182E-04 3.48936E-04
 -1       230-9.33259E-01-1.28808E-04-6.28516E-05-1.20674E-04 6.45468E-05 1.50628E-04
 -1       231-9.33391E-01-1.64956E-05-2.55668E-05-1.16221E-05 2.75662E-05 2.10398E-05
 -1       232-9.33331E-01-3.24346E-06 8.11445E-06-1.79819E-05 9.91235E-06 1.81325E-05
 -1       233-9.33374E-01-7.39006E-06-1.16691E-05 2.10326E-06-5.40610E-07-3.79515E-07
 -1       234-9.33343E-01 3.99712E-06 8.69062E-06-1.16640E-05 4.24254E-06-8.36370E-06
 -1       235 6.90235E-01 1.96854E-01 2.08281E-01 3.69411E-02-5.08589E-02-5.48995E-02
 -1       236 6.87783E-01-3.44840E-02-1.37346E-02 4.91136E-02-2.38628E-02-4.14402E-02
 -1       237-1.25200E-01-5.69549E-02-5.16575E-02-1.00748E-02 9.54949E-05-6.07111E-03
 -1       238-1.28111E-01-1.54229E-04 2.61628E-02 3.09605E-03 1.27291E-03 4.57886E-03
 -1       239 7.35289E-01 1.17852E-02 1.18477E-02 1.50412E-02-3.35739E-03-1.69784E-02
 -1       240-1.27813E-01-1.30414E-03-4.35614E-03-5.59810E-04-7.06950E-04-1.57296E-03
 -1       241 7.21483E-01-7.59241E-04 1.46100E-03 4.51527E-03-2.22472E-03-3.91793E-03
 -1       242-1.26714E-01-1.07287E-03 2.03967E-03 1.79905E-04 2.14989E-04 5.22287E-04
 -1       243 7.21716E-01 7.15441E-04 9.53198E-04 1.11518E-03-2.49243E-04-1.32784E-03
 -1       244-1.27618E-01 3.69711E-05-3.03738E-05-7.33467E-05-2.65479E-05-1.92914E-04
 -1       245 7.21348E-01-9.85184E-05-1.09977E-05 4.57479E-04-2.16512E-04-3.89819E-04
 -1       246-1.27090E-01-1.39632E-04-1.48629E-06 1.74080E-05-1.75252E-05 7.69031E-05
 -1       247 7.21299E-01 1.14658E-04 1.59456E-04 8.00198E-05-8.98114E-06-9.88969E-05
 -1       248-1.27370E-01 3.64004E-05 7.45596E-05 4.88244E-07 2.02032E-05-3.40425E-05
 -1       249 7.21219E-01-4.03636E-05-3.37767E-05 4.50147E-05-2.68991E-05-4.20721E-05
 -1       250-1.27222E-01-3.49522E-05-3.37949E-05-4.18330E-06-1.53485E-05 1.52115E-05
 -1       251 7.21256E-01 2.79356E-05 2.92197E-05 4.77304E-06 4.79266E-06-4.04365E-06
 -1       252-1.27304E-01 1.77868E-05 2.33249E-05 3.23463E-06 1.08596E-05-6.82816E-06
 -1       253 7.21222E-01-1.54479E-05-1.23406E-05 4.40720E-06-6.78634E-06-5.25665E-06
 -1       254-1.27254E-01-1.33990E-05-1.36977E-05-1.61514E-06-8.11521E-06 2.63539E-06
 -1       255 7.21246E-01 1.37358E-05 1.19324E-05 1.36937E-05 4.26826E-06 1.25117E-05
 -1       256-1.27291E-01 1.09200E-05 1.19947E-05-3.40368E-07 7.21264E-06 7.12814E-08
 -1       257-9.44453E-01-3.15220E-01-3.08531E-01-5.65172E-02 5.15566E-02 4.17059E-02
 -1       258-9.42180E-01 3.88202E-02 6.25626E-02-4.18175E-02 2.59877E-02 4.96028E-02
 -1       259-9.90168E-01-1.70205E-02-1.77751E-02-1.66692E-02 1.82026E-03 1.45345E-02
 -1       260-9.75878E-01-8.16372E-04 1.70241E-03-3.80834E-03 2.80292E-03 4.52033E-03
 -1       261-9.76255E-01-8.01114E-04-6.48011E-04-1.48189E-03 1.03133E-04 1.20262E-03
 -1       262-9.75963E-01-1.78702E-04-8.50029E-05-2.91795E-04 2.32760E-04 4.00304E-04
 -1       263-9.75783E-01-3.68054E-05 2.01143E-05-1.52584E-04 2.14910E-05 1.08613E-04
 -1       264-9.75815E-01-3.57129E-05-4.10244E-05-1.31212E-05 1.17934E-05 3.09501E-05
 -1       265-9.75771E-01 1.01831E-05 2.01167E-05-1.91505E-05 7.66646E-06 1.16860E-05
 -1       266-9.75795E-01-1.27926E-05-1.60116E-05 1.22007E-06-3.19246E-06 1.53818E-06
 -1       267-9.75773E-01 9.06689E-06 1.28076E-05-1.44109E-05 4.79373E-06-1.21228E-05
 -1       268 6.31088E-01 2.16629E-01 1.55837E-01-8.84644E-03-5.11938E-02-1.24431E-01
 -1       269 6.37918E-01-6.46402E-02-9.44160E-03 4.81098E-03-7.67973E-03-7.91409E-02
 -1       270-1.73628E-01-3.63224E-02-1.02057E-01-6.78528E-02-3.11008E-03-6.20232E-02
 -1       271-1.67564E-01-1.21627E-02 4.70827E-02-3.78099E-02 9.82299E-04-3.62086E-02
 -1       272 6.97117E-01 1.03669E-02 6.47395E-03 4.28561E-03-9.80048E-04-2.29375E-02
 -1       273-1.68635E-01-1.35561E-03-7.25012E-03-8.89702E-03-3.85425E-04-1.00928E-02
 -1       274 6.78906E-01-1.44457E-04 1.57219E-03-1.36075E-04-1.22896E-03-6.85718E-03
 -1       275-1.70031E-01 4.58483E-05 2.32060E-03-3.69949E-03 1.09501E-04-3.22357E-03
 -1       276 6.79402E-01 1.54692E-05 4.06900E-04 4.61792E-04 2.31591E-05-1.86665E-03
 -1       277-1.69718E-01-3.49685E-04-2.21061E-04-6.39391E-04 1.50833E-06-8.22029E-04
 -1       278 6.78957E-01 3.29500E-05 8.58980E-06-3.07893E-05-1.45528E-04-6.41468E-04
 -1       279-1.69639E-01 4.67459E-07 5.98723E-05-3.68338E-04-2.74658E-05-2.86661E-04
 -1       280 6.78897E-01 4.03755E-05 1.24041E-04 4.71935E-05 2.27860E-05-1.51311E-04
 -1       281-1.69741E-01 3.75880E-06 4.57241E-05-3.72624E-05 2.54413E-05-7.74977E-05
 -1       282 6.78781E-01-2.08337E-05-4.29658E-05-5.43523E-06-2.55207E-05-5.96237E-05
 -1       283-1.69674E-01-2.55803E-05-2.80822E-05-3.99469E-05-1.84744E-05-2.00087E-05
 -1       284 6.78843E-01 1.52333E-05 3.33154E-05 5.01485E-06 1.05077E-05-1.11507E-05
 -1       285-1.69716E-01 1.71840E-05 2.31388E-05 1.46758E-07 1.28143E-05-9.34396E-06
 -1       286 6.78789E-01-9.05139E-06-1.82235E-05-6.85033E-07-8.67969E-06-5.57858E-06
 -1       287-1.69687E-01-1.45947E-05-1.56557E-05-4.36689E-06-9.48980E-06-5.64217E-07
 -1       288 6.78828E-01 7.98444E-06 1.65406E-05 1.80439E-05 6.84555E-06 9.85973E-06
 -1       289-1.69710E-01 1.26777E-05 1.41389E-05 1.39063E-06 8.41469E-06-2.72878E-06
 -1       290-9.82820E-01-2.92767E-01-3.58085E-01-1.26653E-01 4.55686E-02-1.00530E-03
 -1       291-9.71094E-01 4.35138E-02 1.01320E-01-7.95836E-02 9.30865E-03 5.90465E-03
 -1       292-1.03348E+00-1.45749E-02-1.93319E-02-2.21935E-02 1.15811E-04 3.41247E-03
 -1       293-1.02000E+00 4.08277E-04 2.72175E-03-7.02922E-03 1.56070E-03 1.44260E-04
 -1       294-1.01810E+00-7.62922E-04-7.24393E-04-1.87160E-03-9.12530E-05 3.98133E-04
 -1       295-1.01870E+00-4.76792E-05 1.13195E-04-6.18568E-04 1.29363E-04-1.67305E-05
 -1       296-1.01810E+00-3.19725E-05-4.34488E-05-1.67232E-04 7.59844E-06 4.29520E-05
 -1       297-1.01829E+00-2.86483E-05-5.12256E-07-4.97733E-05-3.70241E-07-3.79369E-06
 -1       298-1.01818E+00 1.48004E-05 4.58141E-06-1.68474E-05 8.78181E-06 4.33598E-06
 -1       299-1.01823E+00-1.58663E-05-6.78389E-06-2.98326E-06-6.14572E-06-4.23179E-07
 -1       300-1.01819E+00 1.30829E-05 6.28668E-06-1.25408E-05 6.46549E-06-1.82960E-05
 -1       301-1.04242E+00-4.07752E-01-4.19050E-01-3.53837E-03 5.67554E-03 2.26840E-02
 -1       302-1.11943E+00-4.48344E-01-4.70750E-01-2.41564E-03 2.12305E-03 2.63552E-02
 -1       303-1.09136E+00 1.18661E-01 1.17533E-01-2.45597E-05-3.42032E-03 1.51054E-02
 -1       304-1.01778E+00 1.11474E-01 8.44330E-02-2.37488E-03-5.89965E-03 1.77591E-02
 -1       305-8.55298E-01-3.61621E-01-3.48817E-01-2.07579E-03 3.49034E-03 1.48974E-02
 -1       306-9.35050E-01-4.01352E-01-4.01460E-01-3.98158E-04-9.14003E-06 1.85312E-02
 -1       307-9.27167E-01 1.02402E-01 1.01251E-01-4.10393E-05-3.18034E-03 4.51341E-03
 -1       308-8.49365E-01 9.58339E-02 8.40267E-02-3.66348E-03-5.41003E-03 5.15088E-03
 -1       309-1.10083E+00-3.39191E-02-3.66651E-02 2.41618E-03-9.54139E-04 5.05853E-03
 -1       310-1.02855E+00-2.80416E-02-3.08096E-02-8.43000E-04-3.62231E-04 6.34238E-03
 -1       311-9.24848E-01-2.74099E-02-2.55361E-02 3.84274E-03-9.62314E-04-8.45889E-04
 -1       312-8.52363E-01-2.21728E-02-1.66585E-02-2.17263E-03 6.30251E-04-1.95915E-03
 -1       313-1.10546E+00 9.87282E-03 7.90275E-03-5.77382E-04-9.70264E-04 3.59330E-03
 -1       314-1.02839E+00 8.17616E-03 1.57284E-04 6.06340E-04-1.26292E-03 3.62893E-03
 -1       315-9.30604E-01 6.97401E-03 6.09026E-03-1.34765E-03-1.00642E-03 2.09585E-03
 -1       316-8.52689E-01 5.34260E-03 1.27143E-03 7.31842E-04-1.77397E-03 1.94808E-03
 -1       317-1.10107E+00-3.31988E-03-2.68179E-03 8.28700E-04 2.11508E-04 1.17215E-03
 -1       318-1.02676E+00-1.70597E-03-4.03489E-04-4.80307E-04 7.41453E-05 1.65489E-03
 -1       319-9.28047E-01-1.84847E-03-1.23592E-03 1.63362E-03 2.23313E-04-5.63766E-04
 -1       320-8.53787E-01-5.11885E-04 1.19185E-03-9.06457E-04 3.59531E-04-5.40328E-04
 -1       321-1.10325E+00 9.70511E-04-3.68084E-05-3.46229E-04-3.85097E-04 2.27875E-04
 -1       322-1.02760E+00 3.62275E-04-1.92899E-03 2.38491E-04-2.89862E-04 1.76226E-04
 -1       323-9.28593E-01 2.15372E-04-1.09834E-04-8.41527E-04-3.75092E-04 6.07950E-04
 -1       324-8.52793E-01-2.47340E-04-1.32139E-03 3.90820E-04-4.22493E-04 5.16477E-04
 -1       325-1.10204E+00-2.98986E-04 2.34946E-04 2.85262E-04 1.46355E-04 4.91879E-04
 -1       326-1.02690E+00 1.19828E-04 8.84425E-04-1.32239E-04 5.08269E-05 5.49912E-04
 -1       327-9.28753E-01 1.12664E-04 3.60193E-04 6.53898E-04 1.28328E-04-2.72774E-04
 -1       328-8.53592E-01 4.07650E-04 9.52995E-04-2.93047E-04 1.32233E-04-2.65330E-04
 -1       329-1.10264E+00 2.70441E-05-4.38752E-04-1.42539E-04-1.21211E-04-1.63211E-04
 -1       330-1.02733E+00-1.42382E-04-8.88383E-04 5.50968E-05-6.53700E-05-1.35442E-04
 -1       331-9.28376E-01-2.02657E-04-3.75867E-04-3.69667E-04-1.00618E-04 2.16815E-04
 -1       332-8.53077E-01-3.02528E-04-6.67098E-04 1.36400E-04-1.15007E-04 2.11580E-04
 -1       333-1.10231E+00 4.96642E-05 3.66043E-04 9.23675E-05 5.55274E-05 2.03557E-04
 -1       334-1.02699E+00 1.53905E-04 5.40418E-04-2.39011E-05 1.29154E-05 1.86836E-04
 -1       335-9.28802E-01 1.88944E-04 3.28880E-04 2.33159E-04 3.54828E-05-1.07869E-04
 -1       336-8.53446E-01 2.41403E-04 4.67489E-04-8.09232E-05 4.91342E-05-1.15241E-04
 -1       337-1.10248E+00-8.43699E-05-3.60972E-04-3.79845E-05-4.27673E-05-7.47057E-05
 -1       338-1.02725E+00-1.33624E-04-4.80110E-04 7.17675E-06-1.17554E-05-5.90580E-05
 -1       339-9.28369E-01-1.79974E-04-2.96228E-04-1.02150E-04-2.35515E-05 5.53343E-05
 -1       340-8.53171E-01-1.91894E-04-3.64936E-04 3.05761E-05-4.00536E-05 5.85124E-05
 -1       341-1.10237E+00 8.94186E-05 3.37746E-04 5.08067E-04 3.10328E-05-2.71735E-04
 -1       342-1.02702E+00 1.32710E-04 4.11633E-04 3.90421E-04 1.76014E-06 2.42198E-04
 -1       343-9.28798E-01 1.72605E-04 2.83172E-04 1.25672E-04 1.22372E-05-2.36527E-04
 -1       344-8.53408E-01 1.80729E-04 3.31107E-04 6.32971E-05 2.81546E-05 2.40847E-04
 -1       345-6.73867E-01-2.86787E-01-2.81611E-01-3.09462E-03-4.33383E-04 9.44876E-03
 -1       346-7.58381E-01-3.07499E-01-3.20208E-01 2.59666E-03 7.06185E-04 1.41134E-02
 -1       347-7.49652E-01 7.73005E-02 8.38477E-02 3.18995E-04-3.55001E-03-3.55724E-03
 -1       348-6.75457E-01 7.62721E-02 8.09879E-02-8.88074E-03-3.43453E-03-7.49695E-03
 -1       349-7.53054E-01-1.77446E-02-1.63710E-02 3.23662E-03 1.28918E-03-1.78128E-03
 -1       350-6.76556E-01-1.07962E-02-5.53468E-03-5.94835E-03 2.81386E-03-5.80349E-03
 -1       351-7.55299E-01 2.46112E-03 3.78165E-03-1.47448E-03-1.69252E-03-1.91680E-04
 -1       352-6.77562E-01 1.32922E-03 9.36508E-04-6.15594E-04-2.83264E-03-1.12565E-03
 -1       353-7.54829E-01 4.72982E-04 2.10133E-04 1.60827E-03 6.61050E-04-3.89439E-05
 -1       354-6.80132E-01 1.88118E-03 3.00691E-03-1.45142E-03 1.06357E-03-5.46369E-04
 -1       355-7.54484E-01-9.40030E-04-4.72479E-04-9.10247E-04-4.54494E-04-2.27956E-04
 -1       356-6.78559E-01-1.16693E-03-1.36010E-03 1.73026E-04-7.02893E-04-4.69846E-04
 -1       357-7.54972E-01 6.78963E-04 5.74649E-04 6.84251E-04 1.81994E-04 8.02666E-05
 -1       358-6.79819E-01 9.36992E-04 1.26591E-03-4.28381E-04 3.04736E-04 3.35176E-05
 -1       359-7.54583E-01-4.60248E-04-3.97591E-04-4.06674E-04-1.10118E-04-7.00909E-05
 -1       360-6.79214E-01-5.21221E-04-6.79251E-04 1.39315E-04-2.01655E-04-1.34972E-04
 -1       361-7.54889E-01 2.98154E-04 3.21543E-04 2.54175E-04 4.81091E-05 2.27903E-05
 -1       362-6.79560E-01 3.64942E-04 5.25397E-04-1.29593E-04 1.10157E-04 2.97692E-05
 -1       363-7.54637E-01-2.21245E-04-2.55236E-04-1.14308E-04-3.08879E-05-1.19830E-05
 -1       364-6.79404E-01-2.52071E-04-3.68402E-04 4.22732E-05-8.29367E-05-2.76724E-05
 -1       365-7.54867E-01 1.95158E-04 2.42610E-04-1.78084E-04 2.14784E-05-1.51647E-04
 -1       366-6.79497E-01 2.31801E-04 3.50486E-04-2.20810E-04 6.83455E-05 2.56241E-04
 -1       367-1.20929E+00-4.82391E-01-4.93460E-01 4.96389E-03 8.54232E-03 2.42090E-02
 -1       368-1.15666E+00 1.28797E-01 1.28921E-01 9.05301E-03-5.88772E-03 1.02878E-02
 -1       369-1.02432E+00-4.34660E-01-4.23640E-01 8.40766E-03 5.92399E-03 1.67768E-02
 -1       370-9.93925E-01 1.10742E-01 1.10483E-01 1.38547E-02-5.59210E-03 2.14245E-03
 -1       371-1.17421E+00-3.74834E-02-3.73207E-02 5.14399E-03 1.64837E-04 4.32763E-03
 -1       372-1.00043E+00-3.46248E-02-3.08987E-02 6.25491E-03-1.25801E-04 1.15962E-04
 -1       373-1.18275E+00 1.19608E-02 1.11589E-02 2.57598E-03-9.58667E-04 2.44905E-03
 -1       374-1.00802E+00 9.23784E-03 9.31064E-03 3.99662E-03-1.02557E-03 8.93367E-04
 -1       375-1.17464E+00-4.70880E-03-4.33007E-03 3.85971E-04 3.89767E-04 1.03008E-03
 -1       376-1.00178E+00-3.45005E-03-3.19768E-03 1.59931E-04 2.04337E-04 2.23558E-05
 -1       377-1.17966E+00 1.81108E-03 1.48032E-03 8.37473E-04-4.26850E-04 6.83853E-05
 -1       378-1.00515E+00 7.42375E-04 1.03545E-03 1.37321E-03-3.17908E-04 1.13805E-04
 -1       379-1.17648E+00-8.23439E-04-6.26812E-04-2.53597E-04 2.31987E-04 4.45279E-04
 -1       380-1.00318E+00-2.25378E-04-3.38613E-04-4.95723E-04 1.06027E-04 2.71185E-05
 -1       381-1.17855E+00 3.56116E-04 1.98706E-04 3.69260E-04-1.82628E-04-1.75314E-04
 -1       382-1.00433E+00-7.62716E-05 6.02941E-05 5.93255E-04-8.68203E-05 4.84441E-06
 -1       383-1.17710E+00-1.74008E-04-5.73289E-05-1.78746E-04 1.20792E-04 1.86122E-04
 -1       384-1.00359E+00 1.09038E-04 3.43610E-05-2.95413E-04 3.26377E-05 1.35577E-05
 -1       385-1.17820E+00 8.43797E-05-1.74124E-05 1.09433E-04-1.00930E-04-7.20202E-05
 -1       386-1.00409E+00-1.42857E-04-7.44235E-05 1.72416E-04-2.34523E-05-3.36627E-06
 -1       387-1.17725E+00-6.32477E-05 3.11678E-05 5.77946E-04 8.99283E-05-9.18060E-04
 -1       388-1.00368E+00 1.38806E-04 8.28443E-05 1.73053E-04 1.38951E-05-8.33607E-04
 -1       389-8.45254E-01-3.39639E-01-3.41582E-01 1.44024E-02 6.96966E-03 1.47685E-02
 -1       390-8.18592E-01 8.01895E-02 9.07300E-02 1.94075E-02-6.57929E-03-1.29523E-03
 -1       391-8.29604E-01-2.61848E-02-2.14326E-02 7.07604E-03 1.08841E-03-3.70077E-04
 -1       392-8.33405E-01 3.02796E-03 6.66929E-03 5.64640E-03-1.28380E-03 1.83341E-04
 -1       393-8.28742E-01-7.39024E-04-1.59771E-03-3.62692E-05 3.40832E-04 4.35612E-05
 -1       394-8.31083E-01-1.07727E-03 4.76999E-04 1.80873E-03-2.74143E-04-5.55627E-05
 -1       395-8.29504E-01 6.30173E-04 1.88085E-05-5.99808E-04 7.13605E-05 3.55655E-05
 -1       396-8.30475E-01-5.88791E-04-8.20471E-05 6.98773E-04-4.42345E-05-9.79435E-06
 -1       397-8.29752E-01 3.68598E-04 1.19055E-04-3.25676E-04 3.25169E-06-3.78106E-07
 -1       398-8.30299E-01-3.13386E-04-1.12701E-04 1.91466E-04 2.80028E-06 2.62294E-06
 -1       399-8.29819E-01 2.71294E-04 1.15879E-04-1.45437E-04-9.30247E-06-6.22733E-04
 -1       400 6.73867E-01 2.86787E-01 2.81611E-01-3.09462E-03 4.33383E-04 9.44876E-03
 -1       401 3.68344E-01 1.95183E-01 1.70577E-01-5.73678E-03 6.20195E-03-3.37837E-03
 -1       402 3.91007E-01-5.48198E-02-7.65145E-02 7.94634E-04-2.55370E-03-9.32370E-03
 -1       403 6.75457E-01-7.62721E-02-8.09879E-02-8.88074E-03 3.43453E-03-7.49695E-03
 -1       404 8.55298E-01 3.61621E-01 3.48817E-01-2.07579E-03-3.49034E-03 1.48974E-02
 -1       405 5.61559E-01 2.41347E-01 2.42254E-01-6.46883E-03 3.34685E-03 1.67895E-03
 -1       406 5.69706E-01-6.65363E-02-5.07272E-02 5.02290E-04-5.11120E-04 1.50083E-03
 -1       407 8.49365E-01-9.58339E-02-8.40267E-02-3.66348E-03 5.41003E-03 5.15088E-03
 -1       408 3.99982E-01 1.56036E-02-6.84835E-03 4.82689E-04 1.72928E-03-7.74162E-03
 -1       409 6.76556E-01 1.07962E-02 5.53468E-03-5.94835E-03-2.81386E-03-5.80349E-03
 -1       410 5.72910E-01 1.81707E-02 6.32566E-03 5.74351E-06 9.01904E-04-7.33399E-04
 -1       411 8.52363E-01 2.21728E-02 1.66585E-02-2.17263E-03-6.30251E-04-1.95915E-03
 -1       412 3.91524E-01-2.42266E-03-3.28682E-03-3.43573E-04-4.32438E-04-2.00020E-03
 -1       413 6.77562E-01-1.32922E-03-9.36508E-04-6.15594E-04 2.83264E-03-1.12565E-03
 -1       414 5.66651E-01-4.17127E-03 1.37813E-03-1.90908E-04-1.01465E-04 3.57892E-05
 -1       415 8.52689E-01-5.34260E-03-1.27143E-03 7.31842E-04 1.77397E-03 1.94808E-03
 -1       416 3.96067E-01 5.28785E-04-3.36669E-03 1.35343E-04 2.30305E-04-1.02905E-03
 -1       417 6.80132E-01-1.88118E-03-3.00691E-03-1.45142E-03-1.06357E-03-5.46369E-04
 -1       418 5.69426E-01 9.44535E-04-1.47616E-03-3.40059E-05 1.72802E-04 7.77366E-05
 -1       419 8.53787E-01 5.11885E-04-1.19185E-03-9.06457E-04-3.59531E-04-5.40328E-04
 -1       420 3.94516E-01 1.39065E-04-6.79957E-05-9.60522E-05-6.46350E-05-4.76417E-04
 -1       421 6.78559E-01 1.16693E-03 1.36010E-03 1.73026E-04 7.02893E-04-4.69846E-04
 -1       422 5.68671E-01-1.95193E-04 8.56808E-04-1.67387E-05-4.22119E-05-2.55744E-05
 -1       423 8.52793E-01 2.47340E-04 1.32139E-03 3.90820E-04 4.22493E-04 5.16477E-04
 -1       424 3.95168E-01-5.05152E-05-7.75838E-04 7.39004E-05 4.73125E-05-1.10751E-04
 -1       425 6.79819E-01-9.36992E-04-1.26591E-03-4.28381E-04-3.04736E-04 3.35176E-05
 -1       426 5.68920E-01 5.86510E-05-4.75916E-04 3.05844E-06 5.24663E-05-2.09524E-05
 -1       427 8.53592E-01-4.07650E-04-9.52995E-04-2.93047E-04-1.32233E-04-2.65330E-04
 -1       428 3.94959E-01 7.81160E-05 1.32803E-04-6.26164E-05-2.12642E-05-1.18310E-04
 -1       429 6.79214E-01 5.21221E-04 6.79251E-04 1.39315E-04 2.01655E-04-1.34972E-04
 -1       430 5.68808E-01-7.75469E-06 2.79509E-04-1.69145E-05-2.36006E-05 3.39929E-05
 -1       431 8.53077E-01 3.02528E-04 6.67098E-04 1.36400E-04 1.15007E-04 2.11580E-04
 -1       432 3.95031E-01-4.70251E-05-2.50894E-04 4.33864E-05 1.56410E-05 4.36075E-06
 -1       433 6.79560E-01-3.64942E-04-5.25397E-04-1.29593E-04-1.10157E-04 2.97692E-05
 -1       434 5.68907E-01-7.81415E-06-1.78038E-04 1.08522E-05 1.97123E-05-2.87600E-05
 -1       435 8.53446E-01-2.41403E-04-4.67489E-04-8.09232E-05-4.91342E-05-1.15241E-04
 -1       436 3.95040E-01 4.94012E-05 1.21060E-04-2.25436E-05-9.12725E-06-2.67395E-05
 -1       437 6.79404E-01 2.52071E-04 3.68402E-04 4.22732E-05 8.29367E-05-2.76724E-05
 -1       438 5.68817E-01 1.75376E-05 1.28762E-04-6.98557E-06-1.17845E-05 1.55853E-05
 -1       439 8.53171E-01 1.91894E-04 3.64936E-04 3.05761E-05 4.00536E-05 5.85124E-05
 -1       440 3.95007E-01-4.31724E-05-1.56245E-04-2.27366E-04 8.47556E-06 7.89934E-05
 -1       441 6.79497E-01-2.31801E-04-3.50486E-04-2.20810E-04-6.83455E-05 2.56241E-04
 -1       442 5.68906E-01-1.93663E-05-1.14024E-04 1.43315E-05 1.14635E-05 6.82358E-05
 -1       443 8.53408E-01-1.80729E-04-3.31107E-04 6.32971E-05-2.81546E-05 2.40847E-04
 -1       444 1.04242E+00 4.07752E-01 4.19050E-01-3.53837E-03-5.67554E-03 2.26840E-02
 -1       445 7.56700E-01 2.87462E-01 3.14495E-01-7.20927E-03 8.68521E-04 5.89514E-03
 -1       446 7.47133E-01-7.82577E-02-2.55010E-02 1.93228E-04 1.15197E-03 1.04408E-02
 -1       447 1.01778E+00-1.11474E-01-8.44330E-02-2.37488E-03 5.89965E-03 1.77591E-02
 -1       448 7.45471E-01 2.05247E-02 1.84572E-02-4.63463E-04 2.68556E-04 7.16602E-03
 -1       449 1.02855E+00 2.80416E-02 3.08096E-02-8.43000E-04 3.62231E-04 6.34238E-03
 -1       450 7.42460E-01-5.58481E-03 6.75813E-03-2.50562E-05 2.45715E-04 1.17903E-03
 -1       451 1.02839E+00-8.17616E-03-1.57284E-04 6.06340E-04 1.26292E-03 3.62893E-03
 -1       452 7.42265E-01 1.19924E-03-5.68522E-05-2.06194E-04 6.68189E-05 1.88533E-03
 -1       453 1.02676E+00 1.70597E-03 4.03489E-04-4.80307E-04-7.41453E-05 1.65489E-03
 -1       454 7.43237E-01-4.35532E-04 2.04126E-03 6.54189E-05 2.79425E-05-1.53515E-04
 -1       455 1.02760E+00-3.62275E-04 1.92899E-03 2.38491E-04 2.89862E-04 1.76226E-04
 -1       456 7.42349E-01 1.24610E-04-3.49965E-04-6.82618E-05 2.65240E-05 5.01634E-04
 -1       457 1.02690E+00-1.19828E-04-8.84425E-04-1.32239E-04-5.08269E-05 5.49912E-04
 -1       458 7.42933E-01-6.67875E-05 5.47812E-04 2.92463E-05-5.76837E-06-1.26134E-04
 -1       459 1.02733E+00 1.42382E-04 8.88383E-04 5.50968E-05 6.53700E-05-1.35442E-04
 -1       460 7.42537E-01 1.49289E-05-2.03342E-04-2.17626E-05 1.12953E-05 1.37720E-04
 -1       461 1.02699E+00-1.53905E-04-5.40418E-04-2.39011E-05-1.29154E-05 1.86836E-04
 -1       462 7.42822E-01-1.30549E-06 2.21445E-04 8.64299E-06-5.59839E-06-3.99527E-05
 -1       463 1.02725E+00 1.33624E-04 4.80110E-04 7.17675E-06 1.17554E-05-5.90580E-05
 -1       464 7.42583E-01-7.09471E-06-1.53407E-04 2.55417E-04 6.84725E-06 5.62184E-05
 -1       465 1.02702E+00-1.32710E-04-4.11633E-04 3.90421E-04-1.76014E-06 2.42198E-04
 -1       466 8.15183E-02 7.42287E-02 4.69889E-02-3.56049E-03 3.87971E-03-1.30319E-02
 -1       467 1.01841E-01-2.15266E-02-6.12835E-02-4.34534E-04-1.72078E-03-7.30195E-03
 -1       468 2.79546E-01 1.20008E-01 1.20165E-01-3.94133E-03 9.05639E-04-1.07332E-02
 -1       469 2.85181E-01-3.25678E-02-2.18038E-02-3.43327E-04 1.65353E-04-1.89572E-03
 -1       470 1.15729E-01 5.06452E-03-1.19132E-02 5.21755E-05 3.95295E-04-1.65397E-03
 -1       471 2.86861E-01 7.85235E-03 4.31369E-04 8.43192E-05-8.46110E-05 1.66319E-03
 -1       472 1.08971E-01 2.65683E-04-4.21192E-03-1.02067E-03 2.19504E-04-1.78391E-03
 -1       473 2.83691E-01-1.49357E-03 1.63705E-03-9.55660E-04 2.97009E-04-5.22089E-04
 -1       474 1.10710E-01-1.33912E-04-3.15028E-03 4.73127E-04-6.56582E-05-3.85971E-04
 -1       475 2.84280E-01 2.57818E-04-7.91676E-04 4.24840E-04-9.78451E-05-5.43153E-05
 -1       476 1.10683E-01 1.94577E-04-6.02322E-04-4.13176E-04 8.54261E-05-2.97002E-04
 -1       477 2.84553E-01-8.33352E-05 2.82775E-04-3.62164E-04 6.65654E-05 1.33098E-04
 -1       478 1.10526E-01-4.11082E-05-5.84706E-04 2.05996E-04-2.51982E-05-8.48327E-06
 -1       479 2.84388E-01 2.41590E-05-1.28493E-04 1.69907E-04-1.58682E-05-1.27897E-04
 -1       480 1.10626E-01 6.13379E-05-3.09825E-05-1.36503E-04 2.03329E-05-1.08300E-04
 -1       481 2.84413E-01 9.38884E-06 8.96281E-05-1.09144E-04 8.88212E-06 9.22983E-05
 -1       482 1.10578E-01-4.59961E-05-1.76437E-04 6.75256E-05-8.32836E-06 3.64653E-05
 -1       483 2.84462E-01-2.88726E-05-7.36532E-05 5.03888E-05-1.34558E-06-6.19810E-05
 -1       484 1.10614E-01 5.16492E-05 5.93010E-05-3.20229E-05 7.52696E-06-3.15072E-05
 -1       485 2.84397E-01 3.57455E-05 6.36965E-05-2.34509E-05 1.13252E-06 3.04457E-05
 -1       486 1.10579E-01-4.77878E-05-1.09763E-04-1.31526E-04-5.61230E-06 3.94293E-05
 -1       487 2.84465E-01-3.75324E-05-6.00765E-05-1.61934E-06-1.58621E-07 2.74082E-05
 -1       488 4.78707E-01 1.65864E-01 1.93703E-01-4.36524E-03-1.87326E-03-9.26175E-03
 -1       489 4.67849E-01-4.36994E-02 1.72984E-02-2.40675E-04 1.83498E-03 2.04767E-03
 -1       490 4.58152E-01 1.07731E-02 1.32317E-02 1.34578E-04-4.23612E-04 6.56781E-03
 -1       491 4.58495E-01-3.35308E-03 7.39937E-03-9.01445E-04 3.61032E-04-5.33222E-04
 -1       492 4.57701E-01 6.85312E-04 1.61010E-03 3.80158E-04-1.54567E-04 1.27263E-03
 -1       493 4.58578E-01-3.82308E-04 1.17942E-03-3.12054E-04 7.56468E-05-2.12311E-04
 -1       494 4.58105E-01 9.76389E-05 3.08732E-04 1.33824E-04-2.63691E-05 3.36895E-04
 -1       495 4.58333E-01-4.65221E-05 2.39693E-04-8.16602E-05 1.00634E-05-1.26568E-04
 -1       496 4.58222E-01-1.09110E-05-1.53536E-06 3.31424E-05-2.04745E-06 1.09950E-04
 -1       497 4.58297E-01 2.00048E-05 1.00062E-04-1.48272E-05-1.19742E-07-4.01826E-05
 -1       498 4.58234E-01-2.78823E-05-4.21143E-05 1.27972E-04 9.60316E-07 1.67399E-05
 -1       499-1.99736E-01-4.57039E-02-7.35664E-02-3.05202E-03 2.76160E-03-1.57080E-02
 -1       500-1.84719E-01 1.04663E-02-4.25489E-02-6.38663E-04-1.88524E-03-4.09584E-03
 -1       501 6.55712E-13 2.82665E-13 2.84790E-13-3.04591E-03-8.25474E-15-1.52713E-02
 -1       502 5.75064E-13-8.26362E-14 5.13952E-14-6.35963E-04-2.72143E-14-3.25191E-03
 -1       503-1.70620E-01-2.50046E-03-1.36329E-02 6.25941E-04 6.22699E-04 3.43411E-03
 -1       504 3.61632E-13-1.03566E-14-2.22287E-14 6.21266E-04 1.39311E-14 2.66611E-03
 -1       505-1.74415E-01 1.83166E-03-5.32263E-03-1.22189E-03-1.87438E-04-1.27611E-03
 -1       506 1.09774E-13-1.23762E-14-1.34016E-14-1.22297E-03 6.68979E-14-6.19858E-04
 -1       507-1.73678E-01-4.03962E-04-3.06218E-03 5.64897E-04 2.09981E-05 3.39693E-04
 -1       508 1.97054E-15 9.07552E-14-5.75674E-14 5.65633E-04 5.88037E-14-1.99631E-04
 -1       509-1.73763E-01 3.04087E-04-5.90581E-04-4.10235E-04-1.91520E-05-1.88786E-04
 -1       510-3.98359E-14 2.16173E-15 4.15286E-14-4.11270E-04-2.51079E-14 2.30702E-04
 -1       511-1.73875E-01-6.61022E-05-6.55641E-04 1.88409E-04 9.12155E-07 1.46202E-04
 -1       512-4.90985E-14 1.24895E-13 2.06982E-13 1.88977E-04 1.14763E-13-1.72988E-04
 -1       513-1.73798E-01 5.25105E-05-4.11582E-05-1.12650E-04-1.85487E-06-1.20508E-04
 -1       514-2.60562E-13-3.71628E-13 1.50406E-13-1.13042E-04 4.50477E-14 1.07758E-04
 -1       515-1.73850E-01-1.39643E-05-1.47321E-04 5.07180E-05-1.76163E-06 7.98652E-05
 -1       516-4.04798E-13-4.74015E-13-3.76711E-13 5.09090E-05-5.37322E-14-6.75703E-05
 -1       517-1.73822E-01 1.35085E-05 1.37049E-05-2.28539E-05 1.78686E-06-4.00202E-05
 -1       518-2.30772E-13 2.41536E-13-1.72985E-13-2.29424E-05 1.12838E-13 3.21412E-05
 -1       519-1.73842E-01-7.37877E-06-6.45112E-05-7.81431E-07-2.46026E-06 4.14669E-05
 -1       520-6.52570E-13-4.88038E-13 8.11771E-14-3.24632E-07-1.02535E-14 4.13576E-05
 -1       521 1.99736E-01 4.57039E-02 7.35664E-02-3.05202E-03-2.76160E-03-1.57080E-02
 -1       522 1.84719E-01-1.04663E-02 4.25489E-02-6.38663E-04 1.88524E-03-4.09584E-03
 -1       523 1.70620E-01 2.50046E-03 1.36329E-02 6.25941E-04-6.22699E-04 3.43411E-03
 -1       524 1.74415E-01-1.83166E-03 5.32263E-03-1.22189E-03 1.87438E-04-1.27611E-03
 -1       525 1.73678E-01 4.03962E-04 3.06218E-03 5.64897E-04-2.09981E-05 3.39693E-04
 -1       526 1.73763E-01-3.04087E-04 5.90581E-04-4.10235E-04 1.91520E-05-1.88786E-04
 -1       527 1.73875E-01 6.61022E-05 6.55641E-04 1.88409E-04-9.12155E-07 1.46202E-04
 -1       528 1.73798E-01-5.25105E-05 4.11582E-05-1.12650E-04 1.85487E-06-1.20508E-04
 -1       529 1.73850E-01 1.39643E-05 1.47321E-04 5.07180E-05 1.76163E-06 7.98652E-05
 -1       530 1.73822E-01-1.35085E-05-1.37049E-05-2.28539E-05-1.78686E-06-4.00202E-05
 -1       531 1.73842E-01 7.37877E-06 6.45112E-05-7.81431E-07 2.46026E-06 4.14669E-05
 -1       532-4.78707E-01-1.65864E-01-1.93703E-01-4.36524E-03 1.87326E-03-9.26175E-03
 -1       533-4.67849E-01 4.36994E-02-1.72984E-02-2.40675E-04-1.83498E-03 2.04767E-03
 -1       534-2.79546E-01-1.20008E-01-1.20165E-01-3.94133E-03-9.05639E-04-1.07332E-02
 -1       535-2.85181E-01 3.25678E-02 2.18038E-02-3.43327E-04-1.65353E-04-1.89572E-03
 -1       536-4.58152E-01-1.07731E-02-1.32317E-02 1.34578E-04 4.23612E-04 6.56781E-03
 -1       537-2.86861E-01-7.85235E-03-4.31369E-04 8.43192E-05 8.46110E-05 1.66319E-03
 -1       538-4.58495E-01 3.35308E-03-7.39937E-03-9.01445E-04-3.61032E-04-5.33222E-04
 -1       539-2.83691E-01 1.49357E-03-1.63705E-03-9.55660E-04-2.97009E-04-5.22089E-04
 -1       540-4.57701E-01-6.85312E-04-1.61010E-03 3.80158E-04 1.54567E-04 1.27263E-03
 -1       541-2.84280E-01-2.57818E-04 7.91676E-04 4.24840E-04 9.78451E-05-5.43153E-05
 -1       542-4.58578E-01 3.82308E-04-1.17942E-03-3.12054E-04-7.56468E-05-2.12311E-04
 -1       543-2.84553E-01 8.33352E-05-2.82775E-04-3.62164E-04-6.65654E-05 1.33098E-04
 -1       544-4.58105E-01-9.76389E-05-3.08732E-04 1.33824E-04 2.63691E-05 3.36895E-04
 -1       545-2.84388E-01-2.41590E-05 1.28493E-04 1.69907E-04 1.58682E-05-1.27897E-04
 -1       546-4.58333E-01 4.65221E-05-2.39693E-04-8.16602E-05-1.00634E-05-1.26568E-04
 -1       547-2.84413E-01-9.38884E-06-8.96281E-05-1.09144E-04-8.88212E-06 9.22983E-05
 -1       548-4.58222E-01 1.09110E-05 1.53536E-06 3.31424E-05 2.04745E-06 1.09950E-04
 -1       549-2.84462E-01 2.88726E-05 7.36532E-05 5.03888E-05 1.34558E-06-6.19810E-05
 -1       550-4.58297E-01-2.00048E-05-1.00062E-04-1.48272E-05 1.19742E-07-4.01826E-05
 -1       551-2.84397E-01-3.57455E-05-6.36965E-05-2.34509E-05-1.13252E-06 3.04457E-05
 -1       552-4.58234E-01 2.78823E-05 4.21143E-05 1.27972E-04-9.60316E-07 1.67399E-05
 -1       553-2.84465E-01 3.75324E-05 6.00765E-05-1.61934E-06 1.58621E-07 2.74082E-05
 -1       554-8.15183E-02-7.42287E-02-4.69889E-02-3.56049E-03-3.87971E-03-1.30319E-02
 -1       555-1.01841E-01 2.15266E-02 6.12835E-02-4.34534E-04 1.72078E-03-7.30195E-03
 -1       556-1.15729E-01-5.06452E-03 1.19132E-02 5.21755E-05-3.95295E-04-1.65397E-03
 -1       557-1.08971E-01-2.65683E-04 4.21192E-03-1.02067E-03-2.19504E-04-1.78391E-03
 -1       558-1.10710E-01 1.33912E-04 3.15028E-03 4.73127E-04 6.56582E-05-3.85971E-04
 -1       559-1.10683E-01-1.94577E-04 6.02322E-04-4.13176E-04-8.54261E-05-2.97002E-04
 -1       560-1.10526E-01 4.11082E-05 5.84706E-04 2.05996E-04 2.51982E-05-8.48327E-06
 -1       561-1.10626E-01-6.13379E-05 3.09825E-05-1.36503E-04-2.03329E-05-1.08300E-04
 -1       562-1.10578E-01 4.59961E-05 1.76437E-04 6.75256E-05 8.32836E-06 3.64653E-05
 -1       563-1.10614E-01-5.16492E-05-5.93010E-05-3.20228E-05-7.52696E-06-3.15072E-05
 -1       564-1.10579E-01 4.77878E-05 1.09763E-04-1.31526E-04 5.61230E-06 3.94293E-05
 -1       565-7.56700E-01-2.87462E-01-3.14495E-01-7.20927E-03-8.68521E-04 5.89514E-03
 -1       566-7.47133E-01 7.82577E-02 2.55010E-02 1.93228E-04-1.15197E-03 1.04408E-02
 -1       567-5.61559E-01-2.41347E-01-2.42254E-01-6.46883E-03-3.34685E-03 1.67895E-03
 -1       568-5.69706E-01 6.65363E-02 5.07272E-02 5.02290E-04 5.11120E-04 1.50083E-03
 -1       569-7.45471E-01-2.05247E-02-1.84572E-02-4.63463E-04-2.68556E-04 7.16602E-03
 -1       570-5.72910E-01-1.81707E-02-6.32566E-03 5.74351E-06-9.01904E-04-7.33399E-04
 -1       571-7.42460E-01 5.58481E-03-6.75813E-03-2.50562E-05-2.45715E-04 1.17903E-03
 -1       572-5.66651E-01 4.17127E-03-1.37813E-03-1.90908E-04 1.01465E-04 3.57892E-05
 -1       573-7.42265E-01-1.19924E-03 5.68522E-05-2.06194E-04-6.68189E-05 1.88533E-03
 -1       574-5.69426E-01-9.44535E-04 1.47616E-03-3.40059E-05-1.72802E-04 7.77366E-05
 -1       575-7.43237E-01 4.35532E-04-2.04126E-03 6.54189E-05-2.79425E-05-1.53515E-04
 -1       576-5.68671E-01 1.95193E-04-8.56808E-04-1.67387E-05 4.22119E-05-2.55744E-05
 -1       577-7.42349E-01-1.24610E-04 3.49965E-04-6.82618E-05-2.65240E-05 5.01634E-04
 -1       578-5.68920E-01-5.86510E-05 4.75916E-04 3.05844E-06-5.24663E-05-2.09524E-05
 -1       579-7.42933E-01 6.67875E-05-5.47812E-04 2.92463E-05 5.76837E-06-1.26134E-04
 -1       580-5.68808E-01 7.75469E-06-2.79509E-04-1.69145E-05 2.36006E-05 3.39929E-05
 -1       581-7.42537E-01-1.49289E-05 2.03342E-04-2.17626E-05-1.12953E-05 1.37720E-04
 -1       582-5.68907E-01 7.81415E-06 1.78038E-04 1.08522E-05-1.97123E-05-2.87600E-05
 -1       583-7.42822E-01 1.30549E-06-2.21445E-04 8.64300E-06 5.59839E-06-3.99527E-05
 -1       584-5.68817E-01-1.75376E-05-1.28762E-04-6.98557E-06 1.17845E-05 1.55853E-05
 -1       585-7.42583E-01 7.09471E-06 1.53407E-04 2.55417E-04-6.84725E-06 5.62184E-05
 -1       586-5.68906E-01 1.93663E-05 1.14024E-04 1.43315E-05-1.14635E-05 6.82358E-05
 -1       587-3.68344E-01-1.95183E-01-1.70577E-01-5.73678E-03-6.20195E-03-3.37837E-03
 -1       588-3.91007E-01 5.48198E-02 7.65145E-02 7.94634E-04 2.55370E-03-9.32370E-03
 -1       589-3.99982E-01-1.56036E-02 6.84835E-03 4.82689E-04-1.72928E-03-7.74162E-03
 -1       590-3.91524E-01 2.42266E-03 3.28682E-03-3.43573E-04 4.32438E-04-2.00020E-03
 -1       591-3.96067E-01-5.28785E-04 3.36669E-03 1.35343E-04-2.30305E-04-1.02905E-03
 -1       592-3.94516E-01-1.39065E-04 6.79957E-05-9.60522E-05 6.46350E-05-4.76417E-04
 -1       593-3.95168E-01 5.05152E-05 7.75838E-04 7.39004E-05-4.73125E-05-1.10751E-04
 -1       594-3.94959E-01-7.81160E-05-1.32803E-04-6.26164E-05 2.12642E-05-1.18310E-04
 -1       595-3.95031E-01 4.70251E-05 2.50894E-04 4.33864E-05-1.56410E-05 4.36075E-06
 -1       596-3.95040E-01-4.94012E-05-1.21060E-04-2.25436E-05 9.12725E-06-2.67395E-05
 -1       597-3.95007E-01 4.31724E-05 1.56245E-04-2.27366E-04-8.47556E-06 7.89934E-05
 -1       598 8.45254E-01 3.39639E-01 3.41582E-01 1.44024E-02-6.96966E-03 1.47685E-02
 -1       599 7.58381E-01 3.07499E-01 3.20208E-01 2.59666E-03-7.06185E-04 1.41134E-02
 -1       600 7.49652E-01-7.73005E-02-8.38477E-02 3.18995E-04 3.55001E-03-3.55724E-03
 -1       601 8.18592E-01-8.01895E-02-9.07300E-02 1.94075E-02 6.57929E-03-1.29523E-03
 -1       602 1.02432E+00 4.34660E-01 4.23640E-01 8.40766E-03-5.92399E-03 1.67768E-02
 -1       603 9.35050E-01 4.01352E-01 4.01460E-01-3.98158E-04 9.14003E-06 1.85312E-02
 -1       604 9.27167E-01-1.02402E-01-1.01251E-01-4.10393E-05 3.18034E-03 4.51341E-03
 -1       605 9.93925E-01-1.10742E-01-1.10483E-01 1.38547E-02 5.59210E-03 2.14245E-03
 -1       606 7.53054E-01 1.77446E-02 1.63710E-02 3.23662E-03-1.28918E-03-1.78128E-03
 -1       607 8.29604E-01 2.61848E-02 2.14326E-02 7.07604E-03-1.08841E-03-3.70077E-04
 -1       608 9.24848E-01 2.74099E-02 2.55361E-02 3.84274E-03 9.62314E-04-8.45889E-04
 -1       609 1.00043E+00 3.46248E-02 3.08987E-02 6.25491E-03 1.25801E-04 1.15962E-04
 -1       610 7.55299E-01-2.46112E-03-3.78165E-03-1.47448E-03 1.69252E-03-1.91680E-04
 -1       611 8.33405E-01-3.02796E-03-6.66929E-03 5.64640E-03 1.28380E-03 1.83341E-04
 -1       612 9.30604E-01-6.97401E-03-6.09026E-03-1.34765E-03 1.00642E-03 2.09585E-03
 -1       613 1.00802E+00-9.23784E-03-9.31064E-03 3.99662E-03 1.02557E-03 8.93367E-04
 -1       614 7.54829E-01-4.72982E-04-2.10133E-04 1.60827E-03-6.61050E-04-3.89439E-05
 -1       615 8.28742E-01 7.39024E-04 1.59771E-03-3.62692E-05-3.40832E-04 4.35612E-05
 -1       616 9.28047E-01 1.84847E-03 1.23592E-03 1.63362E-03-2.23313E-04-5.63766E-04
 -1       617 1.00178E+00 3.45005E-03 3.19768E-03 1.59931E-04-2.04337E-04 2.23558E-05
 -1       618 7.54484E-01 9.40030E-04 4.72479E-04-9.10247E-04 4.54494E-04-2.27956E-04
 -1       619 8.31083E-01 1.07727E-03-4.76999E-04 1.80873E-03 2.74143E-04-5.55627E-05
 -1       620 9.28593E-01-2.15372E-04 1.09834E-04-8.41527E-04 3.75092E-04 6.07950E-04
 -1       621 1.00515E+00-7.42375E-04-1.03545E-03 1.37321E-03 3.17908E-04 1.13805E-04
 -1       622 7.54972E-01-6.78963E-04-5.74649E-04 6.84251E-04-1.81994E-04 8.02666E-05
 -1       623 8.29504E-01-6.30173E-04-1.88085E-05-5.99808E-04-7.13605E-05 3.55655E-05
 -1       624 9.28753E-01-1.12664E-04-3.60193E-04 6.53898E-04-1.28328E-04-2.72774E-04
 -1       625 1.00318E+00 2.25378E-04 3.38613E-04-4.95723E-04-1.06027E-04 2.71185E-05
 -1       626 7.54583E-01 4.60248E-04 3.97591E-04-4.06674E-04 1.10118E-04-7.00909E-05
 -1       627 8.30475E-01 5.88791E-04 8.20471E-05 6.98773E-04 4.42345E-05-9.79435E-06
 -1       628 9.28376E-01 2.02657E-04 3.75867E-04-3.69667E-04 1.00618E-04 2.16815E-04
 -1       629 1.00433E+00 7.62716E-05-6.02941E-05 5.93255E-04 8.68203E-05 4.84441E-06
 -1       630 7.54889E-01-2.98154E-04-3.21543E-04 2.54175E-04-4.81091E-05 2.27903E-05
 -1       631 8.29752E-01-3.68598E-04-1.19055E-04-3.25676E-04-3.25169E-06-3.78106E-07
 -1       632 9.28802E-01-1.88944E-04-3.28880E-04 2.33159E-04-3.54828E-05-1.07869E-04
 -1       633 1.00359E+00-1.09038E-04-3.43610E-05-2.95413E-04-3.26377E-05 1.35577E-05
 -1       634 7.54637E-01 2.21245E-04 2.55236E-04-1.14308E-04 3.08879E-05-1.19830E-05
 -1       635 8.30299E-01 3.13386E-04 1.12701E-04 1.91466E-04-2.80028E-06 2.62294E-06
 -1       636 9.28369E-01 1.79974E-04 2.96228E-04-1.02150E-04 2.35515E-05 5.53343E-05
 -1       637 1.00409E+00 1.42857E-04 7.44235E-05 1.72416E-04 2.34523E-05-3.36627E-06
 -1       638 7.54867E-01-1.95158E-04-2.42610E-04-1.78084E-04-2.14784E-05-1.51647E-04
 -1       639 8.29819E-01-2.71294E-04-1.15879E-04-1.45437E-04 9.30247E-06-6.22733E-04
 -1       640 9.28798E-01-1.72605E-04-2.83172E-04 1.25672E-04-1.22372E-05-2.36527E-04
 -1       641 1.00368E+00-1.38806E-04-8.28443E-05 1.73053E-04-1.38951E-05-8.33607E-04
 -1       642 1.20929E+00 4.82391E-01 4.93460E-01 4.96389E-03-8.54232E-03 2.42090E-02
 -1       643 1.11943E+00 4.48344E-01 4.70750E-01-2.41564E-03-2.12305E-03 2.63552E-02
 -1       644 1.09136E+00-1.18661E-01-1.17533E-01-2.45597E-05 3.42032E-03 1.51054E-02
 -1       645 1.15666E+00-1.28797E-01-1.28921E-01 9.05301E-03 5.88772E-03 1.02878E-02
 -1       646 1.10083E+00 3.39191E-02 3.66651E-02 2.41618E-03 9.54139E-04 5.05853E-03
 -1       647 1.17421E+00 3.74834E-02 3.73207E-02 5.14399E-03-1.64837E-04 4.32763E-03
 -1       648 1.10546E+00-9.87282E-03-7.90275E-03-5.77382E-04 9.70264E-04 3.59330E-03
 -1       649 1.18275E+00-1.19608E-02-1.11589E-02 2.57598E-03 9.58667E-04 2.44905E-03
 -1       650 1.10107E+00 3.31988E-03 2.68179E-03 8.28700E-04-2.11508E-04 1.17215E-03
 -1       651 1.17464E+00 4.70880E-03 4.33007E-03 3.85971E-04-3.89767E-04 1.03008E-03
 -1       652 1.10325E+00-9.70511E-04 3.68084E-05-3.46229E-04 3.85097E-04 2.27875E-04
 -1       653 1.17966E+00-1.81108E-03-1.48032E-03 8.37473E-04 4.26850E-04 6.83853E-05
 -1       654 1.10204E+00 2.98986E-04-2.34946E-04 2.85262E-04-1.46355E-04 4.91879E-04
 -1       655 1.17648E+00 8.23439E-04 6.26812E-04-2.53597E-04-2.31987E-04 4.45279E-04
 -1       656 1.10264E+00-2.70441E-05 4.38752E-04-1.42539E-04 1.21211E-04-1.63211E-04
 -1       657 1.17855E+00-3.56116E-04-1.98706E-04 3.69260E-04 1.82628E-04-1.75314E-04
 -1       658 1.10231E+00-4.96642E-05-3.66043E-04 9.23675E-05-5.55274E-05 2.03557E-04
 -1       659 1.17710E+00 1.74008E-04 5.73289E-05-1.78746E-04-1.20792E-04 1.86122E-04
 -1       660 1.10248E+00 8.43699E-05 3.60972E-04-3.79845E-05 4.27673E-05-7.47057E-05
 -1       661 1.17820E+00-8.43797E-05 1.74124E-05 1.09433E-04 1.00930E-04-7.20202E-05
 -1       662 1.10237E+00-8.94186E-05-3.37746E-04 5.08067E-04-3.10328E-05-2.71735E-04
 -1       663 1.17725E+00 6.32477E-05-3.11678E-05 5.77946E-04-8.99283E-05-9.18060E-04
 -1       664 4.71747E-01 1.34295E-01 1.71258E-01-7.80457E-03-1.07371E-02-1.61960E-02
 -1       665 8.66025E-02 3.38735E-02 2.47114E-02-6.93473E-03-5.65167E-03-4.24189E-04
 -1       666 8.63933E-02-4.84709E-03-7.96605E-03-1.63313E-02 4.32274E-03 2.34858E-03
 -1       667 4.56096E-01-4.02844E-02-4.89948E-02-1.47681E-02 6.74767E-03-2.70562E-03
 -1       668 4.06517E-01 1.09426E-01 1.54754E-01 5.62705E-03-4.53161E-03-1.89879E-02
 -1       669 1.64438E-02 7.35743E-03 7.08355E-03 6.34800E-03 5.35612E-04-8.85116E-04
 -1       670 1.62323E-02-5.84406E-03-3.24785E-03 4.38138E-04 4.68707E-04 2.73290E-03
 -1       671 3.86877E-01-3.80178E-02-4.43472E-02 4.50310E-04 2.94440E-03-2.63357E-03
 -1       672 9.74826E-02 4.32798E-03 1.87754E-03-7.90002E-03-1.02349E-03-8.06919E-04
 -1       673 4.88528E-01 1.09679E-02 1.07126E-02-7.41147E-03-8.28974E-04-6.20452E-03
 -1       674 1.84389E-02 4.31134E-03 1.27606E-03-1.94319E-04-8.32691E-05-1.08053E-03
 -1       675 4.07993E-01 1.02172E-02 1.04332E-02-2.54162E-04 2.17176E-05-6.84203E-03
 -1       676 9.64076E-02-2.77676E-04-6.25231E-04-3.86790E-03 4.63529E-04 8.48592E-04
 -1       677 4.81418E-01-1.77860E-03-2.16003E-03-3.34807E-03 4.69165E-04-3.71142E-04
 -1       678 1.73166E-02-2.49155E-03-3.94705E-04 1.05586E-04 2.98179E-04 1.23182E-03
 -1       679 4.02216E-01-3.15984E-03-2.17748E-03 2.54841E-04 3.07968E-04 1.55097E-04
 -1       680 9.30646E-02 8.91384E-04 4.15931E-04-1.15126E-03-1.31293E-04-3.22520E-04
 -1       681 4.80540E-01 7.77269E-04 3.84325E-04-1.11411E-03-1.90202E-04-1.49004E-03
 -1       682 1.79947E-02 1.36422E-03 1.03161E-04 1.91246E-05-1.13847E-04-6.41851E-04
 -1       683 4.05038E-01 8.08603E-04 1.66536E-04-1.07401E-04-2.29816E-04-1.90876E-03
 -1       684 9.38062E-02-8.37595E-05-1.46186E-04-6.55953E-04 9.30266E-05 2.01722E-04
 -1       685 4.79563E-01 9.07556E-05 1.61269E-04-5.55140E-04 1.12441E-04 1.77648E-04
 -1       686 1.77451E-02-6.99499E-04-2.94050E-05-9.73516E-05 1.36257E-04 4.63560E-04
 -1       687 4.03627E-01-2.10897E-04 2.13921E-04 2.12990E-05 1.54878E-04 4.87389E-04
 -1       688 9.30782E-02 1.41520E-04 8.30409E-05-2.28115E-04-4.43324E-05-6.36382E-05
 -1       689 4.79727E-01-3.88767E-05-1.67664E-04-2.23966E-04-3.70659E-05-3.39940E-04
 -1       690 1.78288E-02 3.64520E-04 2.61717E-05 1.17701E-04-7.89177E-05-2.52505E-04
 -1       691 4.04335E-01 2.58408E-05-1.85417E-04 2.75625E-05-7.59648E-05-5.67977E-04
 -1       692 9.32575E-02-1.01423E-05-4.51975E-05-8.20294E-05 3.26808E-05 2.68637E-05
 -1       693 4.79390E-01 8.01228E-05 1.22894E-04-6.70977E-05 1.75239E-05 4.67799E-05
 -1       694 1.78529E-02-1.95556E-04-3.56582E-05-1.02647E-04 6.00391E-05 1.58825E-04
 -1       695 4.04034E-01-9.18749E-06 1.03577E-04-3.59967E-05 4.29196E-05 2.04495E-04
 -1       696 9.31025E-02 3.52092E-05 4.54579E-05-5.80966E-05-1.89399E-05-1.15962E-06
 -1       697 4.79507E-01-2.23065E-05-6.20179E-05-5.44366E-05-3.83770E-06-5.18657E-05
 -1       698 1.77862E-02 1.17410E-04 4.43615E-05 7.20993E-05-3.66436E-05-8.30526E-05
 -1       699 4.04157E-01 8.12853E-06-4.38135E-05 2.96827E-05-2.33220E-05-1.51455E-04
 -1       700 9.31523E-02-2.11903E-05-4.48005E-05-2.32219E-06 1.42414E-05-1.35380E-06
 -1       701 4.79381E-01 1.24649E-05 3.22662E-05-1.89367E-06 5.60966E-07 1.65841E-06
 -1       702 1.78769E-02-8.25578E-05-4.92108E-05-3.65762E-05 2.76788E-05 3.81394E-05
 -1       703 4.04116E-01-1.41897E-05 1.30371E-05-1.57166E-05 1.59968E-05 4.96168E-05
 -1       704 9.31132E-02 3.06826E-05 4.67229E-05-8.37331E-05-1.17287E-05 2.07944E-04
 -1       705 4.79474E-01 2.70771E-07-2.08016E-05-1.36679E-04 1.31859E-06 1.53206E-04
 -1       706 1.77780E-02 7.30720E-05 5.07761E-05-3.85619E-05-2.33537E-05 1.37674E-05
 -1       707 4.04129E-01 1.47847E-05-3.73251E-06-9.74744E-05-1.33137E-05 3.64219E-06
 -1       708 3.42249E-01 8.50098E-02 1.38794E-01 2.08870E-02 1.85082E-03-2.18093E-02
 -1       709-5.36978E-02-1.90763E-02-1.02869E-02 2.15322E-02 6.86548E-03-1.34031E-03
 -1       710-5.39716E-02-7.41637E-03 1.36071E-03 2.04447E-02-3.51002E-03 3.10194E-03
 -1       711 3.16762E-01-3.73667E-02-4.03874E-02 1.81249E-02-1.10958E-03-2.54922E-03
 -1       712-6.10005E-02 3.61591E-03 5.94026E-04 5.08018E-03 9.22157E-04-1.35462E-03
 -1       713 3.27980E-01 1.15619E-02 1.07756E-02 5.05787E-03 1.15241E-03-7.47213E-03
 -1       714-6.16280E-02-4.60927E-03-7.37945E-05 6.15700E-03 7.51284E-05 1.62833E-03
 -1       715 3.23245E-01-4.45118E-03-2.40566E-03 5.02935E-03-4.30753E-05 6.73724E-04
 -1       716-5.71720E-02 1.70796E-03-2.57433E-04-3.47460E-04-1.60970E-05-9.63735E-04
 -1       717 3.29450E-01 1.05117E-03-3.00373E-05 1.07310E-05-1.52065E-04-2.32302E-03
 -1       718-5.83277E-02-1.31342E-03 1.17885E-04 1.63163E-03 1.16296E-04 7.27349E-04
 -1       719 3.27763E-01-4.88965E-04 2.53033E-04 1.22541E-03 1.24083E-04 7.94242E-04
 -1       720-5.73617E-02 5.84688E-04-5.17091E-05-3.71328E-04-6.64921E-05-4.41388E-04
 -1       721 3.28958E-01 1.49810E-04-2.06179E-04-1.80744E-04-6.96151E-05-7.94239E-04
 -1       722-5.76534E-02-4.04235E-04-9.16164E-06 4.54771E-04 5.68811E-05 2.90901E-04
 -1       723 3.28628E-01-1.21757E-04 8.76776E-05 3.09401E-04 4.03435E-05 3.61107E-04
 -1       724-5.74060E-02 2.26541E-04 2.90802E-05-1.57189E-04-3.39725E-05-1.64858E-04
 -1       725 3.28889E-01 7.55051E-05-3.31851E-05-8.46496E-05-2.51336E-05-2.50433E-04
 -1       726-5.75368E-02-1.77562E-04-4.08298E-05 1.02269E-04 2.66694E-05 7.76198E-05
 -1       727 3.28756E-01-7.05884E-05 2.25967E-06 6.56556E-05 1.90831E-05 9.73006E-05
 -1       728-5.74151E-02 1.49406E-04 4.25484E-05 5.94338E-06-2.22567E-05-1.80073E-04
 -1       729 3.28885E-01 6.22580E-05 4.02822E-06-5.83523E-05-1.72440E-05-1.44138E-04
 -1       730-2.89336E-01-1.29207E-01-1.38354E-01-7.46537E-03-6.65703E-03 5.68249E-03
 -1       731-2.97554E-01 3.93758E-02 3.85913E-02-1.74016E-02 4.13252E-03-1.38274E-04
 -1       732-3.67380E-01-1.58456E-01-1.57907E-01 5.29834E-03-3.52061E-04 6.03346E-03
 -1       733-3.68434E-01 3.68162E-02 4.39668E-02 5.06259E-04 8.87578E-05-4.82350E-04
 -1       734-2.92241E-01-1.28299E-03-1.31259E-02-9.60857E-03-8.57167E-04 1.89484E-03
 -1       735-3.69927E-01-7.36100E-03-1.35421E-02 5.48196E-04 1.18779E-04 1.15238E-03
 -1       736-2.88398E-01 1.65104E-03 2.86526E-03-4.05242E-03 4.49935E-04-8.72759E-04
 -1       737-3.67375E-01 2.22667E-05 3.72052E-03-3.92395E-04 1.97593E-04-5.43508E-04
 -1       738-2.94832E-01 1.68326E-03-5.15737E-04-1.42626E-03-8.71782E-06 6.86703E-04
 -1       739-3.69382E-01 1.17713E-03-1.00334E-03 4.60451E-04-4.79740E-05 4.19940E-04
 -1       740-2.91749E-01-4.25829E-04-2.22803E-04-6.76627E-04 4.94905E-05-2.99672E-04
 -1       741-3.67985E-01-9.83807E-04 1.30541E-04-3.42112E-04 1.00022E-04-1.74775E-04
 -1       742-2.93665E-01 5.38060E-04 1.91802E-04-3.02837E-04-4.52667E-06 1.82382E-04
 -1       743-3.68736E-01 5.91397E-04 2.26334E-05 2.76547E-04-5.94503E-05 9.30128E-05
 -1       744-2.92851E-01-1.59332E-04-1.54986E-04-5.96648E-05 1.47210E-05-8.05813E-05
 -1       745-3.68319E-01-3.21275E-04-5.53331E-05-1.91445E-04 5.18601E-05-3.07618E-05
 -1       746-2.93282E-01 1.29100E-04 9.58783E-05-8.69315E-05-4.96366E-06 4.30666E-05
 -1       747-3.68559E-01 1.68794E-04 4.44856E-05 1.24289E-04-3.39247E-05 1.19626E-05
 -1       748-2.93103E-01-5.28831E-05-7.60452E-05 7.66905E-06 5.33737E-06-1.56322E-05
 -1       749-3.68387E-01-9.88962E-05-4.14510E-05-5.96150E-05 2.76146E-05-2.04726E-06
 -1       750-2.93205E-01 5.84730E-05 6.64438E-05-8.16305E-05-3.09289E-06 2.68459E-04
 -1       751-3.68533E-01 7.85234E-05 3.88116E-05-3.96802E-05-2.39588E-05-5.17641E-05
 -1       752-4.47169E-01-1.88251E-01-1.77534E-01 1.99583E-02 6.01813E-03 6.39159E-03
 -1       753-4.38694E-01 3.41734E-02 4.89377E-02 2.16479E-02-4.13213E-03-7.89515E-04
 -1       754-4.46793E-01-1.12451E-02-1.32484E-02 5.94199E-03 1.40492E-03 3.99956E-04
 -1       755-4.46825E-01-2.59088E-03 4.12387E-03 6.57147E-03-3.20220E-04-2.44212E-04
 -1       756-4.43413E-01 1.44006E-03-1.22081E-03-3.65734E-04 8.50083E-05 1.58374E-04
 -1       757-4.44604E-01-1.91117E-03 3.49034E-04 1.87534E-03 3.28079E-05-5.54142E-05
 -1       758-4.43456E-01 9.03904E-04-7.60850E-05-5.14180E-04-3.85071E-05 4.35778E-06
 -1       759-4.44093E-01-6.42425E-04 1.06406E-05 5.90690E-04 3.86202E-05 1.81430E-05
 -1       760-4.43546E-01 3.35295E-04 1.03768E-05-2.34935E-04-2.89497E-05-1.89796E-05
 -1       761-4.43951E-01-2.49945E-04-1.63427E-05 1.43302E-04 2.44197E-05 1.13777E-05
 -1       762-4.43584E-01 2.00257E-04 1.87394E-05 3.33485E-06-2.21147E-05-3.70660E-04
 -1       763-4.71747E-01-1.34295E-01-1.71258E-01-7.80457E-03 1.07371E-02-1.61960E-02
 -1       764-8.66025E-02-3.38735E-02-2.47114E-02-6.93473E-03 5.65167E-03-4.24189E-04
 -1       765-8.63933E-02 4.84709E-03 7.96605E-03-1.63313E-02-4.32274E-03 2.34858E-03
 -1       766-4.56096E-01 4.02844E-02 4.89948E-02-1.47681E-02-6.74767E-03-2.70562E-03
 -1       767-4.06517E-01-1.09426E-01-1.54754E-01 5.62705E-03 4.53161E-03-1.89879E-02
 -1       768-1.64438E-02-7.35743E-03-7.08355E-03 6.34800E-03-5.35612E-04-8.85116E-04
 -1       769-1.62323E-02 5.84406E-03 3.24785E-03 4.38138E-04-4.68707E-04 2.73290E-03
 -1       770-3.86877E-01 3.80178E-02 4.43472E-02 4.50310E-04-2.94440E-03-2.63357E-03
 -1       771-9.74826E-02-4.32798E-03-1.87754E-03-7.90002E-03 1.02349E-03-8.06919E-04
 -1       772-4.88528E-01-1.09679E-02-1.07126E-02-7.41147E-03 8.28974E-04-6.20452E-03
 -1       773-1.84389E-02-4.31134E-03-1.27606E-03-1.94319E-04 8.32691E-05-1.08053E-03
 -1       774-4.07993E-01-1.02172E-02-1.04332E-02-2.54162E-04-2.17176E-05-6.84203E-03
 -1       775-9.64076E-02 2.77676E-04 6.25231E-04-3.86790E-03-4.63529E-04 8.48592E-04
 -1       776-4.81418E-01 1.77860E-03 2.16003E-03-3.34807E-03-4.69165E-04-3.71142E-04
 -1       777-1.73166E-02 2.49155E-03 3.94705E-04 1.05586E-04-2.98179E-04 1.23182E-03
 -1       778-4.02216E-01 3.15984E-03 2.17748E-03 2.54841E-04-3.07968E-04 1.55097E-04
 -1       779-9.30646E-02-8.91384E-04-4.15931E-04-1.15126E-03 1.31293E-04-3.22520E-04
 -1       780-4.80540E-01-7.77269E-04-3.84325E-04-1.11411E-03 1.90202E-04-1.49004E-03
 -1       781-1.79947E-02-1.36422E-03-1.03161E-04 1.91246E-05 1.13847E-04-6.41851E-04
 -1       782-4.05038E-01-8.08603E-04-1.66536E-04-1.07401E-04 2.29816E-04-1.90876E-03
 -1       783-9.38062E-02 8.37595E-05 1.46186E-04-6.55953E-04-9.30266E-05 2.01722E-04
 -1       784-4.79563E-01-9.07556E-05-1.61269E-04-5.55140E-04-1.12441E-04 1.77648E-04
 -1       785-1.77451E-02 6.99499E-04 2.94050E-05-9.73516E-05-1.36257E-04 4.63560E-04
 -1       786-4.03627E-01 2.10897E-04-2.13921E-04 2.12990E-05-1.54878E-04 4.87389E-04
 -1       787-9.30782E-02-1.41520E-04-8.30409E-05-2.28115E-04 4.43324E-05-6.36382E-05
 -1       788-4.79727E-01 3.88768E-05 1.67664E-04-2.23966E-04 3.70659E-05-3.39940E-04
 -1       789-1.78288E-02-3.64520E-04-2.61717E-05 1.17701E-04 7.89177E-05-2.52505E-04
 -1       790-4.04335E-01-2.58408E-05 1.85417E-04 2.75625E-05 7.59648E-05-5.67977E-04
 -1       791-9.32575E-02 1.01423E-05 4.51975E-05-8.20294E-05-3.26808E-05 2.68637E-05
 -1       792-4.79390E-01-8.01228E-05-1.22894E-04-6.70977E-05-1.75239E-05 4.67799E-05
 -1       793-1.78529E-02 1.95556E-04 3.56582E-05-1.02647E-04-6.00391E-05 1.58825E-04
 -1       794-4.04034E-01 9.18749E-06-1.03577E-04-3.59967E-05-4.29196E-05 2.04495E-04
 -1       795-9.31025E-02-3.52092E-05-4.54579E-05-5.80966E-05 1.89399E-05-1.15962E-06
 -1       796-4.79507E-01 2.23065E-05 6.20179E-05-5.44366E-05 3.83770E-06-5.18657E-05
 -1       797-1.77862E-02-1.17410E-04-4.43615E-05 7.20993E-05 3.66436E-05-8.30526E-05
 -1       798-4.04157E-01-8.12853E-06 4.38135E-05 2.96827E-05 2.33220E-05-1.51455E-04
 -1       799-9.31523E-02 2.11903E-05 4.48005E-05-2.32219E-06-1.42414E-05-1.35380E-06
 -1       800-4.79381E-01-1.24649E-05-3.22662E-05-1.89367E-06-5.60966E-07 1.65841E-06
 -1       801-1.78769E-02 8.25578E-05 4.92108E-05-3.65762E-05-2.76788E-05 3.81394E-05
 -1       802-4.04116E-01 1.41897E-05-1.30371E-05-1.57166E-05-1.59968E-05 4.96168E-05
 -1       803-9.31132E-02-3.06826E-05-4.67229E-05-8.37331E-05 1.17287E-05 2.07944E-04
 -1       804-4.79474E-01-2.70770E-07 2.08016E-05-1.36679E-04-1.31859E-06 1.53206E-04
 -1       805-1.77780E-02-7.30720E-05-5.07761E-05-3.85619E-05 2.33537E-05 1.37674E-05
 -1       806-4.04129E-01-1.47847E-05 3.73251E-06-9.74744E-05 1.33137E-05 3.64219E-06
 -1       807-3.42249E-01-8.50098E-02-1.38794E-01 2.08870E-02-1.85082E-03-2.18093E-02
 -1       808 5.36978E-02 1.90763E-02 1.02869E-02 2.15322E-02-6.86548E-03-1.34031E-03
 -1       809 5.39716E-02 7.41637E-03-1.36071E-03 2.04447E-02 3.51002E-03 3.10194E-03
 -1       810-3.16762E-01 3.73667E-02 4.03874E-02 1.81249E-02 1.10958E-03-2.54922E-03
 -1       811 6.10005E-02-3.61591E-03-5.94026E-04 5.08018E-03-9.22157E-04-1.35462E-03
 -1       812-3.27980E-01-1.15619E-02-1.07756E-02 5.05787E-03-1.15241E-03-7.47213E-03
 -1       813 6.16280E-02 4.60927E-03 7.37945E-05 6.15700E-03-7.51284E-05 1.62833E-03
 -1       814-3.23245E-01 4.45118E-03 2.40566E-03 5.02935E-03 4.30753E-05 6.73724E-04
 -1       815 5.71720E-02-1.70796E-03 2.57433E-04-3.47460E-04 1.60970E-05-9.63735E-04
 -1       816-3.29450E-01-1.05117E-03 3.00373E-05 1.07310E-05 1.52065E-04-2.32302E-03
 -1       817 5.83277E-02 1.31342E-03-1.17885E-04 1.63163E-03-1.16296E-04 7.27349E-04
 -1       818-3.27763E-01 4.88965E-04-2.53033E-04 1.22541E-03-1.24083E-04 7.94242E-04
 -1       819 5.73617E-02-5.84688E-04 5.17091E-05-3.71328E-04 6.64921E-05-4.41388E-04
 -1       820-3.28958E-01-1.49810E-04 2.06179E-04-1.80744E-04 6.96151E-05-7.94239E-04
 -1       821 5.76534E-02 4.04235E-04 9.16165E-06 4.54771E-04-5.68811E-05 2.90901E-04
 -1       822-3.28628E-01 1.21757E-04-8.76776E-05 3.09401E-04-4.03435E-05 3.61107E-04
 -1       823 5.74060E-02-2.26541E-04-2.90802E-05-1.57189E-04 3.39725E-05-1.64858E-04
 -1       824-3.28889E-01-7.55051E-05 3.31851E-05-8.46496E-05 2.51336E-05-2.50433E-04
 -1       825 5.75368E-02 1.77562E-04 4.08298E-05 1.02269E-04-2.66694E-05 7.76198E-05
 -1       826-3.28756E-01 7.05884E-05-2.25967E-06 6.56556E-05-1.90831E-05 9.73006E-05
 -1       827 5.74151E-02-1.49406E-04-4.25484E-05 5.94339E-06 2.22567E-05-1.80073E-04
 -1       828-3.28885E-01-6.22580E-05-4.02822E-06-5.83523E-05 1.72440E-05-1.44138E-04
 -1       829 2.89336E-01 1.29207E-01 1.38354E-01-7.46537E-03 6.65703E-03 5.68249E-03
 -1       830 2.97554E-01-3.93758E-02-3.85913E-02-1.74016E-02-4.13252E-03-1.38274E-04
 -1       831 3.67380E-01 1.58456E-01 1.57907E-01 5.29834E-03 3.52061E-04 6.03346E-03
 -1       832 3.68434E-01-3.68162E-02-4.39668E-02 5.06259E-04-8.87578E-05-4.82350E-04
 -1       833 2.92241E-01 1.28299E-03 1.31259E-02-9.60857E-03 8.57167E-04 1.89484E-03
 -1       834 3.69927E-01 7.36100E-03 1.35421E-02 5.48196E-04-1.18779E-04 1.15238E-03
 -1       835 2.88398E-01-1.65104E-03-2.86526E-03-4.05242E-03-4.49935E-04-8.72759E-04
 -1       836 3.67375E-01-2.22667E-05-3.72052E-03-3.92395E-04-1.97593E-04-5.43508E-04
 -1       837 2.94832E-01-1.68326E-03 5.15737E-04-1.42626E-03 8.71782E-06 6.86703E-04
 -1       838 3.69382E-01-1.17713E-03 1.00334E-03 4.60451E-04 4.79740E-05 4.19940E-04
 -1       839 2.91749E-01 4.25829E-04 2.22803E-04-6.76627E-04-4.94905E-05-2.99672E-04
 -1       840 3.67985E-01 9.83807E-04-1.30541E-04-3.42112E-04-1.00022E-04-1.74775E-04
 -1       841 2.93665E-01-5.38060E-04-1.91802E-04-3.02837E-04 4.52667E-06 1.82382E-04
 -1       842 3.68736E-01-5.91397E-04-2.26334E-05 2.76547E-04 5.94503E-05 9.30128E-05
 -1       843 2.92851E-01 1.59332E-04 1.54986E-04-5.96648E-05-1.47210E-05-8.05813E-05
 -1       844 3.68319E-01 3.21275E-04 5.53331E-05-1.91445E-04-5.18601E-05-3.07618E-05
 -1       845 2.93282E-01-1.29100E-04-9.58783E-05-8.69315E-05 4.96366E-06 4.30666E-05
 -1       846 3.68559E-01-1.68794E-04-4.44856E-05 1.24289E-04 3.39247E-05 1.19626E-05
 -1       847 2.93103E-01 5.28831E-05 7.60452E-05 7.66905E-06-5.33737E-06-1.56322E-05
 -1       848 3.68387E-01 9.88962E-05 4.14510E-05-5.96150E-05-2.76146E-05-2.04726E-06
 -1       849 2.93205E-01-5.84730E-05-6.64438E-05-8.16305E-05 3.09289E-06 2.68459E-04
 -1       850 3.68533E-01-7.85234E-05-3.88116E-05-3.96802E-05 2.39588E-05-5.17641E-05
 -1       851 4.47169E-01 1.88251E-01 1.77534E-01 1.99583E-02-6.01813E-03 6.39159E-03
 -1       852 4.38694E-01-3.41734E-02-4.89377E-02 2.16479E-02 4.13213E-03-7.89515E-04
 -1       853 4.46793E-01 1.12451E-02 1.32484E-02 5.94199E-03-1.40492E-03 3.99956E-04
 -1       854 4.46825E-01 2.59088E-03-4.12387E-03 6.57147E-03 3.20220E-04-2.44212E-04
 -1       855 4.43413E-01-1.44006E-03 1.22081E-03-3.65734E-04-8.50083E-05 1.58374E-04
 -1       856 4.44604E-01 1.91117E-03-3.49034E-04 1.87534E-03-3.28079E-05-5.54142E-05
 -1       857 4.43456E-01-9.03904E-04 7.60850E-05-5.14180E-04 3.85071E-05 4.35778E-06
 -1       858 4.44093E-01 6.42425E-04-1.06406E-05 5.90690E-04-3.86202E-05 1.81430E-05
 -1       859 4.43546E-01-3.35295E-04-1.03768E-05-2.34935E-04 2.89497E-05-1.89796E-05
 -1       860 4.43951E-01 2.49945E-04 1.63427E-05 1.43302E-04-2.44197E-05 1.13777E-05
 -1       861 4.43584E-01-2.00257E-04-1.87394E-05 3.33485E-06 2.21147E-05-3.70660E-04
 -1       862-6.91688E-01-2.91600E-01-2.91266E-01 7.15176E-03 3.44964E-04 7.97127E-03
 -1       863-7.78058E-01-3.17289E-01-3.28988E-01 5.35362E-03-1.07952E-03 1.10349E-02
 -1       864-7.71400E-01 7.70542E-02 8.52243E-02 1.88600E-03 4.03849E-03-1.46902E-03
 -1       865-6.95693E-01 7.55626E-02 7.74415E-02 3.64566E-03 4.62800E-03-2.76766E-03
 -1       866-8.04822E-01-3.41194E-01-3.31203E-01 7.83155E-03-1.52900E-03 9.24947E-03
 -1       867-8.87259E-01-3.80816E-01-3.80820E-01 7.80931E-03-4.34469E-05 1.23421E-02
 -1       868-8.79026E-01 9.60170E-02 9.59391E-02 1.66124E-03 2.54652E-03 2.89580E-03
 -1       869-7.99785E-01 8.86136E-02 7.98062E-02 1.43067E-03 4.66426E-03 3.09907E-03
 -1       870-7.73774E-01-1.57207E-02-1.71242E-02-2.98268E-03-1.62146E-03-3.42479E-04
 -1       871-6.94462E-01-7.62975E-03-5.68666E-03 2.36294E-03-4.37961E-03-1.94579E-03
 -1       872-8.76370E-01-2.48106E-02-2.42962E-02-3.05808E-03 1.15199E-03-1.96254E-03
 -1       873-8.01051E-01-1.88296E-02-1.56202E-02 1.11551E-03-1.59435E-03-2.42519E-03
 -1       874-7.75589E-01 1.28307E-03 3.72139E-03 1.70964E-03 1.90664E-03-2.35145E-04
 -1       875-6.95995E-01 4.09046E-05-2.15871E-04-2.96535E-05 3.41829E-03-2.90840E-04
 -1       876-8.82454E-01 6.13749E-03 5.86804E-03 1.71282E-03 9.10189E-04 2.08233E-03
 -1       877-8.02559E-01 4.20055E-03 9.17809E-04-5.87635E-04 2.00131E-03 2.06342E-03
 -1       878-7.75112E-01 1.02887E-03-9.58438E-05-1.27121E-03-7.25615E-04 4.48123E-04
 -1       879-6.98366E-01 2.06162E-03 2.44796E-03 6.96280E-04-1.28043E-03 3.44823E-04
 -1       880-8.79024E-01-1.53222E-03-1.36363E-03-1.33930E-03-4.15500E-04-1.05716E-03
 -1       881-8.02511E-01-2.93187E-04 1.21884E-03 6.35114E-04-6.59933E-04-9.59547E-04
 -1       882-7.74736E-01-1.16224E-03-4.84783E-04 7.44976E-04 4.50679E-04-3.09657E-04
 -1       883-6.96623E-01-1.51227E-03-1.61225E-03-3.89295E-04 7.62214E-04-3.70834E-04
 -1       884-8.80010E-01 1.23182E-04 3.39724E-05 8.01180E-04 3.53664E-04 7.07681E-04
 -1       885-8.01980E-01-4.15676E-04-1.27331E-03-3.87118E-04 4.56119E-04 6.22320E-04
 -1       886-7.75325E-01 8.38908E-04 5.33272E-04-4.87629E-04-2.16500E-04 1.84909E-04
 -1       887-6.97936E-01 1.07419E-03 1.18108E-03 2.93706E-04-3.83219E-04 2.28660E-04
 -1       888-8.80106E-01 2.21148E-04 2.87032E-04-5.17962E-04-1.73473E-04-4.29613E-04
 -1       889-8.02663E-01 4.93704E-04 9.29897E-04 2.38976E-04-2.10472E-04-3.92530E-04
 -1       890-7.74861E-01-5.73753E-04-4.12776E-04 3.05404E-04 1.21179E-04-9.45838E-05
 -1       891-6.97234E-01-6.91102E-04-7.45947E-04-1.71019E-04 2.30695E-04-1.35414E-04
 -1       892-8.79714E-01-2.84779E-04-3.27705E-04 3.17619E-04 9.57848E-05 2.69602E-04
 -1       893-8.02144E-01-3.93563E-04-6.38889E-04-1.28479E-04 1.24638E-04 2.58969E-04
 -1       894-7.75211E-01 3.97760E-04 3.13660E-04-1.84679E-04-6.45613E-05 4.57549E-05
 -1       895-6.97608E-01 4.66769E-04 5.05275E-04 9.57014E-05-1.37747E-04 7.35006E-05
 -1       896-8.80168E-01 2.65891E-04 2.96237E-04-1.86574E-04-4.54386E-05-1.53579E-04
 -1       897-8.02532E-01 3.02098E-04 4.42890E-04 6.45701E-05-6.64645E-05-1.52971E-04
 -1       898-7.74937E-01-3.05058E-04-2.52703E-04 8.64944E-05 3.96262E-05-1.78223E-05
 -1       899-6.97423E-01-3.46848E-04-3.72013E-04-4.15727E-05 9.60049E-05-3.21766E-05
 -1       900-8.79720E-01-2.42730E-04-2.65685E-04 8.58712E-05 2.33713E-05 7.01954E-05
 -1       901-8.02234E-01-2.44813E-04-3.37712E-04-2.61284E-05 4.22535E-05 7.15881E-05
 -1       902-7.75177E-01 2.75924E-04 2.33420E-04 2.05583E-04-3.18515E-05-1.25821E-04
 -1       903-6.97531E-01 3.10418E-04 3.32908E-04 2.40512E-04-8.26742E-05 2.38104E-04
 -1       904-8.80158E-01 2.33370E-04 2.54254E-04-1.78493E-04-1.64081E-05-2.05199E-04
 -1       905-8.02492E-01 2.26315E-04 3.04821E-04-1.05921E-04-3.41857E-05 2.14778E-04
 -1       906-9.22629E-01-3.70135E-01-3.75261E-01 8.63581E-03-3.86168E-03 1.09079E-02
 -1       907-1.00423E+00-4.10426E-01-4.24757E-01 8.14820E-03-2.46822E-03 1.44990E-02
 -1       908-9.75411E-01 1.07593E-01 1.07580E-01 8.38427E-04 2.98100E-03 5.48751E-03
 -1       909-8.99168E-01 9.90247E-02 8.17889E-02 1.02291E-03 4.92183E-03 6.05620E-03
 -1       910-9.82894E-01-3.08257E-02-3.45744E-02-1.62548E-03 1.01889E-03 1.49781E-03
 -1       911-9.07947E-01-2.44930E-02-2.85763E-02 2.81299E-04-2.77048E-04 2.15653E-03
 -1       912-9.88695E-01 9.34728E-03 8.43462E-03 7.42581E-04 8.14679E-04 1.17468E-03
 -1       913-9.09518E-01 7.35714E-03 1.26851E-03-2.40912E-04 1.23970E-03 7.54643E-04
 -1       914-9.82647E-01-3.27183E-03-2.76485E-03-5.68536E-04-3.27851E-04 5.03844E-04
 -1       915-9.06014E-01-1.79370E-03 2.92266E-04 2.86641E-04-2.69381E-04 8.58852E-04
 -1       916-9.85877E-01 1.11074E-03 4.91945E-04 2.97786E-04 3.18426E-04-3.88220E-04
 -1       917-9.07940E-01 4.14497E-04-1.37842E-03-1.67373E-04 2.54290E-04-5.71522E-04
 -1       918-9.84295E-01-3.42805E-04 6.47508E-05-1.78586E-04-1.63963E-04 4.37715E-04
 -1       919-9.06864E-01 5.11992E-05 9.42443E-04 8.87557E-05-9.37475E-05 5.08947E-04
 -1       920-9.85110E-01 5.35653E-05-2.54282E-04 1.00282E-04 9.95783E-05-3.27192E-04
 -1       921-9.07512E-01-1.39214E-04-7.30225E-04-3.57085E-05 5.26934E-05-3.43362E-04
 -1       922-9.84650E-01 4.87587E-05 2.77118E-04-5.60578E-05-5.44921E-05 2.24711E-04
 -1       923-9.07055E-01 1.50379E-04 5.23053E-04 1.13526E-05-1.82443E-05 2.21922E-04
 -1       924-9.84946E-01-8.39939E-05-2.72780E-04 2.48978E-05 3.45766E-05-1.11430E-04
 -1       925-9.07417E-01-1.40883E-04-4.21459E-04-2.15640E-06 5.96964E-06-1.06715E-04
 -1       926-9.84717E-01 9.21770E-05 2.67720E-04-6.55288E-04-2.81247E-05-2.45870E-04
 -1       927-9.07094E-01 1.36878E-04 3.86240E-04-5.05274E-04-1.50029E-06 2.03620E-04
 -1       928-8.67481E-01-3.50555E-01-3.50980E-01 9.82616E-04-4.53267E-03 1.19143E-02
 -1       929-8.43067E-01 7.96022E-02 9.30931E-02-5.68547E-03 4.97601E-03-4.79932E-04
 -1       930-9.77442E-01-4.14632E-01-4.03514E-01 5.02247E-03-3.52988E-03 1.18275E-02
 -1       931-9.48357E-01 1.05468E-01 1.05417E-01-3.71800E-03 3.56565E-03 1.45284E-03
 -1       932-8.52899E-01-2.59173E-02-2.23172E-02-3.66323E-03-5.68186E-04-1.86173E-04
 -1       933-9.55034E-01-3.36143E-02-2.99089E-02-3.25477E-03 7.61555E-04-7.72467E-04
 -1       934-8.55671E-01 1.81648E-03 6.79404E-03-2.02947E-03 1.19901E-03 1.13630E-04
 -1       935-9.61735E-01 8.72009E-03 9.13866E-03-1.11397E-03 8.47633E-04 9.49643E-04
 -1       936-8.51135E-01 3.63706E-04-1.71171E-03 5.40085E-04-3.43961E-04 1.96691E-04
 -1       937-9.55148E-01-2.92442E-03-3.21624E-03 2.78327E-04-3.34933E-04-3.52077E-04
 -1       938-8.53478E-01-1.22699E-03 4.15881E-04-8.82510E-04 2.44202E-04-1.05936E-04
 -1       939-9.58680E-01 6.61562E-04 1.11261E-03-6.62100E-04 3.06342E-04 2.14896E-04
 -1       940-8.52160E-01 8.74452E-04 3.08697E-05 6.02529E-04-9.76809E-05 5.61152E-05
 -1       941-9.56914E-01-4.55636E-05-3.47765E-04 5.18892E-04-1.55938E-04-1.03018E-04
 -1       942-8.52958E-01-6.55166E-04-1.20836E-04-4.54747E-04 4.73044E-05-1.44194E-05
 -1       943-9.57855E-01-1.71540E-04 6.06872E-05-4.17265E-04 9.20374E-05 5.60309E-05
 -1       944-8.52402E-01 4.72711E-04 1.34873E-04 2.79788E-04-1.50001E-05-7.70199E-08
 -1       945-9.57305E-01 2.17543E-04 4.25821E-05 2.70979E-04-4.87261E-05-2.65190E-05
 -1       946-8.52831E-01-3.80607E-04-1.28675E-04-1.35535E-04 2.14909E-06 3.04951E-06
 -1       947-9.57669E-01-2.25146E-04-7.84794E-05-1.34436E-04 2.96117E-05 1.08426E-05
 -1       948-8.52456E-01 3.50163E-04 1.25798E-04 1.88521E-04 1.91286E-06-5.35459E-04
 -1       949-9.57382E-01 2.24197E-04 8.70715E-05-2.19894E-04-2.35311E-05-7.12821E-04
 -1       950-1.09480E+00-4.44548E-01-4.47686E-01 5.96513E-03-6.25366E-03 1.39916E-02
 -1       951-1.04427E+00 1.17226E-01 1.17350E-01-2.36957E-03 4.12451E-03 3.86837E-03
 -1       952-1.05891E+00-3.47464E-02-3.48211E-02-2.47818E-03 2.67551E-04 1.26970E-03
 -1       953-1.06806E+00 1.13597E-02 1.11487E-02-7.09011E-04 8.27032E-04 8.70443E-04
 -1       954-1.05873E+00-4.57200E-03-4.48168E-03 1.07614E-04-4.87052E-04 3.79272E-04
 -1       955-1.06446E+00 1.87184E-03 1.79455E-03-4.18742E-04 4.08524E-04-2.87343E-04
 -1       956-1.06114E+00-7.99552E-04-7.52021E-04 3.38271E-04-2.58885E-04 3.32599E-04
 -1       957-1.06323E+00 3.31952E-04 2.96955E-04-2.80697E-04 1.79651E-04-2.51716E-04
 -1       958-1.06179E+00-1.32969E-04-1.07884E-04 1.84861E-04-1.27364E-04 1.73976E-04
 -1       959-1.06290E+00 4.97302E-05 2.94841E-05-9.24594E-05 1.01553E-04-8.65318E-05
 -1       960-1.06194E+00-2.70947E-05-8.50174E-06-7.28281E-04-9.33375E-05-7.93351E-04
 -1       961 4.84403E-01 1.54468E-01 1.80443E-01 3.51960E-03 9.56835E-03-1.21656E-02
 -1       962 4.15693E-01 1.28375E-01 1.63256E-01-5.35610E-03 5.81783E-03-1.43885E-02
 -1       963 4.01415E-01-4.18073E-02-4.63409E-02-8.20556E-04-3.48260E-03 1.36620E-04
 -1       964 4.74369E-01-4.29697E-02-5.11196E-02 9.82025E-03-5.73975E-03 1.41493E-05
 -1       965 1.88854E-01 7.73686E-02 6.77547E-02 9.55285E-04 2.71385E-03-1.47275E-04
 -1       966 1.15414E-01 4.98495E-02 4.95732E-02-7.01749E-03-1.00718E-03-5.21917E-04
 -1       967 1.16229E-01-1.77476E-02-1.43918E-02-1.01916E-03-1.93736E-04 1.82962E-03
 -1       968 1.90390E-01-1.45416E-02-1.90167E-02 9.69229E-03-2.52858E-03 1.65232E-03
 -1       969 4.17962E-01 1.15969E-02 1.11387E-02 6.42771E-04-1.17908E-04-4.58448E-03
 -1       970 4.99851E-01 1.14606E-02 1.15643E-02 4.86803E-03 3.60861E-04-4.10969E-03
 -1       971 1.16966E-01 6.92115E-03 4.01889E-03 8.40274E-04-5.94086E-05-7.00213E-04
 -1       972 1.97233E-01 6.46294E-03 4.13617E-03 5.14336E-03 4.81850E-04-4.45250E-04
 -1       973 4.11597E-01-2.87603E-03-2.26327E-03-2.57858E-04-2.20552E-04 5.40651E-04
 -1       974 4.92244E-01-2.28856E-03-2.28139E-03 1.47319E-03-2.88593E-04 1.24572E-04
 -1       975 1.15730E-01-2.59399E-03-9.26942E-04-3.46889E-04-1.97097E-04 9.45600E-04
 -1       976 1.96600E-01-7.70400E-04-1.03014E-03 1.67994E-03-2.84960E-04 7.00645E-04
 -1       977 4.14122E-01 6.89538E-04 2.70119E-04 1.85537E-05 1.52468E-04-9.39317E-04
 -1       978 4.92275E-01 8.15453E-04 4.45947E-04 5.76134E-04 1.56858E-04-6.28464E-04
 -1       979 1.16591E-01 8.92234E-04 1.47081E-04-8.68257E-06 8.43954E-05-5.05533E-04
 -1       980 1.94313E-01 7.23361E-04 2.76416E-04 5.46503E-04 4.95821E-05-2.93725E-04
 -1       981 4.13373E-01-1.60624E-04 3.70969E-05 4.18327E-05-5.75389E-05 2.27974E-04
 -1       982 4.91049E-01-1.48129E-04 5.61607E-05-2.81807E-05-4.49559E-05 2.92365E-06
 -1       983 1.16323E-01-3.18264E-04-1.44784E-06 8.89052E-05-9.46368E-05 3.17250E-04
 -1       984 1.94102E-01-1.45071E-04-1.72830E-05 9.70242E-06-7.02984E-05 1.48697E-04
 -1       985 4.13633E-01 6.04556E-05-4.47808E-05-5.19065E-05 2.38538E-05-1.22384E-04
 -1       986 4.91285E-01 8.46614E-05-6.07122E-05 1.22495E-04 1.76362E-05 3.80935E-05
 -1       987 1.16434E-01 1.33613E-04-6.85153E-06-1.05003E-04 4.88479E-05-1.70749E-04
 -1       988 1.94040E-01 1.15315E-04-8.61648E-06 1.10760E-04 3.13212E-05-4.30954E-05
 -1       989 4.13583E-01-4.18531E-05 1.83298E-05 3.60580E-05-1.04666E-05 3.10284E-05
 -1       990 4.91158E-01-5.58967E-05 3.48589E-05-5.50763E-05-6.53007E-06-7.94622E-05
 -1       991 1.16441E-01-8.33883E-05-7.46659E-06 7.64629E-05-2.75430E-05 9.45458E-05
 -1       992 1.94016E-01-7.91057E-05-1.01440E-06-5.25368E-05-1.80630E-05 3.66615E-06
 -1       993 4.13609E-01 3.19643E-05-7.69046E-06-2.18491E-05 5.73527E-06-1.27002E-05
 -1       994 4.91198E-01 4.82726E-05-1.55006E-05 4.19935E-05 2.92373E-06 5.68018E-05
 -1       995 1.16413E-01 6.42846E-05 1.57002E-05-4.87501E-05 1.40429E-05-4.83752E-05
 -1       996 1.94010E-01 7.71217E-05 1.19195E-05 4.42353E-05 7.97590E-06 9.79741E-06
 -1       997 4.13591E-01-2.46405E-05 4.30399E-06 9.92256E-06-3.72314E-06 3.02086E-06
 -1       998 4.91157E-01-3.90940E-05 8.99010E-06-1.91149E-05-1.01024E-06-3.05755E-05
 -1       999 1.16451E-01-5.51945E-05-1.93404E-05 2.29748E-05-8.49331E-06 2.05868E-05
 -1      1000 1.94005E-01-7.07268E-05-1.69514E-05-2.12441E-05-4.08087E-06-7.76296E-06
 -1      1001 4.13610E-01 2.17950E-05-3.79095E-06 4.49158E-05 3.20034E-06-1.77843E-05
 -1      1002 4.91197E-01 3.60041E-05-7.29749E-06 5.79617E-05 4.92754E-07 1.80545E-05
 -1      1003 1.16413E-01 5.19802E-05 2.01625E-05 3.28334E-05 6.80649E-06 7.64849E-06
 -1      1004 1.94013E-01 6.88179E-05 1.83234E-05 5.12496E-05 2.80817E-06 7.74267E-05
 -1      1005-9.82195E-02-4.67535E-02-5.72888E-02 1.55461E-05 3.07192E-03 2.83817E-03
 -1      1006-1.78232E-01-7.65890E-02-7.65026E-02-6.83562E-03-6.79151E-04 2.96364E-03
 -1      1007-1.81318E-01 1.17571E-02 2.06938E-02-6.69471E-04-1.54687E-04-4.30633E-04
 -1      1008-1.05312E-01 2.25604E-02 1.61650E-02 8.86960E-03-2.51228E-03-5.08745E-04
 -1      1009-1.81733E-01 2.06598E-03-4.99998E-03 6.23579E-04-5.41421E-05 2.43943E-05
 -1      1010-1.03405E-01 5.80470E-04-4.72664E-03 4.63698E-03 5.04358E-04 5.32990E-05
 -1      1011-1.80443E-01-2.79578E-03 9.69121E-04-2.83002E-04-1.70746E-04 3.46155E-04
 -1      1012-9.91348E-02 1.34630E-03 7.24854E-04 1.96856E-03-2.61068E-04 2.65022E-04
 -1      1013-1.80849E-01 1.58345E-03-1.13071E-04-5.40568E-05 6.51896E-05-2.74710E-04
 -1      1014-1.03904E-01 5.00531E-04 3.34804E-05 3.59515E-04 7.37317E-05-1.83186E-04
 -1      1015-1.80790E-01-7.21670E-04-1.21707E-05 1.21027E-04-8.56170E-05 2.56205E-04
 -1      1016-1.02710E-01-1.03262E-05-9.42645E-05 7.11204E-05-5.39578E-05 1.71341E-04
 -1      1017-1.80693E-01 3.09563E-04 1.17846E-05-1.48039E-04 5.22403E-05-1.78946E-04
 -1      1018-1.03244E-01 4.64625E-05 5.08297E-05 8.14246E-05 2.72564E-05-1.10830E-04
 -1      1019-1.80748E-01-1.55237E-04-1.33719E-05 1.15892E-04-3.39481E-05 1.17345E-04
 -1      1020-1.03120E-01-1.91373E-05-3.33033E-05-4.29331E-05-1.56451E-05 6.76109E-05
 -1      1021-1.80744E-01 9.99047E-05 2.12867E-05-7.91936E-05 2.03614E-05-6.75919E-05
 -1      1022-1.03160E-01 4.44308E-05 3.21186E-05 4.05611E-05 7.89041E-06-3.54796E-05
 -1      1023-1.80707E-01-8.05363E-05-2.86018E-05 3.89452E-05-1.39072E-05 3.06987E-05
 -1      1024-1.03161E-01-5.50738E-05-3.56616E-05-2.05236E-05-4.33520E-06 1.50167E-05
 -1      1025-1.80760E-01 7.52983E-05 3.12304E-05 1.81619E-05 1.18451E-05 9.03552E-06
 -1      1026-1.03148E-01 5.95107E-05 3.72144E-05 4.64586E-05 3.20245E-06 1.71715E-04
 -1      1027-3.89440E-01-1.72955E-01-1.83067E-01 4.58154E-03 5.23297E-03 5.28418E-03
 -1      1028-4.73723E-01-2.04312E-01-2.03611E-01-8.94933E-04 1.22216E-03 5.87016E-03
 -1      1029-4.78163E-01 4.41550E-02 5.64519E-02 6.48591E-04-1.60834E-04-2.77243E-04
 -1      1030-4.02519E-01 5.24739E-02 5.15525E-02 7.57939E-03-2.81957E-03-1.37304E-04
 -1      1031-4.80789E-01-6.28457E-03-1.64389E-02-6.28393E-04 3.48229E-04 8.37458E-04
 -1      1032-4.02347E-01-8.06290E-04-1.61074E-02 3.50337E-03 1.22964E-03 1.08993E-03
 -1      1033-4.76196E-01-1.28119E-03 4.21132E-03 2.45615E-04-3.74500E-04-3.29983E-04
 -1      1034-3.95068E-01 1.64625E-03 3.45890E-03 2.03755E-03-6.75615E-04-4.58741E-04
 -1      1035-4.78796E-01 1.69886E-03-1.00618E-03-2.49911E-04 1.64482E-04 2.92934E-04
 -1      1036-4.02342E-01 1.23190E-03-6.43095E-04 1.54512E-04 1.83786E-04 3.55738E-04
 -1      1037-4.77494E-01-1.05900E-03 1.82821E-04 1.39549E-04-1.12796E-04-9.98532E-05
 -1      1038-3.99176E-01-4.90668E-04-9.21935E-05 8.27682E-05-1.00072E-04-1.23994E-04
 -1      1039-4.78077E-01 5.52343E-04-2.45625E-05-1.26688E-04 6.87444E-05 3.63212E-05
 -1      1040-4.00775E-01 3.75660E-04 1.27241E-04 8.05188E-05 4.48664E-05 4.44965E-05
 -1      1041-4.77799E-01-2.89437E-04-5.84003E-06 9.42533E-05-4.52504E-05-3.51797E-06
 -1      1042-4.00110E-01-1.89934E-04-9.72417E-05-5.09852E-05-2.62263E-05-4.50574E-06
 -1      1043-4.77967E-01 1.65822E-04 1.42276E-05-6.70625E-05 2.97255E-05-4.30038E-06
 -1      1044-4.00406E-01 1.32638E-04 6.81584E-05 4.22137E-05 1.45132E-05-5.97201E-06
 -1      1045-4.77832E-01-1.13341E-04-2.00339E-05 3.37898E-05-2.17261E-05 3.99188E-06
 -1      1046-4.00283E-01-1.01876E-04-5.65682E-05-2.06836E-05-9.33690E-06 5.51151E-06
 -1      1047-4.77958E-01 9.85324E-05 2.21347E-05 6.52265E-05 1.91771E-05-3.64380E-05
 -1      1048-4.00342E-01 9.48063E-05 5.32551E-05 8.93705E-05 7.67066E-06 2.50533E-04
 -1      1049 3.48153E-01 1.02740E-01 1.46422E-01-1.53339E-02 1.92477E-03-1.66417E-02
 -1      1050 3.27759E-01-4.15091E-02-4.17711E-02-1.30348E-02-1.05426E-03 2.65177E-04
 -1      1051 4.23811E-02 2.25137E-02 3.15952E-02-1.61407E-02-4.93250E-03-9.09678E-04
 -1      1052 4.16539E-02-2.17014E-02-1.00293E-02-1.36055E-02 2.39720E-03 2.01185E-03
 -1      1053 3.35742E-01 1.13624E-02 1.07259E-02-2.50538E-03-7.51733E-04-5.04976E-03
 -1      1054 3.68436E-02 7.97633E-03 4.14066E-03-1.92535E-03-8.48903E-04-9.52010E-04
 -1      1055 3.31133E-01-3.69572E-03-2.24921E-03-2.73486E-03-5.79757E-05 9.53383E-04
 -1      1056 3.49271E-02-4.51026E-03-9.16635E-04-3.51501E-03 5.11371E-05 1.18791E-03
 -1      1057 3.35773E-01 5.03035E-04 1.09928E-04-3.25897E-05 8.87917E-05-1.24603E-03
 -1      1058 3.88022E-02 1.09757E-03 3.66037E-05 2.95933E-04 1.57495E-05-7.15384E-04
 -1      1059 3.35813E-01-1.69124E-04 2.80151E-05-2.50336E-04-4.01749E-05 4.50934E-04
 -1      1060 3.85808E-02-5.02011E-04 1.01789E-05-4.62234E-04-6.07051E-05 4.84392E-04
 -1      1061 3.35915E-01 2.34878E-05-3.49777E-05 2.93777E-05 1.56348E-05-2.81657E-04
 -1      1062 3.88224E-02 1.65353E-04-6.25043E-06 1.38034E-04 3.46229E-05-2.97475E-04
 -1      1063 3.36038E-01-2.57684E-05 9.06002E-06-4.88787E-05-8.17038E-06 1.40981E-04
 -1      1064 3.88464E-02-1.02510E-04-1.12963E-05-1.13988E-04-2.04751E-05 1.84866E-04
 -1      1065 3.36015E-01 1.59115E-05-6.90886E-06 2.48835E-05 5.96091E-06-8.19655E-05
 -1      1066 3.88506E-02 6.81215E-05 1.60313E-05 6.04817E-05 1.12674E-05-1.06245E-04
 -1      1067 3.36018E-01-1.25029E-05 6.93687E-06-1.44581E-05-5.35490E-06 3.65342E-05
 -1      1068 3.88537E-02-5.71989E-05-1.79016E-05-3.07830E-05-7.61128E-06 4.88056E-05
 -1      1069 3.36034E-01 1.03360E-05-7.65238E-06 3.17518E-05 5.21749E-06-5.34765E-05
 -1      1070 3.88586E-02 5.29774E-05 1.80442E-05 1.46253E-05 6.51756E-06-6.13654E-05
 -1      1071-2.59011E-01-1.06680E-01-9.58024E-02-1.48780E-02-4.51542E-03 3.12754E-03
 -1      1072-2.56669E-01 1.56922E-03 2.54312E-02-1.24290E-02 2.26667E-03-3.73008E-04
 -1      1073-2.60483E-01 2.59646E-03-5.55312E-03-1.36083E-03-6.36983E-04-1.65303E-05
 -1      1074-2.61725E-01-6.77396E-03 1.35614E-03-4.26897E-03-3.17517E-05 4.44920E-04
 -1      1075-2.57742E-01 2.58165E-03-3.07424E-04 8.71063E-04-2.61322E-05-3.72547E-04
 -1      1076-2.58959E-01-1.41106E-03 1.01269E-04-8.59920E-04-5.37887E-05 3.43628E-04
 -1      1077-2.58038E-01 5.67112E-04-4.87043E-05 3.83252E-04 3.53294E-05-2.47887E-04
 -1      1078-2.58491E-01-3.03153E-04 2.20153E-05-2.60495E-04-2.71935E-05 1.67394E-04
 -1      1079-2.58206E-01 1.77698E-04-3.30638E-07 1.40886E-04 1.76053E-05-9.98010E-05
 -1      1080-2.58380E-01-1.34425E-04-1.33945E-05-6.65245E-05-1.32583E-05 4.64083E-05
 -1      1081-2.58245E-01 1.21375E-04 1.79668E-05-8.48046E-06 1.17610E-05-1.53465E-04
 -1      1082-5.59887E-01-2.36215E-01-2.24093E-01-7.46360E-03-2.72360E-03 6.44965E-03
 -1      1083-5.53049E-01 3.56064E-02 6.09910E-02-8.46939E-03 2.47216E-03-3.83787E-04
 -1      1084-5.58459E-01-9.77177E-03-1.61393E-02-2.34291E-03-6.04982E-04 5.80810E-04
 -1      1085-5.57956E-01-5.23426E-03 4.50516E-03-3.40975E-03 4.69096E-05-2.29921E-04
 -1      1086-5.54711E-01 2.81043E-03-1.12899E-03 8.79701E-04 4.06438E-05 2.35977E-04
 -1      1087-5.56231E-01-1.98398E-03 3.33464E-04-9.56216E-04-4.32922E-05-7.93776E-05
 -1      1088-5.55029E-01 9.53495E-04-1.13385E-04 5.14470E-04 3.79402E-05 2.91319E-05
 -1      1089-5.55791E-01-5.40940E-04 5.23919E-05-3.49815E-04-2.85709E-05-3.13953E-06
 -1      1090-5.55253E-01 3.15771E-04-2.08561E-05 1.94618E-04 2.12562E-05-2.36160E-06
 -1      1091-5.55642E-01-2.24825E-04 3.88805E-06-9.05312E-05-1.67002E-05 2.34727E-06
 -1      1092-5.55317E-01 1.97409E-04 1.86180E-06 3.91897E-05 1.52211E-05-3.22157E-04
 -1      1093 1.23523E+00 4.98507E-01 4.77381E-01-1.37438E-02 1.15559E-02 3.21955E-02
 -1      1094 9.68079E-01 3.97991E-01 4.12690E-01 1.14280E-03 1.54549E-03 2.58761E-02
 -1      1095 9.75004E-01-1.08399E-01-8.63437E-02 1.34285E-03-1.91377E-03 1.71190E-02
 -1      1096 1.19458E+00-1.32656E-01-1.16579E-01-1.48450E-05-6.70670E-03 1.75338E-02
 -1      1097 1.14109E+00 4.75163E-01 4.41731E-01-1.63052E-02 8.97150E-03 2.21364E-02
 -1      1098 8.67948E-01 3.73231E-01 3.75212E-01-5.78731E-05-1.04689E-03 1.75360E-02
 -1      1099 8.74335E-01-1.01272E-01-8.76651E-02 1.46086E-03-3.43944E-04 4.65516E-03
 -1      1100 1.09545E+00-1.25602E-01-1.13729E-01 3.84343E-05-5.20173E-03 4.61855E-03
 -1      1101 9.80582E-01 2.82582E-02 1.99640E-02 4.29246E-04 5.01304E-04 2.73423E-03
 -1      1102 1.21479E+00 3.59924E-02 2.95899E-02-3.94485E-03 2.95127E-04 1.93840E-03
 -1      1103 8.71716E-01 2.74132E-02 1.79683E-02 2.77085E-04 1.05387E-04-3.55002E-03
 -1      1104 1.10386E+00 3.51054E-02 2.83188E-02-4.29171E-03-1.01544E-04-3.97915E-03
 -1      1105 9.77367E-01-7.03838E-03-1.63058E-03-4.77689E-06-4.84693E-04 2.74451E-03
 -1      1106 1.22166E+00-1.15431E-02-7.26742E-03-8.43905E-04-3.09980E-04 3.39008E-03
 -1      1107 8.70439E-01-6.91001E-03-2.58998E-03 1.57460E-04-2.94813E-04 1.08392E-03
 -1      1108 1.11450E+00-1.17545E-02-8.01114E-03-5.68705E-04-6.50564E-05 1.71158E-03
 -1      1109 9.78601E-01 1.28855E-03-2.68797E-04 2.09914E-04 1.25428E-04 8.72507E-04
 -1      1110 1.21571E+00 4.10142E-03 2.26109E-03-2.06254E-04 1.32772E-04 2.89957E-04
 -1      1111 8.73026E-01 1.30307E-03-3.91324E-04 6.95934E-05 3.63134E-05-3.43143E-04
 -1      1112 1.10997E+00 4.16648E-03 2.32879E-03-4.20113E-04-2.22099E-05-7.44569E-04
 -1      1113 9.76783E-01 9.36920E-05 9.46189E-04-1.01405E-04-7.19286E-05 1.80091E-04
 -1      1114 1.21709E+00-1.37687E-03-3.66012E-04-2.91330E-04-8.17167E-05 4.75420E-04
 -1      1115 8.71272E-01 3.79632E-05 6.50791E-04 8.55214E-06-3.24587E-05 1.38822E-04
 -1      1116 1.11148E+00-1.48780E-03-6.40240E-04-1.28792E-04 1.03276E-05 3.56897E-04
 -1      1117 9.77095E-01-2.82181E-04-5.47373E-04 9.37364E-05 1.15020E-05 1.86968E-04
 -1      1118 1.21578E+00 4.93134E-04 4.63126E-05 6.88434E-05 5.34004E-05 1.41493E-06
 -1      1119 8.72345E-01-2.62539E-04-4.61405E-04 1.14370E-05-2.73344E-06-8.51856E-05
 -1      1120 1.11103E+00 5.16382E-04 1.48381E-04-4.99205E-05-1.55571E-06-1.92481E-04
 -1      1121 9.76838E-01 2.54495E-04 3.82125E-04-5.75342E-05-5.35108E-06-3.29604E-05
 -1      1122 1.21632E+00-1.41210E-04 7.98757E-05-8.99194E-05-3.39733E-05 6.64731E-05
 -1      1123 8.71691E-01 2.40583E-04 2.77685E-04 7.74830E-07-1.37878E-06 5.65241E-05
 -1      1124 1.11115E+00-1.59648E-04-1.82936E-05-8.06254E-06 1.00004E-06 1.07596E-04
 -1      1125 9.76832E-01-1.97143E-04-2.29027E-04 3.80505E-05-1.30575E-06 5.02368E-05
 -1      1126 1.21585E+00 1.98061E-05-7.39563E-05 4.19590E-05 2.50614E-05-5.51871E-06
 -1      1127 8.72133E-01-1.91693E-04-1.63152E-04 7.25801E-07-8.53712E-07-3.63668E-05
 -1      1128 1.11117E+00 2.41380E-05-9.83881E-06-9.12428E-06 3.21694E-07-5.89033E-05
 -1      1129 9.76872E-01 1.63270E-04 1.65722E-04-1.78588E-05 1.95266E-06-1.68994E-05
 -1      1130 1.21618E+00 2.93400E-05 7.01900E-05-2.36569E-05-1.99872E-05 7.27276E-06
 -1      1131 8.71801E-01 1.59495E-04 1.04393E-04 3.52719E-07-1.48487E-07 1.76110E-05
 -1      1132 1.11110E+00 2.66116E-05 1.27529E-05 8.36873E-07-5.60410E-08 2.60650E-05
 -1      1133 9.76795E-01-1.51716E-04-1.42656E-04-3.93094E-04-2.62140E-06 1.50923E-05
 -1      1134 1.21588E+00-4.08726E-05-6.49758E-05-4.31090E-04 1.87098E-05-9.61878E-05
 -1      1135 8.72088E-01-1.48996E-04-8.67167E-05 5.38310E-07-7.45259E-08 1.32302E-05
 -1      1136 1.11119E+00-3.98503E-05-1.23473E-05-7.10390E-07 1.91097E-07-9.73437E-05
 -1      1137 1.05083E+00 4.52112E-01 4.07331E-01-1.89028E-02 6.23026E-03 1.13191E-02
 -1      1138 7.71136E-01 3.48675E-01 3.38791E-01-1.27183E-03-3.85353E-03 8.38981E-03
 -1      1139 7.71619E-01-9.43322E-02-9.02247E-02 1.57961E-03 1.47084E-03-9.13578E-03
 -1      1140 9.94069E-01-1.18750E-01-1.12154E-01 9.80736E-05-3.51244E-03-9.39161E-03
 -1      1141 7.62813E-01 2.66163E-02 1.59370E-02 1.30499E-04-4.80142E-04-8.82073E-03
 -1      1142 9.92771E-01 3.42334E-02 2.69602E-02-4.62426E-03-6.48108E-04-9.25087E-03
 -1      1143 7.64111E-01-6.68738E-03-3.13726E-03 3.19046E-04-2.73920E-05-1.40782E-03
 -1      1144 1.00801E+00-1.18694E-02-8.36190E-03-2.98875E-04 2.44613E-04-4.85239E-04
 -1      1145 7.66805E-01 1.22078E-03-8.91271E-04-6.97432E-05-8.55775E-05-9.02920E-04
 -1      1146 1.00351E+00 4.13384E-03 1.99965E-03-6.30624E-04-2.04240E-04-1.36856E-03
 -1      1147 7.66333E-01 4.55704E-05 6.35271E-04 1.18406E-04 1.68317E-05-3.98053E-04
 -1      1148 1.00650E+00-1.53086E-03-6.20512E-04 3.28724E-05 1.11166E-04-6.95170E-05
 -1      1149 7.67106E-01-2.78643E-04-5.76439E-04-7.07766E-05-2.04645E-05 4.28395E-06
 -1      1150 1.00575E+00 5.00840E-04 3.59040E-05-1.68285E-04-5.97985E-05-1.66263E-04
 -1      1151 7.66972E-01 2.45628E-04 3.25108E-04 5.90957E-05 3.65351E-06-1.05213E-04
 -1      1152 1.00645E+00-1.58236E-04 4.19482E-05 7.37046E-05 3.71438E-05-1.06960E-06
 -1      1153 7.67048E-01-1.96351E-04-2.21099E-04-3.66012E-05-9.40584E-07 3.54321E-05
 -1      1154 1.00606E+00 1.97607E-05-7.10093E-05-6.01626E-05-2.50063E-05-1.94885E-05
 -1      1155 7.67092E-01 1.61704E-04 1.52772E-04 1.85688E-05-1.92667E-06-2.44592E-05
 -1      1156 1.00640E+00 2.70693E-05 6.31796E-05 2.53188E-05 2.02180E-05 4.83624E-07
 -1      1157 7.67027E-01-1.51070E-04-1.36189E-04 3.94171E-04 2.18086E-06 1.23779E-05
 -1      1158 1.00611E+00-4.03479E-05-6.22398E-05 4.29737E-04-1.86193E-05-9.93657E-05
 -1      1159 7.31967E-01 2.93944E-01 3.08293E-01 2.95632E-03 1.63225E-03 1.10495E-02
 -1      1160 7.38297E-01-7.97454E-02-4.33889E-02-1.00841E-03-2.04486E-03 1.32430E-02
 -1      1161 6.24607E-01 2.68125E-01 2.68414E-01 2.16787E-03-1.04885E-03 4.92297E-03
 -1      1162 6.34581E-01-7.28322E-02-5.33223E-02-1.00185E-03-3.73119E-04 2.71136E-03
 -1      1163 7.43217E-01 1.94818E-02 9.40599E-03 6.86213E-04 4.98891E-04 4.80589E-03
 -1      1164 6.36654E-01 1.84770E-02 5.83846E-03 6.65276E-04 7.84585E-05-1.46919E-03
 -1      1165 7.37586E-01-4.43570E-03 2.57159E-03-1.65473E-04-4.01348E-04 1.33991E-03
 -1      1166 6.30871E-01-3.84888E-03 1.19327E-03-1.25129E-04-2.65794E-04-6.31803E-05
 -1      1167 7.38597E-01 7.22283E-04-4.42637E-04 1.50156E-04 7.37220E-05 1.49638E-03
 -1      1168 6.33143E-01 5.89607E-04-1.07996E-03 1.07844E-04 3.76537E-05 8.04810E-05
 -1      1169 7.38092E-01-8.37548E-05 7.16511E-04-7.36819E-05-3.77937E-05-1.12147E-04
 -1      1170 6.32755E-01-4.07326E-05 4.64476E-04-3.46750E-05-3.29537E-05 5.76307E-06
 -1      1171 7.37521E-01-1.54914E-05-1.53012E-04 6.30790E-05-3.87230E-06 3.29335E-04
 -1      1172 6.32719E-01-2.14750E-05-1.58620E-04 2.96078E-05-8.65037E-07-5.93270E-05
 -1      1173 7.37857E-01 2.54302E-05 1.25149E-04-3.91251E-05 3.15634E-06-1.10087E-04
 -1      1174 6.32774E-01 2.59608E-05 4.18667E-05-1.25614E-05-1.09079E-06 6.26800E-05
 -1      1175 7.37512E-01-3.19676E-05-4.83678E-05 2.56980E-05-5.01465E-06 9.14867E-05
 -1      1176 6.32772E-01-3.07981E-05-1.88679E-06 7.31633E-06-1.06218E-06-4.88552E-05
 -1      1177 7.37771E-01 3.67535E-05 3.97299E-05-1.20484E-05 3.77278E-06-3.53514E-05
 -1      1178 6.32737E-01 3.54001E-05-1.17954E-05-2.66041E-06 1.94944E-07 2.55951E-05
 -1      1179 7.37531E-01-3.86298E-05-3.11779E-05-3.21785E-04-3.77198E-06 3.36160E-05
 -1      1180 6.32790E-01-3.72145E-05 1.50424E-05-9.45305E-07-3.30312E-07 3.37845E-05
 -1      1181 5.19695E-01 2.42411E-01 2.29301E-01 1.38709E-03-3.96845E-03-2.06272E-03
 -1      1182 5.29362E-01-6.60159E-02-6.40718E-02-9.96824E-04 1.56442E-03-9.42444E-03
 -1      1183 5.30083E-01 1.74956E-02 2.21808E-03 6.41793E-04-5.35937E-04-6.26148E-03
 -1      1184 5.24564E-01-3.21782E-03 4.40290E-05-8.37484E-05-5.97753E-05-2.71378E-03
 -1      1185 5.27242E-01 4.20586E-04-1.92503E-03 6.45995E-05-2.55629E-05-3.41305E-04
 -1      1186 5.27821E-01 2.09474E-05 3.61576E-04 4.66020E-06-2.31706E-05-6.45181E-04
 -1      1187 5.27560E-01-3.53858E-05-2.80545E-04-4.12582E-06 1.78779E-06 1.27232E-04
 -1      1188 5.28014E-01 3.06312E-05 5.76985E-05 1.41098E-05-6.13935E-06-1.73753E-04
 -1      1189 5.27733E-01-3.27949E-05-4.60412E-05-1.11303E-05 3.40602E-06 7.33629E-05
 -1      1190 5.27990E-01 3.71285E-05 2.31223E-05 6.75155E-06-3.70042E-06-4.17605E-05
 -1      1191 5.27767E-01-3.89071E-05-2.39066E-05 3.19775E-04 3.33701E-06 3.36192E-05
 -1      1192 4.99251E-01 1.92437E-01 2.07800E-01 2.32034E-03 2.10584E-03-3.96057E-03
 -1      1193 5.01325E-01-5.15519E-02-1.07138E-02-1.59307E-04-2.11159E-03 6.43587E-03
 -1      1194 3.87134E-01 1.66183E-01 1.66326E-01 1.83585E-03-7.06912E-04-8.04548E-03
 -1      1195 3.94707E-01-4.50798E-02-2.80273E-02-1.59807E-04-3.15240E-04-8.41498E-04
 -1      1196 5.02381E-01 1.23145E-02 6.42526E-03 3.13730E-04 5.54648E-04 6.47421E-03
 -1      1197 3.97277E-01 1.11173E-02 1.28279E-03 3.17530E-04 7.17993E-05 1.22550E-03
 -1      1198 4.99143E-01-3.17430E-03 2.42213E-03 1.45898E-04-3.31124E-04 4.05163E-04
 -1      1199 3.92702E-01-2.26741E-03 7.76423E-04 1.51150E-04-2.10648E-04-6.29596E-04
 -1      1200 4.98913E-01 7.81310E-04 1.08523E-03 2.22870E-05 5.98517E-05 1.34850E-03
 -1      1201 3.93477E-01 5.16813E-04-1.53369E-04 1.34099E-05 4.17109E-05-4.11972E-05
 -1      1202 4.98809E-01-2.99478E-04-3.11846E-05 5.98829E-06-3.65659E-05-6.84098E-05
 -1      1203 3.93683E-01-1.71276E-04-1.21242E-04 1.70304E-05-3.36060E-05 1.78808E-04
 -1      1204 4.98459E-01 8.64150E-05 2.66752E-04 2.55047E-05 3.18865E-06 2.70298E-04
 -1      1205 3.93567E-01 5.27998E-05 1.11930E-04 1.39107E-05 4.94152E-06-1.73848E-04
 -1      1206 4.98520E-01-4.66533E-06-3.65864E-05-1.66631E-05-4.95575E-07-1.00403E-04
 -1      1207 3.93525E-01 1.01593E-05-5.78208E-05-6.32473E-06-2.70443E-06 1.27539E-04
 -1      1208 4.98439E-01-3.63525E-05 1.94385E-05 1.36909E-05-2.63030E-06 8.81315E-05
 -1      1209 3.93638E-01-4.10213E-05 2.16300E-05 6.07955E-06 1.14718E-07-8.38464E-05
 -1      1210 4.98484E-01 5.05086E-05 1.46128E-05-6.42173E-06 2.79028E-06-3.65803E-05
 -1      1211 3.93508E-01 5.32142E-05-6.97581E-06-2.41621E-06-1.97612E-07 4.10862E-05
 -1      1212 4.98433E-01-5.42940E-05-1.50071E-05-2.10914E-04-3.04797E-06-7.59757E-06
 -1      1213 3.93639E-01-5.61572E-05 3.35228E-06-2.80764E-06 4.12877E-08-6.80826E-06
 -1      1214 2.76548E-01 1.39961E-01 1.25322E-01 1.35899E-03-3.69198E-03-1.29962E-02
 -1      1215 2.87180E-01-3.86449E-02-4.57272E-02-1.61298E-04 1.66985E-03-9.79292E-03
 -1      1216 2.92200E-01 9.94337E-03-3.81301E-03 3.17943E-04-5.42728E-04-2.40984E-03
 -1      1217 2.86487E-01-1.36545E-03-7.89131E-04 1.57419E-04-4.74516E-05-3.04524E-03
 -1      1218 2.87799E-01 2.62033E-04-1.43239E-03 4.16280E-06 9.64952E-06-3.04126E-04
 -1      1219 2.88787E-01-5.54749E-05-1.67982E-04 2.80187E-05-3.21131E-05-4.64183E-04
 -1      1220 2.88461E-01 2.67353E-05-9.07679E-05 2.30193E-06 1.03654E-05 6.30890E-05
 -1      1221 2.88733E-01 2.16134E-05-2.62970E-05 4.00985E-06-8.09405E-06-1.37022E-04
 -1      1222 2.88645E-01-4.49260E-05-3.02507E-05-1.54605E-06 4.96407E-06 6.38873E-05
 -1      1223 2.88717E-01 5.63295E-05 2.54718E-05 1.59608E-06-4.61619E-06-3.85090E-05
 -1      1224 2.88661E-01-5.87588E-05-3.21334E-05 2.05191E-04 4.33651E-06-4.85617E-06
 -1      1225 2.66862E-01 9.16385E-02 1.07620E-01 1.75347E-03 2.37212E-03-1.22552E-02
 -1      1226 2.63461E-01-2.37529E-02 1.37434E-02 2.35947E-04-2.00075E-03 1.50969E-03
 -1      1227 1.51514E-01 6.50283E-02 6.50599E-02 1.56270E-03-4.90919E-04-1.49493E-02
 -1      1228 1.54750E-01-1.75990E-02-8.57629E-03 2.31367E-04-1.66363E-04-3.10919E-03
 -1      1229 2.60311E-01 5.50920E-03 6.34420E-03-1.32364E-04 5.03142E-04 6.21238E-03
 -1      1230 1.56237E-01 4.24380E-03 2.22840E-04-1.29560E-04 9.27338E-06 2.63397E-03
 -1      1231 2.60602E-01-1.99335E-03 1.70240E-03 5.00453E-04-2.52103E-04 1.94985E-04
 -1      1232 1.54325E-01-9.14950E-04-2.84826E-04 5.00379E-04-1.34788E-04-6.19984E-04
 -1      1233 2.59632E-01 5.86398E-04 1.92668E-03-1.93974E-04 7.34505E-05 9.48254E-04
 -1      1234 1.54288E-01 2.53330E-04 3.15797E-04-1.95767E-04 4.50634E-05-2.30725E-04
 -1      1235 2.59369E-01-2.65628E-04-2.57691E-04 1.38658E-04-4.14823E-05-3.27516E-05
 -1      1236 1.54412E-01-7.99666E-05-1.90551E-04 1.41882E-04-3.80090E-05 2.77280E-04
 -1      1237 2.59383E-01 6.46266E-05 3.85774E-04-4.93168E-05 1.61638E-05 2.41674E-04
 -1      1238 1.54408E-01 1.04264E-05 8.90175E-05-5.28731E-05 1.56515E-05-2.02988E-04
 -1      1239 2.59262E-01-1.14268E-05-9.93958E-05 2.57298E-05-5.87184E-06-1.21057E-04
 -1      1240 1.54360E-01 1.51987E-05-4.08860E-05 2.89448E-05-7.78581E-06 1.30911E-04
 -1      1241 2.59280E-01-1.18020E-05 7.58278E-05-9.02882E-06 5.68690E-07 1.01702E-04
 -1      1242 1.54408E-01-2.19131E-05 2.08022E-05-1.13884E-05 3.53637E-06-8.12536E-05
 -1      1243 2.59277E-01 1.57492E-05-3.60363E-05 3.56689E-06 1.55206E-06-4.55800E-05
 -1      1244 1.54367E-01 2.23590E-05-1.49349E-05 4.81031E-06-2.05609E-06 3.92120E-05
 -1      1245 2.59260E-01-1.68755E-05 3.46088E-05-8.50095E-05-2.12782E-06 3.28859E-05
 -1      1246 1.54403E-01-2.19880E-05 1.37746E-05-1.45876E-06 1.64005E-06 3.10760E-05
 -1      1247 3.67763E-02 3.84377E-02 2.26881E-02 1.37905E-03-3.46254E-03-1.85207E-02
 -1      1248 4.56704E-02-1.14490E-02-3.10748E-02 2.26597E-04 1.78791E-03-9.41784E-03
 -1      1249 5.21232E-02 2.96038E-03-6.03113E-03-1.31092E-04-5.75703E-04 7.27086E-04
 -1      1250 4.81309E-02 1.71114E-04-2.27726E-03 5.01501E-04 2.76459E-05-2.86761E-03
 -1      1251 4.88433E-02-7.50944E-05-1.32557E-03-1.97358E-04-9.94387E-06-2.37858E-04
 -1      1252 4.95508E-02 1.05816E-04-9.68640E-05 1.44448E-04-2.56497E-05-3.52448E-04
 -1      1253 4.93428E-02-4.50265E-05-2.38407E-04-5.60250E-05 1.32159E-05 7.70764E-05
 -1      1254 4.95425E-02 4.38915E-05 4.63908E-05 3.19025E-05-1.01008E-05-1.44914E-04
 -1      1255 4.94578E-02-3.39804E-05-6.11573E-05-1.36272E-05 7.41841E-06 7.98632E-05
 -1      1256 4.95324E-02 3.07367E-05 3.14707E-05 6.00269E-06-6.55705E-06-4.56916E-05
 -1      1257 4.94707E-02-2.87715E-05-3.18065E-05 8.22792E-05 6.26753E-06 2.94788E-05
 -1      1258 3.37312E-02-9.06307E-03 7.28349E-03 1.57748E-03 2.56776E-03-1.40404E-02
 -1      1259 2.47952E-02 4.01359E-03 3.45676E-02 4.57423E-04-1.84253E-03-1.36346E-03
 -1      1260-8.36520E-02-3.59159E-02-3.59586E-02 1.67452E-03-3.33539E-04-1.57330E-02
 -1      1261-8.51387E-02 9.83458E-03 8.83878E-03 4.66234E-04 6.90765E-05-3.47987E-03
 -1      1262 1.80310E-02-1.37651E-03 5.90354E-03-3.84859E-04 4.33178E-04 4.09247E-03
 -1      1263-8.53489E-02-2.44494E-03-7.32292E-05-3.77104E-04-1.22397E-04 2.70816E-03
 -1      1264 2.23272E-02-5.64368E-04 1.76586E-03 7.49408E-04-1.34572E-04 2.54588E-04
 -1      1265-8.42228E-02 4.52845E-04-1.40518E-03 7.51256E-04-1.02510E-05-4.98861E-04
 -1      1266 2.02232E-02 2.33725E-04 1.95862E-03-3.93647E-04 1.80549E-05 5.32096E-04
 -1      1267-8.47751E-02-5.17039E-05 6.54427E-04-3.94902E-04 2.41801E-05-2.20116E-04
 -1      1268 2.00864E-02-1.60835E-04-1.79239E-04 2.92675E-04-2.07370E-05-1.99753E-05
 -1      1269-8.48719E-02 3.55105E-05-2.28883E-04 2.93733E-04-2.98615E-05 2.47097E-04
 -1      1270 2.02146E-02 3.95581E-05 3.89521E-04-1.52572E-04 1.27422E-05 1.82412E-04
 -1      1271-8.47696E-02-2.21779E-05 1.01348E-04-1.52795E-04 2.29166E-05-1.87646E-04
 -1      1272 2.00507E-02-3.10837E-05-1.53545E-04 8.98898E-05-5.05565E-06-1.04726E-04
 -1      1273-8.47952E-02 3.05380E-06-7.73377E-05 8.97714E-05-1.25138E-05 1.28182E-04
 -1      1274 2.01101E-02 2.43636E-05 1.44986E-04-4.53338E-05 1.22825E-06 8.62546E-05
 -1      1275-8.48162E-02 9.75105E-06 6.55038E-05-4.51283E-05 7.58750E-06-8.19654E-05
 -1      1276 2.00635E-02-2.44717E-05-1.04096E-04 1.98152E-05 9.74096E-07-4.00981E-05
 -1      1277-8.47886E-02-1.44060E-05-5.75083E-05 1.96840E-05-4.68548E-06 4.02173E-05
 -1      1278 2.00992E-02 2.35311E-05 1.00424E-04 5.26923E-05-1.45772E-06 3.82607E-05
 -1      1279-8.48153E-02 1.54200E-05 5.43237E-05 5.01592E-06 4.01215E-06 2.59194E-05
 -1      1280-2.01348E-01-6.27615E-02-7.92924E-02 1.77688E-03-3.28965E-03-1.83034E-02
 -1      1281-1.94918E-01 1.56082E-02-1.68747E-02 4.77831E-04 2.05802E-03-7.31773E-03
 -1      1282-1.88593E-01-3.42397E-03-5.67572E-03-3.73819E-04-7.75827E-04 2.98282E-03
 -1      1283-1.90837E-01 1.42157E-03-4.60860E-03 7.52226E-04 2.05382E-04-2.67853E-03
 -1      1284-1.89712E-01-3.30701E-04-6.07011E-04-3.95555E-04-4.04036E-05 2.14210E-04
 -1      1285-1.89883E-01 2.27092E-04-2.98055E-04 2.93696E-04 2.93385E-06-4.32998E-04
 -1      1286-1.89703E-01-8.10369E-05-1.64520E-04-1.52296E-04 1.05765E-05 1.74674E-04
 -1      1287-1.89689E-01 3.40234E-05-2.14440E-05 8.91500E-05-7.93405E-06-1.72366E-04
 -1      1288-1.89697E-01-2.05146E-06 5.17841E-06-4.46472E-05 7.42364E-06 9.80012E-05
 -1      1289-1.89684E-01-6.84454E-06-2.86864E-05 1.94277E-05-6.27568E-06-5.12743E-05
 -1      1290-1.89687E-01 9.66362E-06 2.55083E-05-4.18763E-05 6.14078E-06 1.40447E-05
 -1      1291-2.00788E-01-1.09781E-01-9.33249E-02 2.41514E-03 3.19452E-03-9.53757E-03
 -1      1292-2.15691E-01 3.09174E-02 5.33622E-02 5.02723E-04-1.66415E-03-2.36346E-03
 -1      1293-3.19208E-01-1.36997E-01-1.37111E-01 2.79472E-03 2.67942E-04-1.03940E-02
 -1      1294-3.25211E-01 3.70298E-02 2.74419E-02 4.73958E-04 2.16604E-04-2.01244E-03
 -1      1295-2.22874E-01-7.75040E-03 4.04760E-03-2.23057E-04 4.12522E-04 6.83532E-04
 -1      1296-3.26143E-01-9.03197E-03-6.36034E-04-2.48773E-04-8.21629E-05 1.45974E-03
 -1      1297-2.15833E-01 7.84409E-04 2.22635E-03 6.83767E-04-3.31098E-05 4.52391E-04
 -1      1298-3.22922E-01 1.70451E-03-2.62798E-03 6.70982E-04 5.01768E-05-2.38552E-04
 -1      1299-2.19552E-01-2.90612E-05 1.54135E-03-3.76311E-04 2.34770E-05 1.22025E-04
 -1      1300-3.23944E-01-2.55883E-04 1.39672E-03-3.69419E-04 7.32420E-06-6.06907E-05
 -1      1301-2.18909E-01-1.20370E-04 4.55449E-05 3.17509E-04 1.00511E-05-6.13869E-06
 -1      1302-3.24104E-01 5.94401E-05-5.62464E-04 3.11007E-04-1.47735E-05 1.21359E-04
 -1      1303-2.19078E-01 4.60573E-05 2.31130E-04-1.86013E-04 6.25630E-06 9.46988E-05
 -1      1304-3.23931E-01-1.72667E-05 2.52601E-04-1.80614E-04 2.63138E-05-1.30905E-04
 -1      1305-2.19104E-01-4.95997E-05-7.83152E-05 1.17809E-04-5.49609E-07-5.78490E-05
 -1      1306-3.23983E-01-1.14991E-05-1.50437E-04 1.12783E-04-1.64176E-05 1.11449E-04
 -1      1307-2.19092E-01 4.84946E-05 1.04792E-04-6.46202E-05 9.22806E-07 4.91428E-05
 -1      1308-3.24019E-01 3.04097E-05 1.06684E-04-6.06063E-05 1.20119E-05-7.75531E-05
 -1      1309-2.19122E-01-5.16346E-05-8.64860E-05 2.94074E-05 6.94443E-07-2.38526E-05
 -1      1310-3.23953E-01-3.89759E-05-8.60031E-05 2.71626E-05-8.07762E-06 3.94047E-05
 -1      1311-2.19089E-01 5.17655E-05 8.84667E-05 1.81696E-04-7.76804E-07 4.39598E-05
 -1      1312-3.24029E-01 4.13181E-05 7.95502E-05 5.35504E-06 7.20061E-06 2.00134E-05
 -1      1313-4.38930E-01-1.64336E-01-1.81324E-01 3.21469E-03-2.51577E-03-1.21310E-02
 -1      1314-4.33828E-01 4.33512E-02 2.22443E-03 4.27825E-04 1.91396E-03-3.25838E-03
 -1      1315-4.29773E-01-1.05883E-02-6.24013E-03-2.88758E-04-4.31924E-04 3.91573E-03
 -1      1316-4.30073E-01 2.78151E-03-7.34053E-03 6.73554E-04 1.25625E-04-2.36332E-03
 -1      1317-4.28185E-01-5.32976E-04 1.18487E-03-3.67894E-04-6.35968E-05 9.10736E-04
 -1      1318-4.29470E-01 2.70434E-04-1.16777E-03 3.06402E-04 1.04555E-05-6.74380E-04
 -1      1319-4.28619E-01-9.79946E-05 2.87026E-04-1.75784E-04 1.29109E-05 3.52007E-04
 -1      1320-4.29021E-01 3.70723E-05-2.50101E-04 1.07911E-04-1.14668E-05-2.33715E-04
 -1      1321-4.28792E-01 6.56205E-06 1.42718E-04-5.66275E-05 1.03449E-05 1.30177E-04
 -1      1322-4.28937E-01-2.28872E-05-1.22989E-04 2.49209E-05-8.11400E-06-6.20002E-05
 -1      1323-4.28818E-01 2.81763E-05 1.08957E-04-1.70813E-04 7.69746E-06-2.37578E-06
 -1      1324-4.39662E-01-2.11380E-01-1.96681E-01 5.07334E-03 5.24974E-03-6.88228E-04
 -1      1325-4.57498E-01 5.95079E-02 6.82259E-02-4.26844E-04-2.08527E-03-2.87911E-03
 -1      1326-5.57470E-01-2.39574E-01-2.40347E-01 5.71665E-03 2.19343E-03-3.05200E-04
 -1      1327-5.63989E-01 6.62485E-02 5.23377E-02-2.22024E-04 4.31588E-05 5.62652E-04
 -1      1328-4.62126E-01-1.73257E-02 2.97866E-03 1.27773E-04 1.37590E-03-3.05474E-03
 -1      1329-5.66881E-01-1.86092E-02-6.88293E-03 2.19455E-04 5.44462E-04-5.93040E-04
 -1      1330-4.53747E-01 3.27675E-03 1.62216E-03-4.45761E-05-6.14185E-04 5.58295E-04
 -1      1331-5.60932E-01 4.52461E-03-1.63924E-03-2.77358E-05-2.91249E-04 3.74790E-04
 -1      1332-4.59946E-01-6.32692E-04 2.03789E-03 1.67254E-04 2.46563E-04-2.31337E-04
 -1      1333-5.63903E-01-1.03174E-03 1.74122E-03 1.77694E-04 2.06805E-04-5.51296E-05
 -1      1334-4.57405E-01-9.87115E-05-5.16556E-04-3.28892E-05-9.31655E-05-3.30145E-05
 -1      1335-5.62850E-01 2.15402E-04-1.02824E-03-4.38372E-05-9.14907E-05 3.36605E-05
 -1      1336-4.58622E-01 1.13879E-04 5.32412E-04-1.78246E-06 5.69647E-05 5.40361E-05
 -1      1337-5.63319E-01-3.86064E-05 5.61403E-04 1.70269E-05 7.09129E-05-5.60092E-05
 -1      1338-4.58143E-01-9.75746E-05-2.52737E-04 2.63010E-05-2.86485E-05-4.37072E-05
 -1      1339-5.63086E-01-3.46435E-06-3.12885E-04 7.01117E-06-4.06893E-05 6.27869E-05
 -1      1340-4.58343E-01 6.97887E-05 1.84413E-04-2.35416E-05 1.78840E-05 3.28946E-05
 -1      1341-5.63246E-01 1.66761E-05 1.84696E-04-8.19766E-06 2.80463E-05-4.71376E-05
 -1      1342-4.58285E-01-5.85144E-05-1.29622E-04 1.38098E-05-1.09367E-05-1.67370E-05
 -1      1343-5.63118E-01-2.23301E-05-1.25199E-04 5.48682E-06-1.93982E-05 2.49192E-05
 -1      1344-4.58294E-01 5.46956E-05 1.19450E-04 2.66523E-04 9.30913E-06 8.86784E-05
 -1      1345-5.63236E-01 2.41431E-05 1.07965E-04-3.04799E-05 1.72503E-05 6.78061E-05
 -1      1346-6.77283E-01-2.67638E-01-2.84577E-01 6.34806E-03-5.96856E-04-7.34297E-04
 -1      1347-6.69430E-01 7.27390E-02 3.64855E-02 1.21831E-05 1.91699E-03 1.98865E-03
 -1      1348-6.70968E-01-1.93792E-02-1.49042E-02 3.09767E-04-1.90461E-04 3.28480E-03
 -1      1349-6.68864E-01 5.29531E-03-5.92347E-03-3.60949E-05 9.73255E-05-1.06905E-03
 -1      1350-6.67278E-01-1.19815E-03 2.07814E-03 1.93954E-04 8.33245E-05 1.19178E-03
 -1      1351-6.68751E-01 4.06263E-04-1.89442E-03-5.80813E-05-1.88103E-05-7.43858E-04
 -1      1352-6.67642E-01-1.29438E-04 8.18569E-04 3.68308E-05 3.83371E-05 4.69952E-04
 -1      1353-6.68352E-01 5.64001E-05-5.30617E-04-1.28141E-05-2.23384E-05-2.81422E-04
 -1      1354-6.67857E-01-1.59110E-05 3.07219E-04 7.38229E-06 1.83964E-05 1.60951E-04
 -1      1355-6.68227E-01-6.15842E-07-2.25599E-04-2.94078E-06-1.33755E-05-7.37432E-05
 -1      1356-6.67910E-01 6.29278E-06 1.96200E-04-3.26428E-04 1.24013E-05 4.50716E-05
 -3
    1PSTEP                         3           1           1          
  100CL  101 1.000000000        1353                     0    1           1
 -4  ERROR       1    1
 -5  STR(%)      1    1    0    0
 -1         4 6.74300E+01
 -1         5 7.02127E+01
 -1         6 7.54530E+01
 -1         7 6.94252E+01
 -1         8 1.01845E+02
 -1         9 1.01845E+02
 -1        10 1.13513E+02
 -1        11 1.13513E+02
 -1        12 7.54530E+01
 -1        13 6.94252E+01
 -1        14 1.16279E+02
 -1        15 1.16279E+02
 -1        16 7.32666E+01
 -1        17 6.88130E+01
 -1        18 1.16702E+02
 -1        19 1.16702E+02
 -1        20 7.32666E+01
 -1        21 6.85908E+01
 -1        22 1.16702E+02
 -1        23 1.16702E+02
 -1        24 7.31411E+01
 -1        25 6.85908E+01
 -1        26 1.16691E+02
 -1        27 1.16691E+02
 -1        28 7.31302E+01
 -1        29 6.84960E+01
 -1        30 1.16691E+02
 -1        31 1.16691E+02
 -1        32 7.31302E+01
 -1        33 6.84960E+01
 -1        34 1.16662E+02
 -1        35 1.16662E+02
 -1        36 7.31220E+01
 -1        37 6.84682E+01
 -1        38 1.16662E+02
 -1        39 1.16662E+02
 -1        40 7.31220E+01
 -1        41 6.84682E+01
 -1        42 1.16651E+02
 -1        43 1.16651E+02
 -1        44 7.31168E+01
 -1        45 6.84563E+01
 -1        46 1.16651E+02
 -1        47 1.16651E+02
 -1        48 1.01845E+02
 -1        49 1.01845E+02
 -1        50 1.13513E+02
 -1        51 1.13513E+02
 -1        52 1.16279E+02
 -1        53 1.16279E+02
 -1        54 1.16702E+02
 -1        55 1.16702E+02
 -1        56 1.16702E+02
 -1        57 1.16702E+02
 -1        58 1.16691E+02
 -1        59 1.16691E+02
 -1        60 1.16691E+02
 -1        61 1.16691E+02
 -1        62 1.16662E+02
 -1        63 1.16662E+02
 -1        64 1.16662E+02
 -1        65 1.16662E+02
 -1        66 1.16651E+02
 -1        67 1.16651E+02
 -1        68 1.16651E+02
 -1        69 1.16651E+02
 -1        70 7.45234E+01
 -1        71 8.08476E+01
 -1        72 1.00205E+02
 -1        73 1.07489E+02
 -1        74 8.08476E+01
 -1        75 1.07489E+02
 -1        76 7.84435E+01
 -1        77 1.07053E+02
 -1        78 7.84435E+01
 -1        79 1.07053E+02
 -1        80 7.83524E+01
 -1        81 1.06800E+02
 -1        82 7.83251E+01
 -1        83 1.06800E+02
 -1        84 7.83251E+01
 -1        85 1.06740E+02
 -1        86 7.83121E+01
 -1        87 1.06740E+02
 -1        88 7.83121E+01
 -1        89 1.06722E+02
 -1        90 7.83062E+01
 -1        91 1.06722E+02
 -1        92 1.00205E+02
 -1        93 1.07489E+02
 -1        94 1.07489E+02
 -1        95 1.07053E+02
 -1        96 1.07053E+02
 -1        97 1.06800E+02
 -1        98 1.06800E+02
 -1        99 1.06740E+02
 -1       100 1.06740E+02
 -1       101 1.06722E+02
 -1       102 1.06722E+02
 -1       103 7.93913E+01
 -1       104 8.69308E+01
 -1       105 9.27229E+01
 -1       106 1.00614E+02
 -1       107 8.69308E+01
 -1       108 1.00614E+02
 -1       109 8.42964E+01
 -1       110 9.83360E+01
 -1       111 8.42964E+01
 -1       112 9.83360E+01
 -1       113 8.41372E+01
 -1       114 9.81753E+01
 -1       115 8.41332E+01
 -1       116 9.81753E+01
 -1       117 8.41273E+01
 -1       118 9.81588E+01
 -1       119 8.41247E+01
 -1       120 9.81588E+01
 -1       121 8.41247E+01
 -1       122 9.81538E+01
 -1       123 8.41237E+01
 -1       124 9.81538E+01
 -1       125 9.27229E+01
 -1       126 1.00614E+02
 -1       127 1.00614E+02
 -1       128 9.83360E+01
 -1       129 9.83360E+01
 -1       130 9.81753E+01
 -1       131 9.81753E+01
 -1       132 9.81588E+01
 -1       133 9.81588E+01
 -1       134 9.81538E+01
 -1       135 9.81538E+01
 -1       136 8.51907E+01
 -1       137 9.36040E+01
 -1       138 8.51907E+01
 -1       139 9.36040E+01
 -1       140 9.36040E+01
 -1       141 9.36040E+01
 -1       142 9.08910E+01
 -1       143 9.08910E+01
 -1       144 9.08910E+01
 -1       145 9.08910E+01
 -1       146 9.07225E+01
 -1       147 9.07225E+01
 -1       148 9.07225E+01
 -1       149 9.07225E+01
 -1       150 9.06964E+01
 -1       151 9.06964E+01
 -1       152 9.06964E+01
 -1       153 9.06964E+01
 -1       154 9.06888E+01
 -1       155 9.06888E+01
 -1       156 9.06888E+01
 -1       157 9.06888E+01
 -1       158 8.51907E+01
 -1       159 9.36040E+01
 -1       160 9.36040E+01
 -1       161 9.08910E+01
 -1       162 9.08910E+01
 -1       163 9.07225E+01
 -1       164 9.07225E+01
 -1       165 9.06964E+01
 -1       166 9.06964E+01
 -1       167 9.06888E+01
 -1       168 9.06888E+01
 -1       169 9.27229E+01
 -1       170 1.00614E+02
 -1       171 9.27229E+01
 -1       172 1.00614E+02
 -1       173 1.00614E+02
 -1       174 1.00614E+02
 -1       175 9.83360E+01
 -1       176 9.83360E+01
 -1       177 9.83360E+01
 -1       178 9.83360E+01
 -1       179 9.81753E+01
 -1       180 9.81753E+01
 -1       181 9.81753E+01
 -1       182 9.81753E+01
 -1       183 9.81588E+01
 -1       184 9.81588E+01
 -1       185 9.81588E+01
 -1       186 9.81588E+01
 -1       187 9.81538E+01
 -1       188 9.81538E+01
 -1       189 9.81538E+01
 -1       190 9.81538E+01
 -1       191 7.93913E+01
 -1       192 8.69308E+01
 -1       193 8.69308E+01
 -1       194 8.42964E+01
 -1       195 8.42964E+01
 -1       196 8.41372E+01
 -1       197 8.41332E+01
 -1       198 8.41273E+01
 -1       199 8.41247E+01
 -1       200 8.41247E+01
 -1       201 8.41237E+01
 -1       202 1.00205E+02
 -1       203 1.07489E+02
 -1       204 1.00205E+02
 -1       205 1.07489E+02
 -1       206 1.07489E+02
 -1       207 1.07489E+02
 -1       208 1.07053E+02
 -1       209 1.07053E+02
 -1       210 1.07053E+02
 -1       211 1.07053E+02
 -1       212 1.06800E+02
 -1       213 1.06800E+02
 -1       214 1.06800E+02
 -1       215 1.06800E+02
 -1       216 1.06740E+02
 -1       217 1.06740E+02
 -1       218 1.06740E+02
 -1       219 1.06740E+02
 -1       220 1.06722E+02
 -1       221 1.06722E+02
 -1       222 1.06722E+02
 -1       223 1.06722E+02
 -1       224 7.45234E+01
 -1       225 8.08476E+01
 -1       226 8.08476E+01
 -1       227 7.84435E+01
 -1       228 7.84435E+01
 -1       229 7.83524E+01
 -1       230 7.83251E+01
 -1       231 7.83251E+01
 -1       232 7.83121E+01
 -1       233 7.83121E+01
 -1       234 7.83062E+01
 -1       235 1.01845E+02
 -1       236 1.13513E+02
 -1       237 1.01845E+02
 -1       238 1.13513E+02
 -1       239 1.16279E+02
 -1       240 1.16279E+02
 -1       241 1.16702E+02
 -1       242 1.16702E+02
 -1       243 1.16702E+02
 -1       244 1.16702E+02
 -1       245 1.16691E+02
 -1       246 1.16691E+02
 -1       247 1.16691E+02
 -1       248 1.16691E+02
 -1       249 1.16662E+02
 -1       250 1.16662E+02
 -1       251 1.16662E+02
 -1       252 1.16662E+02
 -1       253 1.16651E+02
 -1       254 1.16651E+02
 -1       255 1.16651E+02
 -1       256 1.16651E+02
 -1       257 7.02127E+01
 -1       258 7.54530E+01
 -1       259 7.54530E+01
 -1       260 7.32666E+01
 -1       261 7.32666E+01
 -1       262 7.31411E+01
 -1       263 7.31302E+01
 -1       264 7.31302E+01
 -1       265 7.31220E+01
 -1       266 7.31220E+01
 -1       267 7.31168E+01
 -1       268 1.01845E+02
 -1       269 1.13513E+02
 -1       270 1.01845E+02
 -1       271 1.13513E+02
 -1       272 1.16279E+02
 -1       273 1.16279E+02
 -1       274 1.16702E+02
 -1       275 1.16702E+02
 -1       276 1.16702E+02
 -1       277 1.16702E+02
 -1       278 1.16691E+02
 -1       279 1.16691E+02
 -1       280 1.16691E+02
 -1       281 1.16691E+02
 -1       282 1.16662E+02
 -1       283 1.16662E+02
 -1       284 1.16662E+02
 -1       285 1.16662E+02
 -1       286 1.16651E+02
 -1       287 1.16651E+02
 -1       288 1.16651E+02
 -1       289 1.16651E+02
 -1       290 6.74300E+01
 -1       291 6.94252E+01
 -1       292 6.94252E+01
 -1       293 6.88130E+01
 -1       294 6.85908E+01
 -1       295 6.85908E+01
 -1       296 6.84960E+01
 -1       297 6.84960E+01
 -1       298 6.84682E+01
 -1       299 6.84682E+01
 -1       300 6.84563E+01
 -1       301 2.23976E+01
 -1       302 4.29674E+00
 -1       303 4.29674E+00
 -1       304 2.23976E+01
 -1       305 3.32068E+01
 -1       306 5.71274E+00
 -1       307 5.71274E+00
 -1       308 3.32068E+01
 -1       309 4.42961E+00
 -1       310 2.23794E+01
 -1       311 6.00855E+00
 -1       312 3.15563E+01
 -1       313 4.42961E+00
 -1       314 2.23794E+01
 -1       315 6.00855E+00
 -1       316 3.15563E+01
 -1       317 4.23981E+00
 -1       318 2.17716E+01
 -1       319 5.10546E+00
 -1       320 3.08037E+01
 -1       321 4.23981E+00
 -1       322 2.17716E+01
 -1       323 5.10546E+00
 -1       324 3.09126E+01
 -1       325 4.17855E+00
 -1       326 2.17177E+01
 -1       327 4.97141E+00
 -1       328 3.09126E+01
 -1       329 4.17855E+00
 -1       330 2.17177E+01
 -1       331 4.98588E+00
 -1       332 3.08503E+01
 -1       333 4.15926E+00
 -1       334 2.16861E+01
 -1       335 4.98588E+00
 -1       336 3.08503E+01
 -1       337 4.15926E+00
 -1       338 2.16861E+01
 -1       339 4.97939E+00
 -1       340 3.07972E+01
 -1       341 4.15021E+00
 -1       342 2.16569E+01
 -1       343 4.97939E+00
 -1       344 3.07972E+01
 -1       345 3.87780E+01
 -1       346 3.87780E+01
 -1       347 3.87780E+01
 -1       348 3.87780E+01
 -1       349 4.04159E+01
 -1       350 4.04159E+01
 -1       351 4.04159E+01
 -1       352 4.04159E+01
 -1       353 3.89539E+01
 -1       354 3.89539E+01
 -1       355 3.89539E+01
 -1       356 3.89539E+01
 -1       357 3.85917E+01
 -1       358 3.85917E+01
 -1       359 3.85953E+01
 -1       360 3.85953E+01
 -1       361 3.85953E+01
 -1       362 3.85953E+01
 -1       363 3.85752E+01
 -1       364 3.85752E+01
 -1       365 3.85752E+01
 -1       366 3.85752E+01
 -1       367 4.07164E+00
 -1       368 4.07164E+00
 -1       369 4.78229E+00
 -1       370 4.78229E+00
 -1       371 4.23308E+00
 -1       372 4.92947E+00
 -1       373 4.23308E+00
 -1       374 4.92947E+00
 -1       375 4.06060E+00
 -1       376 4.71544E+00
 -1       377 4.06060E+00
 -1       378 4.71544E+00
 -1       379 3.96235E+00
 -1       380 4.63234E+00
 -1       381 3.96235E+00
 -1       382 4.63234E+00
 -1       383 3.90654E+00
 -1       384 4.59804E+00
 -1       385 3.90654E+00
 -1       386 4.59804E+00
 -1       387 3.86517E+00
 -1       388 4.57708E+00
 -1       389 3.32277E+01
 -1       390 3.32277E+01
 -1       391 3.38249E+01
 -1       392 3.38249E+01
 -1       393 3.31458E+01
 -1       394 3.31458E+01
 -1       395 3.29042E+01
 -1       396 3.29042E+01
 -1       397 3.27989E+01
 -1       398 3.27989E+01
 -1       399 3.27293E+01
 -1       400 3.87780E+01
 -1       401 6.49488E+01
 -1       402 6.49488E+01
 -1       403 3.87780E+01
 -1       404 3.32068E+01
 -1       405 6.49488E+01
 -1       406 6.49488E+01
 -1       407 3.32068E+01
 -1       408 6.09860E+01
 -1       409 4.04159E+01
 -1       410 6.09860E+01
 -1       411 3.15563E+01
 -1       412 6.09860E+01
 -1       413 4.04159E+01
 -1       414 6.09860E+01
 -1       415 3.15563E+01
 -1       416 6.02751E+01
 -1       417 3.89539E+01
 -1       418 6.02751E+01
 -1       419 3.08037E+01
 -1       420 6.02486E+01
 -1       421 3.89539E+01
 -1       422 6.02486E+01
 -1       423 3.09126E+01
 -1       424 6.02486E+01
 -1       425 3.85917E+01
 -1       426 6.02486E+01
 -1       427 3.09126E+01
 -1       428 6.02070E+01
 -1       429 3.85953E+01
 -1       430 6.02070E+01
 -1       431 3.08503E+01
 -1       432 6.02070E+01
 -1       433 3.85953E+01
 -1       434 6.02070E+01
 -1       435 3.08503E+01
 -1       436 6.01932E+01
 -1       437 3.85752E+01
 -1       438 6.01932E+01
 -1       439 3.07972E+01
 -1       440 6.01932E+01
 -1       441 3.85752E+01
 -1       442 6.01932E+01
 -1       443 3.07972E+01
 -1       444 2.23976E+01
 -1       445 3.93699E+01
 -1       446 3.93699E+01
 -1       447 2.23976E+01
 -1       448 3.96607E+01
 -1       449 2.23794E+01
 -1       450 3.96607E+01
 -1       451 2.23794E+01
 -1       452 3.93508E+01
 -1       453 2.17716E+01
 -1       454 3.93508E+01
 -1       455 2.17716E+01
 -1       456 3.92612E+01
 -1       457 2.17177E+01
 -1       458 3.92612E+01
 -1       459 2.17177E+01
 -1       460 3.91845E+01
 -1       461 2.16861E+01
 -1       462 3.91845E+01
 -1       463 2.16861E+01
 -1       464 3.91269E+01
 -1       465 2.16569E+01
 -1       466 1.27588E+02
 -1       467 1.27588E+02
 -1       468 1.27588E+02
 -1       469 1.27588E+02
 -1       470 1.24283E+02
 -1       471 1.24283E+02
 -1       472 1.24283E+02
 -1       473 1.24283E+02
 -1       474 1.21826E+02
 -1       475 1.21826E+02
 -1       476 1.21826E+02
 -1       477 1.21826E+02
 -1       478 1.21547E+02
 -1       479 1.21547E+02
 -1       480 1.21547E+02
 -1       481 1.21547E+02
 -1       482 1.21530E+02
 -1       483 1.21530E+02
 -1       484 1.21530E+02
 -1       485 1.21530E+02
 -1       486 1.21516E+02
 -1       487 1.21516E+02
 -1       488 8.02448E+01
 -1       489 8.51608E+01
 -1       490 8.51608E+01
 -1       491 8.43191E+01
 -1       492 8.42208E+01
 -1       493 8.42208E+01
 -1       494 8.41618E+01
 -1       495 8.41618E+01
 -1       496 8.41371E+01
 -1       497 8.41371E+01
 -1       498 8.41219E+01
 -1       499 1.27588E+02
 -1       500 1.27588E+02
 -1       501 1.27588E+02
 -1       502 1.27588E+02
 -1       503 1.24283E+02
 -1       504 1.24283E+02
 -1       505 1.24283E+02
 -1       506 1.24283E+02
 -1       507 1.21826E+02
 -1       508 1.21826E+02
 -1       509 1.21826E+02
 -1       510 1.21826E+02
 -1       511 1.21547E+02
 -1       512 1.21547E+02
 -1       513 1.21547E+02
 -1       514 1.21547E+02
 -1       515 1.21530E+02
 -1       516 1.21530E+02
 -1       517 1.21530E+02
 -1       518 1.21530E+02
 -1       519 1.21516E+02
 -1       520 1.21516E+02
 -1       521 1.27588E+02
 -1       522 1.27588E+02
 -1       523 1.24283E+02
 -1       524 1.24283E+02
 -1       525 1.21826E+02
 -1       526 1.21826E+02
 -1       527 1.21547E+02
 -1       528 1.21547E+02
 -1       529 1.21530E+02
 -1       530 1.21530E+02
 -1       531 1.21516E+02
 -1       532 8.02448E+01
 -1       533 8.51608E+01
 -1       534 1.27588E+02
 -1       535 1.27588E+02
 -1       536 8.51608E+01
 -1       537 1.24283E+02
 -1       538 8.43191E+01
 -1       539 1.24283E+02
 -1       540 8.42208E+01
 -1       541 1.21826E+02
 -1       542 8.42208E+01
 -1       543 1.21826E+02
 -1       544 8.41618E+01
 -1       545 1.21547E+02
 -1       546 8.41618E+01
 -1       547 1.21547E+02
 -1       548 8.41371E+01
 -1       549 1.21530E+02
 -1       550 8.41371E+01
 -1       551 1.21530E+02
 -1       552 8.41219E+01
 -1       553 1.21516E+02
 -1       554 1.27588E+02
 -1       555 1.27588E+02
 -1       556 1.24283E+02
 -1       557 1.24283E+02
 -1       558 1.21826E+02
 -1       559 1.21826E+02
 -1       560 1.21547E+02
 -1       561 1.21547E+02
 -1       562 1.21530E+02
 -1       563 1.21530E+02
 -1       564 1.21516E+02
 -1       565 3.93699E+01
 -1       566 3.93699E+01
 -1       567 6.49488E+01
 -1       568 6.49488E+01
 -1       569 3.96607E+01
 -1       570 6.09860E+01
 -1       571 3.96607E+01
 -1       572 6.09860E+01
 -1       573 3.93508E+01
 -1       574 6.02751E+01
 -1       575 3.93508E+01
 -1       576 6.02486E+01
 -1       577 3.92612E+01
 -1       578 6.02486E+01
 -1       579 3.92612E+01
 -1       580 6.02070E+01
 -1       581 3.91845E+01
 -1       582 6.02070E+01
 -1       583 3.91845E+01
 -1       584 6.01932E+01
 -1       585 3.91269E+01
 -1       586 6.01932E+01
 -1       587 6.49488E+01
 -1       588 6.49488E+01
 -1       589 6.09860E+01
 -1       590 6.09860E+01
 -1       591 6.02751E+01
 -1       592 6.02486E+01
 -1       593 6.02486E+01
 -1       594 6.02070E+01
 -1       595 6.02070E+01
 -1       596 6.01932E+01
 -1       597 6.01932E+01
 -1       598 3.32277E+01
 -1       599 3.87780E+01
 -1       600 3.87780E+01
 -1       601 3.32277E+01
 -1       602 4.78229E+00
 -1       603 5.71274E+00
 -1       604 5.71274E+00
 -1       605 4.78229E+00
 -1       606 4.04159E+01
 -1       607 3.38249E+01
 -1       608 6.00855E+00
 -1       609 4.92947E+00
 -1       610 4.04159E+01
 -1       611 3.38249E+01
 -1       612 6.00855E+00
 -1       613 4.92947E+00
 -1       614 3.89539E+01
 -1       615 3.31458E+01
 -1       616 5.10546E+00
 -1       617 4.71544E+00
 -1       618 3.89539E+01
 -1       619 3.31458E+01
 -1       620 5.10546E+00
 -1       621 4.71544E+00
 -1       622 3.85917E+01
 -1       623 3.29042E+01
 -1       624 4.97141E+00
 -1       625 4.63234E+00
 -1       626 3.85953E+01
 -1       627 3.29042E+01
 -1       628 4.98588E+00
 -1       629 4.63234E+00
 -1       630 3.85953E+01
 -1       631 3.27989E+01
 -1       632 4.98588E+00
 -1       633 4.59804E+00
 -1       634 3.85752E+01
 -1       635 3.27989E+01
 -1       636 4.97939E+00
 -1       637 4.59804E+00
 -1       638 3.85752E+01
 -1       639 3.27293E+01
 -1       640 4.97939E+00
 -1       641 4.57708E+00
 -1       642 4.07164E+00
 -1       643 4.29674E+00
 -1       644 4.29674E+00
 -1       645 4.07164E+00
 -1       646 4.42961E+00
 -1       647 4.23308E+00
 -1       648 4.42961E+00
 -1       649 4.23308E+00
 -1       650 4.23981E+00
 -1       651 4.06060E+00
 -1       652 4.23981E+00
 -1       653 4.06060E+00
 -1       654 4.17855E+00
 -1       655 3.96235E+00
 -1       656 4.17855E+00
 -1       657 3.96235E+00
 -1       658 4.15926E+00
 -1       659 3.90654E+00
 -1       660 4.15926E+00
 -1       661 3.90654E+00
 -1       662 4.15021E+00
 -1       663 3.86517E+00
 -1       664 7.91698E+01
 -1       665 1.06330E+02
 -1       666 1.13960E+02
 -1       667 8.11559E+01
 -1       668 9.32605E+01
 -1       669 1.06330E+02
 -1       670 1.13960E+02
 -1       671 1.04403E+02
 -1       672 1.21728E+02
 -1       673 8.11559E+01
 -1       674 1.21728E+02
 -1       675 1.06071E+02
 -1       676 1.21728E+02
 -1       677 7.95740E+01
 -1       678 1.21728E+02
 -1       679 1.06071E+02
 -1       680 1.20194E+02
 -1       681 7.95740E+01
 -1       682 1.20194E+02
 -1       683 1.03962E+02
 -1       684 1.20194E+02
 -1       685 7.95094E+01
 -1       686 1.20194E+02
 -1       687 1.03962E+02
 -1       688 1.19452E+02
 -1       689 7.95094E+01
 -1       690 1.19452E+02
 -1       691 1.03423E+02
 -1       692 1.19452E+02
 -1       693 7.94454E+01
 -1       694 1.19452E+02
 -1       695 1.03423E+02
 -1       696 1.19275E+02
 -1       697 7.94454E+01
 -1       698 1.19275E+02
 -1       699 1.03308E+02
 -1       700 1.19275E+02
 -1       701 7.93765E+01
 -1       702 1.19275E+02
 -1       703 1.03308E+02
 -1       704 1.19227E+02
 -1       705 7.93765E+01
 -1       706 1.19227E+02
 -1       707 1.03265E+02
 -1       708 9.32605E+01
 -1       709 9.32605E+01
 -1       710 1.04403E+02
 -1       711 1.04403E+02
 -1       712 1.06071E+02
 -1       713 1.06071E+02
 -1       714 1.06071E+02
 -1       715 1.06071E+02
 -1       716 1.03962E+02
 -1       717 1.03962E+02
 -1       718 1.03962E+02
 -1       719 1.03962E+02
 -1       720 1.03423E+02
 -1       721 1.03423E+02
 -1       722 1.03423E+02
 -1       723 1.03423E+02
 -1       724 1.03308E+02
 -1       725 1.03308E+02
 -1       726 1.03308E+02
 -1       727 1.03308E+02
 -1       728 1.03265E+02
 -1       729 1.03265E+02
 -1       730 1.06330E+02
 -1       731 1.13960E+02
 -1       732 1.06330E+02
 -1       733 1.13960E+02
 -1       734 1.21728E+02
 -1       735 1.21728E+02
 -1       736 1.21728E+02
 -1       737 1.21728E+02
 -1       738 1.20194E+02
 -1       739 1.20194E+02
 -1       740 1.20194E+02
 -1       741 1.20194E+02
 -1       742 1.19452E+02
 -1       743 1.19452E+02
 -1       744 1.19452E+02
 -1       745 1.19452E+02
 -1       746 1.19275E+02
 -1       747 1.19275E+02
 -1       748 1.19275E+02
 -1       749 1.19275E+02
 -1       750 1.19227E+02
 -1       751 1.19227E+02
 -1       752 8.67014E+01
 -1       753 9.10383E+01
 -1       754 9.10383E+01
 -1       755 8.92639E+01
 -1       756 8.95388E+01
 -1       757 8.95388E+01
 -1       758 8.95297E+01
 -1       759 8.95297E+01
 -1       760 8.94472E+01
 -1       761 8.94472E+01
 -1       762 8.93636E+01
 -1       763 7.91698E+01
 -1       764 1.06330E+02
 -1       765 1.13960E+02
 -1       766 8.11559E+01
 -1       767 9.32605E+01
 -1       768 1.06330E+02
 -1       769 1.13960E+02
 -1       770 1.04403E+02
 -1       771 1.21728E+02
 -1       772 8.11559E+01
 -1       773 1.21728E+02
 -1       774 1.06071E+02
 -1       775 1.21728E+02
 -1       776 7.95740E+01
 -1       777 1.21728E+02
 -1       778 1.06071E+02
 -1       779 1.20194E+02
 -1       780 7.95740E+01
 -1       781 1.20194E+02
 -1       782 1.03962E+02
 -1       783 1.20194E+02
 -1       784 7.95094E+01
 -1       785 1.20194E+02
 -1       786 1.03962E+02
 -1       787 1.19452E+02
 -1       788 7.95094E+01
 -1       789 1.19452E+02
 -1       790 1.03423E+02
 -1       791 1.19452E+02
 -1       792 7.94454E+01
 -1       793 1.19452E+02
 -1       794 1.03423E+02
 -1       795 1.19275E+02
 -1       796 7.94454E+01
 -1       797 1.19275E+02
 -1       798 1.03308E+02
 -1       799 1.19275E+02
 -1       800 7.93765E+01
 -1       801 1.19275E+02
 -1       802 1.03308E+02
 -1       803 1.19227E+02
 -1       804 7.93765E+01
 -1       805 1.19227E+02
 -1       806 1.03265E+02
 -1       807 9.32605E+01
 -1       808 9.32605E+01
 -1       809 1.04403E+02
 -1       810 1.04403E+02
 -1       811 1.06071E+02
 -1       812 1.06071E+02
 -1       813 1.06071E+02
 -1       814 1.06071E+02
 -1       815 1.03962E+02
 -1       816 1.03962E+02
 -1       817 1.03962E+02
 -1       818 1.03962E+02
 -1       819 1.03423E+02
 -1       820 1.03423E+02
 -1       821 1.03423E+02
 -1       822 1.03423E+02
 -1       823 1.03308E+02
 -1       824 1.03308E+02
 -1       825 1.03308E+02
 -1       826 1.03308E+02
 -1       827 1.03265E+02
 -1       828 1.03265E+02
 -1       829 1.06330E+02
 -1       830 1.13960E+02
 -1       831 1.06330E+02
 -1       832 1.13960E+02
 -1       833 1.21728E+02
 -1       834 1.21728E+02
 -1       835 1.21728E+02
 -1       836 1.21728E+02
 -1       837 1.20194E+02
 -1       838 1.20194E+02
 -1       839 1.20194E+02
 -1       840 1.20194E+02
 -1       841 1.19452E+02
 -1       842 1.19452E+02
 -1       843 1.19452E+02
 -1       844 1.19452E+02
 -1       845 1.19275E+02
 -1       846 1.19275E+02
 -1       847 1.19275E+02
 -1       848 1.19275E+02
 -1       849 1.19227E+02
 -1       850 1.19227E+02
 -1       851 8.67014E+01
 -1       852 9.10383E+01
 -1       853 9.10383E+01
 -1       854 8.92639E+01
 -1       855 8.95388E+01
 -1       856 8.95388E+01
 -1       857 8.95297E+01
 -1       858 8.95297E+01
 -1       859 8.94472E+01
 -1       860 8.94472E+01
 -1       861 8.93636E+01
 -1       862 2.63805E+01
 -1       863 2.63805E+01
 -1       864 2.63805E+01
 -1       865 2.63805E+01
 -1       866 2.17190E+01
 -1       867 4.00771E+00
 -1       868 4.00771E+00
 -1       869 2.17190E+01
 -1       870 2.69781E+01
 -1       871 2.69781E+01
 -1       872 4.07562E+00
 -1       873 2.11884E+01
 -1       874 2.69781E+01
 -1       875 2.69781E+01
 -1       876 4.07562E+00
 -1       877 2.11884E+01
 -1       878 2.55190E+01
 -1       879 2.55190E+01
 -1       880 3.84803E+00
 -1       881 1.99736E+01
 -1       882 2.55190E+01
 -1       883 2.55190E+01
 -1       884 3.84803E+00
 -1       885 2.00770E+01
 -1       886 2.54061E+01
 -1       887 2.54061E+01
 -1       888 3.78849E+00
 -1       889 2.00770E+01
 -1       890 2.54204E+01
 -1       891 2.54204E+01
 -1       892 3.80427E+00
 -1       893 2.00440E+01
 -1       894 2.54204E+01
 -1       895 2.54204E+01
 -1       896 3.80427E+00
 -1       897 2.00440E+01
 -1       898 2.53787E+01
 -1       899 2.53787E+01
 -1       900 3.79770E+00
 -1       901 1.99859E+01
 -1       902 2.53787E+01
 -1       903 2.53787E+01
 -1       904 3.79770E+00
 -1       905 1.99859E+01
 -1       906 1.61862E+01
 -1       907 3.58035E+00
 -1       908 3.58035E+00
 -1       909 1.61862E+01
 -1       910 3.74004E+00
 -1       911 1.63114E+01
 -1       912 3.74004E+00
 -1       913 1.63114E+01
 -1       914 3.49325E+00
 -1       915 1.54294E+01
 -1       916 3.49325E+00
 -1       917 1.54294E+01
 -1       918 3.41465E+00
 -1       919 1.52944E+01
 -1       920 3.41465E+00
 -1       921 1.52944E+01
 -1       922 3.38576E+00
 -1       923 1.52321E+01
 -1       924 3.38576E+00
 -1       925 1.52321E+01
 -1       926 3.36982E+00
 -1       927 1.51826E+01
 -1       928 2.19066E+01
 -1       929 2.19066E+01
 -1       930 3.69729E+00
 -1       931 3.69729E+00
 -1       932 2.21671E+01
 -1       933 3.85377E+00
 -1       934 2.21671E+01
 -1       935 3.85377E+00
 -1       936 2.13210E+01
 -1       937 3.60269E+00
 -1       938 2.13210E+01
 -1       939 3.60269E+00
 -1       940 2.11346E+01
 -1       941 3.51925E+00
 -1       942 2.11346E+01
 -1       943 3.51925E+00
 -1       944 2.10579E+01
 -1       945 3.48752E+00
 -1       946 2.10579E+01
 -1       947 3.48752E+00
 -1       948 2.09987E+01
 -1       949 3.46950E+00
 -1       950 3.36373E+00
 -1       951 3.36373E+00
 -1       952 3.54965E+00
 -1       953 3.54965E+00
 -1       954 3.33581E+00
 -1       955 3.33581E+00
 -1       956 3.21980E+00
 -1       957 3.21980E+00
 -1       958 3.15520E+00
 -1       959 3.15520E+00
 -1       960 3.10770E+00
 -1       961 5.43493E+01
 -1       962 6.91086E+01
 -1       963 7.38699E+01
 -1       964 5.68061E+01
 -1       965 1.30953E+02
 -1       966 1.30953E+02
 -1       967 1.30953E+02
 -1       968 1.30953E+02
 -1       969 7.39512E+01
 -1       970 5.68061E+01
 -1       971 1.23172E+02
 -1       972 1.20185E+02
 -1       973 7.39512E+01
 -1       974 5.55068E+01
 -1       975 1.22107E+02
 -1       976 1.22107E+02
 -1       977 7.24801E+01
 -1       978 5.54085E+01
 -1       979 1.22107E+02
 -1       980 1.22107E+02
 -1       981 7.23350E+01
 -1       982 5.53151E+01
 -1       983 1.21574E+02
 -1       984 1.21574E+02
 -1       985 7.23350E+01
 -1       986 5.53151E+01
 -1       987 1.21574E+02
 -1       988 1.21574E+02
 -1       989 7.22723E+01
 -1       990 5.52864E+01
 -1       991 1.21552E+02
 -1       992 1.21552E+02
 -1       993 7.22723E+01
 -1       994 5.52864E+01
 -1       995 1.21552E+02
 -1       996 1.21552E+02
 -1       997 7.22562E+01
 -1       998 5.52618E+01
 -1       999 1.21548E+02
 -1      1000 1.21548E+02
 -1      1001 7.22562E+01
 -1      1002 5.52618E+01
 -1      1003 1.21548E+02
 -1      1004 1.21548E+02
 -1      1005 1.30953E+02
 -1      1006 1.30953E+02
 -1      1007 1.30953E+02
 -1      1008 1.30953E+02
 -1      1009 1.23172E+02
 -1      1010 1.20185E+02
 -1      1011 1.22107E+02
 -1      1012 1.22107E+02
 -1      1013 1.22107E+02
 -1      1014 1.22107E+02
 -1      1015 1.21574E+02
 -1      1016 1.21574E+02
 -1      1017 1.21574E+02
 -1      1018 1.21574E+02
 -1      1019 1.21552E+02
 -1      1020 1.21552E+02
 -1      1021 1.21552E+02
 -1      1022 1.21552E+02
 -1      1023 1.21548E+02
 -1      1024 1.21548E+02
 -1      1025 1.21548E+02
 -1      1026 1.21548E+02
 -1      1027 5.84059E+01
 -1      1028 5.84059E+01
 -1      1029 5.84059E+01
 -1      1030 5.84059E+01
 -1      1031 5.97775E+01
 -1      1032 5.97775E+01
 -1      1033 5.97775E+01
 -1      1034 5.97775E+01
 -1      1035 5.78713E+01
 -1      1036 5.78713E+01
 -1      1037 5.78713E+01
 -1      1038 5.78713E+01
 -1      1039 5.77458E+01
 -1      1040 5.77458E+01
 -1      1041 5.77324E+01
 -1      1042 5.77324E+01
 -1      1043 5.77324E+01
 -1      1044 5.77324E+01
 -1      1045 5.77055E+01
 -1      1046 5.77055E+01
 -1      1047 5.77055E+01
 -1      1048 5.77055E+01
 -1      1049 6.91086E+01
 -1      1050 7.38699E+01
 -1      1051 1.08495E+02
 -1      1052 1.23172E+02
 -1      1053 7.39512E+01
 -1      1054 1.23172E+02
 -1      1055 7.39512E+01
 -1      1056 1.21721E+02
 -1      1057 7.24801E+01
 -1      1058 1.21721E+02
 -1      1059 7.23350E+01
 -1      1060 1.21554E+02
 -1      1061 7.23350E+01
 -1      1062 1.21554E+02
 -1      1063 7.22723E+01
 -1      1064 1.21526E+02
 -1      1065 7.22723E+01
 -1      1066 1.21526E+02
 -1      1067 7.22562E+01
 -1      1068 1.21521E+02
 -1      1069 7.22562E+01
 -1      1070 1.21521E+02
 -1      1071 1.08495E+02
 -1      1072 1.23172E+02
 -1      1073 1.23172E+02
 -1      1074 1.21721E+02
 -1      1075 1.21721E+02
 -1      1076 1.21554E+02
 -1      1077 1.21554E+02
 -1      1078 1.21526E+02
 -1      1079 1.21526E+02
 -1      1080 1.21521E+02
 -1      1081 1.21521E+02
 -1      1082 4.54345E+01
 -1      1083 4.55475E+01
 -1      1084 4.60911E+01
 -1      1085 4.60911E+01
 -1      1086 4.56090E+01
 -1      1087 4.56090E+01
 -1      1088 4.54925E+01
 -1      1089 4.54925E+01
 -1      1090 4.54152E+01
 -1      1091 4.54152E+01
 -1      1092 4.53451E+01
 -1      1093 7.06428E+00
 -1      1094 1.25013E+01
 -1      1095 1.31465E+01
 -1      1096 7.06428E+00
 -1      1097 9.45480E+00
 -1      1098 1.68271E+01
 -1      1099 1.73168E+01
 -1      1100 9.45480E+00
 -1      1101 1.31465E+01
 -1      1102 8.11451E+00
 -1      1103 1.73168E+01
 -1      1104 1.02856E+01
 -1      1105 1.30468E+01
 -1      1106 8.11451E+00
 -1      1107 1.75501E+01
 -1      1108 1.02856E+01
 -1      1109 1.30468E+01
 -1      1110 6.88793E+00
 -1      1111 1.75501E+01
 -1      1112 9.06963E+00
 -1      1113 1.27414E+01
 -1      1114 6.88793E+00
 -1      1115 1.70465E+01
 -1      1116 9.06963E+00
 -1      1117 1.27414E+01
 -1      1118 6.45942E+00
 -1      1119 1.70465E+01
 -1      1120 8.73830E+00
 -1      1121 1.26479E+01
 -1      1122 6.45942E+00
 -1      1123 1.68133E+01
 -1      1124 8.73830E+00
 -1      1125 1.26479E+01
 -1      1126 6.29678E+00
 -1      1127 1.68133E+01
 -1      1128 8.67453E+00
 -1      1129 1.26413E+01
 -1      1130 6.29678E+00
 -1      1131 1.66874E+01
 -1      1132 8.67453E+00
 -1      1133 1.26369E+01
 -1      1134 6.20150E+00
 -1      1135 1.66874E+01
 -1      1136 8.67382E+00
 -1      1137 9.45480E+00
 -1      1138 1.68271E+01
 -1      1139 1.73168E+01
 -1      1140 9.45480E+00
 -1      1141 1.73168E+01
 -1      1142 1.02856E+01
 -1      1143 1.75501E+01
 -1      1144 1.02856E+01
 -1      1145 1.75501E+01
 -1      1146 9.06963E+00
 -1      1147 1.70465E+01
 -1      1148 9.06963E+00
 -1      1149 1.70465E+01
 -1      1150 8.73830E+00
 -1      1151 1.68133E+01
 -1      1152 8.73830E+00
 -1      1153 1.68133E+01
 -1      1154 8.67453E+00
 -1      1155 1.66874E+01
 -1      1156 8.67453E+00
 -1      1157 1.66874E+01
 -1      1158 8.67382E+00
 -1      1159 2.35627E+01
 -1      1160 2.41404E+01
 -1      1161 3.21865E+01
 -1      1162 3.21865E+01
 -1      1163 2.41404E+01
 -1      1164 3.19175E+01
 -1      1165 2.40198E+01
 -1      1166 3.19116E+01
 -1      1167 2.39152E+01
 -1      1168 3.19116E+01
 -1      1169 2.39152E+01
 -1      1170 3.15467E+01
 -1      1171 2.38266E+01
 -1      1172 3.15467E+01
 -1      1173 2.38266E+01
 -1      1174 3.14898E+01
 -1      1175 2.37274E+01
 -1      1176 3.14898E+01
 -1      1177 2.37274E+01
 -1      1178 3.14749E+01
 -1      1179 2.36444E+01
 -1      1180 3.14749E+01
 -1      1181 3.21865E+01
 -1      1182 3.21865E+01
 -1      1183 3.19175E+01
 -1      1184 3.19116E+01
 -1      1185 3.19116E+01
 -1      1186 3.15467E+01
 -1      1187 3.15467E+01
 -1      1188 3.14898E+01
 -1      1189 3.14898E+01
 -1      1190 3.14749E+01
 -1      1191 3.14749E+01
 -1      1192 4.63911E+01
 -1      1193 4.78005E+01
 -1      1194 6.94075E+01
 -1      1195 6.94075E+01
 -1      1196 4.78005E+01
 -1      1197 6.90309E+01
 -1      1198 4.74382E+01
 -1      1199 6.90309E+01
 -1      1200 4.72539E+01
 -1      1201 6.88788E+01
 -1      1202 4.72539E+01
 -1      1203 6.85371E+01
 -1      1204 4.71482E+01
 -1      1205 6.85371E+01
 -1      1206 4.71482E+01
 -1      1207 6.84296E+01
 -1      1208 4.71026E+01
 -1      1209 6.84296E+01
 -1      1210 4.71026E+01
 -1      1211 6.83777E+01
 -1      1212 4.70774E+01
 -1      1213 6.83777E+01
 -1      1214 6.94075E+01
 -1      1215 6.94075E+01
 -1      1216 6.90309E+01
 -1      1217 6.90309E+01
 -1      1218 6.88788E+01
 -1      1219 6.85371E+01
 -1      1220 6.85371E+01
 -1      1221 6.84296E+01
 -1      1222 6.84296E+01
 -1      1223 6.83777E+01
 -1      1224 6.83777E+01
 -1      1225 1.02178E+02
 -1      1226 1.17235E+02
 -1      1227 1.19109E+02
 -1      1228 1.19762E+02
 -1      1229 1.20485E+02
 -1      1230 1.20485E+02
 -1      1231 1.21774E+02
 -1      1232 1.21774E+02
 -1      1233 1.21774E+02
 -1      1234 1.21774E+02
 -1      1235 1.21534E+02
 -1      1236 1.21534E+02
 -1      1237 1.21534E+02
 -1      1238 1.21534E+02
 -1      1239 1.21509E+02
 -1      1240 1.21509E+02
 -1      1241 1.21509E+02
 -1      1242 1.21519E+02
 -1      1243 1.21511E+02
 -1      1244 1.21519E+02
 -1      1245 1.21511E+02
 -1      1246 1.21511E+02
 -1      1247 1.19109E+02
 -1      1248 1.19762E+02
 -1      1249 1.19762E+02
 -1      1250 1.21514E+02
 -1      1251 1.21514E+02
 -1      1252 1.21501E+02
 -1      1253 1.21501E+02
 -1      1254 1.21509E+02
 -1      1255 1.21519E+02
 -1      1256 1.21519E+02
 -1      1257 1.21508E+02
 -1      1258 1.02178E+02
 -1      1259 1.17235E+02
 -1      1260 1.19109E+02
 -1      1261 1.19762E+02
 -1      1262 1.20485E+02
 -1      1263 1.20485E+02
 -1      1264 1.21774E+02
 -1      1265 1.21774E+02
 -1      1266 1.21774E+02
 -1      1267 1.21774E+02
 -1      1268 1.21534E+02
 -1      1269 1.21534E+02
 -1      1270 1.21534E+02
 -1      1271 1.21534E+02
 -1      1272 1.21509E+02
 -1      1273 1.21509E+02
 -1      1274 1.21509E+02
 -1      1275 1.21519E+02
 -1      1276 1.21511E+02
 -1      1277 1.21519E+02
 -1      1278 1.21511E+02
 -1      1279 1.21511E+02
 -1      1280 1.19109E+02
 -1      1281 1.19762E+02
 -1      1282 1.19762E+02
 -1      1283 1.21514E+02
 -1      1284 1.21514E+02
 -1      1285 1.21501E+02
 -1      1286 1.21501E+02
 -1      1287 1.21509E+02
 -1      1288 1.21519E+02
 -1      1289 1.21519E+02
 -1      1290 1.21508E+02
 -1      1291 9.34111E+01
 -1      1292 9.34111E+01
 -1      1293 9.34111E+01
 -1      1294 9.34111E+01
 -1      1295 9.44481E+01
 -1      1296 9.44481E+01
 -1      1297 9.44481E+01
 -1      1298 9.44481E+01
 -1      1299 9.24938E+01
 -1      1300 9.24938E+01
 -1      1301 9.24197E+01
 -1      1302 9.24197E+01
 -1      1303 9.24197E+01
 -1      1304 9.24197E+01
 -1      1305 9.23155E+01
 -1      1306 9.23155E+01
 -1      1307 9.23155E+01
 -1      1308 9.23155E+01
 -1      1309 9.22919E+01
 -1      1310 9.22919E+01
 -1      1311 9.22919E+01
 -1      1312 9.22919E+01
 -1      1313 5.84183E+01
 -1      1314 6.01895E+01
 -1      1315 6.04415E+01
 -1      1316 6.04415E+01
 -1      1317 5.99546E+01
 -1      1318 5.99546E+01
 -1      1319 5.98861E+01
 -1      1320 5.98861E+01
 -1      1321 5.98325E+01
 -1      1322 5.98325E+01
 -1      1323 5.97960E+01
 -1      1324 4.09092E+01
 -1      1325 4.09092E+01
 -1      1326 4.09092E+01
 -1      1327 4.09092E+01
 -1      1328 3.96180E+01
 -1      1329 3.96180E+01
 -1      1330 3.96180E+01
 -1      1331 3.96180E+01
 -1      1332 3.85489E+01
 -1      1333 3.85489E+01
 -1      1334 3.85723E+01
 -1      1335 3.85723E+01
 -1      1336 3.85723E+01
 -1      1337 3.85723E+01
 -1      1338 3.85233E+01
 -1      1339 3.85233E+01
 -1      1340 3.85233E+01
 -1      1341 3.85233E+01
 -1      1342 3.84992E+01
 -1      1343 3.84992E+01
 -1      1344 3.84992E+01
 -1      1345 3.84992E+01
 -1      1346 2.90364E+01
 -1      1347 2.90364E+01
 -1      1348 2.93822E+01
 -1      1349 2.93822E+01
 -1      1350 2.87946E+01
 -1      1351 2.87946E+01
 -1      1352 2.86883E+01
 -1      1353 2.86883E+01
 -1      1354 2.85957E+01
 -1      1355 2.85957E+01
 -1      1356 2.85170E+01
 -3
 9999
