    1C
    1UUSER                                                              
    1UDATE              29.march.2022                                   
    1UTIME              22:38:23                                        
    1UHOST                                                              
    1UPGM               CalculiX                                        
    1UVERSION           Version 2.13                             
    1UCOMPILETIME       Fri Jun 12 23:46:00 EDT 2020                    
    1UDIR                                                               
    1UDBN                                                               
    1UMAT    1STEEL                                                     
    2C                           612                                     1
 -1         1 1.84719E+02 6.84967E+00 0.00000E+00
 -1         2 1.86667E+02 0.00000E+00 0.00000E+00
 -1         3 1.92354E+02 6.86356E+00 0.00000E+00
 -1         4 1.85693E+02 3.42483E+00 0.00000E+00
 -1         5 1.89510E+02 3.43178E+00 0.00000E+00
 -1         6 1.88536E+02 6.85662E+00 0.00000E+00
 -1         7 1.89807E+02 1.44675E+01 0.00000E+00
 -1         8 1.87263E+02 1.06586E+01 0.00000E+00
 -1         9 1.91080E+02 1.06655E+01 0.00000E+00
 -1        10 1.86667E+02 2.00000E+01 0.00000E+00
 -1        11 1.80000E+02 2.00000E+01 0.00000E+00
 -1        12 1.82346E+02 1.34884E+01 0.00000E+00
 -1        13 1.83333E+02 2.00000E+01 0.00000E+00
 -1        14 1.81173E+02 1.67442E+01 0.00000E+00
 -1        15 1.84506E+02 1.67442E+01 0.00000E+00
 -1        16 1.73333E+02 2.00000E+01 0.00000E+00
 -1        17 1.75574E+02 1.33562E+01 0.00000E+00
 -1        18 1.76667E+02 2.00000E+01 0.00000E+00
 -1        19 1.74454E+02 1.66781E+01 0.00000E+00
 -1        20 1.77787E+02 1.66781E+01 0.00000E+00
 -1        21 9.53070E+01 7.96307E+01 0.00000E+00
 -1        22 1.00000E+02 8.00000E+01 0.00000E+00
 -1        23 1.00000E+02 1.00000E+02 0.00000E+00
 -1        24 9.76462E+01 7.99075E+01 0.00000E+00
 -1        25 1.00000E+02 9.00000E+01 0.00000E+00
 -1        26 9.76535E+01 8.98153E+01 0.00000E+00
 -1        27 7.32698E+01 6.36197E+01 0.00000E+00
 -1        28 7.57295E+01 6.76336E+01 0.00000E+00
 -1        29 6.81417E+01 6.56967E+01 0.00000E+00
 -1        30 7.44208E+01 6.56750E+01 0.00000E+00
 -1        31 7.19356E+01 6.66651E+01 0.00000E+00
 -1        32 7.07058E+01 6.46582E+01 0.00000E+00
 -1        33 6.00000E+01 1.00000E+02 0.00000E+00
 -1        34 4.00000E+01 1.00000E+02 0.00000E+00
 -1        35 5.78203E+01 8.47169E+01 0.00000E+00
 -1        36 5.00000E+01 1.00000E+02 0.00000E+00
 -1        37 4.89102E+01 9.23584E+01 0.00000E+00
 -1        38 5.89102E+01 9.23584E+01 0.00000E+00
 -1        39 1.60000E+02 2.00000E+01 0.00000E+00
 -1        40 1.53333E+02 2.00000E+01 0.00000E+00
 -1        41 1.55556E+02 1.33333E+01 0.00000E+00
 -1        42 1.56667E+02 2.00000E+01 0.00000E+00
 -1        43 1.54444E+02 1.66667E+01 0.00000E+00
 -1        44 1.57778E+02 1.66667E+01 0.00000E+00
 -1        45 0.00000E+00 1.00000E+02 0.00000E+00
 -1        46 0.00000E+00 8.00000E+01 0.00000E+00
 -1        47 1.95219E+01 8.38876E+01 0.00000E+00
 -1        48 0.00000E+00 9.00000E+01 0.00000E+00
 -1        49 9.76094E+00 8.19438E+01 0.00000E+00
 -1        50 9.76094E+00 9.19438E+01 0.00000E+00
 -1        51 7.35124E+01 7.76093E+01 0.00000E+00
 -1        52 6.15619E+01 7.20622E+01 0.00000E+00
 -1        53 6.56664E+01 8.11631E+01 0.00000E+00
 -1        54 5.96911E+01 7.83896E+01 0.00000E+00
 -1        55 6.75372E+01 7.48358E+01 0.00000E+00
 -1        56 6.36698E+01 4.53117E+01 0.00000E+00
 -1        57 7.03693E+01 4.53070E+01 0.00000E+00
 -1        58 6.59236E+01 5.04117E+01 0.00000E+00
 -1        59 6.70196E+01 4.53093E+01 0.00000E+00
 -1        60 6.81465E+01 4.78593E+01 0.00000E+00
 -1        61 6.47967E+01 4.78617E+01 0.00000E+00
 -1        62 8.00000E+01 1.00000E+02 0.00000E+00
 -1        63 7.00000E+01 1.00000E+02 0.00000E+00
 -1        64 6.89102E+01 9.23584E+01 0.00000E+00
 -1        65 9.07295E+01 7.85317E+01 0.00000E+00
 -1        66 8.68262E+01 8.38817E+01 0.00000E+00
 -1        67 9.29966E+01 7.91711E+01 0.00000E+00
 -1        68 9.10666E+01 8.17562E+01 0.00000E+00
 -1        69 8.87778E+01 8.12067E+01 0.00000E+00
 -1        70 7.87868E+01 7.12132E+01 0.00000E+00
 -1        71 7.71878E+01 6.94834E+01 0.00000E+00
 -1        72 7.61496E+01 7.44113E+01 0.00000E+00
 -1        73 7.46210E+01 7.26214E+01 0.00000E+00
 -1        74 8.63803E+01 7.67302E+01 0.00000E+00
 -1        75 8.85195E+01 7.77164E+01 0.00000E+00
 -1        76 8.66032E+01 8.03059E+01 0.00000E+00
 -1        77 9.00000E+01 1.00000E+02 0.00000E+00
 -1        78 8.34131E+01 9.19408E+01 0.00000E+00
 -1        79 9.34131E+01 9.19408E+01 0.00000E+00
 -1        80 8.23664E+01 7.42705E+01 0.00000E+00
 -1        81 8.05166E+01 7.28122E+01 0.00000E+00
 -1        82 7.79394E+01 7.59399E+01 0.00000E+00
 -1        83 7.67562E+01 8.88047E+01 0.00000E+00
 -1        84 0.00000E+00 2.00000E+01 0.00000E+00
 -1        85 0.00000E+00 0.00000E+00 0.00000E+00
 -1        86 9.83511E+00 9.65260E+00 0.00000E+00
 -1        87 0.00000E+00 1.00000E+01 0.00000E+00
 -1        88 4.91756E+00 4.82630E+00 0.00000E+00
 -1        89 4.91756E+00 1.48263E+01 0.00000E+00
 -1        90 0.00000E+00 6.00000E+01 0.00000E+00
 -1        91 0.00000E+00 4.00000E+01 0.00000E+00
 -1        92 1.82716E+01 5.07228E+01 0.00000E+00
 -1        93 0.00000E+00 5.00000E+01 0.00000E+00
 -1        94 9.13580E+00 4.53614E+01 0.00000E+00
 -1        95 9.13580E+00 5.53614E+01 0.00000E+00
 -1        96 2.00000E+01 1.00000E+02 0.00000E+00
 -1        97 1.00000E+01 1.00000E+02 0.00000E+00
 -1        98 1.97609E+01 9.19438E+01 0.00000E+00
 -1        99 7.03693E+01 5.46930E+01 0.00000E+00
 -1       100 7.14683E+01 5.92705E+01 0.00000E+00
 -1       101 6.47585E+01 5.70482E+01 0.00000E+00
 -1       102 7.08289E+01 5.70034E+01 0.00000E+00
 -1       103 6.81134E+01 5.81594E+01 0.00000E+00
 -1       104 6.75639E+01 5.58706E+01 0.00000E+00
 -1       105 3.00000E+01 1.00000E+02 0.00000E+00
 -1       106 2.97609E+01 9.19438E+01 0.00000E+00
 -1       107 6.53410E+01 5.37300E+01 0.00000E+00
 -1       108 6.81465E+01 5.25524E+01 0.00000E+00
 -1       109 3.94842E+01 7.36081E+01 0.00000E+00
 -1       110 4.77124E+01 5.87631E+01 0.00000E+00
 -1       111 5.26644E+01 7.00559E+01 0.00000E+00
 -1       112 4.35983E+01 6.61856E+01 0.00000E+00
 -1       113 5.01884E+01 6.44095E+01 0.00000E+00
 -1       114 4.60743E+01 7.18320E+01 0.00000E+00
 -1       115 1.89221E+01 2.68341E+01 0.00000E+00
 -1       116 0.00000E+00 3.00000E+01 0.00000E+00
 -1       117 9.46107E+00 2.34170E+01 0.00000E+00
 -1       118 9.46107E+00 3.34170E+01 0.00000E+00
 -1       119 2.02842E+01 1.01248E+01 0.00000E+00
 -1       120 2.00000E+01 0.00000E+00 0.00000E+00
 -1       121 2.77905E+01 5.54815E+00 0.00000E+00
 -1       122 2.01421E+01 5.06241E+00 0.00000E+00
 -1       123 2.38952E+01 2.77408E+00 0.00000E+00
 -1       124 2.40373E+01 7.83649E+00 0.00000E+00
 -1       125 1.80000E+02 0.00000E+00 0.00000E+00
 -1       126 1.83333E+02 0.00000E+00 0.00000E+00
 -1       127 1.82360E+02 3.42483E+00 0.00000E+00
 -1       128 4.55340E+01 4.61341E+01 0.00000E+00
 -1       129 3.51680E+01 5.54586E+01 0.00000E+00
 -1       130 4.66232E+01 5.24486E+01 0.00000E+00
 -1       131 4.14402E+01 5.71108E+01 0.00000E+00
 -1       132 4.03510E+01 5.07964E+01 0.00000E+00
 -1       133 3.36044E+01 4.00503E+01 0.00000E+00
 -1       134 1.85969E+01 3.87784E+01 0.00000E+00
 -1       135 2.62633E+01 3.34422E+01 0.00000E+00
 -1       136 2.59380E+01 4.53865E+01 0.00000E+00
 -1       137 3.73261E+01 6.45333E+01 0.00000E+00
 -1       138 4.64457E+01 2.40790E+01 0.00000E+00
 -1       139 3.66346E+01 2.69317E+01 0.00000E+00
 -1       140 4.10207E+01 1.86452E+01 0.00000E+00
 -1       141 4.15401E+01 2.55054E+01 0.00000E+00
 -1       142 3.88277E+01 2.27885E+01 0.00000E+00
 -1       143 4.37332E+01 2.13621E+01 0.00000E+00
 -1       144 3.33333E+01 0.00000E+00 0.00000E+00
 -1       145 4.00000E+01 0.00000E+00 0.00000E+00
 -1       146 3.48829E+01 6.53243E+00 0.00000E+00
 -1       147 3.66667E+01 0.00000E+00 0.00000E+00
 -1       148 3.74414E+01 3.26621E+00 0.00000E+00
 -1       149 3.41081E+01 3.26621E+00 0.00000E+00
 -1       150 5.71046E+01 4.98606E+01 0.00000E+00
 -1       151 5.13193E+01 4.79974E+01 0.00000E+00
 -1       152 5.24085E+01 5.43119E+01 0.00000E+00
 -1       153 4.66667E+01 0.00000E+00 0.00000E+00
 -1       154 4.62406E+01 3.89424E+00 0.00000E+00
 -1       155 4.33333E+01 0.00000E+00 0.00000E+00
 -1       156 4.64536E+01 1.94712E+00 0.00000E+00
 -1       157 4.31203E+01 1.94712E+00 0.00000E+00
 -1       158 7.32698E+01 3.63803E+01 0.00000E+00
 -1       159 7.14683E+01 4.07295E+01 0.00000E+00
 -1       160 6.80806E+01 3.67237E+01 0.00000E+00
 -1       161 7.22836E+01 3.85195E+01 0.00000E+00
 -1       162 6.97744E+01 3.87266E+01 0.00000E+00
 -1       163 7.06752E+01 3.65520E+01 0.00000E+00
 -1       164 5.93437E+01 3.01429E+01 0.00000E+00
 -1       165 6.57041E+01 3.14814E+01 0.00000E+00
 -1       166 6.07584E+01 3.87574E+01 0.00000E+00
 -1       167 6.25239E+01 3.08121E+01 0.00000E+00
 -1       168 6.32313E+01 3.51194E+01 0.00000E+00
 -1       169 6.00511E+01 3.44501E+01 0.00000E+00
 -1       170 7.57295E+01 3.23664E+01 0.00000E+00
 -1       171 7.19668E+01 3.19174E+01 0.00000E+00
 -1       172 7.44208E+01 3.43250E+01 0.00000E+00
 -1       173 7.26183E+01 3.41489E+01 0.00000E+00
 -1       174 7.38481E+01 3.21419E+01 0.00000E+00
 -1       175 7.87868E+01 2.87868E+01 0.00000E+00
 -1       176 7.07132E+01 2.61531E+01 0.00000E+00
 -1       177 7.62294E+01 2.38060E+01 0.00000E+00
 -1       178 7.47500E+01 2.74699E+01 0.00000E+00
 -1       179 7.34713E+01 2.49796E+01 0.00000E+00
 -1       180 7.75081E+01 2.62964E+01 0.00000E+00
 -1       181 1.06667E+02 2.00000E+01 0.00000E+00
 -1       182 1.00000E+02 2.00000E+01 0.00000E+00
 -1       183 1.02471E+02 1.39115E+01 0.00000E+00
 -1       184 1.03333E+02 2.00000E+01 0.00000E+00
 -1       185 1.01236E+02 1.69558E+01 0.00000E+00
 -1       186 1.04569E+02 1.69558E+01 0.00000E+00
 -1       187 8.43839E+01 8.26152E+00 0.00000E+00
 -1       188 8.66667E+01 0.00000E+00 0.00000E+00
 -1       189 9.04353E+01 7.61978E+00 0.00000E+00
 -1       190 8.55253E+01 4.13076E+00 0.00000E+00
 -1       191 8.85510E+01 3.80989E+00 0.00000E+00
 -1       192 8.74096E+01 7.94065E+00 0.00000E+00
 -1       193 6.73403E+01 2.16873E+01 0.00000E+00
 -1       194 6.40004E+01 2.54280E+01 0.00000E+00
 -1       195 6.30151E+01 1.90078E+01 0.00000E+00
 -1       196 6.56703E+01 2.35576E+01 0.00000E+00
 -1       197 6.35077E+01 2.22179E+01 0.00000E+00
 -1       198 6.51777E+01 2.03475E+01 0.00000E+00
 -1       199 7.00237E+01 3.43206E+01 0.00000E+00
 -1       200 9.76780E+01 1.54046E+01 0.00000E+00
 -1       201 9.88390E+01 1.77023E+01 0.00000E+00
 -1       202 1.00075E+02 1.46581E+01 0.00000E+00
 -1       203 7.74680E+01 1.84021E+01 0.00000E+00
 -1       204 7.19502E+01 2.01384E+01 0.00000E+00
 -1       205 7.29082E+01 1.35752E+01 0.00000E+00
 -1       206 7.47091E+01 1.92702E+01 0.00000E+00
 -1       207 7.24292E+01 1.68568E+01 0.00000E+00
 -1       208 7.51881E+01 1.59887E+01 0.00000E+00
 -1       209 7.84864E+01 1.04777E+01 0.00000E+00
 -1       210 8.00000E+01 0.00000E+00 0.00000E+00
 -1       211 7.92432E+01 5.23883E+00 0.00000E+00
 -1       212 8.21920E+01 4.13076E+00 0.00000E+00
 -1       213 8.14351E+01 9.36959E+00 0.00000E+00
 -1       214 8.63803E+01 2.32698E+01 0.00000E+00
 -1       215 8.23664E+01 2.57295E+01 0.00000E+00
 -1       216 8.28468E+01 1.67630E+01 0.00000E+00
 -1       217 8.43250E+01 2.44208E+01 0.00000E+00
 -1       218 8.26066E+01 2.12462E+01 0.00000E+00
 -1       219 8.46135E+01 2.00164E+01 0.00000E+00
 -1       220 9.32062E+01 1.45937E+01 0.00000E+00
 -1       221 9.73262E+01 8.26412E+00 0.00000E+00
 -1       222 9.18207E+01 1.11068E+01 0.00000E+00
 -1       223 9.38807E+01 7.94195E+00 0.00000E+00
 -1       224 9.52662E+01 1.14289E+01 0.00000E+00
 -1       225 9.07295E+01 2.14683E+01 0.00000E+00
 -1       226 8.79699E+01 1.52037E+01 0.00000E+00
 -1       227 8.85195E+01 2.22836E+01 0.00000E+00
 -1       228 8.71751E+01 1.92368E+01 0.00000E+00
 -1       229 8.93497E+01 1.83360E+01 0.00000E+00
 -1       230 9.53070E+01 2.03694E+01 0.00000E+00
 -1       231 9.76462E+01 2.00925E+01 0.00000E+00
 -1       232 9.64925E+01 1.78870E+01 0.00000E+00
 -1       233 8.61769E+01 1.17326E+01 0.00000E+00
 -1       234 8.92026E+01 1.14118E+01 0.00000E+00
 -1       235 9.05880E+01 1.48987E+01 0.00000E+00
 -1       236 1.00000E+02 0.00000E+00 0.00000E+00
 -1       237 1.06667E+02 0.00000E+00 0.00000E+00
 -1       238 1.04406E+02 7.01936E+00 0.00000E+00
 -1       239 1.03333E+02 0.00000E+00 0.00000E+00
 -1       240 1.05537E+02 3.50968E+00 0.00000E+00
 -1       241 1.02203E+02 3.50968E+00 0.00000E+00
 -1       242 1.13333E+02 2.00000E+01 0.00000E+00
 -1       243 1.08917E+02 1.34621E+01 0.00000E+00
 -1       244 1.10000E+02 2.00000E+01 0.00000E+00
 -1       245 1.07792E+02 1.67311E+01 0.00000E+00
 -1       246 1.11125E+02 1.67311E+01 0.00000E+00
 -1       247 1.05694E+02 1.36868E+01 0.00000E+00
 -1       248 1.20000E+02 2.00000E+01 0.00000E+00
 -1       249 1.15559E+02 1.33584E+01 0.00000E+00
 -1       250 1.16667E+02 2.00000E+01 0.00000E+00
 -1       251 1.14446E+02 1.66792E+01 0.00000E+00
 -1       252 1.17779E+02 1.66792E+01 0.00000E+00
 -1       253 1.03439E+02 1.04654E+01 0.00000E+00
 -1       254 1.06662E+02 1.02407E+01 0.00000E+00
 -1       255 1.26667E+02 2.00000E+01 0.00000E+00
 -1       256 1.22223E+02 1.33378E+01 0.00000E+00
 -1       257 1.23333E+02 2.00000E+01 0.00000E+00
 -1       258 1.21111E+02 1.66689E+01 0.00000E+00
 -1       259 1.24445E+02 1.66689E+01 0.00000E+00
 -1       260 1.11109E+02 6.73994E+00 0.00000E+00
 -1       261 1.12238E+02 1.34103E+01 0.00000E+00
 -1       262 1.10013E+02 1.01010E+01 0.00000E+00
 -1       263 1.13334E+02 1.00492E+01 0.00000E+00
 -1       264 1.33333E+02 2.00000E+01 0.00000E+00
 -1       265 1.28889E+02 1.33341E+01 0.00000E+00
 -1       266 1.30000E+02 2.00000E+01 0.00000E+00
 -1       267 1.27778E+02 1.66670E+01 0.00000E+00
 -1       268 1.31111E+02 1.66670E+01 0.00000E+00
 -1       269 1.17778E+02 6.68090E+00 0.00000E+00
 -1       270 1.18891E+02 1.33481E+01 0.00000E+00
 -1       271 1.16668E+02 1.00197E+01 0.00000E+00
 -1       272 1.20000E+02 1.00094E+01 0.00000E+00
 -1       273 1.40000E+02 2.00000E+01 0.00000E+00
 -1       274 1.35556E+02 1.33335E+01 0.00000E+00
 -1       275 1.36667E+02 2.00000E+01 0.00000E+00
 -1       276 1.34444E+02 1.66667E+01 0.00000E+00
 -1       277 1.37778E+02 1.66667E+01 0.00000E+00
 -1       278 1.24444E+02 6.66927E+00 0.00000E+00
 -1       279 1.25556E+02 1.33360E+01 0.00000E+00
 -1       280 1.23334E+02 1.00035E+01 0.00000E+00
 -1       281 1.26667E+02 1.00017E+01 0.00000E+00
 -1       282 1.46667E+02 2.00000E+01 0.00000E+00
 -1       283 1.42222E+02 1.33334E+01 0.00000E+00
 -1       284 1.43333E+02 2.00000E+01 0.00000E+00
 -1       285 1.41111E+02 1.66667E+01 0.00000E+00
 -1       286 1.44444E+02 1.66667E+01 0.00000E+00
 -1       287 1.31111E+02 6.66712E+00 0.00000E+00
 -1       288 1.32222E+02 1.33338E+01 0.00000E+00
 -1       289 1.30000E+02 1.00006E+01 0.00000E+00
 -1       290 1.33333E+02 1.00003E+01 0.00000E+00
 -1       291 1.48889E+02 1.33333E+01 0.00000E+00
 -1       292 1.50000E+02 2.00000E+01 0.00000E+00
 -1       293 1.47778E+02 1.66667E+01 0.00000E+00
 -1       294 1.51111E+02 1.66667E+01 0.00000E+00
 -1       295 1.37778E+02 6.66674E+00 0.00000E+00
 -1       296 1.38889E+02 1.33334E+01 0.00000E+00
 -1       297 1.36667E+02 1.00001E+01 0.00000E+00
 -1       298 1.40000E+02 1.00000E+01 0.00000E+00
 -1       299 1.51111E+02 6.66667E+00 0.00000E+00
 -1       300 1.52222E+02 1.33333E+01 0.00000E+00
 -1       301 1.50000E+02 1.00000E+01 0.00000E+00
 -1       302 1.53333E+02 1.00000E+01 0.00000E+00
 -1       303 1.44444E+02 6.66668E+00 0.00000E+00
 -1       304 1.45556E+02 1.33333E+01 0.00000E+00
 -1       305 1.43333E+02 1.00000E+01 0.00000E+00
 -1       306 1.46667E+02 1.00000E+01 0.00000E+00
 -1       307 1.78960E+02 1.34223E+01 0.00000E+00
 -1       308 1.62222E+02 1.33335E+01 0.00000E+00
 -1       309 1.57778E+02 6.66671E+00 0.00000E+00
 -1       310 1.58889E+02 1.33334E+01 0.00000E+00
 -1       311 1.56667E+02 1.00000E+01 0.00000E+00
 -1       312 1.60000E+02 1.00001E+01 0.00000E+00
 -1       313 1.77832E+02 6.71452E+00 0.00000E+00
 -1       314 1.76703E+02 1.00354E+01 0.00000E+00
 -1       315 1.80089E+02 1.01014E+01 0.00000E+00
 -1       316 1.66667E+02 0.00000E+00 0.00000E+00
 -1       317 1.73333E+02 0.00000E+00 0.00000E+00
 -1       318 1.71116E+02 6.67209E+00 0.00000E+00
 -1       319 1.70000E+02 0.00000E+00 0.00000E+00
 -1       320 1.72225E+02 3.33604E+00 0.00000E+00
 -1       321 1.68891E+02 3.33604E+00 0.00000E+00
 -1       322 1.93333E+02 2.00000E+01 0.00000E+00
 -1       323 1.90000E+02 2.00000E+01 0.00000E+00
 -1       324 1.88237E+02 1.72338E+01 0.00000E+00
 -1       325 1.91570E+02 1.72338E+01 0.00000E+00
 -1       326 1.93333E+02 0.00000E+00 0.00000E+00
 -1       327 1.90000E+02 0.00000E+00 0.00000E+00
 -1       328 1.92844E+02 3.43178E+00 0.00000E+00
 -1       329 1.86076E+02 1.39779E+01 0.00000E+00
 -1       330 1.66667E+02 2.00000E+01 0.00000E+00
 -1       331 1.68892E+02 1.33369E+01 0.00000E+00
 -1       332 1.64444E+02 1.66667E+01 0.00000E+00
 -1       333 1.65557E+02 1.33352E+01 0.00000E+00
 -1       334 1.67779E+02 1.66685E+01 0.00000E+00
 -1       335 1.73345E+02 1.00142E+01 0.00000E+00
 -1       336 1.72233E+02 1.33466E+01 0.00000E+00
 -1       337 1.70004E+02 1.00045E+01 0.00000E+00
 -1       338 8.01693E+01 8.07455E+01 0.00000E+00
 -1       339 2.50129E+01 6.61432E+01 0.00000E+00
 -1       340 3.22485E+01 6.98756E+01 0.00000E+00
 -1       341 3.00904E+01 6.08009E+01 0.00000E+00
 -1       342 3.97421E+01 8.68040E+01 0.00000E+00
 -1       343 4.86523E+01 7.91625E+01 0.00000E+00
 -1       344 1.83533E+02 1.01690E+01 0.00000E+00
 -1       345 1.81276E+02 6.78210E+00 0.00000E+00
 -1       346 5.82055E+01 6.21455E+01 0.00000E+00
 -1       347 5.98837E+01 6.71039E+01 0.00000E+00
 -1       348 6.31736E+01 6.39211E+01 0.00000E+00
 -1       349 6.48518E+01 6.88795E+01 0.00000E+00
 -1       350 7.08271E+01 7.16530E+01 0.00000E+00
 -1       351 8.43250E+01 7.55792E+01 0.00000E+00
 -1       352 8.45963E+01 7.90761E+01 0.00000E+00
 -1       353 6.96452E+01 2.09128E+01 0.00000E+00
 -1       354 7.13317E+01 2.31457E+01 0.00000E+00
 -1       355 6.90267E+01 2.39202E+01 0.00000E+00
 -1       356 1.33333E+01 0.00000E+00 0.00000E+00
 -1       357 1.66667E+01 0.00000E+00 0.00000E+00
 -1       358 1.68088E+01 5.06241E+00 0.00000E+00
 -1       359 5.71132E+01 7.10591E+01 0.00000E+00
 -1       360 5.54350E+01 6.61007E+01 0.00000E+00
 -1       361 5.29589E+01 6.04543E+01 0.00000E+00
 -1       362 2.95030E+01 7.87478E+01 0.00000E+00
 -1       363 3.17538E+01 1.54341E+01 0.00000E+00
 -1       364 1.96032E+01 1.84795E+01 0.00000E+00
 -1       365 2.60190E+01 1.27794E+01 0.00000E+00
 -1       366 2.53380E+01 2.11341E+01 0.00000E+00
 -1       367 6.66667E+00 0.00000E+00 0.00000E+00
 -1       368 3.33333E+00 0.00000E+00 0.00000E+00
 -1       369 8.25089E+00 4.82630E+00 0.00000E+00
 -1       370 2.67198E+01 5.30907E+01 0.00000E+00
 -1       371 2.16422E+01 5.84330E+01 0.00000E+00
 -1       372 1.74474E+02 6.69330E+00 0.00000E+00
 -1       373 1.78916E+02 3.35726E+00 0.00000E+00
 -1       374 5.83834E+01 2.32413E+01 0.00000E+00
 -1       375 6.16721E+01 2.77854E+01 0.00000E+00
 -1       376 5.88636E+01 2.66921E+01 0.00000E+00
 -1       377 6.11919E+01 2.43347E+01 0.00000E+00
 -1       378 5.61893E+01 8.51559E+00 0.00000E+00
 -1       379 6.00000E+01 0.00000E+00 0.00000E+00
 -1       380 6.28700E+01 1.01592E+01 0.00000E+00
 -1       381 5.80946E+01 4.25779E+00 0.00000E+00
 -1       382 6.14350E+01 5.07962E+00 0.00000E+00
 -1       383 5.95297E+01 9.33742E+00 0.00000E+00
 -1       384 2.66667E+01 0.00000E+00 0.00000E+00
 -1       385 3.00000E+01 0.00000E+00 0.00000E+00
 -1       386 3.05619E+01 2.77408E+00 0.00000E+00
 -1       387 2.72286E+01 2.77408E+00 0.00000E+00
 -1       388 4.61545E+01 3.42706E+01 0.00000E+00
 -1       389 5.27282E+01 4.06016E+01 0.00000E+00
 -1       390 4.58442E+01 4.02024E+01 0.00000E+00
 -1       391 4.94413E+01 3.74361E+01 0.00000E+00
 -1       392 4.91311E+01 4.33679E+01 0.00000E+00
 -1       393 6.67038E+01 4.14216E+01 0.00000E+00
 -1       394 6.51868E+01 4.33667E+01 0.00000E+00
 -1       395 6.85366E+01 4.33643E+01 0.00000E+00
 -1       396 5.44017E+01 3.43273E+01 0.00000E+00
 -1       397 5.02781E+01 3.42989E+01 0.00000E+00
 -1       398 5.35649E+01 3.74644E+01 0.00000E+00
 -1       399 2.77784E+01 2.68829E+01 0.00000E+00
 -1       400 3.41942E+01 2.11829E+01 0.00000E+00
 -1       401 4.76860E+01 1.60883E+01 0.00000E+00
 -1       402 4.70658E+01 2.00837E+01 0.00000E+00
 -1       403 4.43533E+01 1.73667E+01 0.00000E+00
 -1       404 5.29347E+01 2.77641E+01 0.00000E+00
 -1       405 5.68727E+01 3.22351E+01 0.00000E+00
 -1       406 5.36682E+01 3.10457E+01 0.00000E+00
 -1       407 5.61392E+01 2.89535E+01 0.00000E+00
 -1       408 5.27820E+01 2.02875E+01 0.00000E+00
 -1       409 5.02340E+01 1.81879E+01 0.00000E+00
 -1       410 4.96139E+01 2.21833E+01 0.00000E+00
 -1       411 3.13367E+01 6.04029E+00 0.00000E+00
 -1       412 5.29563E+01 1.41863E+01 0.00000E+00
 -1       413 4.97020E+01 8.87426E+00 0.00000E+00
 -1       414 5.45728E+01 1.13510E+01 0.00000E+00
 -1       415 5.13291E+01 1.15303E+01 0.00000E+00
 -1       416 5.29456E+01 8.69492E+00 0.00000E+00
 -1       417 4.95446E+01 3.10173E+01 0.00000E+00
 -1       418 7.99172E+01 2.20658E+01 0.00000E+00
 -1       419 8.01574E+01 1.75826E+01 0.00000E+00
 -1       420 5.33333E+01 0.00000E+00 0.00000E+00
 -1       421 5.66667E+01 0.00000E+00 0.00000E+00
 -1       422 5.47613E+01 4.25779E+00 0.00000E+00
 -1       423 5.15177E+01 4.43713E+00 0.00000E+00
 -1       424 6.86649E+01 9.40267E+00 0.00000E+00
 -1       425 6.77542E+01 1.58682E+01 0.00000E+00
 -1       426 6.57675E+01 9.78096E+00 0.00000E+00
 -1       427 6.82096E+01 1.26355E+01 0.00000E+00
 -1       428 6.53121E+01 1.30137E+01 0.00000E+00
 -1       429 6.66667E+01 0.00000E+00 0.00000E+00
 -1       430 6.33333E+01 0.00000E+00 0.00000E+00
 -1       431 6.47684E+01 5.07962E+00 0.00000E+00
 -1       432 6.06993E+01 2.11245E+01 0.00000E+00
 -1       433 6.98522E+01 1.80033E+01 0.00000E+00
 -1       434 7.03312E+01 1.47217E+01 0.00000E+00
 -1       435 1.14443E+02 6.71042E+00 0.00000E+00
 -1       436 7.33333E+01 0.00000E+00 0.00000E+00
 -1       437 7.33350E+01 5.70975E+00 0.00000E+00
 -1       438 7.00000E+01 0.00000E+00 0.00000E+00
 -1       439 7.33342E+01 2.85488E+00 0.00000E+00
 -1       440 7.00008E+01 2.85488E+00 0.00000E+00
 -1       441 6.76658E+01 4.70133E+00 0.00000E+00
 -1       442 7.40898E+01 2.19722E+01 0.00000E+00
 -1       443 7.68487E+01 2.11041E+01 0.00000E+00
 -1       444 7.10000E+01 7.55621E+00 0.00000E+00
 -1       445 8.54083E+01 1.59834E+01 0.00000E+00
 -1       446 7.79772E+01 1.44399E+01 0.00000E+00
 -1       447 7.56973E+01 1.20264E+01 0.00000E+00
 -1       448 8.06666E+01 1.36203E+01 0.00000E+00
 -1       449 9.33333E+01 0.00000E+00 0.00000E+00
 -1       450 9.00000E+01 0.00000E+00 0.00000E+00
 -1       451 9.18843E+01 3.80989E+00 0.00000E+00
 -1       452 8.33333E+01 0.00000E+00 0.00000E+00
 -1       453 8.36153E+01 1.25123E+01 0.00000E+00
 -1       454 9.29966E+01 2.08289E+01 0.00000E+00
 -1       455 9.19678E+01 1.80310E+01 0.00000E+00
 -1       456 9.42566E+01 1.74816E+01 0.00000E+00
 -1       457 1.07758E+02 6.87965E+00 0.00000E+00
 -1       458 9.54421E+01 1.49992E+01 0.00000E+00
 -1       459 9.66667E+01 0.00000E+00 0.00000E+00
 -1       460 9.86631E+01 4.13206E+00 0.00000E+00
 -1       461 9.53298E+01 4.13206E+00 0.00000E+00
 -1       462 1.21111E+02 6.67509E+00 0.00000E+00
 -1       463 9.98988E+01 1.10878E+01 0.00000E+00
 -1       464 1.00866E+02 7.64174E+00 0.00000E+00
 -1       465 1.27778E+02 6.66820E+00 0.00000E+00
 -1       466 1.13333E+02 0.00000E+00 0.00000E+00
 -1       467 1.10000E+02 0.00000E+00 0.00000E+00
 -1       468 1.12221E+02 3.36997E+00 0.00000E+00
 -1       469 1.08888E+02 3.36997E+00 0.00000E+00
 -1       470 1.34444E+02 6.66693E+00 0.00000E+00
 -1       471 1.20000E+02 0.00000E+00 0.00000E+00
 -1       472 1.16667E+02 0.00000E+00 0.00000E+00
 -1       473 1.18889E+02 3.34045E+00 0.00000E+00
 -1       474 1.15556E+02 3.34045E+00 0.00000E+00
 -1       475 1.41111E+02 6.66671E+00 0.00000E+00
 -1       476 1.26667E+02 0.00000E+00 0.00000E+00
 -1       477 1.23333E+02 0.00000E+00 0.00000E+00
 -1       478 1.25556E+02 3.33464E+00 0.00000E+00
 -1       479 1.22222E+02 3.33464E+00 0.00000E+00
 -1       480 1.47778E+02 6.66667E+00 0.00000E+00
 -1       481 1.33333E+02 0.00000E+00 0.00000E+00
 -1       482 1.30000E+02 0.00000E+00 0.00000E+00
 -1       483 1.32222E+02 3.33356E+00 0.00000E+00
 -1       484 1.28889E+02 3.33356E+00 0.00000E+00
 -1       485 1.54444E+02 6.66669E+00 0.00000E+00
 -1       486 1.40000E+02 0.00000E+00 0.00000E+00
 -1       487 1.36667E+02 0.00000E+00 0.00000E+00
 -1       488 1.38889E+02 3.33337E+00 0.00000E+00
 -1       489 1.35556E+02 3.33337E+00 0.00000E+00
 -1       490 1.53333E+02 0.00000E+00 0.00000E+00
 -1       491 1.60000E+02 0.00000E+00 0.00000E+00
 -1       492 1.56667E+02 0.00000E+00 0.00000E+00
 -1       493 1.58889E+02 3.33336E+00 0.00000E+00
 -1       494 1.55556E+02 3.33336E+00 0.00000E+00
 -1       495 1.61111E+02 1.66667E+01 0.00000E+00
 -1       496 1.46667E+02 0.00000E+00 0.00000E+00
 -1       497 1.43333E+02 0.00000E+00 0.00000E+00
 -1       498 1.45556E+02 3.33334E+00 0.00000E+00
 -1       499 1.42222E+02 3.33334E+00 0.00000E+00
 -1       500 1.63333E+02 2.00000E+01 0.00000E+00
 -1       501 1.64445E+02 6.66777E+00 0.00000E+00
 -1       502 1.66669E+02 1.00023E+01 0.00000E+00
 -1       503 1.67781E+02 6.66993E+00 0.00000E+00
 -1       504 1.50000E+02 0.00000E+00 0.00000E+00
 -1       505 1.52222E+02 3.33334E+00 0.00000E+00
 -1       506 1.48889E+02 3.33334E+00 0.00000E+00
 -1       507 1.65556E+02 3.33388E+00 0.00000E+00
 -1       508 1.63334E+02 1.00006E+01 0.00000E+00
 -1       509 1.61112E+02 6.66724E+00 0.00000E+00
 -1       510 1.70000E+02 2.00000E+01 0.00000E+00
 -1       511 1.71113E+02 1.66685E+01 0.00000E+00
 -1       512 1.63333E+02 0.00000E+00 0.00000E+00
 -1       513 1.62223E+02 3.33388E+00 0.00000E+00
 -1       514 1.76667E+02 0.00000E+00 0.00000E+00
 -1       515 1.75583E+02 3.35726E+00 0.00000E+00
 -1       516 2.00000E+02 0.00000E+00 0.00000E+00
 -1       517 1.96667E+02 0.00000E+00 0.00000E+00
 -1       518 1.96177E+02 3.43178E+00 0.00000E+00
 -1       519 2.00000E+02 2.00000E+01 0.00000E+00
 -1       520 1.96667E+02 2.00000E+01 0.00000E+00
 -1       521 1.94903E+02 1.72338E+01 0.00000E+00
 -1       522 2.00000E+02 1.00000E+01 0.00000E+00
 -1       523 1.96177E+02 1.34318E+01 0.00000E+00
 -1       524 7.08289E+01 4.29966E+01 0.00000E+00
 -1       525 6.90860E+01 4.10756E+01 0.00000E+00
 -1       526 6.22141E+01 4.20345E+01 0.00000E+00
 -1       527 6.37311E+01 4.00895E+01 0.00000E+00
 -1       528 1.25728E+01 6.80860E+01 0.00000E+00
 -1       529 1.54222E+01 5.94044E+01 0.00000E+00
 -1       530 6.28642E+00 6.40430E+01 0.00000E+00
 -1       531 1.87928E+01 6.71146E+01 0.00000E+00
 -1       532 7.00000E+01 5.00000E+01 0.00000E+00
 -1       533 7.00925E+01 5.23538E+01 0.00000E+00
 -1       534 6.79618E+01 5.02059E+01 0.00000E+00
 -1       535 7.00925E+01 4.76462E+01 0.00000E+00
 -1       536 7.22836E+01 6.14805E+01 0.00000E+00
 -1       537 6.98050E+01 6.24836E+01 0.00000E+00
 -1       538 1.00000E+01 0.00000E+00 0.00000E+00
 -1       539 1.15842E+01 4.82630E+00 0.00000E+00
 -1       540 1.50597E+01 9.88871E+00 0.00000E+00
 -1       541 3.43862E+01 4.77545E+01 0.00000E+00
 -1       542 4.63001E+01 2.91748E+01 0.00000E+00
 -1       543 4.13945E+01 3.06012E+01 0.00000E+00
 -1       544 5.03211E+01 1.51373E+01 0.00000E+00
 -1       545 5.28691E+01 1.72369E+01 0.00000E+00
 -1       546 5.56591E+01 2.55027E+01 0.00000E+00
 -1       547 6.14820E+01 5.95969E+01 0.00000E+00
 -1       548 5.76551E+01 5.60031E+01 0.00000E+00
 -1       549 6.09315E+01 5.34544E+01 0.00000E+00
 -1       550 5.00000E+01 0.00000E+00 0.00000E+00
 -1       551 4.97870E+01 1.94712E+00 0.00000E+00
 -1       552 4.79713E+01 6.38425E+00 0.00000E+00
 -1       553 6.73568E+01 2.57906E+01 0.00000E+00
 -1       554 6.82087E+01 2.88172E+01 0.00000E+00
 -1       555 6.48523E+01 2.84547E+01 0.00000E+00
 -1       556 3.98794E+01 3.71604E+01 0.00000E+00
 -1       557 3.51195E+01 3.34910E+01 0.00000E+00
 -1       558 6.68924E+01 3.41025E+01 0.00000E+00
 -1       559 6.44195E+01 3.77406E+01 0.00000E+00
 -1       560 7.71878E+01 3.05166E+01 0.00000E+00
 -1       561 7.53768E+01 3.03521E+01 0.00000E+00
 -1       562 7.13400E+01 2.90353E+01 0.00000E+00
 -1       563 7.66667E+01 0.00000E+00 0.00000E+00
 -1       564 7.66675E+01 2.85488E+00 0.00000E+00
 -1       565 7.59107E+01 8.09371E+00 0.00000E+00
 -1       566 9.75021E+01 1.18344E+01 0.00000E+00
 -1       567 7.31216E+01 9.64247E+00 0.00000E+00
 -1       568 7.07866E+01 1.14889E+01 0.00000E+00
 -1       569 0.00000E+00 7.00000E+01 0.00000E+00
 -1       570 6.28642E+00 7.40430E+01 0.00000E+00
 -1       571 1.60474E+01 7.59868E+01 0.00000E+00
 -1       572 5.52424E+01 7.73864E+01 0.00000E+00
 -1       573 1.43786E+01 1.82433E+01 0.00000E+00
 -1       574 3.95692E+01 4.30922E+01 0.00000E+00
 -1       575 5.77470E+01 1.60210E+01 0.00000E+00
 -1       576 6.03085E+01 1.30901E+01 0.00000E+00
 -1       577 5.69681E+01 1.22683E+01 0.00000E+00
 -1       578 6.29425E+01 1.45835E+01 0.00000E+00
 -1       579 6.53846E+01 1.74380E+01 0.00000E+00
 -1       580 6.88355E+01 3.16994E+01 0.00000E+00
 -1       581 6.03872E+01 4.75862E+01 0.00000E+00
 -1       582 5.89315E+01 4.43090E+01 0.00000E+00
 -1       583 4.96902E+01 2.59216E+01 0.00000E+00
 -1       584 2.33333E+01 0.00000E+00 0.00000E+00
 -1       585 4.16631E+01 1.00058E+01 0.00000E+00
 -1       586 4.39519E+01 6.95001E+00 0.00000E+00
 -1       587 4.08316E+01 5.00289E+00 0.00000E+00
 -1       588 4.56826E+01 9.44002E+00 0.00000E+00
 -1       589 3.63873E+01 1.70396E+01 0.00000E+00
 -1       590 5.53516E+01 1.51037E+01 0.00000E+00
 -1       591 5.52645E+01 1.81542E+01 0.00000E+00
 -1       592 6.03810E+01 1.75144E+01 0.00000E+00
 -1       593 4.86940E+01 1.24813E+01 0.00000E+00
 -1       594 4.46746E+01 1.30470E+01 0.00000E+00
 -1       595 5.55827E+01 2.17644E+01 0.00000E+00
 -1       596 5.80652E+01 1.96312E+01 0.00000E+00
 -1       597 6.75472E+01 1.87777E+01 0.00000E+00
 -1       598 8.05166E+01 2.71878E+01 0.00000E+00
 -1       599 7.92979E+01 2.47677E+01 0.00000E+00
 -1       600 6.64501E+01 6.13725E+01 0.00000E+00
 -1       601 5.49164E+01 4.52311E+01 0.00000E+00
 -1       602 5.67433E+01 3.96795E+01 0.00000E+00
 -1       603 5.75801E+01 3.65424E+01 0.00000E+00
 -1       604 3.82730E+01 8.26910E+00 0.00000E+00
 -1       605 4.13419E+01 1.43255E+01 0.00000E+00
 -1       606 5.28584E+01 2.40258E+01 0.00000E+00
 -1       607 6.73922E+01 3.90727E+01 0.00000E+00
 -1       608 2.22674E+01 7.50154E+01 0.00000E+00
 -1       609 6.15141E+01 5.01362E+01 0.00000E+00
 -1       610 2.97722E+01 1.04911E+01 0.00000E+00
 -1       611 3.33184E+01 1.09832E+01 0.00000E+00
 -1       612 3.67085E+01 1.27199E+01 0.00000E+00
 -3
    3C                           267                                     1
 -1         1    8    0    1
 -2         1         2         3         4         5         6
 -1         2    8    0    1
 -2         7         1         3         8         6         9
 -1         3    8    0    1
 -2        10        11        12        13        14        15
 -1         4    8    0    1
 -2        11        16        17        18        19        20
 -1         5    8    0    1
 -2        21        22        23        24        25        26
 -1         6    8    0    1
 -2        27        28        29        30        31        32
 -1         7    8    0    1
 -2        33        34        35        36        37        38
 -1         8    8    0    1
 -2        39        40        41        42        43        44
 -1         9    8    0    1
 -2        45        46        47        48        49        50
 -1        10    8    0    1
 -2        51        35        52        53        54        55
 -1        11    8    0    1
 -2        56        57        58        59        60        61
 -1        12    8    0    1
 -2        62        33        35        63        38        64
 -1        13    8    0    1
 -2        65        21        66        67        68        69
 -1        14    8    0    1
 -2        28        70        51        71        72        73
 -1        15    8    0    1
 -2        74        65        66        75        69        76
 -1        16    8    0    1
 -2        23        62        66        77        78        79
 -1        17    8    0    1
 -2        70        80        51        81        82        72
 -1        18    8    0    1
 -2        51        62        35        83        64        53
 -1        19    8    0    1
 -2        84        85        86        87        88        89
 -1        20    8    0    1
 -2        90        91        92        93        94        95
 -1        21    8    0    1
 -2        96        45        47        97        50        98
 -1        22    8    0    1
 -2        99       100       101       102       103       104
 -1        23    8    0    1
 -2        34        96        47       105        98       106
 -1        24    8    0    1
 -2        99       101        58       104       107       108
 -1        25    8    0    1
 -2       109       110       111       112       113       114
 -1        26    8    0    1
 -2        91        84       115       116       117       118
 -1        27    8    0    1
 -2       119       120       121       122       123       124
 -1        28    8    0    1
 -2       125         2         1       126         4       127
 -1        29    8    0    1
 -2       128       110       129       130       131       132
 -1        30    8    0    1
 -2        92       115       133       134       135       136
 -1        31    8    0    1
 -2       110       109       129       112       137       131
 -1        32    8    0    1
 -2       138       139       140       141       142       143
 -1        33    8    0    1
 -2       144       145       146       147       148       149
 -1        34    8    0    1
 -2       110       128       150       130       151       152
 -1        35    8    0    1
 -2       145       153       154       155       156       157
 -1        36    8    0    1
 -2       158       159       160       161       162       163
 -1        37    8    0    1
 -2       164       165       166       167       168       169
 -1        38    8    0    1
 -2        92        91       115        94       118       134
 -1        39    8    0    1
 -2       170       158       171       172       173       174
 -1        40    8    0    1
 -2       175       176       177       178       179       180
 -1        41    8    0    1
 -2       181       182       183       184       185       186
 -1        42    8    0    1
 -2       187       188       189       190       191       192
 -1        43    8    0    1
 -2       193       194       195       196       197       198
 -1        44    8    0    1
 -2       158       160       171       163       199       173
 -1        45    8    0    1
 -2       183       182       200       185       201       202
 -1        46    8    0    1
 -2       203       204       205       206       207       208
 -1        47    8    0    1
 -2       209       210       187       211       212       213
 -1        48    8    0    1
 -2       214       215       216       217       218       219
 -1        49    8    0    1
 -2       220       189       221       222       223       224
 -1        50    8    0    1
 -2       225       214       226       227       228       229
 -1        51    8    0    1
 -2       182       230       200       231       232       201
 -1        52    8    0    1
 -2       226       187       189       233       192       234
 -1        53    8    0    1
 -2       220       226       189       235       234       222
 -1        54    8    0    1
 -2       236       237       238       239       240       241
 -1        55    8    0    1
 -2       242       181       243       244       245       246
 -1        56    8    0    1
 -2       181       183       243       186       247       245
 -1        57    8    0    1
 -2       248       242       249       250       251       252
 -1        58    8    0    1
 -2       243       183       238       247       253       254
 -1        59    8    0    1
 -2       255       248       256       257       258       259
 -1        60    8    0    1
 -2       249       243       260       261       262       263
 -1        61    8    0    1
 -2       264       255       265       266       267       268
 -1        62    8    0    1
 -2       256       249       269       270       271       272
 -1        63    8    0    1
 -2       273       264       274       275       276       277
 -1        64    8    0    1
 -2       265       256       278       279       280       281
 -1        65    8    0    1
 -2       282       273       283       284       285       286
 -1        66    8    0    1
 -2       274       265       287       288       289       290
 -1        67    8    0    1
 -2        40       282       291       292       293       294
 -1        68    8    0    1
 -2       283       274       295       296       297       298
 -1        69    8    0    1
 -2        41       291       299       300       301       302
 -1        70    8    0    1
 -2       291       283       303       304       305       306
 -1        71    8    0    1
 -2        12        11        17        14        20       307
 -1        72    8    0    1
 -2       308        41       309       310       311       312
 -1        73    8    0    1
 -2        12        17       313       307       314       315
 -1        74    8    0    1
 -2       316       317       318       319       320       321
 -1        75    8    0    1
 -2       322        10         7       323       324       325
 -1        76    8    0    1
 -2         2       326         3       327       328         5
 -1        77    8    0    1
 -2        10        12         7        15       329       324
 -1        78    8    0    1
 -2       330       308       331       332       333       334
 -1        79    8    0    1
 -2       318        17       331       335       336       337
 -1        80    8    0    1
 -2        21        23        66        26        79        68
 -1        81    8    0    1
 -2        62        51        66        83       338        78
 -1        82    8    0    1
 -2       129       109       339       137       340       341
 -1        83    8    0    1
 -2        35        34       109        37       342       343
 -1        84    8    0    1
 -2         1        12       313       344       315       345
 -1        85    8    0    1
 -2        12         1         7       344         8       329
 -1        86    8    0    1
 -2        52       346        29       347       348       349
 -1        87    8    0    1
 -2        51        52        29        55       349       350
 -1        88    8    0    1
 -2        80        74        66       351        76       352
 -1        89    8    0    1
 -2        51        80        66        82       352       338
 -1        90    8    0    1
 -2       193       204       176       353       354       355
 -1        91    8    0    1
 -2       356       120       119       357       122       358
 -1        92    8    0    1
 -2       346        52       111       347       359       360
 -1        93    8    0    1
 -2       110       346       111       361       360       113
 -1        94    8    0    1
 -2       109        34        47       342       106       362
 -1        95    8    0    1
 -2       115       119       363       364       365       366
 -1        96    8    0    1
 -2        85       367        86       368       369        88
 -1        97    8    0    1
 -2        92       129       339       370       341       371
 -1        98    8    0    1
 -2        17       318       313       335       372       314
 -1        99    8    0    1
 -2       125         1       313       127       345       373
 -1       100    8    0    1
 -2       194       164       374       375       376       377
 -1       101    8    0    1
 -2       378       379       380       381       382       383
 -1       102    8    0    1
 -2       384       144       121       385       386       387
 -1       103    8    0    1
 -2       128       388       389       390       391       392
 -1       104    8    0    1
 -2        57        56       393        59       394       395
 -1       105    8    0    1
 -2       389       388       396       391       397       398
 -1       106    8    0    1
 -2       139       115       363       399       366       400
 -1       107    8    0    1
 -2       401       138       140       402       143       403
 -1       108    8    0    1
 -2       164       396       404       405       406       407
 -1       109    8    0    1
 -2       138       401       408       402       409       410
 -1       110    8    0    1
 -2       144       146       121       149       411       386
 -1       111    8    0    1
 -2       378       412       413       414       415       416
 -1       112    8    0    1
 -2       396       388       404       397       417       406
 -1       113    8    0    1
 -2       215       203       216       418       419       218
 -1       114    8    0    1
 -2       420       379       378       421       381       422
 -1       115    8    0    1
 -2       420       378       413       422       416       423
 -1       116    8    0    1
 -2       380       424       425       426       427       428
 -1       117    8    0    1
 -2       379       429       380       430       431       382
 -1       118    8    0    1
 -2       194       374       195       377       432       197
 -1       119    8    0    1
 -2       205       204       425       207       433       434
 -1       120    8    0    1
 -2       249       260       269       263       435       271
 -1       121    8    0    1
 -2       242       243       249       246       261       251
 -1       122    8    0    1
 -2       429       436       437       438       439       440
 -1       123    8    0    1
 -2       380       429       424       431       441       426
 -1       124    8    0    1
 -2       176       204       177       354       442       179
 -1       125    8    0    1
 -2       204       203       177       206       443       442
 -1       126    8    0    1
 -2       424       429       437       441       440       444
 -1       127    8    0    1
 -2       214       216       226       219       445       228
 -1       128    8    0    1
 -2       209       203       205       446       208       447
 -1       129    8    0    1
 -2       216       203       209       419       446       448
 -1       130    8    0    1
 -2       188       449       189       450       451       191
 -1       131    8    0    1
 -2       210       188       187       452       190       212
 -1       132    8    0    1
 -2       216       209       187       448       213       453
 -1       133    8    0    1
 -2       226       216       187       445       453       233
 -1       134    8    0    1
 -2       230       225       220       454       455       456
 -1       135    8    0    1
 -2       225       226       220       229       235       455
 -1       136    8    0    1
 -2       243       238       260       254       457       262
 -1       137    8    0    1
 -2       230       220       200       456       458       232
 -1       138    8    0    1
 -2       449       236       221       459       460       461
 -1       139    8    0    1
 -2       189       449       221       451       461       223
 -1       140    8    0    1
 -2       256       269       278       272       462       280
 -1       141    8    0    1
 -2       248       249       256       252       270       258
 -1       142    8    0    1
 -2       183       221       238       463       464       253
 -1       143    8    0    1
 -2       221       236       238       460       241       464
 -1       144    8    0    1
 -2       265       278       287       281       465       289
 -1       145    8    0    1
 -2       255       256       265       259       279       267
 -1       146    8    0    1
 -2       237       466       260       467       468       469
 -1       147    8    0    1
 -2       238       237       260       240       469       457
 -1       148    8    0    1
 -2       274       287       295       290       470       297
 -1       149    8    0    1
 -2       264       265       274       268       288       276
 -1       150    8    0    1
 -2       466       471       269       472       473       474
 -1       151    8    0    1
 -2       260       466       269       468       474       435
 -1       152    8    0    1
 -2       283       295       303       298       475       305
 -1       153    8    0    1
 -2       273       274       283       277       296       285
 -1       154    8    0    1
 -2       471       476       278       477       478       479
 -1       155    8    0    1
 -2       269       471       278       473       479       462
 -1       156    8    0    1
 -2       291       303       299       306       480       301
 -1       157    8    0    1
 -2       282       283       291       286       304       293
 -1       158    8    0    1
 -2       476       481       287       482       483       484
 -1       159    8    0    1
 -2       278       476       287       478       484       465
 -1       160    8    0    1
 -2        41       299       309       302       485       311
 -1       161    8    0    1
 -2        40       291        41       294       300        43
 -1       162    8    0    1
 -2       481       486       295       487       488       489
 -1       163    8    0    1
 -2       287       481       295       483       489       470
 -1       164    8    0    1
 -2       490       491       309       492       493       494
 -1       165    8    0    1
 -2        39        41       308        44       310       495
 -1       166    8    0    1
 -2       486       496       303       497       498       499
 -1       167    8    0    1
 -2       295       486       303       488       499       475
 -1       168    8    0    1
 -2       330        39       308       500       495       332
 -1       169    8    0    1
 -2       318       331       501       337       502       503
 -1       170    8    0    1
 -2       496       490       299       504       505       506
 -1       171    8    0    1
 -2       303       496       299       498       506       480
 -1       172    8    0    1
 -2       316       318       501       321       503       507
 -1       173    8    0    1
 -2       299       490       309       505       494       485
 -1       174    8    0    1
 -2       331       308       501       333       508       502
 -1       175    8    0    1
 -2       308       309       501       312       509       508
 -1       176    8    0    1
 -2        16       330       331       510       334       511
 -1       177    8    0    1
 -2        17        16       331        19       511       336
 -1       178    8    0    1
 -2       491       316       501       512       507       513
 -1       179    8    0    1
 -2       309       491       501       493       513       509
 -1       180    8    0    1
 -2       317       125       313       514       373       515
 -1       181    8    0    1
 -2       318       317       313       320       515       372
 -1       182    8    0    1
 -2       326       516         3       517       518       328
 -1       183    8    0    1
 -2       519       322         7       520       325       521
 -1       184    8    0    1
 -2       516       519         3       522       523       518
 -1       185    8    0    1
 -2       519         7         3       521         9       523
 -1       186    8    0    1
 -2       159        57       393       524       395       525
 -1       187    8    0    1
 -2        56       166       393       526       527       394
 -1       188    8    0    1
 -2        90        92       528        95       529       530
 -1       189    8    0    1
 -2       528        92       339       529       371       531
 -1       190    8    0    1
 -2       532        99        58       533       108       534
 -1       191    8    0    1
 -2        57       532        58       535       534        60
 -1       192    8    0    1
 -2       100        27        29       536        32       537
 -1       193    8    0    1
 -2        28        51        29        73       350        31
 -1       194    8    0    1
 -2       367       356        86       538       539       369
 -1       195    8    0    1
 -2       356       119        86       358       540       539
 -1       196    8    0    1
 -2       129        92       133       370       136       541
 -1       197    8    0    1
 -2       139       138       388       141       542       543
 -1       198    8    0    1
 -2       401       412       408       544       545       409
 -1       199    8    0    1
 -2       374       164       404       376       407       546
 -1       200    8    0    1
 -2       101       346       150       547       548       549
 -1       201    8    0    1
 -2       346       110       150       361       152       548
 -1       202    8    0    1
 -2       153       420       154       550       551       156
 -1       203    8    0    1
 -2       154       420       413       551       423       552
 -1       204    8    0    1
 -2       194       193       176       196       355       553
 -1       205    8    0    1
 -2       194       176       165       553       554       555
 -1       206    8    0    1
 -2       139       388       133       543       556       557
 -1       207    8    0    1
 -2       115       139       133       399       557       135
 -1       208    8    0    1
 -2       164       194       165       375       555       167
 -1       209    8    0    1
 -2       165       160       166       558       559       168
 -1       210    8    0    1
 -2       175       170       171       560       174       561
 -1       211    8    0    1
 -2       176       175       171       178       561       562
 -1       212    8    0    1
 -2       436       210       437       563       564       439
 -1       213    8    0    1
 -2       210       209       437       211       565       564
 -1       214    8    0    1
 -2       220       221       200       224       566       458
 -1       215    8    0    1
 -2       221       183       200       463       202       566
 -1       216    8    0    1
 -2       424       437       205       444       567       568
 -1       217    8    0    1
 -2       437       209       205       565       447       567
 -1       218    8    0    1
 -2        46        90       528       569       530       570
 -1       219    8    0    1
 -2        47        46       528        49       570       571
 -1       220    8    0    1
 -2        52        35       111        54       572       359
 -1       221    8    0    1
 -2        35       109       111       343       114       572
 -1       222    8    0    1
 -2        84        86       115        89       573       117
 -1       223    8    0    1
 -2        86       119       115       540       364       573
 -1       224    8    0    1
 -2       128       129       133       132       541       574
 -1       225    8    0    1
 -2       388       128       133       390       574       556
 -1       226    8    0    1
 -2       378       380       575       383       576       577
 -1       227    8    0    1
 -2       195       380       425       578       428       579
 -1       228    8    0    1
 -2       176       171       165       562       580       554
 -1       229    8    0    1
 -2       171       160       165       199       558       580
 -1       230    8    0    1
 -2        56       150       166       581       582       526
 -1       231    8    0    1
 -2       388       138       404       542       583       417
 -1       232    8    0    1
 -2       120       384       121       584       387       123
 -1       233    8    0    1
 -2       145       154       585       157       586       587
 -1       234    8    0    1
 -2       154       413       585       552       588       586
 -1       235    8    0    1
 -2       139       363       140       400       589       142
 -1       236    8    0    1
 -2       408       412       575       545       590       591
 -1       237    8    0    1
 -2       424       205       425       568       434       427
 -1       238    8    0    1
 -2       380       195       575       578       592       576
 -1       239    8    0    1
 -2       412       378       575       414       577       590
 -1       240    8    0    1
 -2       412       401       413       544       593       415
 -1       241    8    0    1
 -2       413       401       585       593       594       588
 -1       242    8    0    1
 -2       374       408       575       595       591       596
 -1       243    8    0    1
 -2       195       374       575       432       596       592
 -1       244    8    0    1
 -2       204       193       425       353       597       433
 -1       245    8    0    1
 -2       193       195       425       198       579       597
 -1       246    8    0    1
 -2       215       175       177       598       180       599
 -1       247    8    0    1
 -2       203       215       177       418       599       443
 -1       248    8    0    1
 -2       101       100        29       103       537       600
 -1       249    8    0    1
 -2       346       101        29       547       600       348
 -1       250    8    0    1
 -2       150       128       389       151       392       601
 -1       251    8    0    1
 -2       166       150       389       582       601       602
 -1       252    8    0    1
 -2       164       166       396       169       603       405
 -1       253    8    0    1
 -2       166       389       396       602       398       603
 -1       254    8    0    1
 -2       146       145       585       148       587       604
 -1       255    8    0    1
 -2       401       140       585       403       605       594
 -1       256    8    0    1
 -2       138       408       404       410       606       583
 -1       257    8    0    1
 -2       408       374       404       595       546       606
 -1       258    8    0    1
 -2       160       159       393       162       525       607
 -1       259    8    0    1
 -2       166       160       393       559       607       527
 -1       260    8    0    1
 -2       109        47       339       362       608       340
 -1       261    8    0    1
 -2        47       528       339       571       531       608
 -1       262    8    0    1
 -2       101       150        58       549       609       107
 -1       263    8    0    1
 -2       150        56        58       581        61       609
 -1       264    8    0    1
 -2       363       119       121       365       124       610
 -1       265    8    0    1
 -2       146       363       121       611       610       411
 -1       266    8    0    1
 -2       363       146       585       611       604       612
 -1       267    8    0    1
 -2       140       363       585       589       612       605
 -3
    1PSTEP                         1           1           1          
  100CL  101 1.000000000         612                     0    1           1
 -4  DISP        4    1
 -5  D1          1    2    1    0
 -5  D2          1    2    2    0
 -5  D3          1    2    3    0
 -5  ALL         1    2    0    0    1ALL
 -1         1-1.29787E-02-2.03991E-01 4.54390E-19
 -1         2-2.97379E-02-2.08809E-01 8.66968E-19
 -1         3-1.29696E-02-2.22714E-01-5.09682E-19
 -1         4-2.13469E-02-2.06398E-01 8.54819E-17
 -1         5-2.13508E-02-2.15760E-01 1.14560E-16
 -1         6-1.29760E-02-2.13355E-01 1.36147E-16
 -1         7 5.61578E-03-2.16454E-01 7.66300E-19
 -1         8-3.69084E-03-2.10219E-01 5.15205E-18
 -1         9-3.67511E-03-2.19581E-01-9.54790E-17
 -1        10 1.91422E-02-2.08759E-01 4.24840E-20
 -1        11 1.90785E-02-1.92422E-01 5.13514E-19
 -1        12 3.20218E-03-1.98155E-01-5.29766E-19
 -1        13 1.91166E-02-2.00587E-01-4.69731E-17
 -1        14 1.11336E-02-1.95284E-01 2.25243E-16
 -1        15 1.11588E-02-2.03456E-01 1.40461E-16
 -1        16 1.89481E-02-1.76126E-01 6.53804E-19
 -1        17 2.84178E-03-1.81568E-01 1.97888E-19
 -1        18 1.90221E-02-1.84265E-01 1.38776E-16
 -1        19 1.08878E-02-1.78840E-01 1.88327E-16
 -1        20 1.09359E-02-1.86991E-01 1.50747E-16
 -1        21 6.49139E-05 1.27284E-05-6.02187E-22
 -1        22 6.18732E-05 3.63632E-05 2.51463E-22
 -1        23 0.00000E+00 0.00000E+00 3.57342E-22
 -1        24 6.23958E-05 2.34321E-05 1.21109E-19
 -1        25 1.30312E-05 2.15872E-05 3.17637E-21
 -1        26 1.24610E-05 1.48869E-05 5.16690E-20
 -1        27 4.55702E-04-5.32927E-04 6.35275E-21
 -1        28 3.42651E-04-3.37285E-04-7.94093E-22
 -1        29 4.31529E-04-6.94289E-04 4.34104E-21
 -1        30 3.98909E-04-4.30020E-04 1.00268E-18
 -1        31 3.77964E-04-5.28978E-04-7.99176E-19
 -1        32 4.38323E-04-6.33805E-04 2.21499E-19
 -1        33 0.00000E+00 0.00000E+00-7.41154E-22
 -1        34 0.00000E+00 0.00000E+00-7.41154E-22
 -1        35 1.53185E-04-2.94475E-04 0.00000E+00
 -1        36 0.00000E+00 0.00000E+00-1.55494E-18
 -1        37 9.16079E-05-1.34268E-04-8.85996E-19
 -1        38 5.70387E-05-1.33470E-04 1.00013E-18
 -1        39 1.83986E-02-1.43881E-01 2.13876E-20
 -1        40 1.79349E-02-1.28080E-01 4.06999E-19
 -1        41 2.48063E-03-1.33218E-01 1.21761E-19
 -1        42 1.81830E-02-1.35943E-01 8.93789E-17
 -1        43 1.02079E-02-1.30628E-01 4.49986E-17
 -1        44 1.03689E-02-1.38527E-01-3.72423E-17
 -1        45 0.00000E+00 0.00000E+00 1.98523E-23
 -1        46 0.00000E+00 0.00000E+00 1.05879E-22
 -1        47 1.49087E-04-1.14461E-04 3.17637E-22
 -1        48 0.00000E+00 0.00000E+00-2.40981E-19
 -1        49 8.58931E-05-6.53472E-05 6.05629E-20
 -1        50 5.06280E-05-4.08536E-05-4.84820E-19
 -1        51 1.35467E-04-2.78659E-04 1.05879E-22
 -1        52 3.42637E-04-6.00663E-04 6.35275E-22
 -1        53 1.40683E-04-3.26520E-04-1.20448E-18
 -1        54 2.34085E-04-4.39932E-04 2.26793E-19
 -1        55 2.27701E-04-4.47620E-04-4.12929E-20
 -1        56 1.12314E-03-1.81516E-03-4.23516E-22
 -1        57 1.04919E-03-2.05904E-03-2.20229E-20
 -1        58 9.47154E-04-1.54487E-03 8.47033E-21
 -1        59 1.11891E-03-1.97409E-03-2.95276E-18
 -1        60 1.00690E-03-1.76410E-03-1.98883E-18
 -1        61 1.04523E-03-1.69991E-03 1.00289E-18
 -1        62 0.00000E+00 0.00000E+00 2.11758E-22
 -1        63 0.00000E+00 0.00000E+00-4.19281E-19
 -1        64 1.92446E-05-1.04451E-04 1.43996E-18
 -1        65 7.90822E-05-7.42755E-06 2.32934E-21
 -1        66 3.77219E-05-3.09223E-05-2.97785E-22
 -1        67 6.99263E-05 3.56331E-06-7.70271E-21
 -1        68 5.32668E-05-6.06886E-06-8.58680E-20
 -1        69 5.88773E-05-1.85175E-05 1.12417E-19
 -1        70 2.46772E-04-1.97402E-04 1.00585E-21
 -1        71 2.91680E-04-2.61218E-04-3.64754E-19
 -1        72 1.77879E-04-2.54510E-04 5.62642E-19
 -1        73 2.19698E-04-3.21489E-04 1.63689E-19
 -1        74 1.15681E-04-3.90876E-05-1.32349E-21
 -1        75 9.46590E-05-2.04625E-05 2.47757E-20
 -1        76 6.92797E-05-3.52361E-05-5.55865E-20
 -1        77 0.00000E+00 0.00000E+00 3.55195E-19
 -1        78-3.19085E-06-3.32522E-05 2.85768E-19
 -1        79 2.98817E-06 1.36570E-06 1.89259E-19
 -1        80 1.71694E-04-1.00178E-04-4.99617E-22
 -1        81 2.06809E-04-1.44612E-04-8.64768E-20
 -1        82 1.44791E-04-1.95883E-04 3.34472E-19
 -1        83 1.45329E-05-9.76271E-05 2.41404E-19
 -1        84 0.00000E+00 0.00000E+00-1.05879E-22
 -1        85 0.00000E+00 0.00000E+00 6.35275E-22
 -1        86-3.21998E-04-5.35552E-06-1.05879E-21
 -1        87 0.00000E+00 0.00000E+00-6.35275E-20
 -1        88-1.74323E-04-4.38449E-05 2.54110E-20
 -1        89-1.21035E-04 3.46192E-05-1.41878E-19
 -1        90 0.00000E+00 0.00000E+00 0.00000E+00
 -1        91 0.00000E+00 0.00000E+00 1.19114E-22
 -1        92 2.12906E-04-6.60359E-05-6.35275E-22
 -1        93 0.00000E+00 0.00000E+00-8.08916E-20
 -1        94 6.74657E-05 2.73009E-05-4.07635E-19
 -1        95 1.03645E-04-1.90887E-05-3.12343E-19
 -1        96 0.00000E+00 0.00000E+00-6.35275E-22
 -1        97 0.00000E+00 0.00000E+00-5.40619E-19
 -1        98 8.47911E-05-6.56416E-05-6.35275E-22
 -1        99 7.25231E-04-1.11409E-03-1.07997E-20
 -1       100 5.86472E-04-7.86317E-04-4.23516E-21
 -1       101 7.32772E-04-1.13963E-03 4.23516E-22
 -1       102 6.55075E-04-9.42521E-04 1.17229E-18
 -1       103 6.56994E-04-1.00952E-03 1.65171E-19
 -1       104 7.37162E-04-1.15560E-03 1.05371E-18
 -1       105 0.00000E+00 0.00000E+00-1.09204E-18
 -1       106 1.08507E-04-9.28952E-05 4.11446E-19
 -1       107 8.39853E-04-1.32412E-03 1.16721E-18
 -1       108 8.39531E-04-1.36372E-03 7.40307E-19
 -1       109 3.67616E-04-3.90775E-04 0.00000E+00
 -1       110 6.62232E-04-7.73056E-04 1.69407E-21
 -1       111 4.40959E-04-6.29972E-04 2.11758E-21
 -1       112 5.05785E-04-5.61764E-04 7.84564E-19
 -1       113 5.68259E-04-7.27296E-04-8.80067E-19
 -1       114 4.14142E-04-5.10934E-04 1.22015E-18
 -1       115-1.74090E-04 7.05987E-05 2.11758E-22
 -1       116 0.00000E+00 0.00000E+00-1.10538E-19
 -1       117-1.32718E-04 8.74247E-05 1.65595E-19
 -1       118-2.28450E-05 7.84524E-05 3.08108E-20
 -1       119-7.08955E-04-4.54124E-05 2.11758E-22
 -1       120-8.97901E-04-2.23411E-04 8.47033E-22
 -1       121-1.19852E-03-1.98687E-04-4.87044E-21
 -1       122-8.26082E-04-1.26718E-04 5.64971E-19
 -1       123-1.06348E-03-2.06108E-04 1.69407E-19
 -1       124-9.36655E-04-1.11520E-04 3.49825E-19
 -1       125-2.96642E-02-1.92472E-01 9.76814E-19
 -1       126-2.97072E-02-2.00638E-01 1.31947E-16
 -1       127-2.13203E-02-1.98225E-01 1.47885E-16
 -1       128 7.18043E-04-7.93720E-04-2.11758E-21
 -1       129 5.12532E-04-4.23854E-04-2.11758E-22
 -1       130 7.34630E-04-8.13471E-04 1.91853E-19
 -1       131 6.05210E-04-6.00882E-04-3.27378E-19
 -1       132 6.15823E-04-5.83299E-04-3.64648E-19
 -1       133 3.18449E-04-2.87588E-04 6.88214E-22
 -1       134 8.57532E-05 1.44371E-05-7.55315E-20
 -1       135 2.50495E-05-4.86552E-05 4.54883E-19
 -1       136 2.85842E-04-1.46544E-04-3.86459E-20
 -1       137 4.74045E-04-4.45831E-04 2.26581E-19
 -1       138-3.59175E-04-6.56884E-04 7.82182E-21
 -1       139-2.05887E-04-2.51645E-04-1.52201E-21
 -1       140-8.64595E-04-3.69809E-04-1.69407E-21
 -1       141-2.76914E-04-4.23679E-04 3.41990E-19
 -1       142-4.95887E-04-2.98701E-04 2.21181E-19
 -1       143-6.35949E-04-4.93803E-04 1.02946E-18
 -1       144-1.71924E-03-4.36567E-04 4.65868E-21
 -1       145-2.25949E-03-6.52917E-04-8.47033E-22
 -1       146-1.55772E-03-3.18709E-04 3.38813E-21
 -1       147-1.97687E-03-5.32336E-04 6.67462E-19
 -1       148-1.89965E-03-4.67333E-04 1.77369E-18
 -1       149-1.66544E-03-3.72952E-04 1.30782E-18
 -1       150 9.44671E-04-1.30542E-03-2.75286E-21
 -1       151 8.61822E-04-1.06743E-03-9.46983E-19
 -1       152 7.97232E-04-1.00568E-03 4.68833E-19
 -1       153-2.91678E-03-9.85659E-04 3.55754E-20
 -1       154-2.58106E-03-8.27453E-04-1.65171E-20
 -1       155-2.57133E-03-8.01586E-04-1.62376E-18
 -1       156-2.76068E-03-9.03079E-04 9.24113E-19
 -1       157-2.44146E-03-7.27512E-04-1.09775E-18
 -1       158 1.43975E-03-3.61538E-03-6.43745E-20
 -1       159 1.23160E-03-2.73555E-03-3.38813E-21
 -1       160 1.36181E-03-2.80452E-03-1.01644E-20
 -1       161 1.33331E-03-3.14937E-03 1.69068E-18
 -1       162 1.34445E-03-2.83147E-03 1.05710E-18
 -1       163 1.42069E-03-3.18875E-03-2.81723E-18
 -1       164 6.48473E-04-1.82964E-03-9.31736E-21
 -1       165 1.10932E-03-2.70291E-03-8.47033E-22
 -1       166 1.12266E-03-1.88559E-03 4.65868E-21
 -1       167 8.75933E-04-2.23679E-03 4.77727E-19
 -1       168 1.14982E-03-2.25475E-03 9.14796E-20
 -1       169 9.70361E-04-1.89352E-03-5.85300E-19
 -1       170 1.68650E-03-4.78250E-03 1.33831E-19
 -1       171 1.50252E-03-3.87456E-03 1.69407E-20
 -1       172 1.56109E-03-4.15781E-03-8.60247E-18
 -1       173 1.52690E-03-3.79697E-03-6.41712E-18
 -1       174 1.60698E-03-4.30408E-03-9.55453E-19
 -1       175 1.99785E-03-6.31249E-03-6.77626E-21
 -1       176 9.41759E-04-3.84567E-03 8.89385E-21
 -1       177 1.09494E-03-5.60064E-03-1.01644E-20
 -1       178 1.48476E-03-4.94190E-03 4.99749E-18
 -1       179 1.01348E-03-4.63010E-03 5.42270E-18
 -1       180 1.67451E-03-5.99102E-03-4.24533E-18
 -1       181 9.10966E-03-3.41592E-02 1.76183E-19
 -1       182 6.73493E-03-2.48885E-02 1.33831E-19
 -1       183-2.70833E-04-2.77457E-02 2.01170E-19
 -1       184 7.97280E-03-2.93470E-02-1.48739E-17
 -1       185 3.32058E-03-2.62274E-02 4.06745E-17
 -1       186 4.14283E-03-3.08295E-02-2.53703E-17
 -1       187-5.77193E-03-9.93663E-03-3.51519E-20
 -1       188-1.21267E-02-1.21274E-02 4.23516E-20
 -1       189-6.95309E-03-1.44600E-02-4.44692E-20
 -1       190-8.82953E-03-1.09375E-02 3.98105E-18
 -1       191-9.79228E-03-1.31660E-02 5.71917E-18
 -1       192-6.33700E-03-1.20205E-02-4.08100E-18
 -1       193-1.23694E-04-3.08894E-03-1.99053E-20
 -1       194 3.58515E-04-2.47482E-03 2.20229E-20
 -1       195-8.64708E-04-2.27484E-03-4.12929E-21
 -1       196 1.50264E-04-2.76231E-03 1.34509E-18
 -1       197-2.03491E-04-2.37562E-03-7.65718E-19
 -1       198-5.12370E-04-2.65652E-03-1.44970E-18
 -1       199 1.43432E-03-3.29443E-03-4.17418E-18
 -1       200 7.22685E-04-2.16817E-02-1.30443E-19
 -1       201 3.56412E-03-2.31948E-02 1.10521E-17
 -1       202 2.93254E-04-2.46049E-02 1.60462E-17
 -1       203-3.55684E-04-6.14037E-03 2.83756E-20
 -1       204-2.17471E-04-4.22683E-03-8.47033E-21
 -1       205-2.38186E-03-4.55039E-03 6.35275E-22
 -1       206-2.78488E-04-5.09964E-03 3.39660E-18
 -1       207-1.20325E-03-4.37684E-03 1.10199E-18
 -1       208-1.42505E-03-5.28395E-03 1.89651E-18
 -1       209-3.95724E-03-6.70121E-03 0.00000E+00
 -1       210-9.78878E-03-8.08398E-03 1.01644E-20
 -1       211-6.83961E-03-7.29366E-03 5.45659E-18
 -1       212-8.06910E-03-8.88417E-03 1.00797E-17
 -1       213-4.78408E-03-8.17852E-03-3.72271E-18
 -1       214 2.98448E-03-1.11322E-02-8.47033E-21
 -1       215 2.43076E-03-8.38259E-03-4.74338E-20
 -1       216-5.59121E-04-8.79560E-03-2.96462E-20
 -1       217 2.68857E-03-9.66700E-03 7.81303E-18
 -1       218 1.37619E-03-8.63256E-03-5.75982E-19
 -1       219 1.28702E-03-9.86831E-03-4.74677E-18
 -1       220-7.90808E-04-1.68089E-02 5.84453E-20
 -1       221-7.02768E-03-2.13386E-02 1.46960E-19
 -1       222-3.98597E-03-1.55409E-02 1.51310E-17
 -1       223-7.04149E-03-1.76468E-02-1.26742E-17
 -1       224-3.65020E-03-1.89550E-02 1.36000E-17
 -1       225 3.81679E-03-1.47237E-02-1.96512E-19
 -1       226-9.43757E-04-1.22260E-02 8.13152E-20
 -1       227 3.36858E-03-1.28168E-02-1.26445E-17
 -1       228 1.45953E-03-1.16474E-02-1.03948E-17
 -1       229 1.43529E-03-1.33529E-02 1.63986E-18
 -1       230 5.02802E-03-1.92992E-02 1.42302E-19
 -1       231 5.81610E-03-2.19747E-02 7.55553E-18
 -1       232 3.06048E-03-2.04051E-02 2.13418E-17
 -1       233-3.46971E-03-1.09851E-02-9.28348E-18
 -1       234-3.72346E-03-1.32673E-02-8.88114E-19
 -1       235-8.63939E-04-1.43700E-02 5.25669E-18
 -1       236-1.72126E-02-2.51568E-02-6.94567E-20
 -1       237-1.95491E-02-3.42492E-02 3.86247E-19
 -1       238-9.20635E-03-3.04815E-02-4.99749E-20
 -1       239-1.84119E-02-2.95054E-02 4.30903E-17
 -1       240-1.41907E-02-3.22894E-02 1.51212E-17
 -1       241-1.34410E-02-2.76570E-02 2.03390E-17
 -1       242 1.11151E-02-4.47682E-02-1.27055E-19
 -1       243-1.15100E-04-3.71911E-02-3.98105E-20
 -1       244 1.01454E-02-3.93007E-02 2.78504E-17
 -1       245 4.55157E-03-3.55988E-02-2.37068E-17
 -1       246 5.24195E-03-4.08695E-02-1.82112E-17
 -1       247-1.60791E-04-3.23044E-02-4.24194E-18
 -1       248 1.28400E-02-5.65828E-02 6.18334E-20
 -1       249 3.77233E-04-4.82318E-02 1.01644E-20
 -1       250 1.20081E-02-5.05329E-02 5.39255E-17
 -1       251 5.79311E-03-4.64331E-02-7.08120E-19
 -1       252 6.38066E-03-5.23120E-02-9.75782E-18
 -1       253-4.62133E-03-2.90428E-02 7.21249E-19
 -1       254-4.90073E-03-3.36941E-02-1.08166E-17
 -1       255 1.43026E-02-6.94363E-02 3.13402E-20
 -1       256 8.93164E-04-6.04602E-02 8.80914E-20
 -1       257 1.35999E-02-6.28886E-02-1.59683E-17
 -1       258 6.90375E-03-5.84638E-02 4.19468E-17
 -1       259 7.40104E-03-6.48680E-02 1.00424E-17
 -1       260-1.02902E-02-4.07136E-02-8.04681E-20
 -1       261 1.47990E-04-4.25581E-02 2.09641E-18
 -1       262-5.09201E-03-3.88828E-02-2.32871E-18
 -1       263-5.16726E-03-4.43549E-02-3.13153E-17
 -1       264 1.55218E-02-8.31610E-02-5.26007E-19
 -1       265 1.34896E-03-7.36713E-02-1.48866E-19
 -1       266 1.49384E-02-7.61981E-02 1.21844E-16
 -1       267 7.85318E-03-7.15049E-02-3.45657E-17
 -1       268 8.26836E-03-7.83500E-02-6.32496E-17
 -1       269-1.09981E-02-5.21987E-02-3.44742E-19
 -1       270 6.47433E-04-5.42132E-02-1.51483E-17
 -1       271-5.21421E-03-5.01540E-02 3.49745E-17
 -1       272-5.23231E-03-5.62299E-02-9.18702E-18
 -1       273 1.65187E-02-9.76013E-02-2.59616E-19
 -1       274 1.73103E-03-8.76962E-02 5.13302E-19
 -1       275 1.60440E-02-9.02992E-02 1.99934E-17
 -1       276 8.64509E-03-8.53879E-02 4.21145E-18
 -1       277 8.98561E-03-9.25955E-02 1.20379E-16
 -1       278-1.15461E-02-6.47787E-02 1.14561E-19
 -1       279 1.13155E-03-6.69542E-02-4.46378E-17
 -1       280-5.24431E-03-6.25673E-02-2.16461E-17
 -1       281-5.24978E-03-6.91413E-02-1.47510E-17
 -1       282 1.73157E-02-1.12616E-01-1.38913E-19
 -1       283 2.04249E-03-1.02384E-01 2.48181E-19
 -1       284 1.69385E-02-1.05044E-01-1.19154E-16
 -1       285 9.29189E-03-9.99593E-02 6.94567E-19
 -1       286 9.56515E-03-1.07458E-01-9.00498E-17
 -1       287-1.19951E-02-7.82799E-02-1.24937E-19
 -1       288 1.54940E-03-8.05920E-02 6.14057E-17
 -1       289-5.25422E-03-7.59318E-02 9.42695E-18
 -1       290-5.25725E-03-8.29187E-02 2.90260E-17
 -1       291 2.28994E-03-1.17598E-01 3.88047E-19
 -1       292 1.76440E-02-1.20298E-01 6.60618E-17
 -1       293 9.80793E-03-1.15081E-01-3.75405E-17
 -1       294 1.00213E-02-1.22807E-01 1.21148E-16
 -1       295-1.23644E-02-9.25420E-02 1.91641E-19
 -1       296 1.89520E-03-9.49662E-02 6.33475E-17
 -1       297-5.26015E-03-9.00830E-02 1.66626E-17
 -1       298-5.26273E-03-9.74066E-02 1.05618E-16
 -1       299-1.29018E-02-1.22782E-01 6.86626E-19
 -1       300 2.39188E-03-1.25364E-01-1.24488E-17
 -1       301-5.27036E-03-1.20167E-01-5.69988E-17
 -1       302-5.27284E-03-1.27965E-01 2.33388E-17
 -1       303-1.26640E-02-1.07419E-01-1.86559E-19
 -1       304 2.17373E-03-1.09933E-01 6.52893E-18
 -1       305-5.26533E-03-1.04872E-01 6.45561E-17
 -1       306-5.26782E-03-1.12464E-01 6.40628E-17
 -1       307 3.02457E-03-1.89856E-01 8.33701E-17
 -1       308 2.62232E-03-1.49137E-01-3.53424E-19
 -1       309-1.30851E-02-1.38512E-01 2.85503E-19
 -1       310 2.55714E-03-1.41146E-01-2.32928E-17
 -1       311-5.27532E-03-1.35847E-01 2.74776E-17
 -1       312-5.27761E-03-1.43800E-01-2.77149E-18
 -1       313-1.32678E-02-1.87111E-01 9.83220E-20
 -1       314-5.20463E-03-1.84333E-01-2.16479E-17
 -1       315-5.04628E-03-1.92626E-01-5.70935E-17
 -1       316-2.92947E-02-1.59973E-01-1.86665E-19
 -1       317-2.95239E-02-1.76176E-01-9.69006E-19
 -1       318-1.33057E-02-1.70701E-01-7.81758E-19
 -1       319-2.94204E-02-1.68059E-01-4.82661E-17
 -1       320-2.13875E-02-1.73433E-01-2.13984E-17
 -1       321-2.13096E-02-1.65320E-01-8.36462E-17
 -1       322 1.91600E-02-2.25099E-01-1.97788E-18
 -1       323 1.91550E-02-2.16930E-01 4.35477E-17
 -1       324 1.23750E-02-2.12605E-01 2.08617E-16
 -1       325 1.23842E-02-2.20777E-01 7.07984E-17
 -1       326-2.97664E-02-2.25149E-01 1.34767E-18
 -1       327-2.97558E-02-2.16980E-01 1.45108E-16
 -1       328-2.13628E-02-2.23932E-01 1.78460E-16
 -1       329 4.40979E-03-2.07304E-01-7.65096E-17
 -1       330 1.87289E-02-1.59924E-01 6.83344E-19
 -1       331 2.72992E-03-1.65271E-01-5.76512E-19
 -1       332 1.06228E-02-1.54515E-01-3.83265E-17
 -1       333 2.68084E-03-1.57184E-01 6.61202E-17
 -1       334 1.07234E-02-1.62587E-01 2.05253E-17
 -1       335-5.25366E-03-1.76123E-01-1.37726E-16
 -1       336 2.78959E-03-1.73408E-01-7.78387E-17
 -1       337-5.27456E-03-1.67977E-01-1.53335E-16
 -1       338 7.23744E-05-1.20780E-04 2.31134E-19
 -1       339 3.14901E-04-2.17710E-04-5.29396E-22
 -1       340 3.67364E-04-3.18940E-04 1.34678E-19
 -1       341 4.09512E-04-3.07514E-04-8.18869E-19
 -1       342 1.84973E-04-2.02779E-04-1.54181E-18
 -1       343 2.83900E-04-3.92199E-04-1.40396E-18
 -1       344-4.88376E-03-2.01069E-01-3.61027E-18
 -1       345-1.31263E-02-1.95548E-01 4.31512E-17
 -1       346 6.19545E-04-9.17500E-04-1.27055E-21
 -1       347 4.73639E-04-7.57982E-04-2.98579E-19
 -1       348 5.32485E-04-8.54824E-04-7.94517E-19
 -1       349 3.83312E-04-6.61408E-04 1.35102E-19
 -1       350 2.63151E-04-4.54072E-04 1.77453E-19
 -1       351 1.41450E-04-6.53992E-05-7.60741E-20
 -1       352 8.65362E-05-5.85684E-05-1.68129E-19
 -1       353-1.66739E-04-3.61583E-03-5.39560E-19
 -1       354 4.64270E-04-4.04437E-03 2.10064E-19
 -1       355 4.37233E-04-3.46476E-03 6.91179E-19
 -1       356-5.71157E-04-1.80224E-04 1.27055E-21
 -1       357-7.29188E-04-1.96821E-04-2.52416E-19
 -1       358-6.73656E-04-1.04349E-04 6.05629E-19
 -1       359 3.98304E-04-6.35121E-04 5.39136E-19
 -1       360 5.25257E-04-7.64718E-04-7.50471E-19
 -1       361 6.64733E-04-8.77557E-04-3.23990E-19
 -1       362 2.57371E-04-2.20459E-04 1.22185E-19
 -1       363-8.86191E-04-1.21218E-04-1.79995E-21
 -1       364-4.30277E-04 4.75233E-05 1.37219E-19
 -1       365-8.31513E-04-6.17599E-05 3.41778E-19
 -1       366-4.47728E-04 5.74331E-06 2.46910E-19
 -1       367-2.91894E-04-1.36363E-04 4.23516E-22
 -1       368-1.54121E-04-8.87746E-05 1.64748E-19
 -1       369-3.09402E-04-7.09149E-05-1.15196E-19
 -1       370 3.61661E-04-2.16198E-04-3.36484E-19
 -1       371 2.86130E-04-1.55172E-04-6.79956E-19
 -1       372-1.32905E-02-1.78897E-01-1.52941E-16
 -1       373-2.14473E-02-1.89788E-01 9.71125E-17
 -1       374-2.22891E-04-1.66125E-03 2.64698E-21
 -1       375 5.34638E-04-2.12451E-03-2.60039E-18
 -1       376 2.64662E-04-1.75155E-03-2.75286E-19
 -1       377 5.02839E-05-2.03683E-03 2.81469E-18
 -1       378-2.85793E-03-1.46723E-03 2.96462E-21
 -1       379-4.78792E-03-2.28413E-03-1.69407E-21
 -1       380-3.01104E-03-2.30803E-03 0.00000E+00
 -1       381-3.81177E-03-1.82336E-03-8.50421E-19
 -1       382-4.08050E-03-2.24482E-03 1.52635E-18
 -1       383-2.95678E-03-1.83960E-03 1.24514E-19
 -1       384-1.27352E-03-3.02992E-04 0.00000E+00
 -1       385-1.48703E-03-3.61823E-04 3.38813E-21
 -1       386-1.45195E-03-3.06275E-04 2.97309E-19
 -1       387-1.24998E-03-2.49518E-04-1.87194E-19
 -1       388 4.08300E-04-7.56958E-04-2.32934E-21
 -1       389 8.65076E-04-1.21442E-03 1.48231E-21
 -1       390 6.29494E-04-7.90459E-04-2.95826E-18
 -1       391 6.58023E-04-9.86696E-04-2.25946E-18
 -1       392 7.92866E-04-9.82025E-04-1.29003E-18
 -1       393 1.24824E-03-2.28997E-03 1.56701E-20
 -1       394 1.18508E-03-2.03261E-03-3.23567E-19
 -1       395 1.17534E-03-2.22588E-03-8.38563E-19
 -1       396 7.08891E-04-1.34050E-03 8.47033E-22
 -1       397 5.46972E-04-1.02086E-03 1.72795E-19
 -1       398 8.12357E-04-1.27969E-03-5.24313E-19
 -1       399-2.18150E-04-3.63452E-05 3.61471E-19
 -1       400-5.71808E-04-1.57076E-04-2.03076E-19
 -1       401-1.27506E-03-6.96459E-04-5.29396E-22
 -1       402-7.84487E-04-6.63764E-04-1.70465E-19
 -1       403-1.05303E-03-5.15967E-04-2.60463E-19
 -1       404 1.49862E-04-1.15859E-03 3.59989E-21
 -1       405 6.89434E-04-1.56509E-03-1.72117E-18
 -1       406 4.64160E-04-1.25669E-03 1.85077E-19
 -1       407 3.87739E-04-1.46953E-03 5.59042E-20
 -1       408-7.60634E-04-1.06894E-03-3.97047E-21
 -1       409-1.04425E-03-8.61720E-04-1.74997E-18
 -1       410-5.35122E-04-8.40353E-04 7.38950E-19
 -1       411-1.37548E-03-2.49495E-04 3.72694E-19
 -1       412-1.69709E-03-1.07971E-03-6.45863E-21
 -1       413-2.31182E-03-9.06944E-04 8.68209E-21
 -1       414-2.23982E-03-1.25162E-03 6.20028E-19
 -1       415-2.03708E-03-9.77184E-04 1.59666E-18
 -1       416-2.57163E-03-1.15803E-03-7.64024E-19
 -1       417 3.13755E-04-9.35132E-04 2.53983E-18
 -1       418 1.17787E-03-7.20560E-03 1.65341E-18
 -1       419-4.45555E-04-7.35994E-03 2.61903E-18
 -1       420-3.74445E-03-1.49783E-03-1.82112E-20
 -1       421-4.23904E-03-1.84959E-03-1.89227E-18
 -1       422-3.41276E-03-1.45619E-03-1.88719E-18
 -1       423-3.03782E-03-1.16406E-03-4.94667E-19
 -1       424-3.68158E-03-3.48157E-03-3.81165E-21
 -1       425-1.59794E-03-3.17195E-03 4.60574E-21
 -1       426-3.32768E-03-2.83750E-03 2.39626E-18
 -1       427-2.59407E-03-3.30263E-03 5.87841E-19
 -1       428-2.37335E-03-2.69208E-03 7.24637E-19
 -1       429-6.11056E-03-3.49570E-03 2.54110E-21
 -1       430-5.41726E-03-2.82513E-03-5.32953E-18
 -1       431-4.52876E-03-2.80903E-03 8.19928E-18
 -1       432-5.03120E-04-1.94160E-03-8.32210E-19
 -1       433-9.33971E-04-3.66525E-03 8.62703E-19
 -1       434-1.95295E-03-3.80119E-03 1.95114E-18
 -1       435-1.06531E-02-4.63067E-02-1.30104E-18
 -1       436-7.75550E-03-5.32693E-03-3.04932E-20
 -1       437-5.61010E-03-4.93301E-03-2.92226E-20
 -1       438-6.89241E-03-4.31288E-03-5.40746E-18
 -1       439-6.72878E-03-5.10400E-03-3.26616E-18
 -1       440-6.03920E-03-4.11212E-03-5.06695E-18
 -1       441-5.06180E-03-3.42611E-03 2.75794E-18
 -1       442 4.41623E-04-4.87652E-03 1.63816E-18
 -1       443 4.98402E-04-5.87912E-03 2.60886E-19
 -1       444-4.56994E-03-4.14339E-03-4.25719E-18
 -1       445-7.21317E-04-1.03880E-02 1.34001E-18
 -1       446-2.00368E-03-6.39447E-03-2.96165E-18
 -1       447-3.08793E-03-5.52789E-03 1.43243E-18
 -1       448-2.35520E-03-7.65674E-03-4.92719E-18
 -1       449-1.46783E-02-1.77585E-02-8.63974E-20
 -1       450-1.33936E-02-1.47304E-02 2.30257E-17
 -1       451-1.06126E-02-1.60049E-02 6.16640E-19
 -1       452-1.09290E-02-9.92795E-03-6.31548E-18
 -1       453-2.95703E-03-9.31021E-03-2.15337E-18
 -1       454 4.37108E-03-1.68911E-02 8.51776E-18
 -1       455 1.87865E-03-1.56764E-02 7.42340E-18
 -1       456 2.03365E-03-1.79337E-02 9.33430E-18
 -1       457-9.74672E-03-3.54172E-02 2.71898E-19
 -1       458-8.38446E-05-1.91267E-02 6.91518E-18
 -1       459-1.59606E-02-2.12408E-02-2.12402E-17
 -1       460-1.18756E-02-2.31406E-02 1.59412E-17
 -1       461-1.11195E-02-1.93838E-02 2.76810E-18
 -1       462-1.12825E-02-5.83633E-02-5.81590E-17
 -1       463-3.91358E-03-2.43536E-02 6.14946E-18
 -1       464-8.05714E-03-2.56706E-02 2.78030E-17
 -1       465-1.17805E-02-7.14249E-02-5.38544E-18
 -1       466-2.15894E-02-4.48179E-02 1.52466E-20
 -1       467-2.06029E-02-3.93660E-02 7.45389E-18
 -1       468-1.57769E-02-4.27025E-02 2.69018E-18
 -1       469-1.51080E-02-3.73409E-02 3.45589E-18
 -1       470-1.21888E-02-8.53257E-02-4.14343E-17
 -1       471-2.33341E-02-5.66291E-02 1.58395E-19
 -1       472-2.24932E-02-5.05826E-02-1.55685E-17
 -1       473-1.70243E-02-5.43609E-02-4.42897E-17
 -1       474-1.64478E-02-4.83891E-02-1.82586E-17
 -1       475-1.25224E-02-9.99127E-02 3.31584E-17
 -1       476-2.48085E-02-6.94838E-02 1.45690E-19
 -1       477-2.41000E-02-6.29382E-02-8.11525E-17
 -1       478-1.80547E-02-6.70871E-02-3.93227E-17
 -1       479-1.75662E-02-6.06030E-02-1.03026E-16
 -1       480-1.27902E-02-1.15048E-01 1.49755E-17
 -1       481-2.60377E-02-8.32092E-02 1.49925E-19
 -1       482-2.54492E-02-7.62486E-02 8.09459E-17
 -1       483-1.89112E-02-8.07083E-02 7.20452E-17
 -1       484-1.85037E-02-7.37972E-02 1.20617E-17
 -1       485-1.29998E-02-1.30608E-01 2.23108E-17
 -1       486-2.70446E-02-9.76498E-02 1.85924E-19
 -1       487-2.65647E-02-9.03499E-02-4.45743E-17
 -1       488-1.96154E-02-9.50667E-02 5.13556E-17
 -1       489-1.92813E-02-8.78056E-02-2.24803E-17
 -1       490-2.84807E-02-1.28129E-01-7.51953E-19
 -1       491-2.89544E-02-1.43930E-01-2.86297E-19
 -1       492-2.87337E-02-1.35994E-01 9.25909E-17
 -1       493-2.09714E-02-1.41209E-01-5.49157E-17
 -1       494-2.08133E-02-1.33286E-01-4.75101E-17
 -1       495 1.05069E-02-1.46494E-01-3.64398E-17
 -1       496-2.78515E-02-1.12665E-01 1.20025E-18
 -1       497-2.74691E-02-1.05094E-01-3.49655E-18
 -1       498-2.01835E-02-1.10019E-01 1.91133E-17
 -1       499-1.99155E-02-1.02478E-01 6.18232E-17
 -1       500 1.85775E-02-1.51877E-01 4.56932E-17
 -1       501-1.32191E-02-1.54512E-01-4.06046E-20
 -1       502-5.27727E-03-1.59874E-01-7.44041E-17
 -1       503-1.32669E-02-1.62589E-01-6.57605E-17
 -1       504-2.81847E-02-1.20348E-01-1.07766E-16
 -1       505-2.06306E-02-1.25438E-01-2.11894E-17
 -1       506-2.04212E-02-1.17678E-01-7.38020E-18
 -1       507-2.12197E-02-1.57234E-01-3.45318E-17
 -1       508-5.27888E-03-1.51812E-01 1.07473E-17
 -1       509-1.31575E-02-1.46485E-01 5.79116E-17
 -1       510 1.88498E-02-1.68009E-01 1.84613E-16
 -1       511 1.08017E-02-1.70689E-01 6.50801E-17
 -1       512-2.91382E-02-1.51927E-01-1.19479E-16
 -1       513-2.11054E-02-1.49196E-01 1.30104E-18
 -1       514-2.96027E-02-1.84316E-01-1.86957E-17
 -1       515-2.13987E-02-1.81632E-01 1.51788E-17
 -1       516-2.97737E-02-2.41474E-01 8.33798E-19
 -1       517-2.97714E-02-2.33314E-01-7.56231E-18
 -1       518-2.13703E-02-2.32098E-01 1.86328E-16
 -1       519 1.91590E-02-2.41424E-01-6.08739E-20
 -1       520 1.91607E-02-2.33264E-01-9.40545E-17
 -1       521 1.23878E-02-2.28945E-01 3.22858E-17
 -1       522-5.30811E-03-2.41432E-01 1.87443E-16
 -1       523 3.08883E-03-2.32067E-01 1.33899E-16
 -1       524 1.13853E-03-2.37805E-03 3.86247E-19
 -1       525 1.25819E-03-2.50827E-03 6.26804E-19
 -1       526 1.16402E-03-1.89374E-03 4.99749E-20
 -1       527 1.21877E-03-2.11246E-03 1.54668E-18
 -1       528 1.49988E-04-8.41642E-05 5.29396E-23
 -1       529 1.95266E-04-8.38745E-05-1.13714E-19
 -1       530 7.37848E-05-3.02057E-05-2.07947E-19
 -1       531 2.31435E-04-1.40122E-04 1.71312E-19
 -1       532 8.80375E-04-1.53054E-03 3.81165E-21
 -1       533 8.04381E-04-1.31150E-03 8.80914E-20
 -1       534 9.23796E-04-1.55411E-03-3.81165E-19
 -1       535 9.62588E-04-1.77990E-03-1.53652E-18
 -1       536 5.17009E-04-6.50927E-04-4.37069E-19
 -1       537 5.06570E-04-7.46535E-04-5.18384E-19
 -1       538-4.27470E-04-1.60020E-04 4.08270E-19
 -1       539-4.48741E-04-8.49584E-05 9.57147E-20
 -1       540-5.12988E-04-1.94537E-05-5.62430E-19
 -1       541 4.71734E-04-3.74201E-04-4.84291E-19
 -1       542 8.38747E-05-7.03394E-04 2.62707E-18
 -1       543 7.87496E-05-4.69997E-04-6.01817E-19
 -1       544-1.47138E-03-8.70914E-04-6.40780E-19
 -1       545-1.21237E-03-1.06363E-03-5.76194E-19
 -1       546-6.25299E-06-1.38551E-03 1.27097E-18
 -1       547 6.77606E-04-1.03301E-03-1.11808E-19
 -1       548 7.93495E-04-1.11914E-03 5.53113E-19
 -1       549 8.71367E-04-1.29467E-03 5.99699E-19
 -1       550-3.30792E-03-1.21552E-03 1.89227E-18
 -1       551-3.11611E-03-1.12134E-03 5.79371E-19
 -1       552-2.48612E-03-8.55758E-04 1.73981E-18
 -1       553 6.27929E-04-3.09082E-03-3.04932E-19
 -1       554 1.06271E-03-3.22153E-03-2.72236E-18
 -1       555 7.97639E-04-2.61038E-03-1.55600E-18
 -1       556 3.66416E-04-4.79659E-04-1.72032E-18
 -1       557 1.20270E-04-2.63839E-04 4.21081E-19
 -1       558 1.29180E-03-2.79559E-03-1.83129E-18
 -1       559 1.24436E-03-2.29824E-03 8.23316E-19
 -1       560 1.83540E-03-5.49789E-03-2.87652E-18
 -1       561 1.70350E-03-4.92525E-03-4.22500E-18
 -1       562 1.31931E-03-3.91168E-03-1.11131E-18
 -1       563-8.73063E-03-6.57217E-03 8.15523E-18
 -1       564-7.47987E-03-6.32581E-03 1.03778E-17
 -1       565-4.91799E-03-5.72774E-03-1.86551E-17
 -1       566-3.15398E-03-2.14414E-02 1.39396E-17
 -1       567-3.96792E-03-4.70101E-03-1.52330E-17
 -1       568-3.10000E-03-3.96664E-03-8.50125E-18
 -1       569 0.00000E+00 0.00000E+00-3.57871E-20
 -1       570 6.77667E-05-4.33838E-05-7.19978E-21
 -1       571 1.66377E-04-1.13853E-04-1.95241E-19
 -1       572 2.84587E-04-4.68135E-04 2.13029E-19
 -1       573-3.15120E-04 6.56186E-05-1.15832E-19
 -1       574 5.23507E-04-5.21854E-04-2.44369E-19
 -1       575-1.49086E-03-1.54646E-03 2.01170E-21
 -1       576-2.16871E-03-1.88173E-03 2.39880E-18
 -1       577-2.19552E-03-1.48192E-03 6.22569E-19
 -1       578-1.89813E-03-2.26371E-03 4.86832E-19
 -1       579-1.19332E-03-2.68660E-03-5.49089E-19
 -1       580 1.31153E-03-3.24341E-03-2.04135E-18
 -1       581 1.03469E-03-1.53835E-03 6.48827E-19
 -1       582 1.06671E-03-1.57741E-03-5.46336E-19
 -1       583-1.23242E-04-8.83861E-04-6.26804E-20
 -1       584-1.07835E-03-2.57681E-04 2.59616E-19
 -1       585-1.69527E-03-4.65712E-04 5.08220E-21
 -1       586-2.12130E-03-6.25338E-04 1.15112E-18
 -1       587-2.04816E-03-5.40928E-04 5.13302E-19
 -1       588-1.98375E-03-6.57573E-04 1.89058E-18
 -1       589-9.03254E-04-2.21181E-04-3.79471E-19
 -1       590-1.61237E-03-1.29234E-03-4.77727E-19
 -1       591-1.08575E-03-1.28358E-03-1.19739E-18
 -1       592-1.21145E-03-1.87662E-03 7.03461E-19
 -1       593-1.77618E-03-7.83665E-04 1.29427E-18
 -1       594-1.53440E-03-5.55626E-04 2.92226E-19
 -1       595-5.14587E-04-1.33869E-03-7.33954E-19
 -1       596-8.22570E-04-1.59296E-03-1.62747E-18
 -1       597-8.01668E-04-3.12683E-03-1.42894E-18
 -1       598 2.19378E-03-7.28083E-03-1.78216E-17
 -1       599 1.70876E-03-6.83316E-03-5.70561E-18
 -1       600 5.75877E-04-9.07512E-04-8.99549E-19
 -1       601 9.62419E-04-1.30157E-03-1.42217E-18
 -1       602 9.90575E-04-1.51789E-03 1.07912E-18
 -1       603 9.44235E-04-1.62481E-03-9.89334E-19
 -1       604-1.64642E-03-3.78571E-04 8.01293E-19
 -1       605-1.27938E-03-4.00976E-04 3.39237E-19
 -1       606-2.64651E-04-1.10875E-03-4.49351E-19
 -1       607 1.31111E-03-2.54101E-03 3.01374E-18
 -1       608 2.32585E-04-1.68922E-04-1.96512E-19
 -1       609 9.74044E-04-1.46451E-03 2.05829E-19
 -1       610-1.08599E-03-1.44228E-04 5.37866E-20
 -1       611-1.21494E-03-2.02020E-04-4.89162E-19
 -1       612-1.24111E-03-2.64028E-04-8.24587E-19
 -3
    1PSTEP                         2           1           1          
  100CL  101 1.000000000         612                     0    1           1
 -4  STRESS      6    1
 -5  SXX         1    4    1    1
 -5  SYY         1    4    2    2
 -5  SZZ         1    4    3    3
 -5  SXY         1    4    1    2
 -5  SYZ         1    4    2    3
 -5  SZX         1    4    3    1
 -1         1-6.24445E-01 7.52460E-01-1.06207E-03-1.13385E+00 2.37387E-12 6.78768E-13
 -1         2-1.12649E+00 1.03890E+00-6.00709E-04-9.91446E-02 1.08069E-11 6.13691E-13
 -1         3-2.49557E-01 7.55103E-01-6.30681E-04-5.77117E-01 1.97037E-13 8.71704E-13
 -1         4-9.39631E-01 9.02176E-01-2.97002E-03-6.04041E-01-5.56275E-13-5.87188E-13
 -1         5-6.99899E-01 9.08706E-01-6.04846E-03-3.72400E-01 1.07351E-11 9.19330E-13
 -1         6-4.22899E-01 7.52876E-01 3.82214E-03-8.56929E-01-2.73471E-12-9.55117E-14
 -1         7 5.37079E-01 1.60229E-01 2.43411E-04-6.60370E-01 1.05107E-11-4.80333E-13
 -1         8-3.03481E-02 4.50284E-01-2.67413E-04-8.93775E-01 1.23641E-11 1.45119E-12
 -1         9 2.03853E-01 4.57077E-01 7.08362E-04-6.04985E-01-9.34241E-13-1.02289E-12
 -1        10 1.16235E+00-3.85137E-02-1.00532E-03-5.18951E-02-3.27855E-12 2.43960E-12
 -1        11 2.88312E+00-3.87848E-02 1.99591E-03-9.63689E-02 1.39194E-12-1.53384E-12
 -1        12 9.63511E-01 2.29707E-01 3.06915E-04-1.25092E+00-6.01848E-12-2.50174E-12
 -1        13 1.88743E+00-6.69340E-02-9.45186E-03-6.76116E-02-1.91300E-12-1.01138E-12
 -1        14 1.97438E+00 9.55728E-02 5.76179E-03-6.98265E-01 1.17851E-12-1.46999E-12
 -1        15 1.14585E+00 1.07146E-01 3.48621E-03-6.32247E-01-6.34693E-12-4.29292E-13
 -1        16 5.23573E+00-4.05587E-02 3.93121E-03-1.38057E-01 2.75172E-12 1.36757E-14
 -1        17 1.65382E+00 2.41730E-01 6.17947E-04-1.75261E+00 1.37583E-12 3.54746E-12
 -1        18 3.88573E+00-7.49005E-02-8.12158E-03-1.07428E-01 1.37150E-12 2.40398E-13
 -1        19 3.49997E+00 1.00716E-01 6.01737E-03-9.70861E-01 3.27383E-12 3.32080E-12
 -1        20 2.37806E+00 1.20183E-01 4.45206E-03-9.03130E-01 4.45620E-12 7.00178E-13
 -1        21-1.55254E-01-4.68639E-02 3.19487E-03-2.00267E-01-3.23667E-15-1.29616E-15
 -1        22-1.29812E-02-2.32835E-01-3.56218E-03-5.49817E-02 2.19430E-14-1.67401E-15
 -1        23 3.12647E-02-4.62704E-01-1.02366E-03 8.86807E-02 1.30755E-15-2.65521E-15
 -1        24-5.70076E-02-1.20983E-01 1.73262E-03-1.36983E-01 7.00611E-15-4.34115E-15
 -1        25 3.10908E-02-3.55520E-01-1.51459E-03 2.58567E-02 1.16377E-14-7.94070E-16
 -1        26-2.58249E-02-2.35798E-01-1.53725E-03-7.75262E-02 8.91160E-16-8.22259E-16
 -1        27 1.12605E+00 4.91498E+00-3.05505E-04 2.33566E+00-5.93440E-14 2.44769E-14
 -1        28 7.53735E-01 2.28740E+00-5.69808E-03 1.55636E+00 5.46594E-14 5.28050E-15
 -1        29-6.22952E-02 6.89437E+00-5.05822E-04 1.85891E-01-2.40910E-14 2.88805E-14
 -1        30 8.80792E-01 3.36382E+00-5.18507E-02 2.01255E+00 3.15893E-15 2.88658E-15
 -1        31 4.54224E-01 4.59047E+00 4.57879E-03 1.04077E+00 2.28463E-15 1.81990E-14
 -1        32 5.82989E-01 5.99211E+00 5.87653E-03 1.27131E+00-6.04274E-14 3.94216E-14
 -1        33 1.03330E+00 3.44321E+00 1.10659E-03-3.77331E-01 1.18139E-14-1.18779E-14
 -1        34 8.86048E-01 3.45035E+00 1.24075E-03-1.14846E+00-1.22922E-14-4.27718E-16
 -1        35-2.03607E-01 4.63804E+00-8.23530E-03-8.69483E-01-8.87013E-15 1.97597E-14
 -1        36 1.03836E+00 3.46433E+00-3.16093E-03-7.25315E-01 1.57660E-14-1.61028E-14
 -1        37 4.91989E-01 4.09365E+00 2.40557E-03-1.07118E+00-2.09600E-14 2.51706E-14
 -1        38 4.60992E-01 3.94920E+00-4.68097E-04-6.16636E-01 8.06603E-15 4.62130E-15
 -1        39 1.19306E+01-4.16143E-02 8.72309E-03-2.14310E-01 2.18614E-12 2.19002E-13
 -1        40 1.62774E+01-4.20463E-02 1.17900E-02-2.51952E-01-2.53315E-12-3.57849E-13
 -1        41 5.12419E+00 2.44593E-01 5.62720E-04-3.20097E+00 6.38070E-12-5.54825E-13
 -1        42 1.38842E+01-8.56154E-02 1.51190E-03-2.17882E-01-1.16918E-12-5.48728E-14
 -1        43 1.07494E+01 1.03501E-01 6.63935E-03-1.75767E+00 7.71765E-13 2.63057E-13
 -1        44 8.68598E+00 1.29280E-01 3.21800E-03-1.68018E+00 1.22527E-12-1.26760E-12
 -1        45 3.99489E-01 4.22687E-01-3.23502E-03-2.23966E-01-7.22946E-15 5.51295E-15
 -1        46 2.15315E+00 6.21789E-01 4.85667E-04-5.58931E-01-6.02274E-16 6.99310E-17
 -1        47 1.73178E+00 1.47099E+00 1.79117E-04-9.69511E-01 6.41089E-16 1.84672E-15
 -1        48 1.39748E+00 4.20637E-01 4.65832E-03-3.85912E-01-2.44509E-15 3.09258E-15
 -1        49 1.97301E+00 1.01702E+00 1.87121E-03-7.53868E-01-2.14152E-15-1.43017E-15
 -1        50 1.11044E+00 9.87923E-01-6.48587E-04-5.75404E-01-4.37411E-15 1.21474E-15
 -1        51-3.10520E-01 3.01754E+00 6.35379E-04 5.59492E-01 1.31048E-15-8.75515E-15
 -1        52-1.83607E-01 5.94318E+00-7.80821E-03-1.13646E+00-1.93023E-14 8.36657E-15
 -1        53-2.31642E-01 4.09261E+00 9.50936E-04-2.45213E-01-1.78679E-14 1.45422E-14
 -1        54-3.00158E-01 5.06073E+00-1.00755E-02-9.48643E-01 2.10465E-14-2.36599E-14
 -1        55-3.25433E-01 4.70349E+00-1.12311E-02-2.21870E-01-6.55986E-15-2.78076E-15
 -1        56 5.50613E+00 1.35889E+01-9.51484E-03-6.29833E+00 2.20145E-14-3.57006E-14
 -1        57 9.31145E-01 2.51687E+01 2.63457E-02-4.35952E+00-5.33653E-14 5.68365E-14
 -1        58 2.26591E+00 1.48661E+01-2.10854E-03-3.35504E+00 3.25885E-14-3.26709E-14
 -1        59 3.55507E+00 1.92152E+01 1.09937E-02-5.58030E+00-2.31204E-14 4.12170E-15
 -1        60 1.47046E+00 1.93988E+01-2.87612E-02-3.52690E+00 5.54071E-15-9.65200E-15
 -1        61 4.03076E+00 1.45689E+01 5.87044E-02-4.98050E+00 4.04433E-14-4.41522E-14
 -1        62 4.96166E-01 1.35769E+00 1.10002E-03 2.93923E-01 7.66878E-15-4.83446E-15
 -1        63 7.84174E-01 2.60985E+00 4.03302E-03 3.11741E-03-7.16874E-15-2.23779E-16
 -1        64 2.17040E-01 3.10479E+00 5.71589E-03-1.55139E-01-6.57742E-15 9.62858E-15
 -1        65-5.57903E-01-2.17426E-01-1.65233E-03-3.20457E-01-7.73990E-15 9.58001E-16
 -1        66 1.93503E-01 1.69035E-01 4.36396E-03 2.13433E-02-4.92293E-15 4.64155E-15
 -1        67-2.95780E-01-1.16853E-01 1.00658E-02-2.14542E-01-6.93889E-18-1.36502E-14
 -1        68-4.42405E-02-2.21501E-03-5.93585E-03-1.25062E-01-8.94814E-15 1.67585E-15
 -1        69-1.71700E-01-4.38086E-02 1.56468E-04-1.71856E-01-3.74830E-15 2.83476E-15
 -1        70 2.35396E-01 6.39880E-01-3.06307E-03 4.50714E-01-1.42204E-14 1.77575E-14
 -1        71 5.10380E-01 1.50471E+00 4.93482E-02 8.52836E-01 1.65302E-14-3.28834E-14
 -1        72 4.91895E-02 1.98257E+00 6.84549E-03 5.87031E-01-8.59555E-16-1.52309E-15
 -1        73 1.37765E-01 2.73725E+00-1.05054E-02 9.78335E-01 4.67387E-14-9.15934E-15
 -1        74-8.12420E-01-1.67614E-01-6.47095E-03-3.64326E-01-7.98753E-15 1.35482E-14
 -1        75-7.43973E-01-2.37292E-01-1.81724E-02-3.68254E-01-1.79648E-14 1.15285E-14
 -1        76-2.35628E-01 5.35115E-02 1.21177E-02-1.50168E-01 6.41848E-16 6.82353E-15
 -1        77 1.34892E-01 4.48445E-01 1.19771E-03 1.81958E-01-7.64753E-15-1.19219E-15
 -1        78 3.35515E-01 7.58279E-01-6.00305E-03 8.82851E-02-5.54678E-15 3.08954E-15
 -1        79 1.27428E-01-1.42519E-01 1.78732E-03 3.25116E-02-2.57585E-15-6.07760E-15
 -1        80-2.55977E-01-1.57729E-01-2.13166E-02 5.32796E-03-5.24320E-16-1.87380E-14
 -1        81-5.19675E-02 5.93320E-02-6.77542E-02 1.98408E-01-1.21674E-14 2.94660E-14
 -1        82-9.49868E-02 1.41274E+00 2.28659E-02 3.89887E-01 3.92048E-15-1.90230E-14
 -1        83 9.67977E-02 1.92194E+00 4.07831E-04 3.79583E-01 1.88058E-14-8.18052E-15
 -1        84-3.92138E+00-1.16860E+00 6.34536E-03 1.08757E+00 1.12562E-15-2.16016E-15
 -1        85-9.01694E+00-1.11984E+00 1.20958E-02-1.51419E+00-4.68289E-15 2.02789E-15
 -1        86-7.38065E+00 5.38260E-01 3.54145E-03 8.61485E-01-6.76976E-16-1.02743E-14
 -1        87-6.00108E+00-1.79773E+00 8.71879E-03-1.02430E-01-1.16747E-15-2.10769E-15
 -1        88-8.16593E+00-2.57805E-01 1.96776E-02-2.60984E-01-2.10769E-16 2.08514E-15
 -1        89-5.49768E+00-2.04344E-01 3.82336E-04 9.49058E-01 1.59595E-16-3.12207E-15
 -1        90 2.43599E+00 5.95685E-01 3.54517E-03-1.19010E-01 1.62061E-15-4.88802E-15
 -1        91 7.63946E-01 6.02290E-02 2.01395E-03 8.34611E-01-3.10212E-15-1.57274E-15
 -1        92 2.99574E+00-6.78313E-01-7.73927E-04-4.89768E-01-1.36501E-15-7.22545E-15
 -1        93 1.55231E+00 4.63506E-01-7.31654E-03 3.47156E-01-5.69857E-16-4.36630E-15
 -1        94 1.85208E+00-4.39586E-01 1.61357E-04 1.73751E-01 2.42341E-15-4.76344E-15
 -1        95 2.60365E+00-1.00758E-01-2.29365E-03-2.19711E-01 2.39045E-15-1.57816E-15
 -1        96 6.05828E-01 2.01997E+00-5.23752E-04-9.07446E-01-4.74729E-15 2.08340E-15
 -1        97 4.00827E-01 1.34161E+00-5.49235E-03-5.81248E-01 2.63548E-15-3.97859E-15
 -1        98 1.10923E+00 1.76879E+00-6.35530E-04-9.18520E-01-3.69106E-15 5.20417E-15
 -1        99 1.15442E-01 1.43362E+01-1.47212E-02 1.97695E+00-7.87564E-15-1.91461E-14
 -1       100 7.50775E-01 9.14279E+00 7.40115E-03 2.74979E+00 3.40006E-15-1.11075E-14
 -1       101 1.01491E+00 1.08242E+01-4.46702E-05-2.03312E+00-6.02339E-14 8.20871E-15
 -1       102 4.47228E-01 1.15485E+01-2.15448E-02 2.51366E+00 7.18418E-14-1.36922E-14
 -1       103 7.89533E-01 1.01406E+01-5.13632E-03 3.41538E-01-5.01231E-14 1.46172E-14
 -1       104 7.73032E-01 1.26423E+01 2.01841E-02-1.82728E-01-2.80609E-14-2.89439E-15
 -1       105 8.31970E-01 2.76656E+00 6.69291E-03-1.13389E+00-1.09348E-14-2.24126E-15
 -1       106 1.13286E+00 2.42367E+00-1.73195E-03-1.11116E+00 8.17380E-16-2.58463E-15
 -1       107 1.47755E+00 1.26388E+01-4.52612E-02-2.64711E+00-7.56617E-14 4.42701E-14
 -1       108 1.09950E+00 1.49409E+01 1.03659E-02-5.87607E-01-9.57567E-15-2.98615E-14
 -1       109 1.68375E+00 3.18205E+00 3.31803E-03-2.25446E+00 2.34025E-16 2.13284E-15
 -1       110 3.25570E+00 4.06389E+00-1.74579E-04-3.71648E+00-2.97247E-14 1.87727E-14
 -1       111 8.71053E-01 5.33086E+00 4.75601E-03-2.55897E+00 4.64039E-16 1.29648E-14
 -1       112 2.34893E+00 3.46099E+00-1.88819E-03-2.90787E+00-6.53492E-15 1.75311E-14
 -1       113 2.02236E+00 4.88140E+00 1.94012E-02-3.12196E+00-2.13145E-14 2.10587E-14
 -1       114 1.36215E+00 4.32340E+00 2.74649E-03-2.48676E+00-7.53130E-15 1.14219E-14
 -1       115-1.62281E+00-8.76958E-01-9.36677E-04 1.64631E+00 1.67401E-15 6.17995E-15
 -1       116-1.59038E+00-4.76215E-01 2.98883E-03 1.06165E+00 2.01228E-16-3.57353E-16
 -1       117-3.02991E+00-9.58106E-01-1.69393E-03 1.25423E+00 2.46678E-15 4.04060E-15
 -1       118-3.13370E-01-5.04905E-01 4.17118E-03 1.10365E+00-3.74960E-15 2.56885E-15
 -1       119-7.86465E+00 5.82568E-01-2.07774E-03 1.73820E+00-1.07323E-14 6.79404E-15
 -1       120-1.02568E+01 1.04915E+00 2.04846E-04 7.38370E-02 8.56021E-15-2.19109E-14
 -1       121-1.05713E+01 8.81003E-01 2.57494E-03 1.57964E+00 4.02456E-16-1.11261E-14
 -1       122-9.14124E+00 8.17024E-01-2.50249E-03 9.32607E-01-1.89779E-15-8.09162E-15
 -1       123-1.05291E+01 9.33395E-01-6.93597E-03 7.91171E-01 1.13937E-14 1.80325E-15
 -1       124-9.04736E+00 7.52505E-01 1.33494E-03 1.62067E+00-1.49533E-15 8.22953E-15
 -1       125-2.80847E+00 1.04104E+00-1.73700E-03-1.31848E-01-3.73381E-12 3.02364E-12
 -1       126-1.88793E+00 1.05720E+00 1.08790E-02-1.16799E-01 8.44161E-12 4.31873E-13
 -1       127-1.73283E+00 8.90281E-01-7.16383E-03-6.48592E-01 1.59906E-12 9.01812E-13
 -1       128 5.86428E+00 1.54896E+00-4.67259E-03-3.21350E+00 1.21193E-14 7.88042E-15
 -1       129 3.87880E+00 9.27389E-01 1.11847E-03-2.38801E+00 3.54556E-15-4.76615E-15
 -1       130 4.58122E+00 3.04390E+00 1.84411E-02-3.56350E+00-8.22042E-15 1.39992E-15
 -1       131 3.73174E+00 2.54478E+00 5.06825E-03-3.13252E+00-5.89806E-16 4.53890E-15
 -1       132 4.66574E+00 1.09913E+00-2.26327E-03-2.68952E+00 1.51172E-14-8.95117E-15
 -1       133 3.89206E+00-1.10076E+00-3.16716E-03-2.93040E-01-7.79325E-16-9.14221E-15
 -1       134 9.94462E-01-8.97076E-01-3.60389E-03 5.47315E-01 1.42681E-15-3.32460E-15
 -1       135 1.28425E+00-1.07683E+00-6.24380E-03 8.08112E-01-7.59635E-15-1.40942E-14
 -1       136 3.34072E+00-9.09111E-01-1.89829E-03-3.86751E-01-7.86003E-15 2.74954E-15
 -1       137 2.79444E+00 2.18042E+00-6.52538E-03-2.39432E+00 6.39083E-15-6.28317E-15
 -1       138 1.77305E+00-1.51736E+00-5.34158E-03 3.26607E+00 1.48544E-14 2.03466E-14
 -1       139 7.11612E-01-1.47504E+00-9.09547E-03 2.47842E+00-1.09981E-15 5.16861E-15
 -1       140-3.57918E+00-1.02583E+00-3.21650E-05 4.16313E+00 2.00838E-14 1.42841E-14
 -1       141 1.15300E+00-1.54657E+00-2.90680E-04 2.88358E+00 7.43329E-15-6.73246E-15
 -1       142-1.30307E+00-1.20104E+00-1.44385E-03 3.26213E+00 2.25028E-14-1.49225E-14
 -1       143-8.77490E-01-1.30915E+00-2.80373E-03 3.67267E+00-8.74648E-15 2.73219E-15
 -1       144-1.43152E+01 1.02479E+00-4.81848E-03 9.01103E-02 4.88585E-14 4.63379E-14
 -1       145-1.75942E+01 1.10352E+00 9.79226E-03 1.84626E-01 6.97940E-14-3.50856E-14
 -1       146-1.18279E+01 6.84884E-01-4.73753E-04 2.41306E+00-4.40212E-14 6.69126E-15
 -1       147-1.58951E+01 1.03909E+00 2.64236E-03 1.65702E-01 7.34360E-14 3.10481E-14
 -1       148-1.46094E+01 8.85216E-01-3.20061E-03 1.34550E+00 9.93997E-15 1.17406E-14
 -1       149-1.30496E+01 8.63177E-01 2.69782E-04 1.21970E+00-6.81573E-15 1.09912E-14
 -1       150 4.98158E+00 7.58221E+00 4.47194E-03-5.27618E+00 3.41094E-14-2.91954E-15
 -1       151 5.72175E+00 4.40675E+00 2.26425E-03-4.31033E+00 5.65195E-14-8.26422E-15
 -1       152 3.87827E+00 5.52389E+00-1.75389E-02-4.30554E+00-2.12738E-14 1.56940E-14
 -1       153-2.16190E+01 1.01925E+00-1.24765E-02 1.02788E-01-1.84913E-14-9.27990E-14
 -1       154-1.80593E+01 8.28418E-01 6.10246E-03 2.47255E+00 4.99600E-15 1.56116E-14
 -1       155-1.94012E+01 1.05417E+00 3.53568E-03-2.54506E-03 4.94257E-14-1.03459E-14
 -1       156-1.97839E+01 9.26257E-01 3.41857E-03 1.34142E+00-3.99576E-14 6.58501E-15
 -1       157-1.80170E+01 9.11300E-01 5.07107E-03 1.25539E+00 2.54276E-14-2.04853E-14
 -1       158 9.02326E+00 3.33771E+01 3.11854E-02-1.72909E+01-1.99348E-13 1.38698E-13
 -1       159 3.49786E+00 3.01017E+01 2.26880E-02-1.02111E+01 7.07316E-14-5.32803E-14
 -1       160 1.13604E+01 1.82044E+01 6.43307E-03-1.10421E+01-8.17762E-14-6.03059E-14
 -1       161 6.26738E+00 3.20069E+01 6.74884E-02-1.36074E+01 1.17944E-13 9.03860E-14
 -1       162 7.36983E+00 2.40215E+01-3.26463E-02-1.08938E+01 1.44676E-14-7.40519E-14
 -1       163 1.03007E+01 2.56469E+01 1.36917E-02-1.40256E+01-9.56769E-14 8.65974E-14
 -1       164 1.12996E+01 2.60701E+00 3.37012E-03-2.40246E+00-9.32934E-15 6.87644E-15
 -1       165 1.51437E+01 9.10443E+00-1.26982E-02-7.54334E+00-9.68765E-14-5.62120E-14
 -1       166 1.00366E+01 8.16718E+00-6.22001E-03-6.55352E+00 1.00162E-13 5.79051E-15
 -1       167 1.31213E+01 5.90631E+00 3.21980E-02-4.96090E+00-1.75485E-14 1.07830E-14
 -1       168 1.25529E+01 8.83178E+00 1.38171E-02-7.11881E+00 6.33651E-15-1.99493E-14
 -1       169 1.08271E+01 5.46487E+00 3.26139E-03-4.57791E+00 8.25034E-14-1.68268E-14
 -1       170 1.84508E+01 3.44495E+01 5.70244E-02-2.51800E+01 5.89815E-14 1.52184E-13
 -1       171 1.78742E+01 2.10427E+01-1.91169E-02-1.56293E+01 1.13358E-13-6.37476E-14
 -1       172 1.36009E+01 3.40169E+01 3.21890E-02-2.13818E+01 1.68181E-14-6.54476E-14
 -1       173 1.35183E+01 2.71604E+01-2.13491E-02-1.67577E+01-1.32830E-13-4.56996E-14
 -1       174 1.83410E+01 2.76537E+01-8.12759E-03-2.03069E+01 1.13745E-13 2.99899E-14
 -1       175 3.19923E+01 3.09884E+01 3.53428E-02-3.06213E+01 3.49875E-13-3.07795E-13
 -1       176 2.04536E+01 9.45040E+00 7.44461E-03-7.80903E+00 8.33934E-14 3.31471E-14
 -1       177 2.80982E+01 1.25256E+01-1.78088E-02-1.19016E+01-2.53454E-13-1.88329E-13
 -1       178 2.63035E+01 1.92046E+01-6.23788E-03-1.82995E+01 1.64951E-13-6.19366E-14
 -1       179 2.44376E+01 1.14304E+01-4.84178E-03-9.83021E+00-1.98203E-13 1.72362E-14
 -1       180 3.01812E+01 2.07994E+01-9.54168E-02-2.09642E+01 1.74048E-13-3.61600E-13
 -1       181 6.52287E+01-4.12217E-01 4.44084E-02-3.29332E-01-1.72216E-12 1.67515E-12
 -1       182 8.05350E+01 4.32122E-01 6.69609E-02-3.37305E+00 2.37949E-13-6.16167E-13
 -1       183 2.71937E+01 2.65749E+00-3.57855E-02-7.73220E+00 1.42067E-13-8.31564E-13
 -1       184 7.12353E+01-2.59657E-02 6.14315E-03-1.30731E+00 1.39821E-12-5.63341E-13
 -1       185 5.28616E+01 1.69966E+00-3.95981E-02-5.64585E+00-9.21291E-13-5.38979E-13
 -1       186 4.67256E+01 8.99351E-01 6.76392E-03-4.07071E+00 1.00331E-12-3.39978E-13
 -1       187-2.03284E+01 3.36063E+00 5.32935E-03 4.66617E+00 1.99903E-13-1.60837E-13
 -1       188-7.37459E+01 7.54204E-01-2.29875E-02 1.06091E+00-1.26232E-13 2.96310E-13
 -1       189-2.27876E+01 3.99699E+00 1.35954E-02 7.61636E-01 4.98171E-13-9.18189E-15
 -1       190-4.65413E+01 2.09856E+00 4.13080E-02 2.67143E+00-9.95870E-14-2.55204E-13
 -1       191-4.78181E+01 2.31910E+00 6.81271E-02 9.05671E-01-5.06095E-13 3.24468E-13
 -1       192-2.14667E+01 3.65410E+00-5.97799E-02 2.72734E+00 6.38600E-13 1.10694E-13
 -1       193 1.21683E+01 2.80124E+00 4.41314E-03 4.32656E-01-2.34396E-14 8.29788E-14
 -1       194 1.27589E+01 2.93435E+00 9.07746E-03-1.25239E+00-4.69052E-14-5.12368E-14
 -1       195 4.38132E+00 7.84282E-02 8.28104E-03 4.46554E+00 1.05645E-14 2.23675E-14
 -1       196 1.27963E+01 3.08575E+00 4.85874E-02-4.87971E-01-4.64906E-16 4.01346E-14
 -1       197 8.63765E+00 1.37315E+00-2.91794E-03 1.60920E+00-6.89171E-14-1.68962E-14
 -1       198 7.92111E+00 1.49062E+00 6.94071E-03 2.36725E+00-6.22558E-14 4.02664E-14
 -1       199 1.46684E+01 1.98528E+01 1.57090E-02-1.33757E+01 1.51459E-13-1.28217E-13
 -1       200 3.76121E+01 6.59747E+00-4.12308E-02-7.94731E+00-5.45813E-13 1.17803E-13
 -1       201 5.87448E+01 3.33625E+00-8.91060E-02-5.86806E+00 5.50282E-13-9.42857E-14
 -1       202 3.28034E+01 4.76919E+00 1.34122E-02-8.00128E+00 8.75272E-13-4.82947E-14
 -1       203 2.01817E+01 6.49530E+00-1.15883E-02-1.68685E+00-1.16955E-13 2.51708E-14
 -1       204 1.53166E+01 4.57081E+00 1.13046E-02-4.72795E-01 2.25132E-13 7.13700E-14
 -1       205-1.60038E+00 1.82344E+00 8.62203E-03 6.18519E+00-2.84037E-13 1.02701E-13
 -1       206 1.75042E+01 5.43568E+00-3.34929E-02-1.11464E+00-5.15005E-14 2.52576E-14
 -1       207 6.67854E+00 3.18733E+00-5.80326E-02 2.87410E+00 1.93998E-13 3.99125E-14
 -1       208 8.63509E+00 4.24894E+00 3.44165E-03 2.11836E+00-1.88821E-13 4.21885E-14
 -1       209-1.07121E+01 2.68335E+00 6.46594E-03 6.59283E+00-3.02654E-13 3.20455E-14
 -1       210-6.49803E+01 5.89373E-01-5.88054E-02 1.63323E+00-8.06209E-13-5.92956E-13
 -1       211-3.75100E+01 1.60730E+00 2.34530E-02 4.64955E+00-8.37275E-13-1.38195E-13
 -1       212-4.32294E+01 1.74040E+00 1.22351E-02 3.16451E+00-4.14974E-13-2.31103E-13
 -1       213-1.48574E+01 3.35583E+00 2.94210E-02 5.66942E+00 4.72206E-13 2.61006E-14
 -1       214 7.02073E+01 1.67197E+01 6.18182E-02-3.19996E+01-8.62685E-13-2.50633E-14
 -1       215 5.17914E+01 2.40992E+01 2.44753E-02-3.31978E+01 5.35960E-13 7.91728E-14
 -1       216 2.41510E+01 7.83829E+00-6.18342E-03-2.76297E+00 4.84411E-13-1.87544E-13
 -1       217 6.24824E+01 2.09978E+01 1.83177E-01-3.37593E+01-3.81445E-13 4.22884E-13
 -1       218 3.90767E+01 1.48600E+01-3.31593E-02-1.75715E+01 5.79620E-13-1.83270E-13
 -1       219 4.58291E+01 1.23534E+01-5.74065E-02-1.67721E+01-4.85528E-13-5.91749E-14
 -1       220 2.73499E+01 8.85603E+00 4.26672E-03-5.73416E+00 9.58025E-13-6.04863E-14
 -1       221-1.55442E+01 3.97594E+00 1.61759E-02-4.41834E+00 1.20469E-12 6.45151E-13
 -1       222 2.06921E+00 6.43630E+00 1.95943E-02-2.88186E+00 4.38399E-13-2.00673E-14
 -1       223-1.93223E+01 3.91726E+00-5.67940E-02-1.79882E+00-2.03337E-13-2.21684E-13
 -1       224 5.60862E+00 6.17900E+00-7.56477E-02-5.16041E+00 2.47191E-13 4.77035E-13
 -1       225 8.41537E+01 9.69832E+00 8.60944E-02-2.53074E+01 5.61939E-13 2.14197E-13
 -1       226 2.45303E+01 8.82994E+00-2.30586E-02-3.50042E+00-6.97900E-13 5.12090E-14
 -1       227 7.99419E+01 1.40666E+01 3.58847E-01-2.96794E+01 5.39013E-13-4.22884E-13
 -1       228 4.69005E+01 1.16727E+01-1.37628E-01-1.69160E+01-2.10665E-13 4.58800E-14
 -1       229 5.22015E+01 9.34493E+00-1.05506E-01-1.40079E+01 5.36515E-14 3.55688E-13
 -1       230 9.00619E+01 3.79778E+00 7.42704E-02-1.44365E+01-1.60311E-12 6.64309E-13
 -1       231 8.99189E+01 2.30692E+00 4.30113E-01-8.58576E+00-1.79673E-12 8.05744E-14
 -1       232 6.22037E+01 4.90869E+00-2.10861E-01-1.05660E+01-2.26602E-12 6.77375E-13
 -1       233 1.64020E+00 6.10354E+00-4.05387E-02 2.36988E-01-8.72524E-13-2.06406E-13
 -1       234 3.66954E-01 6.41448E+00-2.16620E-02-1.47716E+00 1.27759E-13 3.43364E-13
 -1       235 2.76663E+01 9.50672E+00 1.75082E-01-4.80349E+00 3.48888E-14-2.27179E-13
 -1       236-7.30999E+01 7.74718E-01-4.69639E-02-5.17934E-01-4.94799E-13 1.09202E-12
 -1       237-6.52193E+01 9.36540E-01-4.04931E-02-6.45382E-01 2.17241E-12-2.24123E-13
 -1       238-2.04076E+01 1.65957E+00-6.24958E-03-6.35356E+00-1.19520E-12-5.46093E-13
 -1       239-6.98756E+01 8.34819E-01-9.60888E-02-5.44183E-01-5.65659E-14-1.77976E-13
 -1       240-4.26692E+01 1.18629E+00 1.74192E-02-3.51208E+00-1.19466E-12-7.01841E-13
 -1       241-4.62660E+01 1.42896E+00 4.13897E-02-3.30967E+00-4.86555E-13 2.12726E-13
 -1       242 5.61179E+01-1.16364E-01 3.88238E-02-3.77368E-01 1.40624E-13 1.04580E-12
 -1       243 2.19310E+01 5.53632E-01-3.22755E-03-6.65589E+00-6.20518E-13 1.53528E-13
 -1       244 6.01054E+01-2.20030E-01 3.09207E-02-3.36069E-01-2.74736E-12 9.67462E-13
 -1       245 4.38529E+01 3.06467E-01 2.84535E-02-3.65074E+00-3.28915E-12 1.46837E-12
 -1       246 3.93684E+01 2.26451E-01-2.52342E-03-3.47409E+00 8.93452E-14-1.86816E-13
 -1       247 2.44084E+01 1.34259E+00 1.69206E-02-7.12399E+00 2.82829E-14-3.44122E-13
 -1       248 4.79442E+01-4.93562E-02 3.41183E-02-4.20750E-01 1.61121E-14-1.28615E-12
 -1       249 1.82909E+01 2.17348E-01 3.15227E-04-6.03729E+00 1.50285E-12 1.26868E-13
 -1       250 5.17259E+01-1.18782E-01 4.43782E-02-3.85779E-01-9.73166E-13 3.84172E-13
 -1       251 3.72850E+01 1.00540E-01 1.26114E-02-3.26836E+00 3.68733E-13 1.03068E-12
 -1       252 3.33616E+01 1.29823E-01-4.17308E-03-3.19140E+00 8.40550E-13-7.03979E-13
 -1       253 3.22887E+00 2.22536E+00-3.61250E-03-7.03017E+00-1.14928E-12-4.76341E-13
 -1       254 7.01882E-01 1.13014E+00-4.71795E-02-6.48274E+00 1.60527E-12 8.57699E-14
 -1       255 4.03223E+01-4.21856E-02 2.89356E-02-4.01116E-01 3.50123E-12 1.24031E-12
 -1       256 1.54045E+01 2.21290E-01 1.58539E-04-5.58183E+00 1.02113E-12-4.72391E-13
 -1       257 4.38592E+01-9.77995E-02 3.41519E-02-3.91366E-01 9.14116E-13-1.62850E-12
 -1       258 3.17073E+01 9.44904E-02 5.02970E-03-3.04430E+00 7.98250E-14 1.90906E-13
 -1       259 2.80900E+01 1.32961E-01-7.04331E-04-2.95625E+00 5.41234E-13-9.79723E-13
 -1       260-1.91533E+01 8.66020E-01-7.35898E-04-6.44450E+00 7.35578E-13-5.95175E-13
 -1       261 1.98463E+01 2.80214E-01 8.89100E-04-6.29771E+00-1.28189E-12 1.27346E-13
 -1       262 1.41145E+00 7.95646E-01-1.22994E-03-6.63666E+00 6.99607E-13-6.75106E-13
 -1       263-3.49560E-01 5.28772E-01-1.05251E-02-6.20362E+00 1.49203E-12 2.95591E-13
 -1       264 3.33187E+01-4.26000E-02 2.37916E-02-3.65373E-01 6.94306E-14-7.90232E-13
 -1       265 1.28792E+01 2.39083E-01 5.32307E-04-5.11991E+00 3.80286E-13 1.42183E-12
 -1       266 3.65522E+01-9.53953E-02 2.51500E-02-3.63206E-01-2.45484E-13 1.66304E-13
 -1       267 2.66337E+01 1.01603E-01 4.63546E-03-2.79992E+00 2.93615E-12 1.04233E-12
 -1       268 2.33145E+01 1.36552E-01-3.70896E-04-2.70874E+00 2.56263E-12-4.93650E-13
 -1       269-1.67372E+01 7.33442E-01 7.74033E-04-5.98858E+00 1.20948E-12-1.23664E-12
 -1       270 1.66173E+01 1.52201E-01-5.76903E-03-5.79307E+00 2.85993E-12-2.66349E-14
 -1       271 8.83748E-01 5.34820E-01 6.13073E-03-6.08420E+00 6.28247E-13 3.43536E-13
 -1       272-5.75511E-01 4.71519E-01-5.98643E-03-5.75337E+00 1.93884E-12-1.45143E-12
 -1       273 2.69718E+01-4.27050E-02 1.94005E-02-3.27560E-01 4.07410E-12-4.62533E-12
 -1       274 1.06040E+01 2.44552E-01 5.27205E-04-4.64391E+00 3.10965E-12 8.89218E-13
 -1       275 2.98866E+01-9.35717E-02 1.85373E-02-3.27169E-01 1.83586E-12-7.27418E-13
 -1       276 2.19996E+01 1.04417E-01 6.20634E-03-2.54209E+00 6.68829E-12 1.39823E-12
 -1       277 1.89903E+01 1.36021E-01 7.15857E-04-2.45342E+00 3.41588E-12-1.23620E-13
 -1       278-1.42186E+01 7.43378E-01 5.35753E-04-5.47614E+00-1.76565E-12 1.32092E-12
 -1       279 1.39382E+01 1.69734E-01-4.58182E-03-5.33807E+00-2.39932E-12 6.56836E-14
 -1       280 6.94269E-01 5.34056E-01 1.23379E-02-5.58411E+00 3.50671E-12-9.25614E-14
 -1       281-5.93304E-01 4.87566E-01-4.63318E-03-5.27336E+00-7.86662E-13 5.63251E-13
 -1       282 2.12911E+01-4.24289E-02 1.53833E-02-2.89666E-01-1.00122E-12 3.39015E-12
 -1       283 8.55509E+00 2.45167E-01 4.60197E-04-4.16342E+00 2.87898E-12-1.95586E-12
 -1       284 2.38851E+01-9.13257E-02 1.15507E-02-2.90540E-01 4.66230E-12-7.37951E-15
 -1       285 1.78058E+01 1.04501E-01 6.35110E-03-2.28089E+00 5.17615E-12-4.70420E-12
 -1       286 1.51111E+01 1.34082E-01 1.92010E-03-2.19589E+00 1.48911E-12 5.96335E-13
 -1       287-1.18419E+01 7.54961E-01 7.63401E-05-4.98192E+00 3.08385E-13-2.08518E-14
 -1       288 1.15542E+01 1.84434E-01-6.51172E-03-4.86938E+00 4.35557E-12 2.44037E-13
 -1       289 6.05894E-01 5.44887E-01 1.12279E-02-5.09893E+00 2.92377E-13 1.01271E-12
 -1       290-5.53493E-01 4.96530E-01-3.80305E-03-4.79194E+00 1.58196E-12-1.12687E-12
 -1       291 6.72860E+00 2.44904E-01 5.26484E-04-3.68219E+00 4.98818E-12 3.11627E-13
 -1       292 1.85511E+01-8.85550E-02 6.06104E-03-2.54207E-01-7.90340E-13-7.77919E-14
 -1       293 1.40555E+01 1.04033E-01 6.52081E-03-2.01923E+00 6.71824E-13 3.69806E-12
 -1       294 1.16764E+01 1.31688E-01 2.54967E-03-1.93801E+00-3.92185E-12 6.79502E-13
 -1       295-9.67105E+00 7.58241E-01 6.23994E-05-4.49794E+00 1.39762E-12 2.32065E-12
 -1       296 9.40571E+00 1.91334E-01-6.76000E-03-4.39190E+00-1.41247E-12-1.36013E-13
 -1       297 5.43286E-01 5.45253E-01 9.96696E-03-4.61406E+00-2.90171E-13 1.63706E-12
 -1       298-5.00286E-01 4.98395E-01-4.21598E-03-4.31197E+00 4.50888E-12-1.02635E-13
 -1       299-5.99180E+00 7.58309E-01-1.46182E-04-3.53542E+00 7.52523E-13 4.99167E-13
 -1       300 5.77873E+00 1.99318E-01-6.80007E-03-3.43191E+00 2.69900E-12-6.33096E-14
 -1       301 4.28616E-01 5.36442E-01 7.94691E-03-3.64296E+00 7.70745E-12-7.53546E-13
 -1       302-3.89102E-01 4.98802E-01-3.30633E-03-3.35364E+00 4.46127E-12 1.51600E-12
 -1       303-7.72034E+00 7.58546E-01-2.98399E-05-4.01652E+00 4.95076E-13-4.48026E-13
 -1       304 7.48113E+00 1.95648E-01-6.46725E-03-3.91206E+00 6.85313E-12 2.59886E-13
 -1       305 4.85673E-01 5.41345E-01 9.12490E-03-4.12861E+00 5.82021E-13-3.27314E-13
 -1       306-4.44768E-01 4.98682E-01-3.88996E-03-3.83275E+00 3.73650E-12-1.31719E-12
 -1       307 1.22329E+00 2.10493E-01-6.00582E-03-1.49810E+00-2.87322E-14 4.01732E-14
 -1       308 3.74216E+00 2.44280E-01 5.66535E-04-2.71975E+00 5.86116E-13 1.77588E-12
 -1       309-4.48546E+00 7.58086E-01-1.93613E-04-3.05427E+00 4.89444E-12 7.64775E-13
 -1       310 4.29871E+00 2.03092E-01-6.78703E-03-2.95176E+00 8.46843E-13-6.80359E-14
 -1       311 3.71555E-01 5.31520E-01 6.87289E-03-3.15723E+00 4.54654E-12-1.02534E-12
 -1       312-3.33440E-01 4.98868E-01-2.84384E-03-2.87450E+00 2.56857E-12 1.29216E-12
 -1       313-1.27303E+00 7.55514E-01-4.25317E-04-1.61440E+00-2.25801E-13 3.07580E-12
 -1       314 2.15878E-01 5.14042E-01 3.80098E-03-1.69732E+00-2.03266E-12 3.59431E-12
 -1       315-1.41248E-01 4.89578E-01-3.03080E-04-1.42534E+00-5.21233E-12-3.01345E-13
 -1       316-8.12214E+00 1.03741E+00-5.60722E-03-2.00218E-01 3.56219E-12 1.05989E-13
 -1       317-5.13401E+00 1.03886E+00-3.33008E-03-1.64547E-01 6.33790E-12 5.64005E-13
 -1       318-2.13444E+00 7.57412E-01-3.19021E-04-2.09264E+00 1.57731E-13-2.31709E-14
 -1       319-6.56087E+00 1.04902E+00 2.73342E-03-1.82244E-01 8.61224E-12-6.51420E-13
 -1       320-3.70911E+00 9.04691E-01-2.60347E-03-1.11862E+00 5.01306E-13 5.92004E-13
 -1       321-5.11858E+00 8.99543E-01-5.89641E-03-1.15706E+00 3.21544E-12 5.13223E-13
 -1       322 8.80485E-02-4.36228E-03-1.69949E-04 1.98005E-02-5.88890E-12-3.75447E-12
 -1       323 5.22302E-01-3.78799E-02-7.43440E-03-2.89529E-02-1.12262E-12-3.33022E-13
 -1       324 8.73615E-01 6.36604E-02 3.87784E-03-3.79900E-01 1.58744E-12 9.68604E-13
 -1       325 3.23137E-01 7.64369E-02 2.89576E-04-3.13336E-01 2.48156E-12-2.89442E-12
 -1       326-9.64648E-02 1.00197E+00-7.41336E-04-1.53914E-02-2.19705E-12-3.00828E-12
 -1       327-5.49417E-01 1.01636E+00 6.20976E-03-7.62590E-02-8.71491E-12 3.39709E-13
 -1       328-2.42593E-01 9.07987E-01-1.07287E-03-3.07345E-01 3.30136E-12-7.14432E-13
 -1       329 7.00835E-01 1.77174E-01-6.34526E-03-9.56174E-01-7.89492E-13-4.68559E-13
 -1       330 8.25024E+00-4.11723E-02 6.13492E-03-1.76494E-01-4.46872E-12 2.76664E-12
 -1       331 2.58440E+00 2.43761E-01 5.87845E-04-2.23777E+00 7.90266E-13-2.96025E-12
 -1       332 6.13984E+00 1.26825E-01 3.83120E-03-1.42231E+00-1.18690E-13 7.59792E-13
 -1       333 3.04239E+00 2.06907E-01-6.66089E-03-2.47130E+00 2.00200E-12-2.92147E-13
 -1       334 5.47130E+00 1.02142E-01 6.42267E-03-1.23427E+00-3.45418E-14 2.69837E-12
 -1       335-2.16644E-01 4.97480E-01-1.94193E-03-1.91434E+00 1.83975E-12 1.10069E-12
 -1       336 2.01299E+00 2.10349E-01-6.70388E-03-1.98913E+00 3.93608E-12-1.37222E-13
 -1       337 2.60504E-01 5.21460E-01 4.79485E-03-2.18565E+00-1.56284E-12-9.34835E-13
 -1       338-6.64605E-02 1.39757E+00-1.34493E-02 3.68291E-01-1.54811E-14 1.27520E-14
 -1       339 2.86182E+00 8.73395E-01-1.75539E-03-1.52816E+00 5.34794E-15 1.93552E-15
 -1       340 2.37147E+00 1.98986E+00 1.16502E-02-1.95017E+00 6.70742E-15-2.29851E-17
 -1       341 3.30614E+00 8.50311E-01-7.45317E-03-1.92453E+00 1.55648E-15 3.15590E-15
 -1       342 1.13909E+00 3.32897E+00-1.62571E-03-1.59284E+00-8.68619E-15-2.72568E-16
 -1       343 6.68290E-01 4.03887E+00 4.72338E-03-1.62904E+00-2.07126E-14 1.93465E-14
 -1       344 1.87284E-01 4.99859E-01 2.07676E-03-1.19410E+00-5.99360E-13-8.76208E-13
 -1       345-9.28744E-01 7.57058E-01 2.51724E-03-1.37300E+00-3.33442E-13-2.87813E-13
 -1       346 1.21700E+00 7.31100E+00 5.23982E-03-3.04937E+00 5.42188E-15 5.28711E-15
 -1       347 4.91331E-01 6.65470E+00 5.39263E-03-2.08339E+00-5.20764E-14 4.21557E-14
 -1       348 4.35145E-01 7.24021E+00-9.91759E-03-1.45630E+00 1.44051E-14-5.91714E-15
 -1       349-1.40569E-01 6.57015E+00 9.97293E-03-5.50181E-01-3.79904E-15 1.31384E-14
 -1       350-3.11498E-01 4.60437E+00 1.41714E-03 3.27393E-01-5.65954E-14 1.39003E-14
 -1       351-6.36217E-01-4.80812E-02-1.00791E-02-2.11544E-01-2.10700E-14 6.25541E-15
 -1       352-6.11896E-02 8.04446E-02 9.99521E-03 5.81450E-02-4.27458E-15-2.14065E-15
 -1       353 1.36166E+01 3.52851E+00-7.91773E-02 4.31533E-03-1.37321E-13 1.36904E-13
 -1       354 1.80899E+01 7.18447E+00 1.26621E-02-4.33644E+00 1.93776E-13 2.08167E-14
 -1       355 1.64853E+01 5.95445E+00 4.35396E-02-3.67912E+00-9.67282E-15-2.46053E-14
 -1       356-8.94167E+00 1.19433E+00 2.84076E-03 1.77698E-01 1.65035E-14 3.57991E-14
 -1       357-9.44530E+00 1.16686E+00 2.29002E-02 1.07084E-01 1.85524E-14 2.78423E-15
 -1       358-8.59790E+00 8.23448E-01-1.31594E-02 8.70808E-01-1.68051E-15 1.26830E-14
 -1       359 4.27124E-01 5.48970E+00-6.54025E-03-1.90422E+00-1.76855E-14 1.54720E-14
 -1       360 9.67333E-01 6.16140E+00 2.34642E-03-2.74236E+00 1.91505E-14 4.84161E-15
 -1       361 2.37713E+00 5.60870E+00-2.29399E-02-3.47436E+00-4.95090E-15 6.08714E-15
 -1       362 1.73990E+00 2.29790E+00-4.50476E-03-1.56235E+00 8.76100E-15-4.50464E-15
 -1       363-6.04832E+00-2.93838E-01 4.04929E-03 3.29079E+00 1.36228E-14-2.12108E-15
 -1       364-4.71321E+00-1.17264E-01 3.25548E-03 1.87753E+00-2.41127E-16 8.36354E-15
 -1       365-7.16257E+00 1.50151E-01-4.82379E-03 2.50171E+00-4.37150E-16 1.72390E-14
 -1       366-3.60321E+00-4.92824E-01-2.56361E-03 2.36074E+00-3.08954E-15-7.71909E-15
 -1       367-7.54700E+00 9.60026E-01-4.93488E-03 6.64169E-02-6.12878E-15-2.39739E-15
 -1       368-8.57318E+00 6.26133E-01-1.42732E-02-8.29015E-01-2.18575E-15 2.15800E-15
 -1       369-7.67928E+00 6.27710E-01-6.66906E-03 4.96439E-01-2.72633E-15-3.47465E-15
 -1       370 3.51576E+00 1.03277E-01 7.59542E-03-1.43825E+00-8.13954E-15-3.08781E-15
 -1       371 2.94892E+00 1.09899E-01-7.37408E-03-1.03288E+00 2.61076E-15-7.08981E-15
 -1       372-1.70012E+00 7.55987E-01 3.16327E-03-1.85160E+00 7.02508E-12 1.93436E-13
 -1       373-2.11332E+00 9.03499E-01-3.53294E-03-8.60512E-01-5.12261E-12 1.98219E-12
 -1       374 6.64475E+00-2.14366E-01-1.73260E-03 2.50308E+00-2.92561E-14 4.72313E-14
 -1       375 1.22269E+01 2.88027E+00 3.32577E-04-1.91737E+00 1.27575E-13-1.08767E-13
 -1       376 8.99234E+00 1.12340E+00-2.40036E-03 1.10241E-01-5.81861E-14 5.55042E-14
 -1       377 9.45392E+00 1.32662E+00-7.37948E-03 5.87245E-01-9.44383E-15-3.64986E-15
 -1       378-1.62704E+01 1.16339E-01-3.14974E-03 6.33426E+00 1.51650E-14-1.54191E-14
 -1       379-3.48745E+01 1.02634E+00-8.85597E-03 9.17490E-01 5.58997E-14-1.82528E-14
 -1       380-1.40161E+01-1.04168E-01-1.29880E-03 7.86012E+00-9.37028E-14 9.47317E-14
 -1       381-2.54794E+01 5.96595E-01-8.84630E-03 3.61319E+00-7.06379E-15 1.18239E-13
 -1       382-2.48764E+01 5.48853E-01 1.19997E-04 4.62676E+00 9.03930E-14 9.04381E-14
 -1       383-1.55791E+01-1.61112E-02-1.60398E-02 7.05186E+00 3.79280E-14 3.11678E-14
 -1       384-1.19044E+01 9.95164E-01-6.78767E-03 4.24702E-02 3.26128E-15-2.39262E-15
 -1       385-1.30771E+01 9.86899E-01-5.67539E-03 8.63232E-02 2.16563E-14 2.75995E-14
 -1       386-1.24157E+01 9.66050E-01-2.24345E-03 8.42511E-01 1.44468E-14 2.33633E-14
 -1       387-1.13049E+01 9.62918E-01 1.89835E-03 8.15383E-01 3.45210E-16 1.03407E-14
 -1       388 6.14854E+00-6.40013E-01-8.73869E-03-4.09921E-01-3.21965E-15-4.50872E-14
 -1       389 7.96257E+00 2.99202E+00 4.63527E-03-3.83594E+00-5.27430E-14 3.75299E-14
 -1       390 6.06840E+00 6.53550E-01 1.03864E-02-1.92051E+00 4.47559E-15-3.07410E-14
 -1       391 7.26728E+00 1.10614E+00-2.00911E-02-2.17961E+00-2.85032E-14 1.34545E-14
 -1       392 6.69957E+00 2.04432E+00-2.90574E-02-3.48137E+00-4.05353E-14 3.46841E-14
 -1       393 7.06425E+00 1.80233E+01 2.91178E-03-8.39314E+00 1.04448E-14 1.24553E-15
 -1       394 6.07218E+00 1.54762E+01-6.06447E-02-7.33515E+00-1.53350E-15-3.13360E-14
 -1       395 3.86070E+00 2.19246E+01 4.59191E-03-6.55950E+00-1.59664E-14 4.40065E-14
 -1       396 9.16446E+00 1.77578E+00-2.38719E-03-2.49379E+00-4.54003E-14 3.89098E-15
 -1       397 7.37757E+00 5.32211E-01 3.45158E-03-1.38016E+00-6.00214E-15-3.41602E-14
 -1       398 8.78650E+00 2.50925E+00 4.41314E-02-3.25986E+00-5.34026E-14 7.81666E-15
 -1       399-7.76745E-01-1.22379E+00-1.56958E-04 2.12739E+00 8.70484E-15 2.42107E-14
 -1       400-2.58834E+00-9.41076E-01-1.19415E-05 3.02145E+00 1.18950E-14-4.10067E-15
 -1       401-5.06509E+00-9.88192E-01 5.43742E-03 5.24828E+00 1.15984E-14-3.31843E-14
 -1       402-1.60281E+00-1.28445E+00-7.34951E-03 4.30381E+00 1.24657E-14-5.41338E-14
 -1       403-4.18454E+00-9.57565E-01 1.09615E-02 4.71141E+00 2.42584E-14-1.15212E-14
 -1       404 6.79496E+00-5.42083E-01-6.22276E-03 1.04258E+00-1.64946E-14-2.43867E-14
 -1       405 1.01743E+01 2.11462E+00-3.40308E-02-2.46650E+00-6.70575E-14 8.71178E-15
 -1       406 7.88425E+00 6.15947E-01-2.23384E-02-6.50505E-01 2.02269E-15-3.47847E-14
 -1       407 8.95425E+00 9.83053E-01 8.05290E-03-6.57635E-01-1.59872E-14 2.81372E-14
 -1       408 7.48734E-01-1.27556E+00-1.31028E-04 4.53997E+00 3.86080E-14 2.83454E-14
 -1       409-2.28915E+00-1.18626E+00-7.60914E-03 4.85986E+00 8.56606E-15 1.61624E-14
 -1       410 1.37606E+00-1.35163E+00 2.89790E-03 3.88064E+00 1.06998E-14 4.13888E-14
 -1       411-1.11643E+01 7.88327E-01 3.32095E-03 2.00495E+00-1.78885E-14-3.14852E-16
 -1       412-6.86906E+00-8.16930E-01 2.83907E-03 6.03114E+00 5.79901E-14 2.57303E-14
 -1       413-1.37891E+01 8.04721E-02 8.03423E-03 5.22103E+00 2.50858E-14 8.51272E-15
 -1       414-1.13535E+01-3.40734E-01 6.64019E-03 6.12516E+00 3.71925E-14 1.33843E-14
 -1       415-1.02889E+01-3.95669E-01 2.15214E-02 5.53028E+00 7.96238E-14 3.57236E-14
 -1       416-1.50231E+01 1.62186E-01-1.19767E-02 5.75484E+00 2.76376E-14-7.59713E-14
 -1       417 6.54089E+00-5.57593E-01-4.83282E-04 2.57451E-01-2.80175E-14-6.72899E-15
 -1       418 3.57032E+01 1.47376E+01-6.02632E-03-1.63201E+01 4.80907E-13 3.26128E-14
 -1       419 2.26848E+01 7.13529E+00 5.55607E-03-2.46040E+00 5.57693E-13-1.50491E-13
 -1       420-2.73741E+01 1.06730E+00-1.87093E-02 5.06571E-01-4.00981E-14-4.95038E-14
 -1       421-3.09718E+01 1.09331E+00 1.37966E-02 6.68999E-01-4.81282E-14-2.87478E-14
 -1       422-2.21625E+01 5.99312E-01-7.64527E-03 3.39913E+00-9.22873E-16-1.01898E-14
 -1       423-2.06485E+01 6.03148E-01-1.43476E-02 3.01716E+00 3.74700E-16 1.99250E-14
 -1       424-1.65690E+01 5.55517E-01-2.20909E-02 7.98532E+00 1.03743E-13-2.25226E-13
 -1       425 1.38451E+00 7.48404E-01-9.06288E-03 5.69117E+00 6.35672E-14-1.00787E-14
 -1       426-1.51811E+01 1.87905E-01 4.91226E-03 7.94214E+00-2.83801E-14 1.12105E-13
 -1       427-8.04649E+00 7.26778E-01-5.54012E-02 6.81281E+00 1.18433E-13-1.40953E-13
 -1       428-6.68670E+00 1.34774E-01-7.31917E-03 6.68311E+00-9.19403E-14-1.57027E-14
 -1       429-4.45200E+01 1.18093E+00 6.00025E-03 1.21798E+00 1.71717E-13-1.93425E-13
 -1       430-3.93503E+01 1.11082E+00-1.54909E-02 1.04532E+00-4.12032E-14-2.75252E-13
 -1       431-2.86615E+01 7.40216E-01 5.14522E-04 4.86470E+00-1.51670E-13-4.41140E-14
 -1       432 5.90157E+00 7.21309E-02 1.93754E-02 3.34374E+00 1.14991E-13-4.75696E-14
 -1       433 8.24332E+00 2.60590E+00 4.42076E-03 2.65859E+00-1.71474E-13 6.43097E-14
 -1       434 2.74443E-01 1.37724E+00 3.78937E-02 5.81417E+00-9.17183E-14 1.07792E-13
 -1       435-1.81052E+01 7.32757E-01-3.12759E-03-6.20601E+00 8.76410E-13 8.45886E-14
 -1       436-5.48329E+01 9.94689E-01-3.88068E-02 7.65068E-01-1.02640E-13 5.12441E-13
 -1       437-3.11476E+01 9.68489E-01 1.00447E-02 6.65186E+00 2.73337E-13-1.43184E-14
 -1       438-4.89879E+01 1.20286E+00-3.51981E-03 6.26406E-01-4.43034E-13-1.43621E-13
 -1       439-4.29021E+01 9.51659E-01 1.75629E-02 3.76766E+00-1.13937E-13 2.31860E-13
 -1       440-3.90716E+01 8.20015E-01-4.74721E-03 3.69186E+00 2.38864E-13-2.01575E-14
 -1       441-3.05783E+01 7.62944E-01 4.19570E-03 4.95316E+00 3.35024E-13-6.52811E-14
 -1       442 2.24138E+01 8.90742E+00 1.40475E-01-6.71576E+00 4.58300E-13-9.62702E-14
 -1       443 2.51001E+01 9.74908E+00 1.79671E-02-7.20067E+00-5.73985E-14-9.27036E-14
 -1       444-2.31689E+01 1.02074E+00 3.42925E-02 7.26167E+00 7.67303E-14-1.79811E-13
 -1       445 2.56643E+01 8.90032E+00 1.07219E-01-3.37801E+00-1.18516E-14-2.04135E-13
 -1       446 4.30985E+00 4.53855E+00-1.91831E-02 2.47317E+00-1.10745E-13-1.41068E-14
 -1       447-5.12392E+00 2.50687E+00 6.44632E-02 6.23879E+00 1.18988E-13 1.36554E-13
 -1       448 6.11810E+00 5.30238E+00-3.55073E-02 1.50122E+00-6.71685E-14-2.42376E-14
 -1       449-7.66257E+01 6.63788E-01-3.92749E-02 2.46946E-01-1.89695E-13-7.22809E-13
 -1       450-7.64997E+01 3.45578E-01-1.84324E-01 6.39973E-01 9.34003E-13 3.11771E-13
 -1       451-4.89778E+01 2.26806E+00 4.36241E-02 3.07940E-01 3.17080E-13-2.29107E-13
 -1       452-7.00078E+01 5.56712E-01-1.28222E-01 1.37839E+00-2.53353E-13-2.57586E-13
 -1       453 1.40097E+00 5.63151E+00 1.08833E-02 1.12426E+00-6.44207E-14 1.31839E-14
 -1       454 9.08369E+01 7.33540E+00 4.67285E-01-2.04323E+01 1.48992E-13-1.77316E-13
 -1       455 5.43516E+01 8.37068E+00-1.89582E-01-1.45327E+01 5.47562E-13 3.98570E-14
 -1       456 5.64364E+01 6.38823E+00-8.40506E-02-1.01209E+01 6.65357E-13-9.94621E-14
 -1       457-1.99798E+01 1.15986E+00-1.42844E-02-6.43174E+00-4.44450E-13 5.00034E-15
 -1       458 3.41129E+01 8.41112E+00 1.81885E-01-7.00089E+00-4.26298E-13-8.60770E-15
 -1       459-7.59408E+01 4.29285E-01-1.40443E-01-1.53715E-01-2.53039E-12-7.49272E-13
 -1       460-4.37219E+01 2.06383E+00 1.60779E-02-2.52474E+00 2.71894E-13 1.08164E-12
 -1       461-4.53306E+01 2.36975E+00 6.00874E-02-1.89681E+00-5.37348E-14-1.91930E-14
 -1       462-1.56008E+01 6.94945E-01-6.85357E-03-5.71842E+00 7.07406E-13 2.82170E-14
 -1       463 5.60635E+00 3.67657E+00-2.38020E-02-6.17899E+00 7.75768E-13 1.55258E-14
 -1       464-1.81321E+01 2.71082E+00-4.48319E-03-5.59012E+00 8.95228E-13-1.97483E-13
 -1       465-1.31289E+01 7.15489E-01-5.17495E-03-5.21828E+00-4.98587E-13 3.17895E-13
 -1       466-5.62265E+01 1.01000E+00-3.77994E-02-5.61275E-01-1.92311E-12-1.14472E-12
 -1       467-6.09377E+01 9.76270E-01-8.06543E-02-5.69356E-01 1.33238E-12 8.21010E-14
 -1       468-3.77303E+01 9.34675E-01 1.70938E-02-3.51172E+00-1.61327E-12-8.70276E-13
 -1       469-4.18804E+01 1.01896E+00 1.33449E-02-3.50243E+00 1.78446E-12 3.66041E-13
 -1       470-1.08387E+01 7.28427E-01-2.08287E-03-4.73124E+00-9.76372E-13-1.46742E-13
 -1       471-4.77609E+01 1.03226E+00-3.34409E-02-4.79445E-01 5.11986E-12-5.30223E-13
 -1       472-5.20542E+01 1.00971E+00-5.51189E-02-4.99858E-01-2.48929E-12 5.68698E-13
 -1       473-3.23328E+01 9.01023E-01 6.66872E-03-3.24093E+00 3.18848E-12-6.02199E-13
 -1       474-3.63019E+01 9.19947E-01 2.64568E-03-3.26769E+00 9.24816E-13-5.87162E-13
 -1       475-8.76381E+00 7.34528E-01-1.38188E-03-4.24984E+00 2.04559E-13 1.50909E-13
 -1       476-4.00559E+01 1.03564E+00-2.77725E-02-4.27330E-01-2.41800E-13 3.87205E-12
 -1       477-4.39390E+01 1.01941E+00-3.71433E-02-4.42138E-01 2.11300E-12 3.39645E-13
 -1       478-2.72237E+01 9.06859E-01 4.38671E-03-2.95599E+00-3.01756E-12 2.02280E-12
 -1       479-3.08610E+01 9.14812E-01-3.15199E-04-2.97925E+00 1.92985E-12 2.76265E-13
 -1       480-6.91038E+00 7.39102E-01-3.87539E-04-3.76968E+00 5.48464E-13 2.95562E-14
 -1       481-3.30598E+01 1.03561E+00-2.29798E-02-3.87631E-01-2.77481E-12-3.08681E-12
 -1       482-3.65771E+01 1.02364E+00-3.04460E-02-3.99805E-01-5.91836E-12 4.71005E-13
 -1       483-2.25349E+01 9.10276E-01 4.27559E-03-2.68685E+00-3.05972E-12-2.27486E-12
 -1       484-2.58422E+01 9.16103E-01-4.17270E-03-2.70795E+00 3.66213E-12 2.89553E-12
 -1       485-5.27917E+00 7.43490E-01 7.27796E-04-3.28963E+00-7.41948E-13-5.05177E-14
 -1       486-2.67387E+01 1.03564E+00-1.86807E-02-3.50188E-01-4.39784E-12-3.71280E-13
 -1       487-2.99054E+01 1.02771E+00-2.34436E-02-3.62401E-01 8.45962E-13-3.27838E-13
 -1       488-1.82872E+01 9.09992E-01 2.71018E-03-2.42436E+00-1.45604E-12 1.57757E-12
 -1       489-2.12748E+01 9.14768E-01-4.93937E-03-2.44718E+00 3.28348E-12 3.24869E-13
 -1       490-1.60972E+01 1.03636E+00-1.12233E-02-2.75098E-01-1.67349E-12 2.84623E-12
 -1       491-1.17762E+01 1.03678E+00-8.22545E-03-2.37524E-01-1.39584E-12-2.32417E-12
 -1       492-1.38989E+01 1.04028E+00-5.09096E-03-2.53780E-01 4.50029E-13-2.97574E-13
 -1       493-8.20879E+00 9.06819E-01-3.27311E-04-1.64056E+00 8.76313E-14 5.73619E-13
 -1       494-1.02490E+01 9.05863E-01-5.78127E-03-1.67294E+00 5.13960E-12 9.03781E-13
 -1       495 7.88784E+00 1.02903E-01 6.57756E-03-1.49619E+00 4.15359E-13 1.64813E-12
 -1       496-2.10847E+01 1.03595E+00-1.47031E-02-3.12671E-01 3.36065E-13-1.74746E-12
 -1       497-2.39034E+01 1.03202E+00-1.62729E-02-3.26197E-01-4.08916E-12-3.95996E-13
 -1       498-1.44834E+01 9.08940E-01 1.53077E-03-2.16307E+00 3.77710E-12-3.59683E-13
 -1       499-1.71549E+01 9.12103E-01-4.93095E-03-2.18892E+00 5.44953E-13-1.05068E-12
 -1       500 9.88420E+00-8.26194E-02-2.63555E-03-1.81560E-01 7.29188E-13-2.57228E-13
 -1       501-3.20009E+00 7.57795E-01-2.11928E-04-2.57323E+00-1.64622E-12-2.74686E-12
 -1       502-2.76362E-01 4.98706E-01-2.44502E-03-2.39510E+00-4.59925E-12-3.95878E-12
 -1       503-2.67996E+00 7.52172E-01 2.54005E-03-2.32989E+00-3.74719E-12-4.79825E-14
 -1       504-1.85679E+01 1.03616E+00-1.04342E-02-2.90033E-01-5.59996E-12 2.09832E-13
 -1       505-1.11239E+01 9.07863E-01 5.85970E-04-1.90184E+00-6.48024E-12 1.12438E-12
 -1       506-1.34798E+01 9.08968E-01-5.42337E-03-1.93094E+00-6.84466E-13-1.89113E-12
 -1       507-5.73747E+00 9.05779E-01-1.22063E-03-1.37939E+00 1.14816E-12-1.06382E-13
 -1       508 3.15112E-01 5.26560E-01 5.75269E-03-2.67150E+00-6.27970E-13-6.69877E-13
 -1       509-3.86951E+00 7.47776E-01 1.47506E-03-2.80963E+00-1.27794E-13 3.14625E-13
 -1       510 6.55112E+00-7.92659E-02-5.74968E-03-1.45029E-01-9.35982E-13-3.63258E-13
 -1       511 4.03804E+00 1.24147E-01 4.42684E-03-1.16381E+00 3.40067E-12-1.97200E-12
 -1       512-9.89672E+00 1.04445E+00-6.21904E-04-2.17696E-01-9.53102E-13-1.57374E-13
 -1       513-7.46200E+00 9.02740E-01-6.02464E-03-1.41498E+00 1.96087E-12-1.46757E-12
 -1       514-3.89073E+00 1.05458E+00 7.05723E-03-1.48769E-01-2.52440E-12-9.76637E-13
 -1       515-3.20908E+00 8.95537E-01-5.91540E-03-9.01798E-01 7.46374E-12 2.50925E-12
 -1       516 6.12253E-02 1.08119E+00 3.10681E-03 6.75433E-02-9.48244E-12-2.55403E-12
 -1       517 8.38397E-02 1.01176E+00-1.47177E-03 4.84659E-02 1.02841E-11 9.69888E-14
 -1       518-1.32081E-01 9.14339E-01 3.13582E-03-2.39840E-01-6.43012E-12 9.90468E-13
 -1       519 6.21491E-03-1.00766E-01 4.91246E-03 7.36968E-02 4.08749E-12 1.47957E-12
 -1       520-2.94199E-02-1.48441E-03 6.03134E-03 8.35959E-02-6.07395E-12-3.22100E-13
 -1       521 1.98404E-01 3.06590E-02-8.07047E-04-2.62793E-01 2.61829E-12 1.00905E-12
 -1       522 5.20085E-02 5.14836E-01 2.59279E-03 1.56062E-02 4.82997E-12-2.77042E-12
 -1       523-1.19232E-02 2.80840E-01-5.57891E-04-2.54815E-01 3.51177E-12 3.88640E-12
 -1       524 2.04935E+00 2.78028E+01 2.02519E-02-7.20443E+00-8.67986E-14-1.90542E-14
 -1       525 5.33855E+00 2.40433E+01 5.11366E-03-9.14231E+00-4.51444E-14-1.15186E-15
 -1       526 7.84484E+00 1.10622E+01-1.91723E-02-6.45330E+00 3.15390E-14 4.02456E-15
 -1       527 8.74574E+00 1.27803E+01 7.29123E-04-7.57212E+00 2.03067E-14 3.12805E-14
 -1       528 2.71877E+00 4.00181E-01 1.96273E-03-7.72947E-01 1.96124E-15 2.05560E-15
 -1       529 2.87664E+00 1.36890E-03 5.01331E-03-6.82623E-01-1.55193E-15-2.99673E-16
 -1       530 2.62159E+00 4.52894E-01 6.28981E-03-4.90527E-01 7.83444E-16-2.53703E-16
 -1       531 2.74044E+00 6.67551E-01-3.08908E-03-1.10642E+00 1.03162E-15 7.25852E-15
 -1       532 2.64439E-02 1.98072E+01-5.16073E-03-2.20446E-01 4.78437E-14 5.93735E-14
 -1       533-1.89038E-01 1.69064E+01-3.62604E-02 9.88163E-01-3.49720E-15 8.60249E-15
 -1       534 1.22818E+00 1.72846E+01 1.84198E-03-1.75267E+00 6.84557E-14 2.98546E-15
 -1       535 4.37997E-01 2.27784E+01 6.36789E-02-2.01890E+00-2.81858E-14 3.47916E-14
 -1       536 1.10342E+00 7.01158E+00 3.53074E-02 2.46526E+00 2.08236E-14-4.39180E-14
 -1       537 3.90742E-01 7.90385E+00-4.44263E-03 1.40385E+00-2.22183E-14 2.11940E-14
 -1       538-8.02431E+00 1.14331E+00 3.50115E-02 1.73446E-01-2.41820E-15 5.72459E-15
 -1       539-8.35355E+00 8.56812E-01-1.78637E-02 5.15496E-01 2.18250E-15 1.16435E-14
 -1       540-7.40630E+00 6.16888E-01 1.51128E-02 1.26814E+00-8.09422E-15-2.10617E-14
 -1       541 3.87261E+00-2.11016E-02 5.27063E-03-1.39685E+00 7.82100E-15-2.00794E-15
 -1       542 4.07554E+00-1.07025E+00-4.37983E-03 1.42956E+00 1.72744E-14 4.37671E-15
 -1       543 3.55273E+00-1.13238E+00-5.70466E-03 1.06299E+00-3.35044E-14-9.19403E-15
 -1       544-5.84503E+00-8.44210E-01 1.26680E-05 5.64169E+00 4.13627E-14-1.42260E-14
 -1       545-3.07110E+00-1.04293E+00 7.63790E-04 5.38062E+00 3.46112E-14 9.20444E-15
 -1       546 6.87843E+00-3.00964E-01 1.50172E-02 1.71404E+00 3.75394E-14-7.21645E-15
 -1       547 1.15662E+00 9.08215E+00 2.84111E-02-2.48491E+00 1.03910E-15-3.08269E-14
 -1       548 2.98600E+00 7.70188E+00-1.12980E-03-4.16690E+00 3.43805E-14 3.60302E-15
 -1       549 2.97693E+00 9.45176E+00 1.58132E-02-3.74709E+00-1.15741E-14 7.97973E-16
 -1       550-2.45474E+01 9.74897E-01-3.34086E-02 1.58984E-01-5.66422E-14-1.58172E-13
 -1       551-2.22928E+01 1.01529E+00 6.62728E-03 1.50486E+00-6.29705E-14-6.06355E-14
 -1       552-1.60495E+01 4.44991E-01-2.64532E-03 3.80728E+00 2.52368E-14-9.00321E-15
 -1       553 1.60786E+01 6.21120E+00-1.26640E-02-4.52183E+00 2.67564E-14-2.29261E-14
 -1       554 1.79623E+01 9.50776E+00-1.91140E-02-7.97716E+00 3.76296E-14 1.28786E-14
 -1       555 1.39334E+01 5.81485E+00-2.34559E-02-4.32107E+00-1.62818E-13-4.29864E-14
 -1       556 4.77360E+00-9.88028E-01 1.71438E-03-2.67662E-01 5.58928E-15-3.53120E-14
 -1       557 2.36785E+00-1.24641E+00-4.07936E-03 9.74446E-01-1.27225E-14-2.33841E-15
 -1       558 1.31395E+01 1.34467E+01-4.69937E-02-9.25064E+00-6.26790E-14-6.01047E-14
 -1       559 1.04714E+01 1.30310E+01-1.21730E-02-8.55052E+00-1.09893E-13 5.02168E-14
 -1       560 2.40222E+01 3.38752E+01 1.08265E-01-2.83912E+01-7.76167E-14 1.25372E-13
 -1       561 2.41010E+01 2.63532E+01-1.22724E-02-2.27647E+01 1.36995E-13-6.98330E-14
 -1       562 1.91626E+01 1.49648E+01-1.43162E-02-1.18232E+01-4.31877E-14 8.36553E-14
 -1       563-6.07834E+01 8.32285E-01-1.16810E-01 6.57031E-01 1.19627E-14-2.43763E-14
 -1       564-4.65443E+01 1.16036E+00 8.71005E-03 3.85762E+00-1.34864E-13-3.22069E-13
 -1       565-2.17386E+01 1.54523E+00-4.45075E-02 6.60677E+00-2.98594E-13 1.29405E-13
 -1       566 1.12383E+01 5.28004E+00 7.50274E-02-6.43842E+00-1.94567E-13-9.11216E-14
 -1       567-1.65312E+01 1.33324E+00-1.39830E-02 6.89098E+00 2.24543E-14-2.11307E-14
 -1       568-9.78617E+00 1.08397E+00-3.99128E-03 7.01893E+00-4.17943E-13-2.56538E-13
 -1       569 2.32774E+00 6.98911E-01 1.95338E-03-3.85531E-01 4.06901E-16-1.52916E-15
 -1       570 2.41460E+00 4.73004E-01-4.22350E-03-6.51507E-01 2.35304E-15-1.79221E-15
 -1       571 2.22404E+00 8.77954E-01-1.24057E-03-8.56087E-01-3.04086E-15 5.19506E-15
 -1       572 2.78865E-01 4.95165E+00-9.91781E-03-1.66891E+00 5.05585E-15 9.53989E-15
 -1       573-4.60456E+00-1.09185E-01 2.35350E-03 1.31063E+00 2.79464E-15 3.43952E-15
 -1       574 5.06335E+00 2.18320E-01 2.27518E-04-1.72529E+00-4.29951E-15 2.65499E-14
 -1       575-3.09449E+00-8.91971E-01-4.30511E-03 6.18094E+00-6.28161E-14 3.04717E-14
 -1       576-7.95708E+00-3.60507E-01 3.26099E-02 6.75990E+00 2.44735E-14 6.80176E-14
 -1       577-9.43334E+00-4.16824E-01 2.03542E-02 6.38144E+00 3.05311E-16-1.17068E-14
 -1       578-4.61758E+00-1.11664E-01-1.71247E-02 6.28051E+00-3.84900E-14 4.58661E-15
 -1       579 3.21557E+00 5.83903E-01 2.53658E-02 5.06570E+00 1.97301E-13-1.60739E-14
 -1       580 1.65813E+01 1.52579E+01 2.95022E-02-1.15625E+01 4.78333E-14-3.61933E-14
 -1       581 5.01963E+00 1.03129E+01 1.25046E-03-5.57466E+00 5.87377E-15 2.25028E-14
 -1       582 7.35416E+00 8.07379E+00-7.01505E-04-5.96494E+00 3.74943E-14-6.40113E-15
 -1       583 4.19928E+00-1.03293E+00 6.28763E-04 2.12537E+00-6.35395E-14 3.37091E-14
 -1       584-1.09671E+01 1.00628E+00-2.12783E-03-1.51888E-02-6.93803E-15-1.92710E-14
 -1       585-1.07971E+01 9.54007E-02-3.05292E-03 4.16144E+00-3.10047E-14-8.85338E-15
 -1       586-1.44601E+01 5.20294E-01-1.01043E-02 3.35680E+00 4.98664E-14 5.55354E-14
 -1       587-1.43871E+01 7.11443E-01 3.78892E-03 2.29880E+00 1.16643E-14-5.42847E-14
 -1       588-1.21275E+01 1.06970E-01 6.80831E-03 4.66258E+00-2.10040E-14 1.86049E-14
 -1       589-5.06820E+00-7.75416E-01-4.99325E-03 3.71996E+00 1.50401E-14 1.72189E-14
 -1       590-5.29282E+00-9.45266E-01-3.13725E-02 6.07752E+00-5.50948E-15 8.44593E-15
 -1       591-9.02867E-01-9.60969E-01 2.20373E-02 5.25914E+00 3.98570E-14-1.03025E-14
 -1       592 1.95751E-01-5.31795E-01-2.97342E-02 5.37043E+00-5.00641E-14 3.94407E-14
 -1       593-9.43472E+00-4.84621E-01 7.02332E-03 5.25056E+00 2.35922E-16 2.14976E-14
 -1       594-8.13580E+00-5.09958E-01 3.75038E-03 4.65826E+00-2.72421E-14 7.20713E-15
 -1       595 3.46985E+00-8.15491E-01-1.48392E-02 3.53289E+00 2.16285E-14 3.75429E-14
 -1       596 1.75385E+00-6.01549E-01-1.17382E-02 4.47421E+00-1.24206E-13 5.57505E-14
 -1       597 6.66062E+00 1.78566E+00-1.33960E-02 3.10291E+00 1.06665E-13 1.09565E-14
 -1       598 4.33318E+01 2.96771E+01 2.67457E-01-3.40711E+01 9.69058E-13-5.18752E-13
 -1       599 3.79493E+01 1.82442E+01-1.30163E-01-2.20811E+01 3.03368E-13-1.58901E-13
 -1       600 4.34469E-01 8.90073E+00-6.57742E-03-8.42743E-01 2.83974E-14-1.48969E-14
 -1       601 6.58117E+00 5.42203E+00-6.55100E-03-4.64632E+00 2.25722E-14 2.18575E-16
 -1       602 8.73673E+00 5.54566E+00 2.58307E-03-5.07078E+00 4.35823E-14-3.16622E-14
 -1       603 9.83242E+00 4.80297E+00 6.48091E-03-4.53783E+00 3.56980E-14 1.92034E-14
 -1       604-1.14772E+01 3.63435E-01-5.07188E-03 3.23348E+00-3.55653E-14-1.95798E-14
 -1       605-7.17891E+00-4.98017E-01-3.58506E-03 4.28104E+00-6.10623E-15-1.43696E-14
 -1       606 3.74634E+00-9.32480E-01-5.56464E-03 2.86603E+00-1.66187E-14 3.87884E-15
 -1       607 9.37581E+00 1.83745E+01 5.23361E-02-9.77184E+00-9.41400E-14-2.92197E-14
 -1       608 2.37765E+00 1.23927E+00 4.99049E-03-1.27476E+00-4.33345E-15 1.17961E-16
 -1       609 3.81462E+00 1.12912E+01 2.49145E-03-4.61094E+00 1.79093E-14-1.75103E-14
 -1       610-8.40193E+00 3.22234E-01 1.13565E-02 2.52075E+00 2.00534E-15-2.01245E-14
 -1       611-8.88043E+00 2.73968E-01 2.94905E-03 2.94991E+00 6.91114E-15 1.40218E-14
 -1       612-8.10375E+00-8.62756E-02 2.54979E-03 3.61275E+00 4.97172E-15 5.42535E-16
 -3
    1PSTEP                         3           1           1          
  100CL  101 1.000000000         612                     0    1           1
 -4  FORC        4    1
 -5  F1          1    2    1    0
 -5  F2          1    2    2    0
 -5  F3          1    2    3    0
 -5  ALL         1    2    0    0    1ALL
 -1         1 1.28372E-11-1.40079E-11-4.80255E-11
 -1         2 5.96692E-12-2.22222E+00-2.93859E-11
 -1         3 7.58340E-11-2.77734E-10-9.57775E-12
 -1         4 2.40695E-12-7.40619E-11 1.61747E-11
 -1         5 2.06490E-11 2.84106E-11 5.01154E-12
 -1         6-8.11431E-12 1.40757E-10 4.42649E-11
 -1         7 9.81690E-12 3.04601E-10 2.69897E-12
 -1         8 2.77600E-12-4.35607E-11-2.42106E-11
 -1         9-2.31558E-11-6.44760E-11-6.46799E-11
 -1        10-1.73661E-12-2.22450E-12-1.06654E-11
 -1        11 9.57123E-12-3.99726E-11-3.08778E-12
 -1        12 1.29586E-11 2.47939E-10-1.33348E-11
 -1        13-1.57446E-11 1.99442E-11-1.08810E-11
 -1        14 2.10498E-13-4.17224E-11 2.11709E-11
 -1        15-1.09157E-11-2.58549E-12-2.32681E-11
 -1        16 4.51417E-13 8.88628E-11-1.53216E-11
 -1        17-5.82956E-12-1.36632E-10-2.19637E-11
 -1        18 1.35285E-11-1.05776E-11 2.44387E-11
 -1        19-5.12390E-12-4.64504E-11 2.01726E-11
 -1        20 1.05409E-11-4.36753E-11-3.46580E-12
 -1        21-2.40363E-14-6.60583E-15 1.27988E-14
 -1        22-2.39739E-14 3.10591E-14-2.18576E-14
 -1        23-8.29003E-03-1.17497E+00-1.23512E-14
 -1        24-2.36456E-14 1.91492E-15-1.03181E-14
 -1        25 5.30652E-15-6.39462E-15-1.09442E-14
 -1        26-3.64986E-14-1.11022E-15-3.05311E-15
 -1        27-2.95319E-13-3.73923E-13 2.11914E-14
 -1        28-2.26485E-14 3.28626E-13 3.59678E-14
 -1        29 8.78186E-14 8.40217E-13 1.13271E-13
 -1        30 1.45400E-14 6.67955E-14-2.01141E-14
 -1        31 1.30562E-13-3.57048E-13 3.74145E-14
 -1        32 3.90799E-14 1.58096E-13-9.21485E-15
 -1        33-2.48862E+00 2.29511E+01 4.57967E-15
 -1        34-8.14501E+00 2.18955E+01-1.19335E-13
 -1        35-6.85230E-13-8.29559E-13 1.66811E-14
 -1        36-1.17501E+01 4.81462E+01 8.35443E-15
 -1        37 1.78080E-13 4.61853E-14-2.11976E-13
 -1        38 2.04559E-14-1.35558E-13 6.94098E-14
 -1        39-1.74332E-11 5.99535E-11-4.61656E-12
 -1        40 6.74971E-12 1.17107E-10-1.92588E-11
 -1        41 1.69038E-11 2.33030E-10-1.73961E-12
 -1        42 2.47847E-13 2.62295E-11 9.06162E-12
 -1        43 1.06581E-14-9.66960E-12 2.02994E-11
 -1        44-1.03135E-11-9.18909E-12 5.10761E-12
 -1        45-1.54836E+00 1.48078E+00-1.72848E-14
 -1        46-1.43228E+01 3.61171E+00 2.60486E-14
 -1        47 8.53539E-13-1.02141E-13 2.30024E-14
 -1        48-1.96027E+01 8.10143E+00 4.09395E-15
 -1        49 4.79616E-14 5.32907E-14 3.86913E-14
 -1        50-1.01946E-13 1.25316E-14-3.48888E-14
 -1        51 2.89546E-13-3.90266E-12-1.35210E-13
 -1        52 4.27658E-13-4.27214E-13-1.39093E-13
 -1        53-1.17337E-13-5.06539E-14 9.57845E-14
 -1        54 1.03473E-13 1.91402E-13-7.35523E-15
 -1        55-2.72560E-14 1.20792E-13-6.19504E-14
 -1        56-2.54019E-13-2.04814E-12 1.88652E-13
 -1        57-2.50466E-13-1.41664E-12 1.92820E-13
 -1        58 6.30607E-13 3.67706E-13 3.32949E-13
 -1        59 3.58824E-13-7.10543E-13-4.62200E-13
 -1        60-4.95159E-13 2.13163E-13-2.71616E-13
 -1        61-3.60600E-13 5.25802E-13 1.94594E-13
 -1        62 2.22501E+00 8.55239E+00-3.54577E-15
 -1        63 7.00163E-01 3.52665E+01-2.06727E-14
 -1        64-4.87596E-14 7.69766E-14 2.57988E-14
 -1        65 2.37553E-14 7.24421E-15 3.33665E-14
 -1        66-1.62759E-13-2.60347E-13 5.55909E-14
 -1        67 9.40079E-15 2.72829E-15 3.79471E-15
 -1        68-1.74305E-14 2.18714E-14-2.90046E-15
 -1        69 9.86884E-15-3.35691E-15 5.85122E-15
 -1        70-1.74027E-13-7.00273E-14-1.79301E-14
 -1        71-3.24586E-14 6.27059E-14-6.32272E-14
 -1        72-5.59622E-14-1.25941E-15 3.49165E-14
 -1        73 9.79217E-14-3.55271E-14 1.33227E-14
 -1        74 2.06363E-14-2.83107E-14 5.80039E-14
 -1        75 9.26819E-15 5.94544E-15 2.00534E-15
 -1        76 5.10703E-15 7.99361E-15 2.28983E-16
 -1        77 3.17894E+00 4.38684E+00-1.12323E-15
 -1        78-3.01981E-14-6.30607E-14 5.25968E-15
 -1        79 4.39648E-14-3.10862E-14-7.81319E-15
 -1        80-1.89626E-13 5.04041E-14-3.85985E-14
 -1        81-2.98260E-14-6.31110E-14 6.70644E-15
 -1        82 1.88738E-14-3.64153E-14 9.03166E-14
 -1        83-1.45439E-14-1.17684E-13-1.02141E-14
 -1        84 2.61682E+01-6.75813E+00 1.93005E-14
 -1        85 3.12678E+01 9.31919E+00-7.57727E-15
 -1        86-7.12763E-13 2.08722E-14 1.18815E-13
 -1        87 7.99879E+01-4.44467E+00-6.87991E-15
 -1        88 8.17124E-14-3.57492E-14-1.27121E-14
 -1        89-1.77636E-13 3.24185E-14-1.73472E-14
 -1        90-1.57314E+01 1.06560E+00 3.11608E-14
 -1        91-3.89302E+00-5.00656E+00 2.31482E-14
 -1        92-1.15463E-12 7.18980E-13 7.76150E-14
 -1        93-2.26138E+01-4.06090E+00 2.32869E-14
 -1        94 2.36213E-13 6.35603E-15 3.48332E-15
 -1        95-5.32907E-15-1.22125E-13-3.86358E-14
 -1        96-6.00677E+00 1.34653E+01-1.06987E-13
 -1        97-8.96457E+00 1.83023E+01 2.12642E-14
 -1        98 1.48135E-13 1.13489E-13 1.35586E-14
 -1        99 1.96065E-13-1.03029E-13-2.44117E-13
 -1       100 5.37348E-13-1.02585E-13 1.18211E-13
 -1       101 2.63289E-13 3.05800E-12-3.00487E-13
 -1       102 1.19435E-14 1.37114E-13 7.10534E-14
 -1       103 4.21885E-15-6.75016E-14-1.16018E-14
 -1       104-9.69225E-14-2.23654E-13 6.53453E-14
 -1       105-1.65413E+01 3.63224E+01 2.11706E-14
 -1       106 1.88294E-13 1.84741E-13 8.93070E-14
 -1       107-1.24345E-14 6.54740E-13 2.64025E-13
 -1       108 2.73559E-13-6.25278E-13 2.59043E-13
 -1       109-1.10223E-12-4.92717E-12-1.04812E-14
 -1       110 1.07381E-12-5.46763E-12-1.56541E-14
 -1       111-1.01918E-12 5.45342E-13-1.08691E-13
 -1       112-2.57048E-13 4.52412E-13-3.36632E-14
 -1       113 2.39808E-13-8.52651E-14-9.43134E-14
 -1       114-3.37508E-13 4.12115E-13 1.92207E-13
 -1       115-2.32170E-12-1.64313E-14 6.46011E-14
 -1       116 1.95461E+01-1.93813E+01-9.42649E-15
 -1       117 7.10543E-14 9.94760E-14 4.44089E-15
 -1       118-1.62739E-13 1.41401E-13-2.11914E-14
 -1       119-1.81410E-13 9.45910E-14-2.53179E-13
 -1       120-1.26388E-12-2.22222E+00-5.80612E-14
 -1       121-2.73570E-12 2.54241E-13 6.77930E-15
 -1       122-1.13687E-13 1.66978E-13-1.49880E-15
 -1       123-2.91323E-13-1.38112E-13-5.46264E-14
 -1       124-1.17240E-13-6.66134E-14 1.84797E-13
 -1       125 8.39928E-12-2.22222E+00-2.64364E-12
 -1       126-1.79341E-11-4.44444E+00 1.17030E-11
 -1       127 2.42188E-11 3.35105E-11 1.27391E-13
 -1       128-1.72240E-12-3.31646E-12-3.05832E-14
 -1       129 1.58984E-13-1.07248E-13 2.84488E-13
 -1       130 3.29100E-13-2.27204E-13 2.11567E-13
 -1       131 9.64159E-14 8.89155E-13-1.88245E-13
 -1       132-4.56524E-13-1.99840E-14-5.29021E-14
 -1       133-2.50910E-13 1.82832E-12 3.17524E-14
 -1       134 2.48482E-14 2.82135E-14-6.65717E-14
 -1       135-2.31148E-13 1.72307E-13 6.44484E-14
 -1       136-9.76996E-15 5.59552E-14 2.50910E-14
 -1       137 1.56319E-13 4.58300E-13-7.55646E-15
 -1       138 1.70530E-13 2.46470E-14-2.96832E-13
 -1       139-8.92619E-14-7.77156E-14 2.88238E-13
 -1       140-1.60894E-12 1.33937E-12-7.72483E-14
 -1       141-2.09610E-13 1.50990E-13 2.30510E-14
 -1       142 2.88436E-13-7.99361E-15 1.34424E-13
 -1       143 2.50466E-13 1.52767E-13 7.03326E-14
 -1       144-5.57776E-13-2.22222E+00-7.38940E-14
 -1       145 8.23674E-13-2.22222E+00 4.58060E-14
 -1       146-2.05702E-12-5.55000E-13-1.41633E-13
 -1       147 3.12965E-13-4.44444E+00-1.90280E-13
 -1       148 3.90799E-14 1.10134E-13 2.59459E-13
 -1       149 5.75540E-13-3.56160E-13 4.85750E-13
 -1       150-7.76268E-13 1.57341E-12 2.03160E-13
 -1       151-6.82121E-13-1.27898E-13-6.32827E-15
 -1       152 2.33369E-13 4.60076E-13 1.38889E-13
 -1       153 1.27454E-12-2.22222E+00 2.31031E-13
 -1       154-7.97029E-13-4.24105E-14-3.66183E-14
 -1       155 1.09010E-13-4.44444E+00-2.37340E-13
 -1       156-1.59872E-13-3.81695E-13 3.46480E-13
 -1       157 1.95399E-13-4.34652E-14-3.27086E-13
 -1       158 8.52429E-13-8.83321E-13 3.98969E-13
 -1       159-6.60361E-13 2.11653E-12 3.68870E-13
 -1       160 7.70051E-13-1.14930E-12 7.65141E-13
 -1       161 1.47793E-13 4.80067E-13-3.00792E-13
 -1       162-4.61853E-14 6.32383E-13-1.78718E-13
 -1       163-2.62434E-13-4.63686E-13-5.08657E-13
 -1       164 9.16156E-13-3.02602E-12 8.85472E-14
 -1       165 1.42109E-14-6.48903E-12-1.69670E-13
 -1       166-1.86473E-12-3.11084E-12-4.02942E-13
 -1       167-1.03029E-13 1.22036E-12 3.44808E-13
 -1       168 4.97380E-14-8.49543E-13 3.35287E-13
 -1       169 3.55271E-14 4.01457E-13-3.30458E-13
 -1       170 3.99680E-14 1.84741E-12 2.52139E-13
 -1       171-5.70211E-13 4.54747E-13 3.59324E-13
 -1       172 1.89680E-13-2.79839E-13-3.66865E-13
 -1       173-9.56527E-14 5.33635E-13 6.17562E-14
 -1       174-1.38556E-13-2.50111E-12 4.68521E-13
 -1       175-5.92859E-13 3.64819E-12 1.47889E-12
 -1       176 5.86198E-13-2.91323E-12 2.94133E-13
 -1       177-8.13571E-13-4.72689E-12 9.42538E-13
 -1       178 6.67910E-13 1.39266E-12 1.11391E-12
 -1       179 5.06040E-13 2.42650E-12 2.08167E-13
 -1       180 8.52651E-14 1.11555E-12 1.78538E-13
 -1       181 6.32827E-13-7.46558E-11-6.57575E-12
 -1       182-4.00502E-12-2.02505E-12 4.83780E-13
 -1       183 2.99449E-12-6.80345E-13-3.15958E-12
 -1       184 3.24601E-13-7.87775E-12-1.03799E-12
 -1       185 1.77439E-13 1.94050E-12 3.89641E-12
 -1       186 2.60928E-12-4.05652E-12-2.46331E-15
 -1       187-2.48845E-12-5.42499E-12 1.91577E-12
 -1       188-1.81954E-12-2.22222E+00-1.17659E-12
 -1       189 1.56319E-13 7.61702E-12 1.20098E-13
 -1       190-2.20268E-12-6.14087E-12-1.74771E-12
 -1       191-1.43530E-12-1.83964E-13 1.00642E-13
 -1       192 1.52496E-12-1.37984E-12-9.40553E-13
 -1       193 6.83897E-13-7.78932E-13-2.00272E-13
 -1       194 2.48690E-14 7.58948E-13-4.11026E-13
 -1       195-2.25109E-12 1.09690E-13 7.05425E-14
 -1       196-1.47438E-13 1.42109E-12 4.20731E-14
 -1       197-1.20792E-13-3.03313E-13 4.10783E-14
 -1       198-1.49658E-13-6.62248E-14-8.85403E-14
 -1       199 6.32383E-13-1.11378E-12-1.70024E-13
 -1       200-1.91491E-12-3.29514E-13-2.27046E-12
 -1       201-2.00650E-12-3.00571E-12 1.31831E-12
 -1       202-1.69553E-12-2.96208E-13 1.32568E-12
 -1       203-2.66098E-12-2.27729E-12-8.74190E-13
 -1       204-3.37508E-14 1.59028E-12-4.90986E-13
 -1       205 1.25633E-12 8.29825E-12-1.58180E-12
 -1       206-1.40332E-13-1.65201E-13 3.22353E-13
 -1       207 3.19744E-13-1.89093E-12 2.02949E-13
 -1       208-1.27898E-13 2.44915E-12 3.25961E-13
 -1       209-4.49774E-12-3.28626E-13-4.30649E-13
 -1       210 1.98597E-12-2.22222E+00 9.46455E-13
 -1       211-2.34479E-12-6.89226E-13 1.95385E-12
 -1       212-3.58114E-12-2.21512E-12-1.67555E-12
 -1       213 2.63878E-12 3.29514E-12-6.50313E-13
 -1       214 1.97709E-12 7.76090E-12-4.92634E-13
 -1       215 3.74456E-12-1.01057E-11-7.14692E-13
 -1       216-1.68487E-12-7.67564E-12-1.76177E-12
 -1       217-8.62414E-13-5.55340E-13 6.51777E-13
 -1       218-5.25802E-13 9.52127E-13 1.09768E-12
 -1       219 4.68958E-13 1.15108E-12-6.07153E-13
 -1       220-9.68114E-13 1.12461E-11-2.31455E-12
 -1       221 1.05516E-11-4.71392E-11-2.24881E-12
 -1       222-4.12265E-12 5.31186E-12 8.44158E-13
 -1       223 6.04805E-12 1.79767E-12-1.96287E-13
 -1       224 6.83009E-13 6.72351E-13-9.92872E-13
 -1       225 9.59233E-13 3.98526E-12-5.35683E-14
 -1       226-3.48166E-13-2.86882E-12-4.43831E-12
 -1       227 7.31609E-13-2.09777E-12 2.85438E-13
 -1       228-4.54747E-13-5.25802E-13-1.44301E-13
 -1       229-9.80549E-13-1.42819E-12 1.91125E-13
 -1       230-4.47642E-13-2.85194E-12-3.49921E-12
 -1       231-1.31139E-12-1.64913E-12-1.58614E-12
 -1       232 1.09424E-12-5.79092E-12 3.80615E-12
 -1       233-6.84897E-13 1.11733E-12 1.72062E-12
 -1       234-1.18834E-12-2.72726E-12 2.35978E-13
 -1       235 2.93099E-14-4.13003E-12 1.02762E-12
 -1       236 2.13518E-12-2.22222E+00-1.41462E-12
 -1       237-1.00080E-11-2.22222E+00-5.25116E-12
 -1       238-7.85771E-12-2.74625E-11-6.14273E-12
 -1       239 1.41215E-12-4.44444E+00 6.64840E-12
 -1       240-4.05009E-12 1.25961E-11 1.47517E-12
 -1       241-2.25953E-12-5.60618E-12 3.35426E-12
 -1       242 1.12288E-11 1.51381E-11-4.31126E-12
 -1       243-2.17870E-12 2.73737E-12 1.17306E-11
 -1       244 3.01897E-12 1.77706E-12-1.55893E-12
 -1       245-3.73422E-12-8.43658E-13-1.35250E-12
 -1       246 3.83693E-12 4.55636E-13 1.51462E-12
 -1       247 1.32667E-12 5.82036E-12-5.37948E-12
 -1       248 1.32609E-11-3.43734E-11 6.50136E-13
 -1       249 3.85114E-12 5.65112E-11 4.88334E-12
 -1       250-1.31697E-12 7.26075E-12 7.77434E-12
 -1       251-2.13163E-12 8.02558E-12-5.45494E-13
 -1       252 1.52056E-12-1.33493E-11-2.58676E-12
 -1       253 1.79501E-12-1.36957E-12 2.72166E-12
 -1       254 2.59526E-12 3.35731E-12-1.46325E-12
 -1       255 1.47535E-11-1.35674E-11 1.81686E-12
 -1       256 2.48201E-12 1.20846E-11 1.66793E-11
 -1       257 8.54969E-13-1.12427E-11-4.11823E-12
 -1       258-5.17275E-12 3.76144E-12 8.38551E-12
 -1       259 6.96332E-13-2.32170E-12-3.07698E-13
 -1       260 2.69788E-11-1.98934E-11-1.19243E-12
 -1       261 1.24700E-12 2.74192E-12 3.33171E-12
 -1       262 2.16271E-13-1.31486E-11-9.53321E-13
 -1       263-1.70530E-13-3.61666E-12-5.41536E-12
 -1       264-7.43228E-12-3.84950E-11-2.79750E-12
 -1       265 4.50573E-12-9.95328E-11-5.29707E-12
 -1       266 5.09714E-14 1.33866E-11 1.60822E-11
 -1       267-5.51381E-12 6.27498E-12-1.01635E-11
 -1       268 4.00036E-12 1.30722E-11 3.99886E-12
 -1       269-9.23972E-12-1.44791E-11 1.76231E-11
 -1       270 1.33760E-12 2.10298E-11 1.37944E-12
 -1       271-6.43929E-13 6.27587E-12 2.40200E-12
 -1       272 2.10143E-12-6.19771E-12-6.05987E-12
 -1       273 1.26241E-11-3.56950E-11 7.50230E-12
 -1       274 2.49933E-12 2.71410E-11-2.73945E-11
 -1       275-1.11209E-12-2.55928E-12 2.44620E-11
 -1       276-1.01537E-11 4.54374E-11 6.37724E-12
 -1       277 7.24754E-13-4.50031E-11 1.04453E-11
 -1       278-7.61968E-12-4.07319E-12-3.11825E-12
 -1       279-2.58815E-12-1.83086E-11-1.04323E-11
 -1       280-4.84057E-12 1.08713E-11-4.71512E-12
 -1       281 5.24114E-12-6.18350E-12-2.66462E-12
 -1       282 1.71267E-11-1.81677E-12 2.70773E-14
 -1       283-5.51825E-12 1.24547E-10-1.37369E-11
 -1       284 1.54466E-12-9.88484E-12 1.33961E-12
 -1       285-3.22586E-12-4.66294E-13-7.45219E-13
 -1       286-7.53175E-13-1.74332E-11-1.22348E-11
 -1       287-9.47953E-12-2.22302E-11 1.38023E-11
 -1       288 2.93632E-12-2.32572E-11-3.27145E-12
 -1       289 5.03464E-12-2.09077E-11 3.70094E-12
 -1       290 3.43725E-13 1.14753E-11-2.60869E-12
 -1       291 1.55920E-11 9.72200E-11 1.26623E-11
 -1       292 5.34354E-12-3.91442E-12-1.90100E-12
 -1       293 1.06581E-12 1.77778E-11 8.93487E-12
 -1       294-8.76810E-12-1.56559E-11 2.72319E-11
 -1       295-2.15594E-11-8.37304E-11-8.43725E-12
 -1       296 2.78533E-12-9.76441E-14 6.66110E-12
 -1       297-7.07878E-12 1.27969E-11-4.93838E-12
 -1       298 1.31806E-12-2.46789E-11 2.19307E-11
 -1       299-1.43192E-11 3.02212E-11-2.18656E-11
 -1       300 1.56675E-12 7.41873E-11 7.14583E-12
 -1       301 3.97327E-12-1.47136E-11-7.17730E-12
 -1       302 5.43920E-12-1.77796E-11-1.00661E-12
 -1       303 1.59732E-11 1.65192E-11 6.07943E-12
 -1       304-8.86136E-12 5.81440E-12-1.89960E-12
 -1       305 2.55396E-12-2.29115E-11-2.04865E-12
 -1       306-9.65983E-12-4.28386E-11-6.25897E-12
 -1       307 3.57033E-12-8.55836E-11-6.51586E-12
 -1       308 1.22924E-11 1.79808E-10 4.62384E-12
 -1       309 4.51861E-13 1.90443E-11-1.37842E-11
 -1       310 1.55609E-12 2.15289E-12 2.53260E-12
 -1       311-7.11786E-12-6.45972E-11 5.09913E-12
 -1       312 1.68976E-11-3.23315E-11-3.31683E-12
 -1       313 2.19771E-11 2.59645E-10 1.76868E-11
 -1       314-1.94112E-12 5.62725E-11 2.98314E-11
 -1       315 7.88315E-12-3.34830E-11-1.28004E-11
 -1       316-9.93872E-12-2.22222E+00 5.89426E-12
 -1       317-2.11822E-11-2.22222E+00-2.31209E-12
 -1       318 6.67721E-12-3.29374E-10 2.20979E-11
 -1       319-6.57491E-12-4.44444E+00-3.59496E-11
 -1       320 1.84741E-12 7.92877E-12 2.11962E-11
 -1       321 1.07097E-11-8.99281E-11 1.39636E-11
 -1       322-4.21052E-12 2.28521E-10-1.31048E-11
 -1       323-1.22845E-11-4.22126E-12 3.97101E-12
 -1       324 1.48979E-11 3.19849E-11 2.22749E-11
 -1       325 1.93348E-11-9.60021E-11 3.40036E-11
 -1       326 2.06145E-11-2.22222E+00-1.49379E-11
 -1       327-8.00870E-12-4.44444E+00 5.48877E-12
 -1       328-1.65501E-12 1.10430E-10-6.34264E-12
 -1       329-1.11123E-11 1.52962E-11 3.42155E-11
 -1       330 1.15072E-11 1.39113E-11-1.42412E-11
 -1       331 8.95550E-12 7.59668E-11 1.03108E-12
 -1       332 5.35749E-12 2.31495E-11 1.15737E-11
 -1       333-1.03206E-12 1.63082E-11 1.38019E-11
 -1       334 2.78533E-12-5.46261E-11 3.70395E-12
 -1       335-4.78097E-12-6.49273E-11 1.53744E-11
 -1       336 5.60885E-12-5.01740E-11-1.94421E-11
 -1       337 1.17548E-11 3.25535E-11-3.88347E-11
 -1       338 4.30281E-14-1.09083E-13-4.31192E-14
 -1       339-1.72751E-12-1.42641E-12 1.76151E-13
 -1       340-5.98632E-13 3.58824E-13-3.68594E-14
 -1       341 2.98896E-13 3.34906E-14-2.99434E-13
 -1       342-1.66524E-13-4.92517E-13-1.86434E-13
 -1       343 4.49418E-13 1.27898E-13-1.63147E-13
 -1       344 2.91251E-12-5.74683E-11 2.13469E-11
 -1       345 2.09742E-11 2.18721E-11 3.85039E-11
 -1       346 4.86722E-13-2.03038E-12 2.29407E-13
 -1       347 2.70391E-14 4.95195E-13 1.26928E-13
 -1       348-5.95080E-14 2.27374E-13-3.28487E-14
 -1       349 1.39687E-13 1.59324E-13 5.81202E-14
 -1       350 2.02283E-13-2.12275E-13 9.59510E-14
 -1       351 4.06441E-14 3.98444E-15 3.66016E-15
 -1       352 3.60892E-14-1.50574E-15-2.11085E-14
 -1       353 2.73559E-13 1.93356E-12 1.25566E-13
 -1       354 1.02449E-13-1.04405E-12-2.23757E-13
 -1       355-1.66978E-13-1.32161E-12 2.87881E-13
 -1       356-6.70575E-13-2.22222E+00-5.08898E-14
 -1       357 6.86814E-14-4.44444E+00 4.90944E-14
 -1       358 1.27898E-13-4.11893E-14 2.86493E-13
 -1       359-7.37188E-14 1.81188E-13 9.28979E-14
 -1       360 6.33224E-14-2.19418E-13-1.55806E-13
 -1       361-2.66454E-14-5.68434E-14 9.54792E-15
 -1       362-7.68274E-14-8.36664E-13 7.52731E-14
 -1       363 3.17435E-12 6.19949E-13 5.41164E-14
 -1       364-1.66978E-13-3.55271E-15 3.88578E-14
 -1       365-3.87246E-13 9.14824E-14 1.10863E-13
 -1       366 3.75671E-13 6.51840E-14 5.70793E-14
 -1       367-2.58460E-13-2.22222E+00 3.96905E-15
 -1       368-2.17344E-14-4.44444E+00 2.25965E-14
 -1       369-1.77636E-13 1.82077E-14-3.72757E-14
 -1       370-3.46390E-13 8.88178E-15-6.95971E-14
 -1       371-1.66978E-13 1.11910E-13-2.89213E-14
 -1       372 1.45928E-12-2.55915E-11-5.40883E-11
 -1       373-1.30180E-11-2.24183E-11-3.28257E-12
 -1       374 6.99885E-13 2.14095E-12 6.70594E-14
 -1       375 1.95399E-14-3.13083E-13-1.34542E-13
 -1       376-2.34479E-13-4.05620E-13 8.72080E-14
 -1       377 1.59612E-13 2.99843E-13 5.17574E-13
 -1       378 1.20348E-12 1.30873E-12-1.40242E-13
 -1       379-1.70730E-12-2.22222E+00 2.39940E-13
 -1       380 4.74465E-12-1.15641E-12 7.28931E-15
 -1       381-1.88904E-12-7.75907E-14-7.57325E-13
 -1       382 4.84154E-13-6.76403E-13 3.49596E-13
 -1       383-1.28253E-12 1.14175E-12-2.36644E-13
 -1       384 1.97176E-13-2.22222E+00-5.12611E-15
 -1       385 2.10248E-15-4.44444E+00-8.28501E-14
 -1       386 6.68441E-14-1.69430E-13-2.25436E-14
 -1       387 5.36460E-13 7.30527E-14-4.00634E-15
 -1       388 3.06422E-13 8.06022E-13 1.77185E-14
 -1       389-3.80584E-13 3.07310E-13 2.59816E-13
 -1       390 2.41585E-13-1.70530E-13-2.40530E-13
 -1       391 2.87837E-13 3.02839E-14-2.61641E-13
 -1       392-2.87770E-13 4.52971E-14-1.08580E-13
 -1       393-2.85993E-13 1.89360E-12 1.74860E-15
 -1       394-2.43860E-13 8.37552E-13-2.07806E-13
 -1       395-3.64153E-13 8.52651E-14 4.38538E-15
 -1       396-6.40377E-13-2.28173E-12-3.54369E-14
 -1       397 1.40881E-13 4.51517E-13 1.14535E-13
 -1       398-1.20792E-13-6.75016E-14-4.96044E-14
 -1       399-1.38556E-13-9.14824E-14-4.84612E-14
 -1       400-2.85993E-13 3.55271E-13-1.46910E-13
 -1       401-2.23865E-12 1.01696E-13 2.18506E-14
 -1       402-4.74341E-13 3.70898E-13 1.90699E-13
 -1       403 2.66454E-14 3.04201E-14-1.81803E-14
 -1       404 4.58744E-13-3.67262E-13 1.23862E-13
 -1       405 1.40332E-13 3.30957E-13-2.61874E-13
 -1       406 3.14401E-14-3.44585E-13-2.44162E-13
 -1       407 8.26006E-14 6.02185E-13 2.11858E-13
 -1       408-3.10196E-13 8.33555E-13 1.73550E-13
 -1       409-8.13571E-13-1.90070E-13-3.11653E-13
 -1       410 2.04281E-13 5.72875E-14 1.16074E-13
 -1       411 4.86722E-13 2.29816E-13-1.60184E-13
 -1       412-1.70836E-12 1.11711E-12 7.75265E-14
 -1       413-7.10543E-15-1.54143E-12-1.18794E-14
 -1       414 1.61116E-12 3.73035E-14 1.06137E-13
 -1       415-9.30811E-13-2.94875E-13 3.13111E-13
 -1       416 4.96134E-13 2.89352E-14-2.60812E-13
 -1       417 1.77636E-14 1.60982E-14 1.47316E-13
 -1       418 1.15108E-12 4.47642E-13-2.52437E-14
 -1       419 1.44759E-13-3.02067E-12 8.06501E-13
 -1       420 4.85478E-12-2.22222E+00 8.43978E-14
 -1       421 1.32781E-13-4.44444E+00 1.47264E-13
 -1       422 5.32983E-13 1.00306E-12-6.47787E-13
 -1       423-2.34479E-13 1.38556E-13-4.12517E-15
 -1       424-3.04645E-13 2.67075E-12 1.64305E-12
 -1       425 6.27276E-13-1.57030E-12-5.25673E-13
 -1       426 4.79720E-13-2.06890E-12 1.11891E-13
 -1       427-3.19744E-13 7.26530E-13 3.34753E-13
 -1       428-6.03961E-13 6.32383E-13-6.59521E-13
 -1       429-5.73097E-13-2.22222E+00-7.12087E-13
 -1       430-1.69457E-12-4.44444E+00-7.49093E-14
 -1       431-2.67398E-13 6.69673E-13 1.45332E-12
 -1       432-5.50671E-14-9.23706E-14 5.36793E-14
 -1       433-8.52651E-14-1.61388E-12-4.02123E-13
 -1       434 1.19016E-12 2.76223E-13 8.73607E-14
 -1       435-1.88294E-13-2.49367E-11-6.64468E-12
 -1       436-3.82272E-12-2.22222E+00-6.86024E-13
 -1       437-4.00391E-12 1.05587E-11-1.04583E-12
 -1       438-7.57158E-13-4.44444E+00 9.25709E-14
 -1       439 2.67164E-12 8.08242E-13-4.52971E-14
 -1       440 1.05191E-12 9.70973E-13-1.00425E-12
 -1       441-5.08894E-13 1.79930E-12 7.53725E-13
 -1       442 2.84814E-13 1.05471E-14 7.43086E-13
 -1       443 7.81597E-14 2.83151E-12-3.19078E-13
 -1       444 1.78701E-12-9.46798E-13-8.06605E-13
 -1       445-1.60316E-13 2.22222E-12-6.38378E-13
 -1       446 6.29108E-13-1.88333E-12-4.89955E-13
 -1       447-2.03659E-12 1.12799E-12 1.19166E-12
 -1       448 1.19378E-12 1.43756E-12-6.51784E-13
 -1       449-1.20544E-11-2.22222E+00 2.29264E-12
 -1       450-8.69156E-13-4.44444E+00 2.43541E-12
 -1       451-6.21014E-12 9.24083E-12-1.50685E-12
 -1       452-8.48058E-13-4.44444E+00 3.65444E-13
 -1       453-5.03597E-13-1.48592E-12 9.62896E-13
 -1       454-1.85005E-12 1.20343E-12 1.05246E-12
 -1       455 1.33462E-12 3.47392E-12 1.91119E-12
 -1       456-6.41136E-14-2.80362E-12 3.23302E-13
 -1       457-6.87603E-13 2.76755E-11 1.78692E-12
 -1       458 3.32889E-12-4.37161E-12 1.39777E-12
 -1       459-1.57580E-12-4.44444E+00 4.75384E-14
 -1       460 5.32988E-12 6.22961E-12-1.69439E-12
 -1       461 1.82161E-12-3.35526E-12-4.59269E-12
 -1       462 1.70691E-12 3.07752E-11-6.83076E-12
 -1       463 1.99663E-12-7.84084E-12 6.95663E-12
 -1       464-3.16459E-12-5.19546E-12-6.65176E-13
 -1       465 1.78777E-12 2.11930E-11-4.97185E-12
 -1       466 1.53482E-11-2.22222E+00 1.62680E-12
 -1       467-1.61893E-12-4.44444E+00 1.66481E-12
 -1       468 2.47757E-12 2.24507E-12-1.72265E-12
 -1       469 3.48604E-12 1.24808E-11 2.66790E-12
 -1       470-2.67660E-12-2.42700E-11-6.91279E-12
 -1       471 1.10387E-11-2.22222E+00-8.05686E-13
 -1       472 3.92375E-12-4.44444E+00-1.51242E-12
 -1       473-9.12459E-12-8.80684E-12-7.73822E-12
 -1       474-2.29074E-12 1.16171E-12-4.37476E-12
 -1       475 4.86736E-12-1.35133E-11-6.75538E-12
 -1       476 3.20923E-11-2.22222E+00-9.22677E-13
 -1       477-3.20716E-14-4.44444E+00-6.53886E-12
 -1       478-1.50030E-12-5.51857E-12-5.90929E-12
 -1       479-2.95469E-12-1.88591E-11-2.70630E-12
 -1       480 1.14257E-11-5.11893E-12-1.80784E-11
 -1       481-2.87870E-12-2.22222E+00 2.96631E-12
 -1       482-9.88362E-13-4.44444E+00 1.32497E-11
 -1       483 2.90612E-12 2.04762E-11 1.94977E-12
 -1       484 6.14615E-12-1.71706E-11 5.59870E-12
 -1       485-1.39697E-11 2.45596E-11-6.47139E-12
 -1       486 1.19510E-11-2.22222E+00 2.49243E-12
 -1       487-5.04964E-12-4.44444E+00-4.67888E-12
 -1       488 1.05322E-11 3.07157E-11 7.83386E-12
 -1       489-1.15659E-11 1.01201E-12-1.58516E-11
 -1       490 1.72229E-12-2.22222E+00 1.08463E-11
 -1       491 6.51107E-12-2.22222E+00 3.34829E-12
 -1       492-5.34713E-12-4.44444E+00 3.36265E-12
 -1       493 4.19244E-12-1.95806E-11-1.65936E-11
 -1       494 4.62000E-12-2.33727E-11 4.29158E-13
 -1       495-9.16918E-12-6.66510E-11-1.91042E-11
 -1       496-2.08271E-11-2.22222E+00 6.55630E-12
 -1       497-2.93986E-12-4.44444E+00-6.87603E-13
 -1       498 1.19695E-12-3.08521E-12-3.08949E-12
 -1       499-9.00269E-12 3.71289E-12 3.16393E-13
 -1       500 9.17048E-12-6.22772E-12 6.28805E-12
 -1       501 1.33275E-11 2.06462E-10 1.72542E-11
 -1       502-4.57022E-12 1.75178E-11-1.76515E-11
 -1       503-7.08445E-13-4.57689E-11 6.76288E-12
 -1       504 4.45902E-12-4.44444E+00-2.98801E-12
 -1       505-1.59503E-11 6.37078E-11-1.44656E-12
 -1       506 9.10925E-12-8.94408E-12-4.81177E-12
 -1       507-8.13129E-12-3.86218E-11-2.30195E-12
 -1       508-9.32931E-12 2.94983E-11-7.83561E-12
 -1       509-5.08188E-12 5.10992E-11 1.78077E-11
 -1       510 7.82760E-12-2.05863E-11 2.32544E-11
 -1       511 5.29042E-13-3.04425E-11-1.78442E-12
 -1       512 4.64295E-12-4.44444E+00-1.15487E-11
 -1       513 3.63895E-12 2.25644E-11 5.79603E-12
 -1       514 1.08897E-11-4.44444E+00-8.31725E-12
 -1       515-3.67508E-12 8.65143E-11-3.79815E-13
 -1       516 2.02601E-11-1.11111E+00-5.95530E-13
 -1       517-3.98004E-12-4.44444E+00-5.97271E-12
 -1       518-1.75887E-11 1.03204E-10 4.22124E-11
 -1       519 4.85191E-12-3.01226E-10 2.84249E-11
 -1       520 7.89012E-12 2.86925E-11-7.53552E-12
 -1       521-1.88396E-11 5.73479E-11-2.93040E-11
 -1       522 1.93950E-11-3.50326E-11-3.22121E-11
 -1       523-1.37212E-11 8.20519E-11 4.25830E-11
 -1       524 5.22750E-14-5.87994E-13-1.84030E-13
 -1       525 1.50990E-13-8.52651E-14 1.77389E-13
 -1       526 1.03029E-13 5.22249E-13 1.07692E-13
 -1       527 1.35003E-13-3.62377E-13 1.16795E-13
 -1       528 5.92859E-13-7.30749E-13-7.42462E-16
 -1       529-1.69039E-13-3.40067E-14-8.34402E-15
 -1       530-7.10543E-15 1.10578E-13-4.62130E-14
 -1       531 5.06262E-14-1.20570E-13 1.21014E-14
 -1       532-2.00548E-13 2.48468E-13 3.90590E-14
 -1       533-2.98919E-14 4.50924E-14 8.67986E-14
 -1       534 4.35173E-14 8.30937E-14-1.92610E-13
 -1       535 1.13537E-13 4.63023E-13-5.80829E-14
 -1       536 9.18762E-14-5.00607E-14 1.78503E-14
 -1       537-2.22933E-13-2.09610E-13-7.88258E-15
 -1       538 1.02210E-13-4.44444E+00-4.45130E-15
 -1       539 1.65135E-13 1.72848E-14-4.66571E-14
 -1       540-1.63425E-13 9.76996E-15-1.45939E-13
 -1       541-4.65405E-13 9.23706E-14-1.11244E-13
 -1       542-3.55271E-15-1.96287E-13 7.77503E-14
 -1       543-1.39444E-13-4.08562E-13-1.48492E-14
 -1       544-5.78204E-13-5.97744E-13-1.89279E-13
 -1       545-5.09814E-13 9.59233E-14 2.08771E-13
 -1       546-9.42024E-14 4.03580E-13-1.54371E-14
 -1       547-8.24197E-14 2.85947E-13 4.10089E-15
 -1       548 7.34551E-14-6.64340E-13 2.38837E-13
 -1       549-1.70215E-13 4.12410E-13-1.90576E-13
 -1       550 4.46483E-13-4.44444E+00 9.34066E-14
 -1       551-2.78365E-13 2.53906E-13-2.25799E-13
 -1       552 1.19124E-12 2.87811E-13 5.60402E-14
 -1       553-1.20154E-13 4.37216E-13-1.63895E-13
 -1       554-2.68036E-13-1.23109E-12-1.12153E-13
 -1       555 2.81053E-13 4.23106E-13 1.72310E-14
 -1       556 3.64958E-13 1.75679E-13-1.97550E-14
 -1       557-1.82299E-13 2.07168E-13 5.39152E-14
 -1       558 7.67164E-14-9.18376E-13 1.54418E-13
 -1       559-7.05817E-13-3.16903E-13-1.83146E-13
 -1       560-2.39392E-13-6.02352E-13 2.66436E-14
 -1       561 2.77528E-13-5.63688E-13-7.71855E-13
 -1       562 6.25940E-13-1.06644E-12-5.04643E-13
 -1       563-1.06631E-12-4.44444E+00 3.09123E-12
 -1       564-5.31616E-13-1.46846E-12 3.39381E-13
 -1       565 1.74164E-12 1.21902E-12-2.33399E-12
 -1       566 2.12741E-12 1.40560E-12 1.90213E-12
 -1       567-2.67264E-12-4.34069E-13 7.80452E-13
 -1       568-2.60198E-13 7.88612E-13-1.41517E-13
 -1       569-3.14573E+01 6.84823E+00 8.42642E-15
 -1       570-5.93726E-14 8.79978E-14 3.58741E-15
 -1       571-2.74329E-13 2.20952E-13-6.20684E-14
 -1       572-9.96998E-14 4.75503E-13 1.85501E-13
 -1       573 2.11271E-13 3.40145E-14-1.02279E-13
 -1       574-2.11983E-14 1.44787E-13-2.93238E-14
 -1       575-1.74327E-12-2.04858E-12 2.19006E-13
 -1       576-1.16874E-13-1.21077E-13 7.26322E-13
 -1       577-5.98712E-13 5.03202E-13-2.74135E-13
 -1       578 1.03594E-13-2.31303E-13-4.64442E-14
 -1       579-2.95597E-13-6.06064E-13 4.30538E-13
 -1       580-5.02653E-13 4.18665E-13-1.58575E-13
 -1       581 5.11703E-13 2.65866E-13 4.07972E-14
 -1       582 3.50350E-13 5.47960E-14 8.77228E-14
 -1       583 1.14783E-13 2.56226E-13 3.51429E-14
 -1       584-2.14016E-13-4.44444E+00-2.36491E-14
 -1       585 4.27736E-12-8.02025E-13-2.50383E-13
 -1       586 3.92478E-13-4.44533E-13-2.76563E-13
 -1       587-2.71500E-13 1.23013E-13 3.10163E-13
 -1       588-1.13772E-12 3.15910E-13 3.81035E-13
 -1       589-2.21872E-13-1.90313E-13-2.22392E-14
 -1       590 6.52138E-13-4.22037E-13-8.72080E-14
 -1       591 4.68379E-13 1.98265E-13-3.03230E-13
 -1       592 4.03589E-13-2.37241E-14-2.03824E-13
 -1       593 1.23590E-12 8.47265E-14 9.08388E-14
 -1       594-2.21132E-13-1.33095E-13-4.18464E-13
 -1       595 2.67337E-13-4.70643E-13-2.07385E-14
 -1       596-2.18653E-14-2.02741E-13-1.88343E-13
 -1       597 3.86441E-13-1.78461E-13 8.08312E-14
 -1       598-5.37417E-14 2.34129E-13-7.28376E-14
 -1       599 2.21698E-13-1.34197E-12-1.56586E-12
 -1       600 7.36529E-14-3.07643E-13-2.65468E-13
 -1       601 3.64604E-13-1.49718E-13-3.81013E-13
 -1       602-3.20525E-14-2.10681E-13 4.97436E-14
 -1       603 2.91447E-13-3.84940E-13 1.70887E-13
 -1       604-8.20136E-13 5.93692E-14 2.91198E-13
 -1       605-4.44467E-13 9.63743E-14 2.93935E-13
 -1       606-1.18607E-13-7.53772E-14-1.26260E-14
 -1       607-4.75564E-13 4.85740E-13-2.38046E-13
 -1       608 4.17999E-13-1.68754E-14 1.89987E-14
 -1       609-1.98619E-13-7.83613E-13-4.97796E-14
 -1       610 2.42160E-13 1.18863E-14-6.90975E-14
 -1       611-1.10297E-12-3.22138E-14-6.19990E-14
 -1       612 1.03563E-14-4.90372E-14-2.22235E-13
 -3
 9999
