    1C
    1UUSER                                                              
    1UDATE              30.march.2022                                   
    1UTIME              09:58:43                                        
    1UHOST                                                              
    1UPGM               CalculiX                                        
    1UVERSION           Version 2.19                             
    1UCOMPILETIME       Wed Mar 30 06:04:19 EDT 2022                    
    1UDIR                                                               
    1UDBN                                                               
    1UMAT    1STEEL                                                     
    2C                           240                                     1
 -1         1 0.00000E+00 1.00000E+01 0.00000E+00
 -1         2 0.00000E+00 5.00000E+00 0.00000E+00
 -1         3 5.00000E+00 5.00000E+00 0.00000E+00
 -1         4 5.00000E+00 1.00000E+01 0.00000E+00
 -1         5 1.00000E+01 5.00000E+00 0.00000E+00
 -1         6 1.00000E+01 1.00000E+01 0.00000E+00
 -1         7 1.50000E+01 5.00000E+00 0.00000E+00
 -1         8 1.50000E+01 1.00000E+01 0.00000E+00
 -1         9 2.00000E+01 5.00000E+00 0.00000E+00
 -1        10 2.00000E+01 1.00000E+01 0.00000E+00
 -1        11 2.50000E+01 5.00000E+00 0.00000E+00
 -1        12 2.50000E+01 1.00000E+01 0.00000E+00
 -1        13 3.00000E+01 5.00000E+00 0.00000E+00
 -1        14 3.00000E+01 1.00000E+01 0.00000E+00
 -1        15 3.50000E+01 5.00000E+00 0.00000E+00
 -1        16 3.50000E+01 1.00000E+01 0.00000E+00
 -1        17 4.00000E+01 5.00000E+00 0.00000E+00
 -1        18 4.00000E+01 1.00000E+01 0.00000E+00
 -1        19 0.00000E+00 0.00000E+00 0.00000E+00
 -1        20 5.00000E+00 0.00000E+00 0.00000E+00
 -1        21 1.00000E+01 0.00000E+00 0.00000E+00
 -1        22 1.50000E+01 0.00000E+00 0.00000E+00
 -1        23 2.00000E+01 0.00000E+00 0.00000E+00
 -1        24 2.50000E+01 0.00000E+00 0.00000E+00
 -1        25 3.00000E+01 0.00000E+00 0.00000E+00
 -1        26 3.50000E+01 0.00000E+00 0.00000E+00
 -1        27 4.00000E+01 0.00000E+00 0.00000E+00
 -1        28 0.00000E+00 1.00000E+01 0.00000E+00
 -1        29 0.00000E+00 0.00000E+00 0.00000E+00
 -1        30 1.00000E+01 0.00000E+00 0.00000E+00
 -1        31 1.00000E+01 1.00000E+01 0.00000E+00
 -1        32 0.00000E+00 5.00000E+00 0.00000E+00
 -1        33 5.00000E+00 0.00000E+00 0.00000E+00
 -1        34 1.00000E+01 5.00000E+00 0.00000E+00
 -1        35 5.00000E+00 1.00000E+01 0.00000E+00
 -1        36 2.00000E+01 0.00000E+00 0.00000E+00
 -1        37 2.00000E+01 1.00000E+01 0.00000E+00
 -1        38 1.50000E+01 0.00000E+00 0.00000E+00
 -1        39 2.00000E+01 5.00000E+00 0.00000E+00
 -1        40 1.50000E+01 1.00000E+01 0.00000E+00
 -1        41 3.00000E+01 0.00000E+00 0.00000E+00
 -1        42 3.00000E+01 1.00000E+01 0.00000E+00
 -1        43 2.50000E+01 0.00000E+00 0.00000E+00
 -1        44 3.00000E+01 5.00000E+00 0.00000E+00
 -1        45 2.50000E+01 1.00000E+01 0.00000E+00
 -1        46 4.00000E+01 0.00000E+00 0.00000E+00
 -1        47 4.00000E+01 1.00000E+01 0.00000E+00
 -1        48 3.50000E+01 0.00000E+00 0.00000E+00
 -1        49 4.00000E+01 5.00000E+00 0.00000E+00
 -1        50 3.50000E+01 1.00000E+01 0.00000E+00
 -1        51 0.00000E+00 1.00000E+01 0.00000E+00
 -1        52 0.00000E+00 5.00000E+00 0.00000E+00
 -1        53 5.00000E+00 1.00000E+01 0.00000E+00
 -1        54 5.00000E+00 5.00000E+00 0.00000E+00
 -1        55 1.00000E+01 1.00000E+01 0.00000E+00
 -1        56 1.00000E+01 5.00000E+00 0.00000E+00
 -1        57 1.50000E+01 1.00000E+01 0.00000E+00
 -1        58 1.50000E+01 5.00000E+00 0.00000E+00
 -1        59 2.00000E+01 1.00000E+01 0.00000E+00
 -1        60 2.00000E+01 5.00000E+00 0.00000E+00
 -1        61 2.50000E+01 1.00000E+01 0.00000E+00
 -1        62 2.50000E+01 5.00000E+00 0.00000E+00
 -1        63 3.00000E+01 1.00000E+01 0.00000E+00
 -1        64 3.00000E+01 5.00000E+00 0.00000E+00
 -1        65 3.50000E+01 1.00000E+01 0.00000E+00
 -1        66 3.50000E+01 5.00000E+00 0.00000E+00
 -1        67 4.00000E+01 1.00000E+01 0.00000E+00
 -1        68 4.00000E+01 5.00000E+00 0.00000E+00
 -1        69 0.00000E+00 0.00000E+00 0.00000E+00
 -1        70 5.00000E+00 0.00000E+00 0.00000E+00
 -1        71 1.00000E+01 0.00000E+00 0.00000E+00
 -1        72 1.50000E+01 0.00000E+00 0.00000E+00
 -1        73 2.00000E+01 0.00000E+00 0.00000E+00
 -1        74 2.50000E+01 0.00000E+00 0.00000E+00
 -1        75 3.00000E+01 0.00000E+00 0.00000E+00
 -1        76 3.50000E+01 0.00000E+00 0.00000E+00
 -1        77 4.00000E+01 0.00000E+00 0.00000E+00
 -1        78 0.00000E+00 1.00000E+01 0.00000E+00
 -1        79 0.00000E+00 0.00000E+00 0.00000E+00
 -1        80 1.00000E+01 1.00000E+01 0.00000E+00
 -1        81 0.00000E+00 5.00000E+00 0.00000E+00
 -1        82 5.00000E+00 5.00000E+00 0.00000E+00
 -1        83 5.00000E+00 1.00000E+01 0.00000E+00
 -1        84 1.00000E+01 0.00000E+00 0.00000E+00
 -1        85 5.00000E+00 0.00000E+00 0.00000E+00
 -1        86 1.00000E+01 5.00000E+00 0.00000E+00
 -1        87 2.00000E+01 1.00000E+01 0.00000E+00
 -1        88 1.50000E+01 5.00000E+00 0.00000E+00
 -1        89 1.50000E+01 1.00000E+01 0.00000E+00
 -1        90 2.00000E+01 0.00000E+00 0.00000E+00
 -1        91 1.50000E+01 0.00000E+00 0.00000E+00
 -1        92 2.00000E+01 5.00000E+00 0.00000E+00
 -1        93 3.00000E+01 1.00000E+01 0.00000E+00
 -1        94 2.50000E+01 5.00000E+00 0.00000E+00
 -1        95 2.50000E+01 1.00000E+01 0.00000E+00
 -1        96 3.00000E+01 0.00000E+00 0.00000E+00
 -1        97 2.50000E+01 0.00000E+00 0.00000E+00
 -1        98 3.00000E+01 5.00000E+00 0.00000E+00
 -1        99 4.00000E+01 1.00000E+01 0.00000E+00
 -1       100 3.50000E+01 5.00000E+00 0.00000E+00
 -1       101 3.50000E+01 1.00000E+01 0.00000E+00
 -1       102 4.00000E+01 0.00000E+00 0.00000E+00
 -1       103 3.50000E+01 0.00000E+00 0.00000E+00
 -1       104 4.00000E+01 5.00000E+00 0.00000E+00
 -1       105 5.00000E+00 1.00000E+01 0.00000E+00
 -1       106 5.00000E+00 5.00000E+00 0.00000E+00
 -1       107 1.00000E+01 1.00000E+01 0.00000E+00
 -1       108 1.00000E+01 5.00000E+00 0.00000E+00
 -1       109 1.50000E+01 1.00000E+01 0.00000E+00
 -1       110 1.50000E+01 5.00000E+00 0.00000E+00
 -1       111 2.00000E+01 1.00000E+01 0.00000E+00
 -1       112 2.00000E+01 5.00000E+00 0.00000E+00
 -1       113 2.50000E+01 1.00000E+01 0.00000E+00
 -1       114 2.50000E+01 5.00000E+00 0.00000E+00
 -1       115 3.00000E+01 1.00000E+01 0.00000E+00
 -1       116 3.00000E+01 5.00000E+00 0.00000E+00
 -1       117 3.50000E+01 1.00000E+01 0.00000E+00
 -1       118 3.50000E+01 5.00000E+00 0.00000E+00
 -1       119 0.00000E+00 5.00000E+00 0.00000E+00
 -1       120 5.00000E+00 5.00000E+00 0.00000E+00
 -1       121 5.00000E+00 5.00000E+00 0.00000E+00
 -1       122 5.00000E+00 0.00000E+00 0.00000E+00
 -1       123 1.00000E+01 5.00000E+00 0.00000E+00
 -1       124 1.00000E+01 5.00000E+00 0.00000E+00
 -1       125 1.00000E+01 0.00000E+00 0.00000E+00
 -1       126 1.50000E+01 5.00000E+00 0.00000E+00
 -1       127 1.50000E+01 5.00000E+00 0.00000E+00
 -1       128 1.50000E+01 0.00000E+00 0.00000E+00
 -1       129 2.00000E+01 5.00000E+00 0.00000E+00
 -1       130 2.00000E+01 5.00000E+00 0.00000E+00
 -1       131 2.00000E+01 0.00000E+00 0.00000E+00
 -1       132 2.50000E+01 5.00000E+00 0.00000E+00
 -1       133 2.50000E+01 5.00000E+00 0.00000E+00
 -1       134 2.50000E+01 0.00000E+00 0.00000E+00
 -1       135 3.00000E+01 5.00000E+00 0.00000E+00
 -1       136 3.00000E+01 5.00000E+00 0.00000E+00
 -1       137 3.00000E+01 0.00000E+00 0.00000E+00
 -1       138 3.50000E+01 5.00000E+00 0.00000E+00
 -1       139 3.50000E+01 5.00000E+00 0.00000E+00
 -1       140 3.50000E+01 0.00000E+00 0.00000E+00
 -1       141 4.00000E+01 5.00000E+00 0.00000E+00
 -1       142 1.00000E+01 1.00000E+01 0.00000E+00
 -1       143 1.00000E+01 0.00000E+00 0.00000E+00
 -1       144 1.00000E+01 5.00000E+00 0.00000E+00
 -1       145 2.00000E+01 1.00000E+01 0.00000E+00
 -1       146 2.00000E+01 0.00000E+00 0.00000E+00
 -1       147 2.00000E+01 5.00000E+00 0.00000E+00
 -1       148 3.00000E+01 1.00000E+01 0.00000E+00
 -1       149 3.00000E+01 0.00000E+00 0.00000E+00
 -1       150 3.00000E+01 5.00000E+00 0.00000E+00
 -1       151 5.00000E+00 1.00000E+01 0.00000E+00
 -1       152 0.00000E+00 5.00000E+00 0.00000E+00
 -1       153 5.00000E+00 1.00000E+01 0.00000E+00
 -1       154 5.00000E+00 5.00000E+00 0.00000E+00
 -1       155 1.00000E+01 1.00000E+01 0.00000E+00
 -1       156 5.00000E+00 5.00000E+00 0.00000E+00
 -1       157 1.00000E+01 1.00000E+01 0.00000E+00
 -1       158 1.00000E+01 5.00000E+00 0.00000E+00
 -1       159 1.50000E+01 1.00000E+01 0.00000E+00
 -1       160 1.00000E+01 5.00000E+00 0.00000E+00
 -1       161 1.50000E+01 1.00000E+01 0.00000E+00
 -1       162 1.50000E+01 5.00000E+00 0.00000E+00
 -1       163 2.00000E+01 1.00000E+01 0.00000E+00
 -1       164 1.50000E+01 5.00000E+00 0.00000E+00
 -1       165 2.00000E+01 1.00000E+01 0.00000E+00
 -1       166 2.00000E+01 5.00000E+00 0.00000E+00
 -1       167 2.50000E+01 1.00000E+01 0.00000E+00
 -1       168 2.00000E+01 5.00000E+00 0.00000E+00
 -1       169 2.50000E+01 1.00000E+01 0.00000E+00
 -1       170 2.50000E+01 5.00000E+00 0.00000E+00
 -1       171 3.00000E+01 1.00000E+01 0.00000E+00
 -1       172 2.50000E+01 5.00000E+00 0.00000E+00
 -1       173 3.00000E+01 1.00000E+01 0.00000E+00
 -1       174 3.00000E+01 5.00000E+00 0.00000E+00
 -1       175 3.50000E+01 1.00000E+01 0.00000E+00
 -1       176 3.00000E+01 5.00000E+00 0.00000E+00
 -1       177 3.50000E+01 1.00000E+01 0.00000E+00
 -1       178 3.50000E+01 5.00000E+00 0.00000E+00
 -1       179 4.00000E+01 1.00000E+01 0.00000E+00
 -1       180 3.50000E+01 5.00000E+00 0.00000E+00
 -1       181 0.00000E+00 5.00000E+00 0.00000E+00
 -1       182 5.00000E+00 5.00000E+00 0.00000E+00
 -1       183 5.00000E+00 5.00000E+00 0.00000E+00
 -1       184 0.00000E+00 0.00000E+00 0.00000E+00
 -1       185 5.00000E+00 5.00000E+00 0.00000E+00
 -1       186 5.00000E+00 0.00000E+00 0.00000E+00
 -1       187 1.00000E+01 5.00000E+00 0.00000E+00
 -1       188 1.00000E+01 5.00000E+00 0.00000E+00
 -1       189 5.00000E+00 0.00000E+00 0.00000E+00
 -1       190 1.00000E+01 5.00000E+00 0.00000E+00
 -1       191 1.00000E+01 0.00000E+00 0.00000E+00
 -1       192 1.50000E+01 5.00000E+00 0.00000E+00
 -1       193 1.50000E+01 5.00000E+00 0.00000E+00
 -1       194 1.00000E+01 0.00000E+00 0.00000E+00
 -1       195 1.50000E+01 5.00000E+00 0.00000E+00
 -1       196 1.50000E+01 0.00000E+00 0.00000E+00
 -1       197 2.00000E+01 5.00000E+00 0.00000E+00
 -1       198 2.00000E+01 5.00000E+00 0.00000E+00
 -1       199 1.50000E+01 0.00000E+00 0.00000E+00
 -1       200 2.00000E+01 5.00000E+00 0.00000E+00
 -1       201 2.00000E+01 0.00000E+00 0.00000E+00
 -1       202 2.50000E+01 5.00000E+00 0.00000E+00
 -1       203 2.50000E+01 5.00000E+00 0.00000E+00
 -1       204 2.00000E+01 0.00000E+00 0.00000E+00
 -1       205 2.50000E+01 5.00000E+00 0.00000E+00
 -1       206 2.50000E+01 0.00000E+00 0.00000E+00
 -1       207 3.00000E+01 5.00000E+00 0.00000E+00
 -1       208 3.00000E+01 5.00000E+00 0.00000E+00
 -1       209 2.50000E+01 0.00000E+00 0.00000E+00
 -1       210 3.00000E+01 5.00000E+00 0.00000E+00
 -1       211 3.00000E+01 0.00000E+00 0.00000E+00
 -1       212 3.50000E+01 5.00000E+00 0.00000E+00
 -1       213 3.50000E+01 5.00000E+00 0.00000E+00
 -1       214 3.00000E+01 0.00000E+00 0.00000E+00
 -1       215 3.50000E+01 5.00000E+00 0.00000E+00
 -1       216 3.50000E+01 0.00000E+00 0.00000E+00
 -1       217 4.00000E+01 5.00000E+00 0.00000E+00
 -1       218 4.00000E+01 5.00000E+00 0.00000E+00
 -1       219 3.50000E+01 0.00000E+00 0.00000E+00
 -1       220 1.00000E+01 1.00000E+01 0.00000E+00
 -1       221 0.00000E+00 0.00000E+00 0.00000E+00
 -1       222 5.00000E+00 5.00000E+00 0.00000E+00
 -1       223 1.00000E+01 1.00000E+01 0.00000E+00
 -1       224 1.00000E+01 0.00000E+00 0.00000E+00
 -1       225 1.00000E+01 5.00000E+00 0.00000E+00
 -1       226 2.00000E+01 1.00000E+01 0.00000E+00
 -1       227 1.00000E+01 0.00000E+00 0.00000E+00
 -1       228 1.50000E+01 5.00000E+00 0.00000E+00
 -1       229 2.00000E+01 1.00000E+01 0.00000E+00
 -1       230 2.00000E+01 0.00000E+00 0.00000E+00
 -1       231 2.00000E+01 5.00000E+00 0.00000E+00
 -1       232 3.00000E+01 1.00000E+01 0.00000E+00
 -1       233 2.00000E+01 0.00000E+00 0.00000E+00
 -1       234 2.50000E+01 5.00000E+00 0.00000E+00
 -1       235 3.00000E+01 1.00000E+01 0.00000E+00
 -1       236 3.00000E+01 0.00000E+00 0.00000E+00
 -1       237 3.00000E+01 5.00000E+00 0.00000E+00
 -1       238 4.00000E+01 1.00000E+01 0.00000E+00
 -1       239 3.00000E+01 0.00000E+00 0.00000E+00
 -1       240 3.50000E+01 5.00000E+00 0.00000E+00
 -3
    3C                            60                                     1
 -1         1    9    0    1
 -2         1         2         3         4
 -1         2    9    0    1
 -2       105       106         5         6
 -1         3    9    0    1
 -2       107       108         7         8
 -1         4    9    0    1
 -2       109       110         9        10
 -1         5    9    0    1
 -2       111       112        11        12
 -1         6    9    0    1
 -2       113       114        13        14
 -1         7    9    0    1
 -2       115       116        15        16
 -1         8    9    0    1
 -2       117       118        17        18
 -1         9    9    0    1
 -2       119        19        20       120
 -1        10    9    0    1
 -2       121       122        21       123
 -1        11    9    0    1
 -2       124       125        22       126
 -1        12    9    0    1
 -2       127       128        23       129
 -1        13    9    0    1
 -2       130       131        24       132
 -1        14    9    0    1
 -2       133       134        25       135
 -1        15    9    0    1
 -2       136       137        26       138
 -1        16    9    0    1
 -2       139       140        27       141
 -1        17   10    0    1
 -2        28        29        30        31        32        33        34        35
 -1        18   10    0    1
 -2       142       143        36        37       144        38        39        40
 -1        19   10    0    1
 -2       145       146        41        42       147        43        44        45
 -1        20   10    0    1
 -2       148       149        46        47       150        48        49        50
 -1        21    7    0    1
 -2        51        52        53
 -1        22    7    0    1
 -2       151       152        54
 -1        23    7    0    1
 -2       153       154        55
 -1        24    7    0    1
 -2       155       156        56
 -1        25    7    0    1
 -2       157       158        57
 -1        26    7    0    1
 -2       159       160        58
 -1        27    7    0    1
 -2       161       162        59
 -1        28    7    0    1
 -2       163       164        60
 -1        29    7    0    1
 -2       165       166        61
 -1        30    7    0    1
 -2       167       168        62
 -1        31    7    0    1
 -2       169       170        63
 -1        32    7    0    1
 -2       171       172        64
 -1        33    7    0    1
 -2       173       174        65
 -1        34    7    0    1
 -2       175       176        66
 -1        35    7    0    1
 -2       177       178        67
 -1        36    7    0    1
 -2       179       180        68
 -1        37    7    0    1
 -2       181        69       182
 -1        38    7    0    1
 -2       183       184        70
 -1        39    7    0    1
 -2       185       186       187
 -1        40    7    0    1
 -2       188       189        71
 -1        41    7    0    1
 -2       190       191       192
 -1        42    7    0    1
 -2       193       194        72
 -1        43    7    0    1
 -2       195       196       197
 -1        44    7    0    1
 -2       198       199        73
 -1        45    7    0    1
 -2       200       201       202
 -1        46    7    0    1
 -2       203       204        74
 -1        47    7    0    1
 -2       205       206       207
 -1        48    7    0    1
 -2       208       209        75
 -1        49    7    0    1
 -2       210       211       212
 -1        50    7    0    1
 -2       213       214        76
 -1        51    7    0    1
 -2       215       216       217
 -1        52    7    0    1
 -2       218       219        77
 -1        53    8    0    1
 -2        78        79        80        81        82        83
 -1        54    8    0    1
 -2       220       221        84       222        85        86
 -1        55    8    0    1
 -2       223       224        87       225        88        89
 -1        56    8    0    1
 -2       226       227        90       228        91        92
 -1        57    8    0    1
 -2       229       230        93       231        94        95
 -1        58    8    0    1
 -2       232       233        96       234        97        98
 -1        59    8    0    1
 -2       235       236        99       237       100       101
 -1        60    8    0    1
 -2       238       239       102       240       103       104
 -3
    1PSTEP                         1           1           1          
  100CL  101 1.000000000         240                     0    1           1
 -4  DISP        4    1
 -5  D1          1    2    1    0
 -5  D2          1    2    2    0
 -5  D3          1    2    3    0
 -5  ALL         1    2    0    0    1ALL
 -1         1 0.00000E+00 0.00000E+00 0.00000E+00
 -1         2 0.00000E+00 0.00000E+00 0.00000E+00
 -1         3 5.07577E-07-5.93656E-04 0.00000E+00
 -1         4 8.78405E-04-7.58129E-04 0.00000E+00
 -1         5 5.46323E-06-2.04472E-03 0.00000E+00
 -1         6 1.56495E-03-2.14399E-03 0.00000E+00
 -1         7 9.14459E-06-4.02808E-03 0.00000E+00
 -1         8 2.05584E-03-4.10698E-03 0.00000E+00
 -1         9 1.26899E-05-6.39001E-03 0.00000E+00
 -1        10 2.38861E-03-6.44629E-03 0.00000E+00
 -1        11 1.62581E-05-8.98333E-03 0.00000E+00
 -1        12 2.59380E-03-9.02310E-03 0.00000E+00
 -1        13 1.98300E-05-1.16973E-02 0.00000E+00
 -1        14 2.70349E-03-1.17251E-02 0.00000E+00
 -1        15 2.34015E-05-1.44522E-02 0.00000E+00
 -1        16 2.74949E-03-1.44728E-02 0.00000E+00
 -1        17 2.69730E-05-1.72002E-02 0.00000E+00
 -1        18 2.76365E-03-1.72185E-02 0.00000E+00
 -1        19 0.00000E+00 0.00000E+00 0.00000E+00
 -1        20-8.72060E-04-7.33595E-04 0.00000E+00
 -1        21-1.55385E-03-2.11965E-03 0.00000E+00
 -1        22-2.03766E-03-4.08317E-03 0.00000E+00
 -1        23-2.36324E-03-6.42250E-03 0.00000E+00
 -1        24-2.56128E-03-8.99930E-03 0.00000E+00
 -1        25-2.66383E-03-1.17013E-02 0.00000E+00
 -1        26-2.70268E-03-1.44490E-02 0.00000E+00
 -1        27-2.70970E-03-1.71947E-02 0.00000E+00
 -1        28 0.00000E+00 0.00000E+00-1.18585E-20
 -1        29 0.00000E+00 0.00000E+00 1.52466E-20
 -1        30-1.68466E-03-2.33440E-03-1.27055E-20
 -1        31 1.69758E-03-2.35523E-03 1.18585E-20
 -1        32 0.00000E+00 0.00000E+00 8.33480E-19
 -1        33-9.34482E-04-7.52738E-04 2.62580E-19
 -1        34 5.75199E-06-2.19701E-03-7.87741E-19
 -1        35 9.39375E-04-7.77468E-04 3.69306E-19
 -1        36-2.61047E-03-7.01246E-03 1.84230E-20
 -1        37 2.63634E-03-7.03595E-03-2.73168E-20
 -1        38-2.24588E-03-4.45482E-03 1.77030E-18
 -1        39 1.30931E-05-6.98981E-03-1.28135E-18
 -1        40 2.26507E-03-4.47901E-03 5.78524E-19
 -1        41-2.93812E-03-1.28373E-02 3.79577E-20
 -1        42 2.97854E-03-1.28610E-02-2.17052E-21
 -1        43-2.82538E-03-9.85655E-03 5.71493E-18
 -1        44 2.01286E-05-1.28307E-02 1.20279E-19
 -1        45 2.85851E-03-9.88031E-03-8.91545E-18
 -1        46-2.98692E-03-1.88858E-02-8.00711E-20
 -1        47 3.04142E-03-1.89095E-02 1.05720E-19
 -1        48-2.98118E-03-1.58630E-02 8.84001E-18
 -1        49 2.73249E-05-1.88953E-02 4.86462E-19
 -1        50 3.02864E-03-1.58869E-02-1.39884E-18
 -1        51 0.00000E+00 0.00000E+00 0.00000E+00
 -1        52 0.00000E+00 0.00000E+00 0.00000E+00
 -1        53 5.21458E-04-5.27077E-04 0.00000E+00
 -1        54 8.68135E-06-4.61591E-04 0.00000E+00
 -1        55 9.35039E-04-1.45539E-03 0.00000E+00
 -1        56-1.37413E-06-1.40833E-03 0.00000E+00
 -1        57 1.22818E-03-2.70979E-03 0.00000E+00
 -1        58-6.44266E-06-2.67391E-03 0.00000E+00
 -1        59 1.42490E-03-4.17939E-03 0.00000E+00
 -1        60-8.52135E-06-4.15218E-03 0.00000E+00
 -1        61 1.54555E-03-5.77783E-03 0.00000E+00
 -1        62-8.86677E-06-5.75693E-03 0.00000E+00
 -1        63 1.60958E-03-7.43831E-03 0.00000E+00
 -1        64-7.92137E-06-7.42108E-03 0.00000E+00
 -1        65 1.63619E-03-9.11292E-03 0.00000E+00
 -1        66-5.81417E-06-9.09668E-03 0.00000E+00
 -1        67 1.64483E-03-1.07718E-02 0.00000E+00
 -1        68-2.98021E-06-1.07553E-02 0.00000E+00
 -1        69 0.00000E+00 0.00000E+00 0.00000E+00
 -1        70-5.43755E-04-5.43526E-04 0.00000E+00
 -1        71-9.47951E-04-1.47470E-03 0.00000E+00
 -1        72-1.24027E-03-2.72154E-03 0.00000E+00
 -1        73-1.43758E-03-4.18347E-03 0.00000E+00
 -1        74-1.55784E-03-5.77472E-03 0.00000E+00
 -1        75-1.61980E-03-7.42825E-03 0.00000E+00
 -1        76-1.64265E-03-9.09638E-03 0.00000E+00
 -1        77-1.64601E-03-1.07519E-02 0.00000E+00
 -1        78 0.00000E+00 0.00000E+00-1.10114E-20
 -1        79 0.00000E+00 0.00000E+00 3.38813E-21
 -1        80 1.70507E-03-2.33506E-03 7.19978E-21
 -1        81 0.00000E+00 0.00000E+00 2.42251E-19
 -1        82 1.22639E-05-6.50402E-04 1.80185E-18
 -1        83 9.07313E-04-7.74479E-04-4.45539E-19
 -1        84-1.71622E-03-2.27540E-03 1.18585E-20
 -1        85-9.41548E-04-7.82772E-04 1.53652E-18
 -1        86 4.77352E-06-2.20157E-03 1.43858E-18
 -1        87 2.63270E-03-7.01862E-03 2.75286E-20
 -1        88 4.77668E-06-4.36040E-03 9.07193E-18
 -1        89 2.22896E-03-4.43544E-03 5.23212E-18
 -1        90-2.61594E-03-6.96644E-03 1.43996E-20
 -1        91-2.22277E-03-4.43275E-03 2.08455E-18
 -1        92 6.98789E-06-6.94143E-03 1.84574E-18
 -1        93 2.98365E-03-1.28153E-02 1.41084E-20
 -1        94 1.09627E-05-9.79040E-03 1.48809E-17
 -1        95 2.84380E-03-9.82838E-03 6.89760E-18
 -1        96-2.95200E-03-1.27771E-02-3.85400E-20
 -1        97-2.81868E-03-9.81609E-03-1.81185E-17
 -1        98 1.37323E-05-1.27767E-02-4.06621E-18
 -1        99 3.05030E-03-1.88779E-02 1.07547E-19
 -1       100 1.75639E-05-1.58173E-02-5.13927E-18
 -1       101 3.02948E-03-1.58382E-02 2.74309E-18
 -1       102-3.00121E-03-1.88437E-02 3.74109E-20
 -1       103-2.98879E-03-1.58171E-02-8.97511E-18
 -1       104 2.11309E-05-1.88523E-02 1.17471E-17
 -1       105 8.78405E-04-7.58129E-04 0.00000E+00
 -1       106 5.07577E-07-5.93656E-04 0.00000E+00
 -1       107 1.56495E-03-2.14399E-03 0.00000E+00
 -1       108 5.46323E-06-2.04472E-03 0.00000E+00
 -1       109 2.05584E-03-4.10698E-03 0.00000E+00
 -1       110 9.14459E-06-4.02808E-03 0.00000E+00
 -1       111 2.38861E-03-6.44629E-03 0.00000E+00
 -1       112 1.26899E-05-6.39001E-03 0.00000E+00
 -1       113 2.59380E-03-9.02310E-03 0.00000E+00
 -1       114 1.62581E-05-8.98333E-03 0.00000E+00
 -1       115 2.70349E-03-1.17251E-02 0.00000E+00
 -1       116 1.98300E-05-1.16973E-02 0.00000E+00
 -1       117 2.74949E-03-1.44728E-02 0.00000E+00
 -1       118 2.34015E-05-1.44522E-02 0.00000E+00
 -1       119 0.00000E+00 0.00000E+00 0.00000E+00
 -1       120 5.07577E-07-5.93656E-04 0.00000E+00
 -1       121 5.07577E-07-5.93656E-04 0.00000E+00
 -1       122-8.72060E-04-7.33595E-04 0.00000E+00
 -1       123 5.46323E-06-2.04472E-03 0.00000E+00
 -1       124 5.46323E-06-2.04472E-03 0.00000E+00
 -1       125-1.55385E-03-2.11965E-03 0.00000E+00
 -1       126 9.14459E-06-4.02808E-03 0.00000E+00
 -1       127 9.14459E-06-4.02808E-03 0.00000E+00
 -1       128-2.03766E-03-4.08317E-03 0.00000E+00
 -1       129 1.26899E-05-6.39001E-03 0.00000E+00
 -1       130 1.26899E-05-6.39001E-03 0.00000E+00
 -1       131-2.36324E-03-6.42250E-03 0.00000E+00
 -1       132 1.62581E-05-8.98333E-03 0.00000E+00
 -1       133 1.62581E-05-8.98333E-03 0.00000E+00
 -1       134-2.56128E-03-8.99930E-03 0.00000E+00
 -1       135 1.98300E-05-1.16973E-02 0.00000E+00
 -1       136 1.98300E-05-1.16973E-02 0.00000E+00
 -1       137-2.66383E-03-1.17013E-02 0.00000E+00
 -1       138 2.34015E-05-1.44522E-02 0.00000E+00
 -1       139 2.34015E-05-1.44522E-02 0.00000E+00
 -1       140-2.70268E-03-1.44490E-02 0.00000E+00
 -1       141 2.69730E-05-1.72002E-02 0.00000E+00
 -1       142 1.69758E-03-2.35523E-03 2.79521E-20
 -1       143-1.68466E-03-2.33440E-03-4.23516E-21
 -1       144 5.75199E-06-2.19701E-03 3.07007E-18
 -1       145 2.63634E-03-7.03595E-03-2.22346E-20
 -1       146-2.61047E-03-7.01246E-03 2.60463E-20
 -1       147 1.30931E-05-6.98981E-03 1.28961E-17
 -1       148 2.97854E-03-1.28610E-02-1.27320E-19
 -1       149-2.93812E-03-1.28373E-02 1.22079E-19
 -1       150 2.01286E-05-1.28307E-02-7.26066E-19
 -1       151 5.21458E-04-5.27077E-04 0.00000E+00
 -1       152 0.00000E+00 0.00000E+00 0.00000E+00
 -1       153 5.21458E-04-5.27077E-04 0.00000E+00
 -1       154 8.68135E-06-4.61591E-04 0.00000E+00
 -1       155 9.35039E-04-1.45539E-03 0.00000E+00
 -1       156 8.68135E-06-4.61591E-04 0.00000E+00
 -1       157 9.35039E-04-1.45539E-03 0.00000E+00
 -1       158-1.37413E-06-1.40833E-03 0.00000E+00
 -1       159 1.22818E-03-2.70979E-03 0.00000E+00
 -1       160-1.37413E-06-1.40833E-03 0.00000E+00
 -1       161 1.22818E-03-2.70979E-03 0.00000E+00
 -1       162-6.44266E-06-2.67391E-03 0.00000E+00
 -1       163 1.42490E-03-4.17939E-03 0.00000E+00
 -1       164-6.44266E-06-2.67391E-03 0.00000E+00
 -1       165 1.42490E-03-4.17939E-03 0.00000E+00
 -1       166-8.52135E-06-4.15218E-03 0.00000E+00
 -1       167 1.54555E-03-5.77783E-03 0.00000E+00
 -1       168-8.52135E-06-4.15218E-03 0.00000E+00
 -1       169 1.54555E-03-5.77783E-03 0.00000E+00
 -1       170-8.86677E-06-5.75693E-03 0.00000E+00
 -1       171 1.60958E-03-7.43831E-03 0.00000E+00
 -1       172-8.86677E-06-5.75693E-03 0.00000E+00
 -1       173 1.60958E-03-7.43831E-03 0.00000E+00
 -1       174-7.92137E-06-7.42108E-03 0.00000E+00
 -1       175 1.63619E-03-9.11292E-03 0.00000E+00
 -1       176-7.92137E-06-7.42108E-03 0.00000E+00
 -1       177 1.63619E-03-9.11292E-03 0.00000E+00
 -1       178-5.81417E-06-9.09668E-03 0.00000E+00
 -1       179 1.64483E-03-1.07718E-02 0.00000E+00
 -1       180-5.81417E-06-9.09668E-03 0.00000E+00
 -1       181 0.00000E+00 0.00000E+00 0.00000E+00
 -1       182 8.68135E-06-4.61591E-04 0.00000E+00
 -1       183 8.68135E-06-4.61591E-04 0.00000E+00
 -1       184 0.00000E+00 0.00000E+00 0.00000E+00
 -1       185 8.68135E-06-4.61591E-04 0.00000E+00
 -1       186-5.43755E-04-5.43526E-04 0.00000E+00
 -1       187-1.37413E-06-1.40833E-03 0.00000E+00
 -1       188-1.37413E-06-1.40833E-03 0.00000E+00
 -1       189-5.43755E-04-5.43526E-04 0.00000E+00
 -1       190-1.37413E-06-1.40833E-03 0.00000E+00
 -1       191-9.47951E-04-1.47470E-03 0.00000E+00
 -1       192-6.44266E-06-2.67391E-03 0.00000E+00
 -1       193-6.44266E-06-2.67391E-03 0.00000E+00
 -1       194-9.47951E-04-1.47470E-03 0.00000E+00
 -1       195-6.44266E-06-2.67391E-03 0.00000E+00
 -1       196-1.24027E-03-2.72154E-03 0.00000E+00
 -1       197-8.52135E-06-4.15218E-03 0.00000E+00
 -1       198-8.52135E-06-4.15218E-03 0.00000E+00
 -1       199-1.24027E-03-2.72154E-03 0.00000E+00
 -1       200-8.52135E-06-4.15218E-03 0.00000E+00
 -1       201-1.43758E-03-4.18347E-03 0.00000E+00
 -1       202-8.86677E-06-5.75693E-03 0.00000E+00
 -1       203-8.86677E-06-5.75693E-03 0.00000E+00
 -1       204-1.43758E-03-4.18347E-03 0.00000E+00
 -1       205-8.86677E-06-5.75693E-03 0.00000E+00
 -1       206-1.55784E-03-5.77472E-03 0.00000E+00
 -1       207-7.92137E-06-7.42108E-03 0.00000E+00
 -1       208-7.92137E-06-7.42108E-03 0.00000E+00
 -1       209-1.55784E-03-5.77472E-03 0.00000E+00
 -1       210-7.92137E-06-7.42108E-03 0.00000E+00
 -1       211-1.61980E-03-7.42825E-03 0.00000E+00
 -1       212-5.81417E-06-9.09668E-03 0.00000E+00
 -1       213-5.81417E-06-9.09668E-03 0.00000E+00
 -1       214-1.61980E-03-7.42825E-03 0.00000E+00
 -1       215-5.81417E-06-9.09668E-03 0.00000E+00
 -1       216-1.64265E-03-9.09638E-03 0.00000E+00
 -1       217-2.98021E-06-1.07553E-02 0.00000E+00
 -1       218-2.98021E-06-1.07553E-02 0.00000E+00
 -1       219-1.64265E-03-9.09638E-03 0.00000E+00
 -1       220 1.70507E-03-2.33506E-03 4.23516E-21
 -1       221 0.00000E+00 0.00000E+00-9.31736E-21
 -1       222 1.22639E-05-6.50402E-04 1.77623E-18
 -1       223 1.70507E-03-2.33506E-03 2.03288E-20
 -1       224-1.71622E-03-2.27540E-03-2.32934E-20
 -1       225 4.77352E-06-2.20157E-03 6.37657E-19
 -1       226 2.63270E-03-7.01862E-03-9.31736E-21
 -1       227-1.71622E-03-2.27540E-03-1.10114E-20
 -1       228 4.77668E-06-4.36040E-03-1.76225E-18
 -1       229 2.63270E-03-7.01862E-03-2.60463E-20
 -1       230-2.61594E-03-6.96644E-03 1.27055E-20
 -1       231 6.98789E-06-6.94143E-03 5.97108E-18
 -1       232 2.98365E-03-1.28153E-02 3.53636E-20
 -1       233-2.61594E-03-6.96644E-03-6.77626E-21
 -1       234 1.09627E-05-9.79040E-03-1.00819E-17
 -1       235 2.98365E-03-1.28153E-02 4.63527E-20
 -1       236-2.95200E-03-1.27771E-02-1.67315E-19
 -1       237 1.37323E-05-1.27767E-02-1.72206E-17
 -1       238 3.05030E-03-1.88779E-02 6.74979E-20
 -1       239-2.95200E-03-1.27771E-02-7.19449E-20
 -1       240 1.75639E-05-1.58173E-02 5.92923E-19
 -3
    1PSTEP                         2           1           1          
  100CL  101 1.000000000         240                     0    1           1
 -4  STRESS      6    1
 -5  SXX         1    4    1    1
 -5  SYY         1    4    2    2
 -5  SZZ         1    4    3    3
 -5  SXY         1    4    1    2
 -5  SYZ         1    4    2    3
 -5  SZX         1    4    3    1
 -1         1 4.06020E+01 1.22235E+01 1.42696E-01-1.22465E+01 2.55351E-15 8.60423E-16
 -1         2-1.90763E-02-3.49058E-02-9.76650E-02-9.58964E+00 1.60982E-15-2.14412E-15
 -1         3-2.31568E+00-7.64523E+00-1.42696E-01 4.59169E+00-3.27516E-15 4.62824E-15
 -1         4 3.83054E+01 4.61321E+00 9.76650E-02 1.93483E+00-3.44169E-15-1.53766E-14
 -1         5-1.18247E+00-4.54932E+00-8.43814E-02 1.75162E+00 3.94129E-15 8.91995E-15
 -1         6 3.03553E+01 4.96799E+00 1.02233E-01 2.80484E+00 4.54914E-14-2.66454E-14
 -1         7-9.50360E-01-3.61818E+00-6.39084E-02 1.02310E+00 4.44089E-15 6.31353E-15
 -1         8 2.15931E+01 3.18488E+00 6.94849E-02 1.35211E+00-3.56659E-14-1.77939E-14
 -1         9-6.33959E-01-2.56677E+00-4.19735E-02 2.26113E-01-7.23033E-15 6.35256E-15
 -1        10 1.45996E+01 2.03035E+00 4.81661E-02 5.91474E-01 9.92401E-14-5.68642E-15
 -1        11-3.97088E-01-1.79734E+00-2.53408E-02-2.54887E-01 1.10217E-13 4.14252E-15
 -1        12 8.93202E+00 1.01795E+00 2.98610E-02 1.18055E-02 6.71685E-15-6.06910E-14
 -1        13-2.25675E-01-1.23915E+00-1.28877E-02-4.89571E-01-3.34621E-13 2.42766E-14
 -1        14 4.68456E+00 2.42632E-01 1.61670E-02-2.96091E-01-7.98597E-14-6.41249E-14
 -1        15-1.23082E-01-9.05335E-01-4.82833E-03-4.65097E-01 1.01332E-13 2.42193E-14
 -1        16 1.84011E+00-3.12894E-01 6.78816E-03-3.49467E-01 4.60101E-14-6.10623E-14
 -1        17-8.83875E-02-7.93457E-01-1.12211E-03-1.83786E-01-6.25355E-14 2.09931E-14
 -1        18 4.01458E-01-6.45634E-01 1.77638E-03-1.45184E-01-3.47846E-13-6.31724E-14
 -1        19-4.03074E+01-1.21339E+01-1.38608E-01-1.18502E+01 1.11022E-15 1.08247E-15
 -1        20-3.83534E+01-5.65882E+00-1.00294E-01 2.24505E+00 1.60982E-15-4.05231E-15
 -1        21-3.04733E+01-6.02596E+00-1.02913E-01 2.79899E+00 5.65936E-14 1.00614E-15
 -1        22-2.15958E+01-4.18572E+00-6.94503E-02 1.34528E+00 2.75058E-14 5.06019E-15
 -1        23-1.45972E+01-3.02910E+00-4.81504E-02 5.91380E-01 6.22696E-14 5.10937E-14
 -1        24-8.93188E+00-2.01785E+00-2.98613E-02 1.19488E-02 2.79596E-13 4.21850E-14
 -1        25-4.68461E+00-1.24262E+00-1.61673E-02-2.96084E-01-2.84661E-13-1.45075E-14
 -1        26-1.84011E+00-6.87068E-01-6.78817E-03-3.49470E-01-6.77201E-14 2.98208E-14
 -1        27-4.01457E-01-3.54325E-01-1.77637E-03-1.45184E-01-1.53394E-13-1.33186E-14
 -1        28 4.74996E+01 1.40776E+01 9.39262E-02-4.31524E+00-1.34198E-14 1.33712E-14
 -1        29-4.74996E+01-1.44783E+01-9.34233E-02-3.68448E+00 3.88717E-14-7.17482E-15
 -1        30-2.64999E+01 3.82681E+00-2.91328E-03-3.16984E+00-1.15394E-14 7.75074E-15
 -1        31 2.64999E+01-5.10246E+00 2.41044E-03-2.82988E+00-3.79696E-14-5.75096E-14
 -1        32 6.73239E-13-2.00354E-01 2.51419E-04-3.99986E+00 1.27121E-14 3.10169E-15
 -1        33-3.69998E+01-5.32575E+00-4.81683E-02-3.42716E+00 1.36557E-14 3.05311E-16
 -1        34 6.67022E-13-6.37824E-01-2.51419E-04-2.99986E+00-2.47580E-14-2.48759E-14
 -1        35 3.69998E+01 4.48757E+00 4.81683E-02-3.57256E+00-2.57017E-14-2.20657E-14
 -1        36-1.15000E+01-1.08548E+00-8.20679E-03-2.01681E+00 2.55768E-13-2.28949E-14
 -1        37 1.15000E+01 4.20444E-02 8.14240E-03-1.98300E+00-7.08184E-14-1.18114E-13
 -1        38-1.89999E+01 1.45250E+00-1.96019E-02-2.49798E+00 1.21320E-13 4.32432E-14
 -1        39-5.47562E-13-5.21717E-01-3.21964E-05-1.99990E+00 9.24677E-14-7.05044E-14
 -1        40 1.89999E+01-2.43991E+00 1.96019E-02-2.50182E+00-2.39114E-13-6.35707E-14
 -1        41-2.50002E+00 3.05182E-01 3.96557E-03-1.00365E+00 5.35487E-13-1.85119E-13
 -1        42 2.50002E+00-1.30656E+00-3.97183E-03-9.96241E-01-5.52152E-13 1.39772E-13
 -1        43-6.99996E+00-3.78659E-01-7.90879E-03-1.49760E+00 3.22270E-13-1.47070E-14
 -1        44-1.17129E-13-5.00689E-01-3.13044E-06-9.99943E-01-8.33188E-15-2.26746E-14
 -1        45 6.99996E+00-6.17272E-01 7.90879E-03-1.50228E+00-3.39007E-13-1.05624E-13
 -1        46 4.99986E-01-1.51652E-01 2.42643E-03 3.43173E-04 1.04469E-12-4.70311E-13
 -1        47-4.99986E-01-8.47981E-01-2.42568E-03-3.09413E-04-1.45864E-12 8.73355E-14
 -1        48-9.99994E-01 7.57707E-02-4.87448E-04-5.00143E-01 7.57624E-13-7.35367E-14
 -1        49 6.03448E-13-4.99817E-01 3.75054E-07 1.68801E-05-2.06975E-13-1.91487E-13
 -1        50 9.99994E-01-1.07606E+00 4.87448E-04-4.99817E-01-4.47050E-13 5.13209E-14
 -1        51 2.40673E+01 7.22019E+00 0.00000E+00-8.51433E+00 0.00000E+00 8.55178E-18
 -1        52 2.40673E+01 7.22019E+00 0.00000E+00-8.51433E+00 0.00000E+00 8.55178E-18
 -1        53 2.40673E+01 7.22019E+00 0.00000E+00-8.51433E+00 0.00000E+00 8.55178E-18
 -1        54-5.06058E-01-2.90225E+00-2.77556E-15 8.26848E-01-2.18819E-15 4.78899E-16
 -1        55 1.81816E+01 2.70406E+00-8.88178E-16-6.71252E+00 6.56776E-15-2.19353E-15
 -1        56-1.11568E+00-2.31117E+00 4.32987E-15-1.66834E-01 4.37851E-15-3.38490E-15
 -1        57 1.28780E+01 1.88695E+00 8.88178E-16-5.13674E+00-4.38065E-15-6.56776E-15
 -1        58-7.30820E-01-1.72647E+00-1.00475E-14-4.99971E-01-8.75648E-15-1.54039E-15
 -1        59 8.58234E+00 1.06747E+00-5.55112E-15-3.79574E+00 6.13013E-14-2.18904E-14
 -1        60-4.72723E-01-1.28473E+00-1.29896E-14-7.24555E-01-8.75699E-14-4.79167E-16
 -1        61 5.19200E+00 4.14690E-01-1.55431E-14-2.66578E+00-8.75916E-15-4.38065E-15
 -1        62-3.05322E-01-9.69381E-01-2.03726E-14-8.13095E-01-1.75135E-14 3.28388E-15
 -1        63 2.66566E+00-7.80863E-02-2.56462E-14-1.71325E+00 1.06897E-18-4.37958E-15
 -1        64-1.94991E-01-7.82324E-01 6.91114E-15-7.53468E-01 7.00563E-14 4.85741E-15
 -1        65 9.89708E-01-4.26915E-01-1.16573E-14-9.22485E-01 1.22598E-13-4.37824E-15
 -1        66-1.27687E-01-7.20633E-01 2.95319E-14-5.42570E-01 7.00561E-14 3.98473E-15
 -1        67 1.73847E-01-6.30173E-01 1.48492E-15-2.73292E-01 1.75141E-14-4.37851E-15
 -1        68-9.89863E-02-7.26708E-01-5.49560E-14-1.73847E-01-1.92654E-13 3.29283E-15
 -1        69 4.00678E-01 1.20203E-01 0.00000E+00-7.45647E+00-1.33621E-19 0.00000E+00
 -1        70-2.39619E+01-3.74731E+00 5.32907E-15 1.43946E-01-2.19353E-15 4.27589E-18
 -1        71-1.77363E+01-2.53362E+00-7.99361E-15 2.48885E-01 4.37851E-15-4.27589E-18
 -1        72-1.28322E+01-1.84899E+00-1.90958E-14-2.10256E-01-8.76129E-15-8.75916E-15
 -1        73-8.67323E+00-1.28762E+00-2.08722E-14-5.31015E-01-8.75702E-14-6.56990E-15
 -1        74-5.30404E+00-8.44180E-01 5.10703E-15-6.82949E-01-1.75140E-14 1.75140E-14
 -1        75-2.76058E+00-5.27117E-01-9.99201E-15-6.72773E-01 5.34486E-19 2.13794E-18
 -1        76-1.05853E+00-3.29816E-01 3.61378E-14-5.05665E-01 1.05084E-13 8.75728E-15
 -1        77-2.01617E-01-2.01617E-01 8.16708E-14-2.01617E-01-1.75140E-13 4.37844E-15
 -1        78 4.44485E+01 1.33657E+01 1.03594E-01-6.16156E+00-9.49241E-15 5.75928E-15
 -1        79-3.82558E+01-1.15044E+01-9.23970E-02-2.15287E+00-2.33147E-15 6.36158E-14
 -1        80 3.08508E+01-1.17064E+00-1.11973E-02-2.64153E+00-3.19883E-14-8.15667E-14
 -1        81 3.09637E+00 9.30642E-01 5.59863E-03-4.15722E+00-5.93969E-15 3.46945E-14
 -1        82-3.70249E+00-6.33753E+00-5.17971E-02-2.39720E+00-1.71529E-14-8.97893E-15
 -1        83 3.76497E+01 6.09752E+00 4.61985E-02-4.40154E+00-2.07334E-14-3.78864E-14
 -1        84-2.94636E+01-1.39715E+00-4.14442E-02-1.87723E+00 1.62925E-13 2.87895E-14
 -1        85-3.63503E+01-1.00124E+00-3.08692E-02-2.80331E+00 4.90441E-14 2.35124E-14
 -1        86 3.09674E+00-3.20751E-01 1.01471E-02-3.15721E+00 7.04992E-14 6.60930E-15
 -1        87 1.41963E+01-7.91826E-01-1.71395E-03-1.40310E+00-1.97776E-13-2.68004E-13
 -1        88-2.38357E+00 4.81849E-01-1.73591E-02-2.67663E+00-4.60049E-14 1.55084E-14
 -1        89 1.89397E+01-1.81818E+00 1.65021E-02-2.06676E+00-7.59323E-14-8.23508E-14
 -1        90-1.44843E+01-1.15443E+00-2.08450E-02-1.62082E+00-4.44471E-14-7.57623E-14
 -1        91-1.90603E+01-5.37977E-01-1.62364E-02-1.92821E+00 1.41859E-13 3.28314E-14
 -1        92 2.36009E+00-3.85861E-01 5.81386E-03-2.34029E+00-1.05665E-13 5.35509E-15
 -1        93 4.11843E+00-8.60018E-01-1.81295E-03-5.50511E-01 4.46929E-13-4.18660E-13
 -1        94-1.28200E+00 1.64593E-01-6.28569E-03-1.71369E+00 1.55511E-13-3.16301E-14
 -1        95 6.86745E+00-1.67982E+00 5.37921E-03-1.03527E+00 1.32254E-13-1.56031E-13
 -1        96-4.27847E+00-4.51342E-01-4.86837E-03-8.57263E-01-4.29705E-13 5.78864E-13
 -1        97-7.13255E+00-2.45116E-01-5.55329E-03-1.25642E+00 1.02267E-13-1.42421E-15
 -1        98 1.46708E+00-3.60265E-01 3.11910E-03-1.19845E+00-3.96336E-13 3.68478E-13
 -1        99 6.77251E-02-9.36718E-01-7.46756E-04 1.29563E-01 1.61065E-13-2.82571E-13
 -1       100-4.21014E-01-1.88014E-01-4.81034E-04-6.31604E-01 3.34449E-13 7.83208E-14
 -1       101 9.78912E-01-1.40285E+00 1.07656E-04-2.79564E-01 6.93547E-14-1.24873E-13
 -1       102-1.37361E-02-1.37361E-02 1.53720E-03-1.37361E-02 4.28146E-13 2.77370E-13
 -1       103-1.02109E+00 4.07411E-02-7.50972E-05-4.90173E-01 5.61425E-13 2.36165E-14
 -1       104 4.90184E-01-5.71645E-01 8.43695E-04-4.07306E-02-1.33111E-13 3.17644E-13
 -1       105 2.94449E+01 1.95114E+00 8.43814E-02-8.20539E+00-1.88183E-14-1.38500E-14
 -1       106-2.09288E+00-7.56617E+00-1.02233E-01-9.25861E+00 1.04639E-14-2.92474E-15
 -1       107 2.13087E+01 2.24245E+00 6.39084E-02-6.51809E+00 1.10523E-13-4.29769E-14
 -1       108-1.23476E+00-4.56060E+00-6.94849E-02-6.84710E+00 6.85563E-14-7.37518E-15
 -1       109 1.42838E+01 9.83810E-01 4.19735E-02-4.72676E+00-1.43802E-13-3.53537E-14
 -1       110-9.49780E-01-3.61331E+00-4.81661E-02-5.09212E+00-3.34871E-14-8.53137E-15
 -1       111 8.70149E+00 2.54032E-01 2.53408E-02-3.24510E+00 4.95715E-14-4.13601E-14
 -1       112-6.27620E-01-2.56126E+00-2.98610E-02-3.51179E+00 9.39804E-14 3.76955E-15
 -1       113 4.51732E+00-3.11574E-01 1.28877E-02-2.01032E+00-2.73961E-13 9.10990E-15
 -1       114-3.92921E-01-1.79336E+00-1.61670E-02-2.20380E+00 2.46247E-13-1.57799E-14
 -1       115 1.74015E+00-6.44105E-01 4.82833E-03-1.03484E+00-2.02026E-13-2.32453E-15
 -1       116-2.23033E-01-1.23655E+00-6.78816E-03-1.15047E+00-2.64929E-13-1.55613E-14
 -1       117 3.68090E-01-7.56205E-01 1.12211E-03-3.16195E-01 5.44165E-13-4.72611E-14
 -1       118-1.21755E-01-9.04028E-01-1.77638E-03-3.54797E-01-8.99975E-14-2.50190E-15
 -1       119 6.70559E-02 5.01058E-02 1.00294E-01-9.58964E+00-2.44249E-15 7.42462E-16
 -1       120 2.02107E+00 6.52519E+00 1.38608E-01 4.50558E+00 7.27196E-15 6.38378E-16
 -1       121 2.21090E+00 6.57137E+00 1.02913E-01-9.34470E+00 2.23155E-14 1.00267E-15
 -1       122-2.95656E+01-3.01799E+00-8.51140E-02-8.29459E+00-1.27398E-14-3.22659E-15
 -1       123 1.30317E+00 3.56340E+00 8.51140E-02 1.74887E+00-2.02338E-14 5.08621E-15
 -1       124 1.23751E+00 3.53907E+00 6.94503E-02-6.84986E+00 5.77871E-14 2.09902E-15
 -1       125-2.13189E+01-3.26789E+00-6.40194E-02-6.52943E+00 6.38378E-15 4.34201E-15
 -1       126 9.60534E-01 2.62124E+00 6.40194E-02 1.02486E+00 3.30014E-14-9.37705E-15
 -1       127 9.47340E-01 2.61255E+00 4.81504E-02-5.09037E+00-1.80397E-13 2.11324E-14
 -1       128-1.42816E+01-1.98315E+00-4.19614E-02-4.72522E+00-1.19002E-13-6.83282E-14
 -1       129 6.31700E-01 1.56661E+00 4.19614E-02 2.26228E-01 4.02178E-14-1.35681E-14
 -1       130 6.27483E-01 1.56174E+00 2.98613E-02-3.51168E+00-5.40679E-14 1.09079E-14
 -1       131-8.70120E+00-1.25343E+00-2.53380E-02-3.24481E+00-4.48530E-14 1.15897E-14
 -1       132 3.96798E-01 7.97313E-01 2.53380E-02-2.54921E-01 2.24348E-13-1.51693E-14
 -1       133 3.92969E-01 7.93433E-01 1.61673E-02-2.20383E+00-8.74856E-14-1.15272E-15
 -1       134-4.51735E+00-6.88381E-01-1.28878E-02-2.01034E+00-1.30868E-14 7.27023E-15
 -1       135 2.25714E-01 2.39197E-01 1.28878E-02-4.89575E-01 1.00656E-13-7.25114E-16
 -1       136 2.23037E-01 2.36578E-01 6.78817E-03-1.15047E+00-4.62066E-13 8.84882E-15
 -1       137-1.74016E+00-3.55867E-01-4.82840E-03-1.03485E+00 1.39520E-13-1.49056E-14
 -1       138 1.23089E-01-9.46232E-02 4.82840E-03-4.65096E-01 1.31936E-13-1.52313E-14
 -1       139 1.21754E-01-9.59325E-02 1.77637E-03-3.54796E-01 2.40960E-13 1.82611E-14
 -1       140-3.68090E-01-2.43755E-01-1.12211E-03-3.16195E-01 6.41110E-15-1.42809E-14
 -1       141 8.83872E-02-2.06502E-01 1.12211E-03-1.83785E-01-2.39257E-14 6.96014E-15
 -1       142 2.64998E+01-4.92187E+00 3.10615E-02-3.02064E+00-4.07424E-13-9.02750E-15
 -1       143-2.64998E+01 3.99048E+00-3.09971E-02-2.97915E+00-1.31284E-14 1.09390E-13
 -1       144 3.58824E-13-4.65695E-01 3.21964E-05-2.99990E+00-2.10276E-13 5.01803E-14
 -1       145 1.14999E+01 7.20153E-02 1.97894E-02-2.00832E+00-1.25872E-13-3.51018E-13
 -1       146-1.14999E+01-1.06250E+00-1.97832E-02-1.99155E+00 1.09055E-13 1.55707E-13
 -1       147-1.49658E-13-4.95242E-01 3.13044E-06-1.99994E+00-8.40994E-15-9.76563E-14
 -1       148 2.49997E+00-1.30413E+00 3.40058E-03-9.99324E-01 5.64545E-13 1.53072E-14
 -1       149-2.49997E+00 3.03194E-01-3.40133E-03-1.00063E+00 4.70554E-13 3.23236E-13
 -1       150 6.23612E-13-5.00469E-01-3.75054E-07-9.99977E-01 5.17551E-13 1.69272E-13
 -1       151-5.06058E-01-2.90225E+00-2.77556E-15 8.26848E-01-2.18819E-15 4.78899E-16
 -1       152-5.06058E-01-2.90225E+00-2.77556E-15 8.26848E-01-2.18819E-15 4.78899E-16
 -1       153 1.81816E+01 2.70406E+00-8.88178E-16-6.71252E+00 6.56776E-15-2.19353E-15
 -1       154 1.81816E+01 2.70406E+00-8.88178E-16-6.71252E+00 6.56776E-15-2.19353E-15
 -1       155-1.11568E+00-2.31117E+00 4.32987E-15-1.66834E-01 4.37851E-15-3.38490E-15
 -1       156-1.11568E+00-2.31117E+00 4.32987E-15-1.66834E-01 4.37851E-15-3.38490E-15
 -1       157 1.28780E+01 1.88695E+00 8.88178E-16-5.13674E+00-4.38065E-15-6.56776E-15
 -1       158 1.28780E+01 1.88695E+00 8.88178E-16-5.13674E+00-4.38065E-15-6.56776E-15
 -1       159-7.30820E-01-1.72647E+00-1.00475E-14-4.99971E-01-8.75648E-15-1.54039E-15
 -1       160-7.30820E-01-1.72647E+00-1.00475E-14-4.99971E-01-8.75648E-15-1.54039E-15
 -1       161 8.58234E+00 1.06747E+00-5.55112E-15-3.79574E+00 6.13013E-14-2.18904E-14
 -1       162 8.58234E+00 1.06747E+00-5.55112E-15-3.79574E+00 6.13013E-14-2.18904E-14
 -1       163-4.72723E-01-1.28473E+00-1.29896E-14-7.24555E-01-8.75699E-14-4.79167E-16
 -1       164-4.72723E-01-1.28473E+00-1.29896E-14-7.24555E-01-8.75699E-14-4.79167E-16
 -1       165 5.19200E+00 4.14690E-01-1.55431E-14-2.66578E+00-8.75916E-15-4.38065E-15
 -1       166 5.19200E+00 4.14690E-01-1.55431E-14-2.66578E+00-8.75916E-15-4.38065E-15
 -1       167-3.05322E-01-9.69381E-01-2.03726E-14-8.13095E-01-1.75135E-14 3.28388E-15
 -1       168-3.05322E-01-9.69381E-01-2.03726E-14-8.13095E-01-1.75135E-14 3.28388E-15
 -1       169 2.66566E+00-7.80863E-02-2.56462E-14-1.71325E+00 1.06897E-18-4.37958E-15
 -1       170 2.66566E+00-7.80863E-02-2.56462E-14-1.71325E+00 1.06897E-18-4.37958E-15
 -1       171-1.94991E-01-7.82324E-01 6.91114E-15-7.53468E-01 7.00563E-14 4.85741E-15
 -1       172-1.94991E-01-7.82324E-01 6.91114E-15-7.53468E-01 7.00563E-14 4.85741E-15
 -1       173 9.89708E-01-4.26915E-01-1.16573E-14-9.22485E-01 1.22598E-13-4.37824E-15
 -1       174 9.89708E-01-4.26915E-01-1.16573E-14-9.22485E-01 1.22598E-13-4.37824E-15
 -1       175-1.27687E-01-7.20633E-01 2.95319E-14-5.42570E-01 7.00561E-14 3.98473E-15
 -1       176-1.27687E-01-7.20633E-01 2.95319E-14-5.42570E-01 7.00561E-14 3.98473E-15
 -1       177 1.73847E-01-6.30173E-01 1.48492E-15-2.73292E-01 1.75141E-14-4.37851E-15
 -1       178 1.73847E-01-6.30173E-01 1.48492E-15-2.73292E-01 1.75141E-14-4.37851E-15
 -1       179-9.89863E-02-7.26708E-01-5.49560E-14-1.73847E-01-1.92654E-13 3.29283E-15
 -1       180-9.89863E-02-7.26708E-01-5.49560E-14-1.73847E-01-1.92654E-13 3.29283E-15
 -1       181 4.00678E-01 1.20203E-01 0.00000E+00-7.45647E+00-1.33621E-19 0.00000E+00
 -1       182 4.00678E-01 1.20203E-01 0.00000E+00-7.45647E+00-1.33621E-19 0.00000E+00
 -1       183-2.39619E+01-3.74731E+00 5.32907E-15 1.43946E-01-2.19353E-15 4.27589E-18
 -1       184-2.39619E+01-3.74731E+00 5.32907E-15 1.43946E-01-2.19353E-15 4.27589E-18
 -1       185 6.70382E-01 3.64237E+00-1.99840E-15-6.36953E+00-1.06897E-18 4.98141E-16
 -1       186 6.70382E-01 3.64237E+00-1.99840E-15-6.36953E+00-1.06897E-18 4.98141E-16
 -1       187 6.70382E-01 3.64237E+00-1.99840E-15-6.36953E+00-1.06897E-18 4.98141E-16
 -1       188-1.77363E+01-2.53362E+00-7.99361E-15 2.48885E-01 4.37851E-15-4.27589E-18
 -1       189-1.77363E+01-2.53362E+00-7.99361E-15 2.48885E-01 4.37851E-15-4.27589E-18
 -1       190 6.84950E-01 2.99276E+00 1.55431E-15-5.15303E+00-1.06897E-18 1.72104E-16
 -1       191 6.84950E-01 2.99276E+00 1.55431E-15-5.15303E+00-1.06897E-18 1.72104E-16
 -1       192 6.84950E-01 2.99276E+00 1.55431E-15-5.15303E+00-1.06897E-18 1.72104E-16
 -1       193-1.28322E+01-1.84899E+00-1.90958E-14-2.10256E-01-8.76129E-15-8.75916E-15
 -1       194-1.28322E+01-1.84899E+00-1.90958E-14-2.10256E-01-8.76129E-15-8.75916E-15
 -1       195 5.63620E-01 2.16975E+00 3.66374E-15-3.94869E+00 0.00000E+00-5.48383E-16
 -1       196 5.63620E-01 2.16975E+00 3.66374E-15-3.94869E+00 0.00000E+00-5.48383E-16
 -1       197 5.63620E-01 2.16975E+00 3.66374E-15-3.94869E+00 0.00000E+00-5.48383E-16
 -1       198-8.67323E+00-1.28762E+00-2.08722E-14-5.31015E-01-8.75702E-14-6.56990E-15
 -1       199-8.67323E+00-1.28762E+00-2.08722E-14-5.31015E-01-8.75702E-14-6.56990E-15
 -1       200 4.17359E-01 1.43956E+00-2.02616E-14-2.83818E+00-1.75143E-14-4.78899E-16
 -1       201 4.17359E-01 1.43956E+00-2.02616E-14-2.83818E+00-1.75143E-14-4.78899E-16
 -1       202 4.17359E-01 1.43956E+00-2.02616E-14-2.83818E+00-1.75143E-14-4.78899E-16
 -1       203-5.30404E+00-8.44180E-01 5.10703E-15-6.82949E-01-1.75140E-14 1.75140E-14
 -1       204-5.30404E+00-8.44180E-01 5.10703E-15-6.82949E-01-1.75140E-14 1.75140E-14
 -1       205 2.89908E-01 8.34004E-01 1.53488E-14-1.86051E+00 2.67243E-19 9.58333E-16
 -1       206 2.89908E-01 8.34004E-01 1.53488E-14-1.86051E+00 2.67243E-19 9.58333E-16
 -1       207 2.89908E-01 8.34004E-01 1.53488E-14-1.86051E+00 2.67243E-19 9.58333E-16
 -1       208-2.76058E+00-5.27117E-01-9.99201E-15-6.72773E-01 5.34486E-19 2.13794E-18
 -1       209-2.76058E+00-5.27117E-01-9.99201E-15-6.72773E-01 5.34486E-19 2.13794E-18
 -1       210 1.96505E-01 3.60009E-01-1.80411E-15-1.02928E+00-3.50279E-14 3.07810E-15
 -1       211 1.96505E-01 3.60009E-01-1.80411E-15-1.02928E+00-3.50279E-14 3.07810E-15
 -1       212 1.96505E-01 3.60009E-01-1.80411E-15-1.02928E+00-3.50279E-14 3.07810E-15
 -1       213-1.05853E+00-3.29816E-01 3.61378E-14-5.05665E-01 1.05084E-13 8.75728E-15
 -1       214-1.05853E+00-3.29816E-01 3.61378E-14-5.05665E-01 1.05084E-13 8.75728E-15
 -1       215 1.26757E-01 2.57686E-02 6.82336E-14-3.51245E-01 0.00000E+00 4.26921E-17
 -1       216 1.26757E-01 2.57686E-02 6.82336E-14-3.51245E-01 0.00000E+00 4.26921E-17
 -1       217 1.26757E-01 2.57686E-02 6.82336E-14-3.51245E-01 0.00000E+00 4.26921E-17
 -1       218-2.01617E-01-2.01617E-01 8.16708E-14-2.01617E-01-1.75140E-13 4.37844E-15
 -1       219-2.01617E-01-2.01617E-01 8.16708E-14-2.01617E-01-1.75140E-13 4.37844E-15
 -1       220 3.56571E+01 7.55651E-01 6.17383E-02-4.43720E+00-2.19269E-14-1.55709E-14
 -1       221-4.32370E+01-6.05325E-01-2.02941E-02-3.72940E+00-6.48301E-14 1.82354E-14
 -1       222-3.78998E+00 7.51633E-02 2.07221E-02-4.08330E+00-4.33820E-14 1.33227E-15
 -1       223 2.36832E+01-2.84453E+00 3.47182E-02-2.73043E+00 4.59077E-14 1.03306E-13
 -1       224-1.89634E+01 1.75552E+00-3.30042E-02-3.95015E+00 1.05776E-13 2.99028E-13
 -1       225 2.35990E+00-5.44503E-01 8.56973E-04-3.34029E+00 7.58560E-14 2.01165E-13
 -1       226 1.92045E+01 3.82711E-01 3.24727E-02-3.05976E+00-1.66867E-13 8.64725E-14
 -1       227-2.36362E+01 7.84788E-02-1.16277E-02-2.23559E+00 3.28162E-13 1.41422E-13
 -1       228-2.21587E+00 2.30595E-01 1.04225E-02-2.64768E+00 8.06438E-14 1.13951E-13
 -1       229 9.61646E+00-2.49962E+00 1.25714E-02-1.52003E+00-1.82424E-13 1.06599E-13
 -1       230-6.68243E+00 1.18920E+00-1.07584E-02-2.87687E+00-1.35909E-13 3.55400E-13
 -1       231 1.46701E+00-6.55209E-01 9.06476E-04-2.19845E+00-1.59164E-13 2.30999E-13
 -1       232 7.21264E+00-2.69187E-01 1.11066E-02-1.53964E+00-3.62960E-13 1.58092E-13
 -1       233-9.98663E+00-3.88893E-02-6.23820E-03-1.65559E+00 6.34238E-13-5.81712E-13
 -1       234-1.38700E+00-1.54038E-01 2.43418E-03-1.59761E+00 1.35638E-13-2.11810E-13
 -1       235 1.89010E+00-1.86897E+00 9.62069E-04-6.88692E-01-2.23558E-14 3.28248E-14
 -1       236-9.09753E-01 5.60689E-01-2.15313E-04-1.39277E+00 5.07832E-13 4.39212E-13
 -1       237 4.90173E-01-6.54142E-01 3.73378E-04-1.04073E+00 2.42738E-13 2.36018E-13
 -1       238 9.94103E-01-1.12955E+00 1.50194E-04-6.77251E-02-6.94367E-13 3.57918E-13
 -1       239-2.02844E+00 9.52182E-02-1.68739E-03-9.66610E-01 6.94704E-13-2.30137E-13
 -1       240-5.17168E-01-5.17168E-01-7.68598E-04-5.17168E-01 1.68485E-16 6.38903E-14
 -3
    1PSTEP                         3           1           1          
  100CL  101 1.000000000         240                     0    1           1
 -4  ERROR       1    1
 -5  STR(%)      1    1    0    0
 -1         1 5.93045E+01
 -1         2 5.93045E+01
 -1         3 5.93045E+01
 -1         4 5.93045E+01
 -1         5 5.80525E+01
 -1         6 5.80525E+01
 -1         7 5.84350E+01
 -1         8 5.84350E+01
 -1         9 5.79455E+01
 -1        10 5.79455E+01
 -1        11 5.68756E+01
 -1        12 5.68756E+01
 -1        13 5.46012E+01
 -1        14 5.46012E+01
 -1        15 5.13224E+01
 -1        16 5.13224E+01
 -1        17 1.68600E+01
 -1        18 1.68600E+01
 -1        19 5.87765E+01
 -1        20 5.87765E+01
 -1        21 5.83574E+01
 -1        22 5.84970E+01
 -1        23 5.78113E+01
 -1        24 5.61601E+01
 -1        25 5.19448E+01
 -1        26 4.25418E+01
 -1        27 2.67224E+01
 -1        28 5.41002E+01
 -1        29 5.41002E+01
 -1        30 5.41002E+01
 -1        31 5.41002E+01
 -1        32 5.41002E+01
 -1        33 5.41002E+01
 -1        34 5.41002E+01
 -1        35 5.41002E+01
 -1        36 4.90195E+01
 -1        37 4.90195E+01
 -1        38 4.90195E+01
 -1        39 4.90195E+01
 -1        40 4.90195E+01
 -1        41 4.66086E+01
 -1        42 4.66086E+01
 -1        43 4.66086E+01
 -1        44 4.66086E+01
 -1        45 4.66086E+01
 -1        46 4.02320E+01
 -1        47 4.02320E+01
 -1        48 4.02320E+01
 -1        49 4.02320E+01
 -1        50 4.02320E+01
 -1        51 0.00000E+00
 -1        52 0.00000E+00
 -1        53 0.00000E+00
 -1        54 0.00000E+00
 -1        55 0.00000E+00
 -1        56 0.00000E+00
 -1        57 0.00000E+00
 -1        58 0.00000E+00
 -1        59 0.00000E+00
 -1        60 0.00000E+00
 -1        61 0.00000E+00
 -1        62 0.00000E+00
 -1        63 0.00000E+00
 -1        64 0.00000E+00
 -1        65 0.00000E+00
 -1        66 0.00000E+00
 -1        67 0.00000E+00
 -1        68 0.00000E+00
 -1        69 0.00000E+00
 -1        70 0.00000E+00
 -1        71 0.00000E+00
 -1        72 0.00000E+00
 -1        73 0.00000E+00
 -1        74 0.00000E+00
 -1        75 0.00000E+00
 -1        76 0.00000E+00
 -1        77 0.00000E+00
 -1        78 4.62614E+01
 -1        79 4.62614E+01
 -1        80 4.62614E+01
 -1        81 4.62614E+01
 -1        82 4.62614E+01
 -1        83 4.62614E+01
 -1        84 4.45128E+01
 -1        85 4.45128E+01
 -1        86 4.45128E+01
 -1        87 4.04844E+01
 -1        88 4.04844E+01
 -1        89 4.04844E+01
 -1        90 4.34648E+01
 -1        91 4.34648E+01
 -1        92 4.34648E+01
 -1        93 3.44994E+01
 -1        94 3.44994E+01
 -1        95 3.44994E+01
 -1        96 3.98864E+01
 -1        97 3.98864E+01
 -1        98 3.98864E+01
 -1        99 1.80103E+01
 -1       100 1.80103E+01
 -1       101 1.80103E+01
 -1       102 3.50343E+01
 -1       103 3.50343E+01
 -1       104 3.50343E+01
 -1       105 5.80525E+01
 -1       106 5.80525E+01
 -1       107 5.84350E+01
 -1       108 5.84350E+01
 -1       109 5.79455E+01
 -1       110 5.79455E+01
 -1       111 5.68756E+01
 -1       112 5.68756E+01
 -1       113 5.46012E+01
 -1       114 5.46012E+01
 -1       115 5.13224E+01
 -1       116 5.13224E+01
 -1       117 1.68600E+01
 -1       118 1.68600E+01
 -1       119 5.87765E+01
 -1       120 5.87765E+01
 -1       121 5.83574E+01
 -1       122 5.83574E+01
 -1       123 5.83574E+01
 -1       124 5.84970E+01
 -1       125 5.84970E+01
 -1       126 5.84970E+01
 -1       127 5.78113E+01
 -1       128 5.78113E+01
 -1       129 5.78113E+01
 -1       130 5.61601E+01
 -1       131 5.61601E+01
 -1       132 5.61601E+01
 -1       133 5.19448E+01
 -1       134 5.19448E+01
 -1       135 5.19448E+01
 -1       136 4.25418E+01
 -1       137 4.25418E+01
 -1       138 4.25418E+01
 -1       139 2.67224E+01
 -1       140 2.67224E+01
 -1       141 2.67224E+01
 -1       142 4.90195E+01
 -1       143 4.90195E+01
 -1       144 4.90195E+01
 -1       145 4.66086E+01
 -1       146 4.66086E+01
 -1       147 4.66086E+01
 -1       148 4.02320E+01
 -1       149 4.02320E+01
 -1       150 4.02320E+01
 -1       151 0.00000E+00
 -1       152 0.00000E+00
 -1       153 0.00000E+00
 -1       154 0.00000E+00
 -1       155 0.00000E+00
 -1       156 0.00000E+00
 -1       157 0.00000E+00
 -1       158 0.00000E+00
 -1       159 0.00000E+00
 -1       160 0.00000E+00
 -1       161 0.00000E+00
 -1       162 0.00000E+00
 -1       163 0.00000E+00
 -1       164 0.00000E+00
 -1       165 0.00000E+00
 -1       166 0.00000E+00
 -1       167 0.00000E+00
 -1       168 0.00000E+00
 -1       169 0.00000E+00
 -1       170 0.00000E+00
 -1       171 0.00000E+00
 -1       172 0.00000E+00
 -1       173 0.00000E+00
 -1       174 0.00000E+00
 -1       175 0.00000E+00
 -1       176 0.00000E+00
 -1       177 0.00000E+00
 -1       178 0.00000E+00
 -1       179 0.00000E+00
 -1       180 0.00000E+00
 -1       181 0.00000E+00
 -1       182 0.00000E+00
 -1       183 0.00000E+00
 -1       184 0.00000E+00
 -1       185 0.00000E+00
 -1       186 0.00000E+00
 -1       187 0.00000E+00
 -1       188 0.00000E+00
 -1       189 0.00000E+00
 -1       190 0.00000E+00
 -1       191 0.00000E+00
 -1       192 0.00000E+00
 -1       193 0.00000E+00
 -1       194 0.00000E+00
 -1       195 0.00000E+00
 -1       196 0.00000E+00
 -1       197 0.00000E+00
 -1       198 0.00000E+00
 -1       199 0.00000E+00
 -1       200 0.00000E+00
 -1       201 0.00000E+00
 -1       202 0.00000E+00
 -1       203 0.00000E+00
 -1       204 0.00000E+00
 -1       205 0.00000E+00
 -1       206 0.00000E+00
 -1       207 0.00000E+00
 -1       208 0.00000E+00
 -1       209 0.00000E+00
 -1       210 0.00000E+00
 -1       211 0.00000E+00
 -1       212 0.00000E+00
 -1       213 0.00000E+00
 -1       214 0.00000E+00
 -1       215 0.00000E+00
 -1       216 0.00000E+00
 -1       217 0.00000E+00
 -1       218 0.00000E+00
 -1       219 0.00000E+00
 -1       220 4.45128E+01
 -1       221 4.45128E+01
 -1       222 4.45128E+01
 -1       223 4.04844E+01
 -1       224 4.04844E+01
 -1       225 4.04844E+01
 -1       226 4.34648E+01
 -1       227 4.34648E+01
 -1       228 4.34648E+01
 -1       229 3.44994E+01
 -1       230 3.44994E+01
 -1       231 3.44994E+01
 -1       232 3.98864E+01
 -1       233 3.98864E+01
 -1       234 3.98864E+01
 -1       235 1.80103E+01
 -1       236 1.80103E+01
 -1       237 1.80103E+01
 -1       238 3.50343E+01
 -1       239 3.50343E+01
 -1       240 3.50343E+01
 -3
 9999
