    1C
    1UUSER                                                              
    1UDATE              30.march.2022                                   
    1UTIME              09:58:42                                        
    1UHOST                                                              
    1UPGM               CalculiX                                        
    1UVERSION           Version 2.19                             
    1UCOMPILETIME       Wed Mar 30 06:04:19 EDT 2022                    
    1UDIR                                                               
    1UDBN                                                               
    1UMAT    1STEEL                                                     
    2C                           104                                     1
 -1         1 0.00000E+00 1.00000E+01 0.00000E+00
 -1         2 0.00000E+00 5.00000E+00 0.00000E+00
 -1         3 5.00000E+00 5.00000E+00 0.00000E+00
 -1         4 5.00000E+00 1.00000E+01 0.00000E+00
 -1         5 1.00000E+01 5.00000E+00 0.00000E+00
 -1         6 1.00000E+01 1.00000E+01 0.00000E+00
 -1         7 1.50000E+01 5.00000E+00 0.00000E+00
 -1         8 1.50000E+01 1.00000E+01 0.00000E+00
 -1         9 2.00000E+01 5.00000E+00 0.00000E+00
 -1        10 2.00000E+01 1.00000E+01 0.00000E+00
 -1        11 2.50000E+01 5.00000E+00 0.00000E+00
 -1        12 2.50000E+01 1.00000E+01 0.00000E+00
 -1        13 3.00000E+01 5.00000E+00 0.00000E+00
 -1        14 3.00000E+01 1.00000E+01 0.00000E+00
 -1        15 3.50000E+01 5.00000E+00 0.00000E+00
 -1        16 3.50000E+01 1.00000E+01 0.00000E+00
 -1        17 4.00000E+01 5.00000E+00 0.00000E+00
 -1        18 4.00000E+01 1.00000E+01 0.00000E+00
 -1        19 0.00000E+00 0.00000E+00 0.00000E+00
 -1        20 5.00000E+00 0.00000E+00 0.00000E+00
 -1        21 1.00000E+01 0.00000E+00 0.00000E+00
 -1        22 1.50000E+01 0.00000E+00 0.00000E+00
 -1        23 2.00000E+01 0.00000E+00 0.00000E+00
 -1        24 2.50000E+01 0.00000E+00 0.00000E+00
 -1        25 3.00000E+01 0.00000E+00 0.00000E+00
 -1        26 3.50000E+01 0.00000E+00 0.00000E+00
 -1        27 4.00000E+01 0.00000E+00 0.00000E+00
 -1        28 0.00000E+00 1.00000E+01 0.00000E+00
 -1        29 0.00000E+00 0.00000E+00 0.00000E+00
 -1        30 1.00000E+01 0.00000E+00 0.00000E+00
 -1        31 1.00000E+01 1.00000E+01 0.00000E+00
 -1        32 0.00000E+00 5.00000E+00 0.00000E+00
 -1        33 5.00000E+00 0.00000E+00 0.00000E+00
 -1        34 1.00000E+01 5.00000E+00 0.00000E+00
 -1        35 5.00000E+00 1.00000E+01 0.00000E+00
 -1        36 2.00000E+01 0.00000E+00 0.00000E+00
 -1        37 2.00000E+01 1.00000E+01 0.00000E+00
 -1        38 1.50000E+01 0.00000E+00 0.00000E+00
 -1        39 2.00000E+01 5.00000E+00 0.00000E+00
 -1        40 1.50000E+01 1.00000E+01 0.00000E+00
 -1        41 3.00000E+01 0.00000E+00 0.00000E+00
 -1        42 3.00000E+01 1.00000E+01 0.00000E+00
 -1        43 2.50000E+01 0.00000E+00 0.00000E+00
 -1        44 3.00000E+01 5.00000E+00 0.00000E+00
 -1        45 2.50000E+01 1.00000E+01 0.00000E+00
 -1        46 4.00000E+01 0.00000E+00 0.00000E+00
 -1        47 4.00000E+01 1.00000E+01 0.00000E+00
 -1        48 3.50000E+01 0.00000E+00 0.00000E+00
 -1        49 4.00000E+01 5.00000E+00 0.00000E+00
 -1        50 3.50000E+01 1.00000E+01 0.00000E+00
 -1        51 0.00000E+00 1.00000E+01 0.00000E+00
 -1        52 0.00000E+00 5.00000E+00 0.00000E+00
 -1        53 5.00000E+00 1.00000E+01 0.00000E+00
 -1        54 5.00000E+00 5.00000E+00 0.00000E+00
 -1        55 1.00000E+01 1.00000E+01 0.00000E+00
 -1        56 1.00000E+01 5.00000E+00 0.00000E+00
 -1        57 1.50000E+01 1.00000E+01 0.00000E+00
 -1        58 1.50000E+01 5.00000E+00 0.00000E+00
 -1        59 2.00000E+01 1.00000E+01 0.00000E+00
 -1        60 2.00000E+01 5.00000E+00 0.00000E+00
 -1        61 2.50000E+01 1.00000E+01 0.00000E+00
 -1        62 2.50000E+01 5.00000E+00 0.00000E+00
 -1        63 3.00000E+01 1.00000E+01 0.00000E+00
 -1        64 3.00000E+01 5.00000E+00 0.00000E+00
 -1        65 3.50000E+01 1.00000E+01 0.00000E+00
 -1        66 3.50000E+01 5.00000E+00 0.00000E+00
 -1        67 4.00000E+01 1.00000E+01 0.00000E+00
 -1        68 4.00000E+01 5.00000E+00 0.00000E+00
 -1        69 0.00000E+00 0.00000E+00 0.00000E+00
 -1        70 5.00000E+00 0.00000E+00 0.00000E+00
 -1        71 1.00000E+01 0.00000E+00 0.00000E+00
 -1        72 1.50000E+01 0.00000E+00 0.00000E+00
 -1        73 2.00000E+01 0.00000E+00 0.00000E+00
 -1        74 2.50000E+01 0.00000E+00 0.00000E+00
 -1        75 3.00000E+01 0.00000E+00 0.00000E+00
 -1        76 3.50000E+01 0.00000E+00 0.00000E+00
 -1        77 4.00000E+01 0.00000E+00 0.00000E+00
 -1        78 0.00000E+00 1.00000E+01 0.00000E+00
 -1        79 0.00000E+00 0.00000E+00 0.00000E+00
 -1        80 1.00000E+01 1.00000E+01 0.00000E+00
 -1        81 0.00000E+00 5.00000E+00 0.00000E+00
 -1        82 5.00000E+00 5.00000E+00 0.00000E+00
 -1        83 5.00000E+00 1.00000E+01 0.00000E+00
 -1        84 1.00000E+01 0.00000E+00 0.00000E+00
 -1        85 5.00000E+00 0.00000E+00 0.00000E+00
 -1        86 1.00000E+01 5.00000E+00 0.00000E+00
 -1        87 2.00000E+01 1.00000E+01 0.00000E+00
 -1        88 1.50000E+01 5.00000E+00 0.00000E+00
 -1        89 1.50000E+01 1.00000E+01 0.00000E+00
 -1        90 2.00000E+01 0.00000E+00 0.00000E+00
 -1        91 1.50000E+01 0.00000E+00 0.00000E+00
 -1        92 2.00000E+01 5.00000E+00 0.00000E+00
 -1        93 3.00000E+01 1.00000E+01 0.00000E+00
 -1        94 2.50000E+01 5.00000E+00 0.00000E+00
 -1        95 2.50000E+01 1.00000E+01 0.00000E+00
 -1        96 3.00000E+01 0.00000E+00 0.00000E+00
 -1        97 2.50000E+01 0.00000E+00 0.00000E+00
 -1        98 3.00000E+01 5.00000E+00 0.00000E+00
 -1        99 4.00000E+01 1.00000E+01 0.00000E+00
 -1       100 3.50000E+01 5.00000E+00 0.00000E+00
 -1       101 3.50000E+01 1.00000E+01 0.00000E+00
 -1       102 4.00000E+01 0.00000E+00 0.00000E+00
 -1       103 3.50000E+01 0.00000E+00 0.00000E+00
 -1       104 4.00000E+01 5.00000E+00 0.00000E+00
 -3
    3C                            60                                     1
 -1         1    9    0    1
 -2         1         2         3         4
 -1         2    9    0    1
 -2         4         3         5         6
 -1         3    9    0    1
 -2         6         5         7         8
 -1         4    9    0    1
 -2         8         7         9        10
 -1         5    9    0    1
 -2        10         9        11        12
 -1         6    9    0    1
 -2        12        11        13        14
 -1         7    9    0    1
 -2        14        13        15        16
 -1         8    9    0    1
 -2        16        15        17        18
 -1         9    9    0    1
 -2         2        19        20         3
 -1        10    9    0    1
 -2         3        20        21         5
 -1        11    9    0    1
 -2         5        21        22         7
 -1        12    9    0    1
 -2         7        22        23         9
 -1        13    9    0    1
 -2         9        23        24        11
 -1        14    9    0    1
 -2        11        24        25        13
 -1        15    9    0    1
 -2        13        25        26        15
 -1        16    9    0    1
 -2        15        26        27        17
 -1        17   10    0    1
 -2        28        29        30        31        32        33        34        35
 -1        18   10    0    1
 -2        31        30        36        37        34        38        39        40
 -1        19   10    0    1
 -2        37        36        41        42        39        43        44        45
 -1        20   10    0    1
 -2        42        41        46        47        44        48        49        50
 -1        21    7    0    1
 -2        51        52        53
 -1        22    7    0    1
 -2        53        52        54
 -1        23    7    0    1
 -2        53        54        55
 -1        24    7    0    1
 -2        55        54        56
 -1        25    7    0    1
 -2        55        56        57
 -1        26    7    0    1
 -2        57        56        58
 -1        27    7    0    1
 -2        57        58        59
 -1        28    7    0    1
 -2        59        58        60
 -1        29    7    0    1
 -2        59        60        61
 -1        30    7    0    1
 -2        61        60        62
 -1        31    7    0    1
 -2        61        62        63
 -1        32    7    0    1
 -2        63        62        64
 -1        33    7    0    1
 -2        63        64        65
 -1        34    7    0    1
 -2        65        64        66
 -1        35    7    0    1
 -2        65        66        67
 -1        36    7    0    1
 -2        67        66        68
 -1        37    7    0    1
 -2        52        69        54
 -1        38    7    0    1
 -2        54        69        70
 -1        39    7    0    1
 -2        54        70        56
 -1        40    7    0    1
 -2        56        70        71
 -1        41    7    0    1
 -2        56        71        58
 -1        42    7    0    1
 -2        58        71        72
 -1        43    7    0    1
 -2        58        72        60
 -1        44    7    0    1
 -2        60        72        73
 -1        45    7    0    1
 -2        60        73        62
 -1        46    7    0    1
 -2        62        73        74
 -1        47    7    0    1
 -2        62        74        64
 -1        48    7    0    1
 -2        64        74        75
 -1        49    7    0    1
 -2        64        75        66
 -1        50    7    0    1
 -2        66        75        76
 -1        51    7    0    1
 -2        66        76        68
 -1        52    7    0    1
 -2        68        76        77
 -1        53    8    0    1
 -2        78        79        80        81        82        83
 -1        54    8    0    1
 -2        80        79        84        82        85        86
 -1        55    8    0    1
 -2        80        84        87        86        88        89
 -1        56    8    0    1
 -2        87        84        90        88        91        92
 -1        57    8    0    1
 -2        87        90        93        92        94        95
 -1        58    8    0    1
 -2        93        90        96        94        97        98
 -1        59    8    0    1
 -2        93        96        99        98       100       101
 -1        60    8    0    1
 -2        99        96       102       100       103       104
 -3
    1PSTEP                         1           1           1          
  100CL  101 1.000000000         104                     0    1           1
 -4  DISP        4    1
 -5  D1          1    2    1    0
 -5  D2          1    2    2    0
 -5  D3          1    2    3    0
 -5  ALL         1    2    0    0    1ALL
 -1         1 0.00000E+00 0.00000E+00 0.00000E+00
 -1         2 0.00000E+00 0.00000E+00 0.00000E+00
 -1         3 6.00489E-07-5.94869E-04 0.00000E+00
 -1         4 8.72752E-04-7.51250E-04 0.00000E+00
 -1         5 5.40607E-06-2.03769E-03 0.00000E+00
 -1         6 1.55738E-03-2.13210E-03 0.00000E+00
 -1         7 9.15157E-06-4.01233E-03 0.00000E+00
 -1         8 2.04726E-03-4.08769E-03 0.00000E+00
 -1         9 1.26841E-05-6.36476E-03 0.00000E+00
 -1        10 2.37934E-03-6.41865E-03 0.00000E+00
 -1        11 1.62533E-05-8.94825E-03 0.00000E+00
 -1        12 2.58433E-03-8.98657E-03 0.00000E+00
 -1        13 1.98249E-05-1.16525E-02 0.00000E+00
 -1        14 2.69411E-03-1.16795E-02 0.00000E+00
 -1        15 2.33965E-05-1.43979E-02 0.00000E+00
 -1        16 2.74042E-03-1.44182E-02 0.00000E+00
 -1        17 2.69679E-05-1.71371E-02 0.00000E+00
 -1        18 2.75499E-03-1.71550E-02 0.00000E+00
 -1        19 0.00000E+00 0.00000E+00 0.00000E+00
 -1        20-8.66400E-04-7.26735E-04 0.00000E+00
 -1        21-1.54624E-03-2.10779E-03 0.00000E+00
 -1        22-2.02911E-03-4.06386E-03 0.00000E+00
 -1        23-2.35398E-03-6.39486E-03 0.00000E+00
 -1        24-2.55182E-03-8.96276E-03 0.00000E+00
 -1        25-2.65446E-03-1.16557E-02 0.00000E+00
 -1        26-2.69363E-03-1.43944E-02 0.00000E+00
 -1        27-2.70105E-03-1.71312E-02 0.00000E+00
 -1        28 0.00000E+00 0.00000E+00-8.47033E-21
 -1        29 0.00000E+00 0.00000E+00 5.92923E-21
 -1        30-1.68466E-03-2.33440E-03-4.23516E-21
 -1        31 1.69758E-03-2.35523E-03 1.10114E-20
 -1        32 0.00000E+00 0.00000E+00-2.68933E-20
 -1        33-9.34483E-04-7.52740E-04 8.77526E-19
 -1        34 5.75429E-06-2.19701E-03 5.98217E-19
 -1        35 9.39375E-04-7.77467E-04-1.37050E-18
 -1        36-2.61047E-03-7.01246E-03-1.48231E-21
 -1        37 2.63634E-03-7.03595E-03 1.10114E-20
 -1        38-2.24588E-03-4.45482E-03 1.21888E-18
 -1        39 1.30951E-05-6.98981E-03 4.32082E-18
 -1        40 2.26507E-03-4.47901E-03 3.99461E-18
 -1        41-2.93812E-03-1.28373E-02 3.47284E-20
 -1        42 2.97854E-03-1.28610E-02-4.67456E-20
 -1        43-2.82539E-03-9.85655E-03-5.09829E-18
 -1        44 2.01292E-05-1.28307E-02 1.96591E-19
 -1        45 2.85851E-03-9.88031E-03-1.00733E-17
 -1        46-2.98692E-03-1.88858E-02 2.45011E-20
 -1        47 3.04142E-03-1.89095E-02-1.68612E-20
 -1        48-2.98118E-03-1.58630E-02 6.50627E-20
 -1        49 2.73253E-05-1.88953E-02 1.14670E-18
 -1        50 3.02864E-03-1.58869E-02 5.11538E-18
 -1        51 0.00000E+00 0.00000E+00 0.00000E+00
 -1        52 0.00000E+00 0.00000E+00 0.00000E+00
 -1        53 5.17863E-04-5.17047E-04 0.00000E+00
 -1        54 1.30757E-05-4.58273E-04 0.00000E+00
 -1        55 9.03718E-04-1.41408E-03 0.00000E+00
 -1        56 1.45151E-06-1.38115E-03 0.00000E+00
 -1        57 1.18156E-03-2.62880E-03 0.00000E+00
 -1        58-4.14231E-06-2.60186E-03 0.00000E+00
 -1        59 1.36528E-03-4.04409E-03 0.00000E+00
 -1        60-7.30213E-06-4.02411E-03 0.00000E+00
 -1        61 1.47815E-03-5.58036E-03 0.00000E+00
 -1        62-8.98611E-06-5.56395E-03 0.00000E+00
 -1        63 1.53762E-03-7.17306E-03 0.00000E+00
 -1        64-8.89194E-06-7.15851E-03 0.00000E+00
 -1        65 1.56171E-03-8.77677E-03 0.00000E+00
 -1        66-7.16922E-06-8.76194E-03 0.00000E+00
 -1        67 1.56914E-03-1.03627E-02 0.00000E+00
 -1        68-4.70345E-06-1.03474E-02 0.00000E+00
 -1        69 0.00000E+00 0.00000E+00 0.00000E+00
 -1        70-5.17259E-04-5.30100E-04 0.00000E+00
 -1        71-9.07583E-04-1.43849E-03 0.00000E+00
 -1        72-1.18738E-03-2.64355E-03 0.00000E+00
 -1        73-1.37634E-03-4.05146E-03 0.00000E+00
 -1        74-1.49108E-03-5.57969E-03 0.00000E+00
 -1        75-1.55037E-03-7.16461E-03 0.00000E+00
 -1        76-1.57187E-03-8.76132E-03 0.00000E+00
 -1        77-1.57517E-03-1.03441E-02 0.00000E+00
 -1        78 0.00000E+00 0.00000E+00-1.35525E-20
 -1        79 0.00000E+00 0.00000E+00 2.54110E-21
 -1        80 1.70425E-03-2.33457E-03 8.04681E-21
 -1        81 0.00000E+00 0.00000E+00-7.00284E-19
 -1        82 1.24142E-05-6.50446E-04-1.18267E-19
 -1        83 9.06996E-04-7.74494E-04-1.14349E-18
 -1        84-1.71535E-03-2.27507E-03-8.47033E-21
 -1        85-9.41711E-04-7.82736E-04 6.75932E-19
 -1        86 4.92378E-06-2.20120E-03-2.13749E-18
 -1        87 2.63241E-03-7.01744E-03 1.74701E-20
 -1        88 4.55341E-06-4.35942E-03 6.94144E-19
 -1        89 2.22863E-03-4.43448E-03 2.65968E-19
 -1        90-2.61553E-03-6.96509E-03-8.47033E-21
 -1        91-2.22239E-03-4.43188E-03-2.84603E-18
 -1        92 7.09174E-06-6.94017E-03 5.57348E-18
 -1        93 2.98336E-03-1.28133E-02-5.47924E-21
 -1        94 1.09102E-05-9.78875E-03 4.51193E-18
 -1        95 2.84337E-03-9.82669E-03 3.04932E-20
 -1        96-2.95162E-03-1.27751E-02-7.63388E-20
 -1        97-2.81829E-03-9.81450E-03-1.28868E-17
 -1        98 1.36672E-05-1.27747E-02-2.93703E-18
 -1        99 3.05005E-03-1.88754E-02 1.50084E-20
 -1       100 1.75258E-05-1.58150E-02 6.10698E-19
 -1       101 3.02924E-03-1.58359E-02-3.34567E-18
 -1       102-3.00095E-03-1.88411E-02 1.65674E-19
 -1       103-2.98850E-03-1.58148E-02-8.65170E-18
 -1       104 2.11095E-05-1.88498E-02 1.42426E-17
 -3
    1PSTEP                         2           1           1          
  100CL  101 1.000000000         104                     0    1           1
 -4  STRESS      6    1
 -5  SXX         1    4    1    1
 -5  SYY         1    4    2    2
 -5  SZZ         1    4    3    3
 -5  SXY         1    4    1    2
 -5  SYZ         1    4    2    3
 -5  SZX         1    4    3    1
 -1         1 3.99168E+01 1.17209E+01-8.47478E-01-1.21354E+01 1.38778E-15 6.52256E-16
 -1         2 4.03244E-02 2.09328E-02 2.94227E-02-9.60923E+00-1.44329E-15-4.01588E-16
 -1         3-4.82900E-02-5.31617E-01-7.76009E-03-2.41111E+00 1.03528E-14-2.41408E-15
 -1         4 3.43631E+01 4.15371E+00 1.37546E+00-3.13208E+00 7.82707E-15 2.35922E-16
 -1         5 2.35498E-02-5.07306E-01-1.27495E-02-2.53470E+00 3.25573E-14 4.61930E-15
 -1         6 2.63061E+01 4.28354E+00 1.18996E+00-1.87763E+00 3.66374E-14-3.39867E-14
 -1         7 5.85360E-03-4.96677E-01 6.74502E-03-2.02486E+00-9.30644E-14-2.77003E-15
 -1         8 1.83196E+01 2.60751E+00 9.22135E-01-1.69881E+00-8.39884E-14-7.63278E-16
 -1         9-1.29103E-03-5.00330E-01-1.07426E-03-1.63635E+00 6.11733E-14 2.56197E-16
 -1        10 1.19243E+01 1.50761E+00 6.45852E-01-1.33719E+00 7.99222E-14-5.11674E-14
 -1        11 2.24760E-05-4.99926E-01 1.69302E-04-1.22416E+00-1.01655E-14-9.98783E-15
 -1        12 6.92901E+00 6.06479E-01 4.56655E-01-1.00682E+00-3.67761E-14-1.70801E-14
 -1        13-1.54312E-05-5.00003E-01-5.33642E-05-8.16679E-01-9.79147E-14 5.30283E-15
 -1        14 3.36251E+00-3.07304E-02 3.13108E-01-6.70539E-01-1.99840E-13-2.86195E-14
 -1        15 1.03891E-05-4.99974E-01 1.43270E-05-4.08244E-01 2.19553E-13 5.12143E-15
 -1        16 1.22294E+00-4.13723E-01 2.29136E-01-3.35365E-01 3.74737E-13-5.30721E-14
 -1        17-3.34568E-06-4.99982E-01-5.54920E-06-1.79425E-01-5.21255E-13 1.28357E-14
 -1        18 5.09633E-01-5.41345E-01 2.00719E-01-1.42926E-01-2.79673E-13-2.83020E-14
 -1        19-3.96279E+01-1.16373E+01 8.37339E-01-1.17394E+01 2.77556E-16-9.99201E-16
 -1        20-3.44423E+01-5.20497E+00-1.36838E+00-3.01892E+00-5.27356E-15 7.85483E-15
 -1        21-2.63683E+01-5.32175E+00-1.18484E+00-1.88849E+00 3.69149E-14-7.77850E-15
 -1        22-1.83250E+01-3.61262E+00-9.30672E-01-1.70053E+00-3.70259E-14-1.46758E-14
 -1        23-1.19217E+01-2.50561E+00-6.44303E-01-1.33730E+00-9.63118E-15-2.67841E-15
 -1        24-6.92908E+00-1.60652E+00-4.56841E-01-1.00671E+00 3.10606E-13 4.49502E-14
 -1        25-3.36252E+00-9.69218E-01-3.13050E-01-6.70550E-01-1.73115E-13-5.20764E-14
 -1        26-1.22296E+00-5.86250E-01-2.29154E-01-3.35364E-01-2.38241E-13 1.29324E-14
 -1        27-5.09628E-01-4.58609E-01-2.00712E-01-1.42927E-01 2.59438E-13-4.05787E-14
 -1        28 4.74996E+01 1.40777E+01 9.40465E-02-4.31519E+00 9.65894E-15-6.08194E-14
 -1        29-4.74996E+01-1.44781E+01-9.29214E-02-3.68453E+00-3.48055E-14 4.48946E-14
 -1        30-2.64998E+01 3.90869E+00-1.67396E-02-3.07448E+00-8.88040E-14-4.04503E-14
 -1        31 2.64998E+01-5.01217E+00 1.67601E-02-2.92528E+00 4.21330E-14 1.43729E-13
 -1        32 7.14095E-13-2.00214E-01 5.62542E-04-3.99986E+00-1.26010E-14-7.95891E-15
 -1        33-3.69998E+01-5.32579E+00-4.84206E-02-3.42716E+00 1.93734E-14-1.51684E-14
 -1        34 4.96492E-13-5.51737E-01 1.02245E-05-2.99988E+00-2.33147E-14 5.16419E-14
 -1        35 3.69998E+01 4.48758E+00 4.81079E-02-3.57256E+00-2.16493E-14 3.05866E-14
 -1        36-1.14999E+01-1.07402E+00-1.41276E-02-2.00416E+00 1.59754E-13-9.74203E-14
 -1        37 1.14999E+01 5.70183E-02 1.39051E-02-1.99568E+00-1.51813E-13-2.20671E-13
 -1        38-1.89999E+01 1.45250E+00-1.95664E-02-2.49799E+00 1.43427E-13-3.85456E-15
 -1        39-2.37144E-13-5.08502E-01-1.11280E-04-1.99992E+00 3.95517E-15-1.59046E-13
 -1        40 1.89999E+01-2.43991E+00 1.96381E-02-2.50181E+00-1.66339E-13 2.64094E-14
 -1        41-2.49999E+00 3.04114E-01 6.65199E-05-1.00214E+00 4.34454E-13 1.07037E-13
 -1        42 2.49999E+00-1.30536E+00-3.09771E-04-9.97776E-01-1.53596E-13 1.98286E-13
 -1        43-6.99996E+00-3.78628E-01-7.81097E-03-1.49761E+00-7.48013E-14-1.53350E-14
 -1        44 2.26319E-13-5.00624E-01-1.21626E-04-9.99960E-01 1.40428E-13 1.52662E-13
 -1        45 6.99996E+00-6.17263E-01 7.93375E-03-1.50227E+00 2.18159E-14-4.64177E-14
 -1        46 4.99986E-01-1.51702E-01 2.18990E-03 3.15155E-04 8.30102E-13 5.34911E-14
 -1        47-4.99986E-01-8.47960E-01-2.42426E-03-2.81395E-04-2.13975E-13-1.75968E-13
 -1        48-9.99994E-01 7.58026E-02-3.68549E-04-5.00129E-01 8.15068E-13 5.27252E-14
 -1        49 6.24820E-13-4.99831E-01-1.17180E-04 1.68801E-05 3.08063E-13-6.12383E-14
 -1        50 9.99994E-01-1.07606E+00 4.86746E-04-4.99831E-01-1.99263E-13-7.62151E-15
 -1        51 2.39654E+01 7.23444E+00 1.49392E-01-8.35230E+00 0.00000E+00 0.00000E+00
 -1        52 8.09314E+00 1.60158E+00-1.17723E-02-5.00127E+00 7.35523E-16-2.49800E-16
 -1        53 1.35559E+01 2.41684E+00-1.42173E-02-4.64572E+00 2.19269E-15-1.69309E-15
 -1        54-1.00388E+00-3.48669E-01 7.50238E-04-3.27634E+00 7.28584E-16-7.42462E-16
 -1        55 9.46582E+00 1.10148E+00 2.14076E-02-3.90554E+00 2.92821E-15-2.20180E-15
 -1        56-9.10459E-01 3.85269E-01 8.04824E-03-2.88522E+00 4.38538E-15-4.85723E-16
 -1        57 6.61165E+00 7.66271E-01-6.08943E-03-3.10722E+00 3.21132E-14-8.87831E-15
 -1        58-7.15969E-01 2.55539E-01 7.98394E-03-2.38744E+00 8.75688E-15-3.12684E-15
 -1        59 4.20873E+00 3.28086E-01 7.53640E-03-2.38503E+00-1.16782E-14-8.56606E-15
 -1        60-5.68116E-01 1.09372E-01-1.37335E-03-1.92432E+00-1.45994E-14-1.92381E-15
 -1        61 2.38178E+00-2.45597E-02 1.63412E-05-1.73362E+00 5.83734E-15-2.75821E-15
 -1        62-4.20746E-01-4.42178E-02 5.36908E-03-1.44237E+00 2.62707E-14-1.21084E-15
 -1        63 1.07500E+00-3.15773E-01-4.71899E-03-1.13514E+00-1.75138E-14-1.28890E-15
 -1        64-2.78356E-01-1.94394E-01 3.22355E-03-9.62932E-01 2.91434E-15 1.68702E-15
 -1        65 3.07998E-01-5.25899E-01 1.16292E-03-5.86152E-01 2.91906E-14-8.62158E-15
 -1        66-1.37174E-01-3.22585E-01-2.04744E-03-4.79408E-01 1.45942E-14-3.94953E-15
 -1        67 1.93973E-02-6.27345E-01-1.14585E-03-2.32232E-01-4.37853E-14-1.36495E-14
 -1        68-6.27146E-02-2.87466E-01 2.30048E-03-2.41227E-01-5.83804E-14 1.14492E-15
 -1        69-1.11436E+01-1.83880E+00-1.36160E-02-3.69954E+00 0.00000E+00 0.00000E+00
 -1        70-1.32256E+01-1.16190E+00-2.70608E-02-2.10899E+00 1.45717E-15 9.57567E-16
 -1        71-9.68372E+00-7.22820E-01-2.29777E-02-1.79226E+00 6.56072E-15 1.84575E-15
 -1        72-6.75480E+00-4.80009E-01-1.30732E-02-1.61381E+00-1.16851E-14-8.81240E-16
 -1        73-4.37564E+00-3.28170E-01-6.04839E-03-1.37747E+00 0.00000E+00-6.23958E-15
 -1        74-2.50652E+00-2.28741E-01-9.44667E-03-1.08794E+00 1.75068E-14-2.34751E-15
 -1        75-1.16365E+00-1.87662E-01-1.46664E-03-7.39856E-01-3.68629E-18 1.03736E-15
 -1        76-3.63809E-01-1.72366E-01 1.80647E-03-3.50878E-01 5.83778E-15 1.48753E-15
 -1        77-1.99602E-01-1.99602E-01-3.67042E-03-1.99602E-01-8.75706E-14 8.75688E-15
 -1        78 4.44512E+01 1.33755E+01 1.33517E-01-6.16595E+00 1.45439E-14-2.60486E-14
 -1        79-4.07414E+01-6.05294E+00-3.81671E-02-2.93264E+00-4.47281E-14 2.35090E-14
 -1        80 3.00578E+01-1.08537E+00 2.16998E-02-3.27567E+00 3.54092E-14-4.16889E-14
 -1        81 3.09648E+00 9.22807E-01-2.06278E-02-4.16209E+00 9.43690E-16 8.81240E-15
 -1        82-3.74125E+00-3.11766E+00 2.56923E-02-3.23845E+00-1.72362E-14-1.97342E-14
 -1        83 3.76446E+01 6.10671E+00 7.77396E-02-4.40516E+00-8.16014E-15-3.41116E-14
 -1        84-2.40220E+01 1.49519E-01-3.00484E-02-2.68863E+00 1.28231E-13 4.95125E-14
 -1        85-3.63554E+01-1.02412E+00-8.60153E-02-2.79354E+00 5.77316E-15 1.33366E-14
 -1        86 2.73239E+00-4.33485E-01-1.23806E-02-3.25209E+00 6.39488E-14 2.22634E-14
 -1        87 1.43418E+01-9.74149E-01 9.06836E-03-1.99157E+00-1.38813E-13-6.70575E-14
 -1        88-2.28989E+00 3.75776E-01 4.75981E-02-2.66092E+00 9.66449E-14 2.03726E-14
 -1        89 1.89219E+01-1.84414E+00-5.38467E-02-2.06491E+00 9.16003E-14-1.12965E-13
 -1        90-1.03849E+01-1.45679E-03-1.10739E-02-2.05154E+00 6.14564E-13-1.16742E-13
 -1        91-1.90781E+01-5.45068E-01-3.62757E-02-1.92893E+00 2.52437E-13 2.02616E-14
 -1        92 1.92149E+00-5.20183E-01 9.08760E-03-2.26888E+00 2.52853E-14 3.50865E-14
 -1        93 4.40910E+00-1.00246E+00-2.62021E-03-9.24237E-01 2.00499E-14-1.82668E-13
 -1        94-1.32943E+00 1.17008E-02 1.12043E-02-1.65642E+00 3.52225E-13-1.93538E-13
 -1        95 6.85454E+00-1.69149E+00-2.71078E-02-1.03582E+00 8.97581E-14-1.73674E-13
 -1        96-2.40768E+00 6.89689E-02-5.62569E-03-1.07434E+00 1.59444E-13 1.15693E-13
 -1        97-7.14546E+00-2.53397E-01-3.83471E-02-1.25991E+00 5.30576E-13-2.99795E-14
 -1        98 9.83088E-01-5.04658E-01 1.07958E-02-1.11827E+00-6.38847E-14 6.21074E-14
 -1        99 5.32124E-01-1.03390E+00-1.11515E-04 3.21293E-02 2.83935E-13 1.77800E-13
 -1       100-4.67881E-01-3.50813E-01 2.72914E-03-5.75356E-01 3.03450E-13 7.44361E-14
 -1       101 9.76633E-01-1.40820E+00-4.70186E-03-2.76273E-01-5.37972E-14-1.50083E-13
 -1       102-1.45840E-02-1.45840E-02-1.15957E-03-1.45840E-02-4.07388E-13 2.71270E-13
 -1       103-1.02337E+00 4.08818E-02 1.13582E-03-4.91242E-01-1.49674E-13 5.91541E-15
 -1       104 4.91253E-01-5.72996E-01-1.40619E-03-4.08713E-02 2.62130E-13 3.69543E-13
 -3
    1PSTEP                         3           1           1          
  100CL  101 1.000000000         104                     0    1           1
 -4  ERROR       1    1
 -5  STR(%)      1    1    0    0
 -1         1 6.05748E+01
 -1         2 6.05748E+01
 -1         3 6.05748E+01
 -1         4 6.05748E+01
 -1         5 5.96032E+01
 -1         6 5.94979E+01
 -1         7 5.95728E+01
 -1         8 5.94979E+01
 -1         9 5.89007E+01
 -1        10 5.89007E+01
 -1        11 5.76049E+01
 -1        12 5.76049E+01
 -1        13 5.50600E+01
 -1        14 5.50600E+01
 -1        15 5.17618E+01
 -1        16 5.17618E+01
 -1        17 2.98835E+01
 -1        18 2.33823E+01
 -1        19 6.00156E+01
 -1        20 6.00156E+01
 -1        21 5.96032E+01
 -1        22 5.95728E+01
 -1        23 5.87454E+01
 -1        24 5.68388E+01
 -1        25 5.22485E+01
 -1        26 4.23844E+01
 -1        27 2.98835E+01
 -1        28 5.40999E+01
 -1        29 5.40999E+01
 -1        30 5.40999E+01
 -1        31 5.40999E+01
 -1        32 5.40999E+01
 -1        33 5.40999E+01
 -1        34 5.40999E+01
 -1        35 5.40999E+01
 -1        36 4.90193E+01
 -1        37 4.90193E+01
 -1        38 5.15596E+01
 -1        39 4.90193E+01
 -1        40 5.15596E+01
 -1        41 4.66088E+01
 -1        42 4.66088E+01
 -1        43 4.78141E+01
 -1        44 4.66088E+01
 -1        45 4.78141E+01
 -1        46 4.02314E+01
 -1        47 4.02314E+01
 -1        48 4.34201E+01
 -1        49 4.02314E+01
 -1        50 4.34201E+01
 -1        51 0.00000E+00
 -1        52 0.00000E+00
 -1        53 0.00000E+00
 -1        54 0.00000E+00
 -1        55 0.00000E+00
 -1        56 0.00000E+00
 -1        57 0.00000E+00
 -1        58 0.00000E+00
 -1        59 0.00000E+00
 -1        60 0.00000E+00
 -1        61 0.00000E+00
 -1        62 0.00000E+00
 -1        63 0.00000E+00
 -1        64 0.00000E+00
 -1        65 0.00000E+00
 -1        66 0.00000E+00
 -1        67 0.00000E+00
 -1        68 0.00000E+00
 -1        69 0.00000E+00
 -1        70 0.00000E+00
 -1        71 0.00000E+00
 -1        72 0.00000E+00
 -1        73 0.00000E+00
 -1        74 0.00000E+00
 -1        75 0.00000E+00
 -1        76 0.00000E+00
 -1        77 0.00000E+00
 -1        78 4.63310E+01
 -1        79 4.63310E+01
 -1        80 4.63310E+01
 -1        81 4.63310E+01
 -1        82 4.63310E+01
 -1        83 4.63310E+01
 -1        84 4.45428E+01
 -1        85 4.54369E+01
 -1        86 4.54369E+01
 -1        87 4.34501E+01
 -1        88 4.39964E+01
 -1        89 4.48906E+01
 -1        90 4.34501E+01
 -1        91 4.39964E+01
 -1        92 4.34501E+01
 -1        93 3.99861E+01
 -1        94 4.17181E+01
 -1        95 4.17181E+01
 -1        96 3.99861E+01
 -1        97 4.17181E+01
 -1        98 3.99861E+01
 -1        99 3.50122E+01
 -1       100 3.74991E+01
 -1       101 3.74991E+01
 -1       102 3.50122E+01
 -1       103 3.74991E+01
 -1       104 3.50122E+01
 -3
 9999
