    1C
    1UUSER                                                              
    1UDATE              30.march.2022                                   
    1UTIME              09:57:30                                        
    1UHOST                                                              
    1UPGM               CalculiX                                        
    1UVERSION           Version 2.19                             
    1UCOMPILETIME       Wed Mar 30 06:04:19 EDT 2022                    
    1UDIR                                                               
    1UDBN                                                               
    1UMAT    1STEEL                                                     
    2C                          1764                                     1
 -1         1 0.00000E+00 1.00000E+00 1.00000E+01
 -1         2 0.00000E+00 1.00000E+00 5.00000E+00
 -1         3 2.50000E+00 1.00000E+00 5.00000E+00
 -1         4 2.50000E+00 1.00000E+00 1.00000E+01
 -1         5 0.00000E+00 0.00000E+00 1.00000E+01
 -1         6 0.00000E+00 0.00000E+00 5.00000E+00
 -1         7 2.50000E+00 0.00000E+00 5.00000E+00
 -1         8 2.50000E+00 0.00000E+00 1.00000E+01
 -1         9 5.00000E+00 1.00000E+00 5.00000E+00
 -1        10 5.00000E+00 1.00000E+00 1.00000E+01
 -1        11 5.00000E+00 0.00000E+00 5.00000E+00
 -1        12 5.00000E+00 0.00000E+00 1.00000E+01
 -1        13 7.50000E+00 1.00000E+00 5.00000E+00
 -1        14 7.50000E+00 1.00000E+00 1.00000E+01
 -1        15 7.50000E+00 0.00000E+00 5.00000E+00
 -1        16 7.50000E+00 0.00000E+00 1.00000E+01
 -1        17 1.00000E+01 1.00000E+00 5.00000E+00
 -1        18 1.00000E+01 1.00000E+00 1.00000E+01
 -1        19 1.00000E+01 0.00000E+00 5.00000E+00
 -1        20 1.00000E+01 0.00000E+00 1.00000E+01
 -1        21 1.25000E+01 1.00000E+00 5.00000E+00
 -1        22 1.25000E+01 1.00000E+00 1.00000E+01
 -1        23 1.25000E+01 0.00000E+00 5.00000E+00
 -1        24 1.25000E+01 0.00000E+00 1.00000E+01
 -1        25 1.50000E+01 1.00000E+00 5.00000E+00
 -1        26 1.50000E+01 1.00000E+00 1.00000E+01
 -1        27 1.50000E+01 0.00000E+00 5.00000E+00
 -1        28 1.50000E+01 0.00000E+00 1.00000E+01
 -1        29 1.75000E+01 1.00000E+00 5.00000E+00
 -1        30 1.75000E+01 1.00000E+00 1.00000E+01
 -1        31 1.75000E+01 0.00000E+00 5.00000E+00
 -1        32 1.75000E+01 0.00000E+00 1.00000E+01
 -1        33 2.00000E+01 1.00000E+00 5.00000E+00
 -1        34 2.00000E+01 1.00000E+00 1.00000E+01
 -1        35 2.00000E+01 0.00000E+00 5.00000E+00
 -1        36 2.00000E+01 0.00000E+00 1.00000E+01
 -1        37 2.25000E+01 1.00000E+00 5.00000E+00
 -1        38 2.25000E+01 1.00000E+00 1.00000E+01
 -1        39 2.25000E+01 0.00000E+00 5.00000E+00
 -1        40 2.25000E+01 0.00000E+00 1.00000E+01
 -1        41 2.50000E+01 1.00000E+00 5.00000E+00
 -1        42 2.50000E+01 1.00000E+00 1.00000E+01
 -1        43 2.50000E+01 0.00000E+00 5.00000E+00
 -1        44 2.50000E+01 0.00000E+00 1.00000E+01
 -1        45 2.75000E+01 1.00000E+00 5.00000E+00
 -1        46 2.75000E+01 1.00000E+00 1.00000E+01
 -1        47 2.75000E+01 0.00000E+00 5.00000E+00
 -1        48 2.75000E+01 0.00000E+00 1.00000E+01
 -1        49 3.00000E+01 1.00000E+00 5.00000E+00
 -1        50 3.00000E+01 1.00000E+00 1.00000E+01
 -1        51 3.00000E+01 0.00000E+00 5.00000E+00
 -1        52 3.00000E+01 0.00000E+00 1.00000E+01
 -1        53 3.25000E+01 1.00000E+00 5.00000E+00
 -1        54 3.25000E+01 1.00000E+00 1.00000E+01
 -1        55 3.25000E+01 0.00000E+00 5.00000E+00
 -1        56 3.25000E+01 0.00000E+00 1.00000E+01
 -1        57 3.50000E+01 1.00000E+00 5.00000E+00
 -1        58 3.50000E+01 1.00000E+00 1.00000E+01
 -1        59 3.50000E+01 0.00000E+00 5.00000E+00
 -1        60 3.50000E+01 0.00000E+00 1.00000E+01
 -1        61 3.75000E+01 1.00000E+00 5.00000E+00
 -1        62 3.75000E+01 1.00000E+00 1.00000E+01
 -1        63 3.75000E+01 0.00000E+00 5.00000E+00
 -1        64 3.75000E+01 0.00000E+00 1.00000E+01
 -1        65 4.00000E+01 1.00000E+00 5.00000E+00
 -1        66 4.00000E+01 1.00000E+00 1.00000E+01
 -1        67 4.00000E+01 0.00000E+00 5.00000E+00
 -1        68 4.00000E+01 0.00000E+00 1.00000E+01
 -1        69 4.25000E+01 1.00000E+00 5.00000E+00
 -1        70 4.25000E+01 1.00000E+00 1.00000E+01
 -1        71 4.25000E+01 0.00000E+00 5.00000E+00
 -1        72 4.25000E+01 0.00000E+00 1.00000E+01
 -1        73 4.50000E+01 1.00000E+00 5.00000E+00
 -1        74 4.50000E+01 1.00000E+00 1.00000E+01
 -1        75 4.50000E+01 0.00000E+00 5.00000E+00
 -1        76 4.50000E+01 0.00000E+00 1.00000E+01
 -1        77 4.75000E+01 1.00000E+00 5.00000E+00
 -1        78 4.75000E+01 1.00000E+00 1.00000E+01
 -1        79 4.75000E+01 0.00000E+00 5.00000E+00
 -1        80 4.75000E+01 0.00000E+00 1.00000E+01
 -1        81 5.00000E+01 1.00000E+00 5.00000E+00
 -1        82 5.00000E+01 1.00000E+00 1.00000E+01
 -1        83 5.00000E+01 0.00000E+00 5.00000E+00
 -1        84 5.00000E+01 0.00000E+00 1.00000E+01
 -1        85 0.00000E+00 1.00000E+00 0.00000E+00
 -1        86 2.50000E+00 1.00000E+00 0.00000E+00
 -1        87 0.00000E+00 0.00000E+00 0.00000E+00
 -1        88 2.50000E+00 0.00000E+00 0.00000E+00
 -1        89 5.00000E+00 1.00000E+00 0.00000E+00
 -1        90 5.00000E+00 0.00000E+00 0.00000E+00
 -1        91 7.50000E+00 1.00000E+00 0.00000E+00
 -1        92 7.50000E+00 0.00000E+00 0.00000E+00
 -1        93 1.00000E+01 1.00000E+00 0.00000E+00
 -1        94 1.00000E+01 0.00000E+00 0.00000E+00
 -1        95 1.25000E+01 1.00000E+00 0.00000E+00
 -1        96 1.25000E+01 0.00000E+00 0.00000E+00
 -1        97 1.50000E+01 1.00000E+00 0.00000E+00
 -1        98 1.50000E+01 0.00000E+00 0.00000E+00
 -1        99 1.75000E+01 1.00000E+00 0.00000E+00
 -1       100 1.75000E+01 0.00000E+00 0.00000E+00
 -1       101 2.00000E+01 1.00000E+00 0.00000E+00
 -1       102 2.00000E+01 0.00000E+00 0.00000E+00
 -1       103 2.25000E+01 1.00000E+00 0.00000E+00
 -1       104 2.25000E+01 0.00000E+00 0.00000E+00
 -1       105 2.50000E+01 1.00000E+00 0.00000E+00
 -1       106 2.50000E+01 0.00000E+00 0.00000E+00
 -1       107 2.75000E+01 1.00000E+00 0.00000E+00
 -1       108 2.75000E+01 0.00000E+00 0.00000E+00
 -1       109 3.00000E+01 1.00000E+00 0.00000E+00
 -1       110 3.00000E+01 0.00000E+00 0.00000E+00
 -1       111 3.25000E+01 1.00000E+00 0.00000E+00
 -1       112 3.25000E+01 0.00000E+00 0.00000E+00
 -1       113 3.50000E+01 1.00000E+00 0.00000E+00
 -1       114 3.50000E+01 0.00000E+00 0.00000E+00
 -1       115 3.75000E+01 1.00000E+00 0.00000E+00
 -1       116 3.75000E+01 0.00000E+00 0.00000E+00
 -1       117 4.00000E+01 1.00000E+00 0.00000E+00
 -1       118 4.00000E+01 0.00000E+00 0.00000E+00
 -1       119 4.25000E+01 1.00000E+00 0.00000E+00
 -1       120 4.25000E+01 0.00000E+00 0.00000E+00
 -1       121 4.50000E+01 1.00000E+00 0.00000E+00
 -1       122 4.50000E+01 0.00000E+00 0.00000E+00
 -1       123 4.75000E+01 1.00000E+00 0.00000E+00
 -1       124 4.75000E+01 0.00000E+00 0.00000E+00
 -1       125 5.00000E+01 1.00000E+00 0.00000E+00
 -1       126 5.00000E+01 0.00000E+00 0.00000E+00
 -1       127 0.00000E+00 3.20000E+01 1.00000E+01
 -1       128 0.00000E+00 3.20000E+01 5.00000E+00
 -1       129 2.50000E+00 3.20000E+01 5.00000E+00
 -1       130 2.50000E+00 3.20000E+01 1.00000E+01
 -1       131 0.00000E+00 3.10000E+01 1.00000E+01
 -1       132 0.00000E+00 3.10000E+01 5.00000E+00
 -1       133 2.50000E+00 3.10000E+01 5.00000E+00
 -1       134 2.50000E+00 3.10000E+01 1.00000E+01
 -1       135 5.00000E+00 3.20000E+01 5.00000E+00
 -1       136 5.00000E+00 3.20000E+01 1.00000E+01
 -1       137 5.00000E+00 3.10000E+01 5.00000E+00
 -1       138 5.00000E+00 3.10000E+01 1.00000E+01
 -1       139 7.50000E+00 3.20000E+01 5.00000E+00
 -1       140 7.50000E+00 3.20000E+01 1.00000E+01
 -1       141 7.50000E+00 3.10000E+01 5.00000E+00
 -1       142 7.50000E+00 3.10000E+01 1.00000E+01
 -1       143 1.00000E+01 3.20000E+01 5.00000E+00
 -1       144 1.00000E+01 3.20000E+01 1.00000E+01
 -1       145 1.00000E+01 3.10000E+01 5.00000E+00
 -1       146 1.00000E+01 3.10000E+01 1.00000E+01
 -1       147 1.25000E+01 3.20000E+01 5.00000E+00
 -1       148 1.25000E+01 3.20000E+01 1.00000E+01
 -1       149 1.25000E+01 3.10000E+01 5.00000E+00
 -1       150 1.25000E+01 3.10000E+01 1.00000E+01
 -1       151 1.50000E+01 3.20000E+01 5.00000E+00
 -1       152 1.50000E+01 3.20000E+01 1.00000E+01
 -1       153 1.50000E+01 3.10000E+01 5.00000E+00
 -1       154 1.50000E+01 3.10000E+01 1.00000E+01
 -1       155 1.75000E+01 3.20000E+01 5.00000E+00
 -1       156 1.75000E+01 3.20000E+01 1.00000E+01
 -1       157 1.75000E+01 3.10000E+01 5.00000E+00
 -1       158 1.75000E+01 3.10000E+01 1.00000E+01
 -1       159 2.00000E+01 3.20000E+01 5.00000E+00
 -1       160 2.00000E+01 3.20000E+01 1.00000E+01
 -1       161 2.00000E+01 3.10000E+01 5.00000E+00
 -1       162 2.00000E+01 3.10000E+01 1.00000E+01
 -1       163 2.25000E+01 3.20000E+01 5.00000E+00
 -1       164 2.25000E+01 3.20000E+01 1.00000E+01
 -1       165 2.25000E+01 3.10000E+01 5.00000E+00
 -1       166 2.25000E+01 3.10000E+01 1.00000E+01
 -1       167 2.50000E+01 3.20000E+01 5.00000E+00
 -1       168 2.50000E+01 3.20000E+01 1.00000E+01
 -1       169 2.50000E+01 3.10000E+01 5.00000E+00
 -1       170 2.50000E+01 3.10000E+01 1.00000E+01
 -1       171 2.75000E+01 3.20000E+01 5.00000E+00
 -1       172 2.75000E+01 3.20000E+01 1.00000E+01
 -1       173 2.75000E+01 3.10000E+01 5.00000E+00
 -1       174 2.75000E+01 3.10000E+01 1.00000E+01
 -1       175 3.00000E+01 3.20000E+01 5.00000E+00
 -1       176 3.00000E+01 3.20000E+01 1.00000E+01
 -1       177 3.00000E+01 3.10000E+01 5.00000E+00
 -1       178 3.00000E+01 3.10000E+01 1.00000E+01
 -1       179 3.25000E+01 3.20000E+01 5.00000E+00
 -1       180 3.25000E+01 3.20000E+01 1.00000E+01
 -1       181 3.25000E+01 3.10000E+01 5.00000E+00
 -1       182 3.25000E+01 3.10000E+01 1.00000E+01
 -1       183 3.50000E+01 3.20000E+01 5.00000E+00
 -1       184 3.50000E+01 3.20000E+01 1.00000E+01
 -1       185 3.50000E+01 3.10000E+01 5.00000E+00
 -1       186 3.50000E+01 3.10000E+01 1.00000E+01
 -1       187 3.75000E+01 3.20000E+01 5.00000E+00
 -1       188 3.75000E+01 3.20000E+01 1.00000E+01
 -1       189 3.75000E+01 3.10000E+01 5.00000E+00
 -1       190 3.75000E+01 3.10000E+01 1.00000E+01
 -1       191 4.00000E+01 3.20000E+01 5.00000E+00
 -1       192 4.00000E+01 3.20000E+01 1.00000E+01
 -1       193 4.00000E+01 3.10000E+01 5.00000E+00
 -1       194 4.00000E+01 3.10000E+01 1.00000E+01
 -1       195 4.25000E+01 3.20000E+01 5.00000E+00
 -1       196 4.25000E+01 3.20000E+01 1.00000E+01
 -1       197 4.25000E+01 3.10000E+01 5.00000E+00
 -1       198 4.25000E+01 3.10000E+01 1.00000E+01
 -1       199 4.50000E+01 3.20000E+01 5.00000E+00
 -1       200 4.50000E+01 3.20000E+01 1.00000E+01
 -1       201 4.50000E+01 3.10000E+01 5.00000E+00
 -1       202 4.50000E+01 3.10000E+01 1.00000E+01
 -1       203 4.75000E+01 3.20000E+01 5.00000E+00
 -1       204 4.75000E+01 3.20000E+01 1.00000E+01
 -1       205 4.75000E+01 3.10000E+01 5.00000E+00
 -1       206 4.75000E+01 3.10000E+01 1.00000E+01
 -1       207 5.00000E+01 3.20000E+01 5.00000E+00
 -1       208 5.00000E+01 3.20000E+01 1.00000E+01
 -1       209 5.00000E+01 3.10000E+01 5.00000E+00
 -1       210 5.00000E+01 3.10000E+01 1.00000E+01
 -1       211 0.00000E+00 3.20000E+01 0.00000E+00
 -1       212 2.50000E+00 3.20000E+01 0.00000E+00
 -1       213 0.00000E+00 3.10000E+01 0.00000E+00
 -1       214 2.50000E+00 3.10000E+01 0.00000E+00
 -1       215 5.00000E+00 3.20000E+01 0.00000E+00
 -1       216 5.00000E+00 3.10000E+01 0.00000E+00
 -1       217 7.50000E+00 3.20000E+01 0.00000E+00
 -1       218 7.50000E+00 3.10000E+01 0.00000E+00
 -1       219 1.00000E+01 3.20000E+01 0.00000E+00
 -1       220 1.00000E+01 3.10000E+01 0.00000E+00
 -1       221 1.25000E+01 3.20000E+01 0.00000E+00
 -1       222 1.25000E+01 3.10000E+01 0.00000E+00
 -1       223 1.50000E+01 3.20000E+01 0.00000E+00
 -1       224 1.50000E+01 3.10000E+01 0.00000E+00
 -1       225 1.75000E+01 3.20000E+01 0.00000E+00
 -1       226 1.75000E+01 3.10000E+01 0.00000E+00
 -1       227 2.00000E+01 3.20000E+01 0.00000E+00
 -1       228 2.00000E+01 3.10000E+01 0.00000E+00
 -1       229 2.25000E+01 3.20000E+01 0.00000E+00
 -1       230 2.25000E+01 3.10000E+01 0.00000E+00
 -1       231 2.50000E+01 3.20000E+01 0.00000E+00
 -1       232 2.50000E+01 3.10000E+01 0.00000E+00
 -1       233 2.75000E+01 3.20000E+01 0.00000E+00
 -1       234 2.75000E+01 3.10000E+01 0.00000E+00
 -1       235 3.00000E+01 3.20000E+01 0.00000E+00
 -1       236 3.00000E+01 3.10000E+01 0.00000E+00
 -1       237 3.25000E+01 3.20000E+01 0.00000E+00
 -1       238 3.25000E+01 3.10000E+01 0.00000E+00
 -1       239 3.50000E+01 3.20000E+01 0.00000E+00
 -1       240 3.50000E+01 3.10000E+01 0.00000E+00
 -1       241 3.75000E+01 3.20000E+01 0.00000E+00
 -1       242 3.75000E+01 3.10000E+01 0.00000E+00
 -1       243 4.00000E+01 3.20000E+01 0.00000E+00
 -1       244 4.00000E+01 3.10000E+01 0.00000E+00
 -1       245 4.25000E+01 3.20000E+01 0.00000E+00
 -1       246 4.25000E+01 3.10000E+01 0.00000E+00
 -1       247 4.50000E+01 3.20000E+01 0.00000E+00
 -1       248 4.50000E+01 3.10000E+01 0.00000E+00
 -1       249 4.75000E+01 3.20000E+01 0.00000E+00
 -1       250 4.75000E+01 3.10000E+01 0.00000E+00
 -1       251 5.00000E+01 3.20000E+01 0.00000E+00
 -1       252 5.00000E+01 3.10000E+01 0.00000E+00
 -1       253 0.00000E+00 7.20000E+01 1.00000E+01
 -1       254 0.00000E+00 7.20000E+01 5.00000E+00
 -1       255 2.50000E+00 7.20000E+01 5.00000E+00
 -1       256 2.50000E+00 7.20000E+01 1.00000E+01
 -1       257 0.00000E+00 6.70000E+01 1.00000E+01
 -1       258 0.00000E+00 6.70000E+01 5.00000E+00
 -1       259 2.50000E+00 6.70000E+01 5.00000E+00
 -1       260 2.50000E+00 6.70000E+01 1.00000E+01
 -1       261 5.00000E+00 7.20000E+01 5.00000E+00
 -1       262 5.00000E+00 7.20000E+01 1.00000E+01
 -1       263 5.00000E+00 6.70000E+01 5.00000E+00
 -1       264 5.00000E+00 6.70000E+01 1.00000E+01
 -1       265 7.50000E+00 7.20000E+01 5.00000E+00
 -1       266 7.50000E+00 7.20000E+01 1.00000E+01
 -1       267 7.50000E+00 6.70000E+01 5.00000E+00
 -1       268 7.50000E+00 6.70000E+01 1.00000E+01
 -1       269 1.00000E+01 7.20000E+01 5.00000E+00
 -1       270 1.00000E+01 7.20000E+01 1.00000E+01
 -1       271 1.00000E+01 6.70000E+01 5.00000E+00
 -1       272 1.00000E+01 6.70000E+01 1.00000E+01
 -1       273 1.25000E+01 7.20000E+01 5.00000E+00
 -1       274 1.25000E+01 7.20000E+01 1.00000E+01
 -1       275 1.25000E+01 6.70000E+01 5.00000E+00
 -1       276 1.25000E+01 6.70000E+01 1.00000E+01
 -1       277 1.50000E+01 7.20000E+01 5.00000E+00
 -1       278 1.50000E+01 7.20000E+01 1.00000E+01
 -1       279 1.50000E+01 6.70000E+01 5.00000E+00
 -1       280 1.50000E+01 6.70000E+01 1.00000E+01
 -1       281 1.75000E+01 7.20000E+01 5.00000E+00
 -1       282 1.75000E+01 7.20000E+01 1.00000E+01
 -1       283 1.75000E+01 6.70000E+01 5.00000E+00
 -1       284 1.75000E+01 6.70000E+01 1.00000E+01
 -1       285 2.00000E+01 7.20000E+01 5.00000E+00
 -1       286 2.00000E+01 7.20000E+01 1.00000E+01
 -1       287 2.00000E+01 6.70000E+01 5.00000E+00
 -1       288 2.00000E+01 6.70000E+01 1.00000E+01
 -1       289 2.25000E+01 7.20000E+01 5.00000E+00
 -1       290 2.25000E+01 7.20000E+01 1.00000E+01
 -1       291 2.25000E+01 6.70000E+01 5.00000E+00
 -1       292 2.25000E+01 6.70000E+01 1.00000E+01
 -1       293 2.50000E+01 7.20000E+01 5.00000E+00
 -1       294 2.50000E+01 7.20000E+01 1.00000E+01
 -1       295 2.50000E+01 6.70000E+01 5.00000E+00
 -1       296 2.50000E+01 6.70000E+01 1.00000E+01
 -1       297 2.75000E+01 7.20000E+01 5.00000E+00
 -1       298 2.75000E+01 7.20000E+01 1.00000E+01
 -1       299 2.75000E+01 6.70000E+01 5.00000E+00
 -1       300 2.75000E+01 6.70000E+01 1.00000E+01
 -1       301 3.00000E+01 7.20000E+01 5.00000E+00
 -1       302 3.00000E+01 7.20000E+01 1.00000E+01
 -1       303 3.00000E+01 6.70000E+01 5.00000E+00
 -1       304 3.00000E+01 6.70000E+01 1.00000E+01
 -1       305 3.25000E+01 7.20000E+01 5.00000E+00
 -1       306 3.25000E+01 7.20000E+01 1.00000E+01
 -1       307 3.25000E+01 6.70000E+01 5.00000E+00
 -1       308 3.25000E+01 6.70000E+01 1.00000E+01
 -1       309 3.50000E+01 7.20000E+01 5.00000E+00
 -1       310 3.50000E+01 7.20000E+01 1.00000E+01
 -1       311 3.50000E+01 6.70000E+01 5.00000E+00
 -1       312 3.50000E+01 6.70000E+01 1.00000E+01
 -1       313 3.75000E+01 7.20000E+01 5.00000E+00
 -1       314 3.75000E+01 7.20000E+01 1.00000E+01
 -1       315 3.75000E+01 6.70000E+01 5.00000E+00
 -1       316 3.75000E+01 6.70000E+01 1.00000E+01
 -1       317 4.00000E+01 7.20000E+01 5.00000E+00
 -1       318 4.00000E+01 7.20000E+01 1.00000E+01
 -1       319 4.00000E+01 6.70000E+01 5.00000E+00
 -1       320 4.00000E+01 6.70000E+01 1.00000E+01
 -1       321 4.25000E+01 7.20000E+01 5.00000E+00
 -1       322 4.25000E+01 7.20000E+01 1.00000E+01
 -1       323 4.25000E+01 6.70000E+01 5.00000E+00
 -1       324 4.25000E+01 6.70000E+01 1.00000E+01
 -1       325 4.50000E+01 7.20000E+01 5.00000E+00
 -1       326 4.50000E+01 7.20000E+01 1.00000E+01
 -1       327 4.50000E+01 6.70000E+01 5.00000E+00
 -1       328 4.50000E+01 6.70000E+01 1.00000E+01
 -1       329 4.75000E+01 7.20000E+01 5.00000E+00
 -1       330 4.75000E+01 7.20000E+01 1.00000E+01
 -1       331 4.75000E+01 6.70000E+01 5.00000E+00
 -1       332 4.75000E+01 6.70000E+01 1.00000E+01
 -1       333 5.00000E+01 7.20000E+01 5.00000E+00
 -1       334 5.00000E+01 7.20000E+01 1.00000E+01
 -1       335 5.00000E+01 6.70000E+01 5.00000E+00
 -1       336 5.00000E+01 6.70000E+01 1.00000E+01
 -1       337 0.00000E+00 6.20000E+01 1.00000E+01
 -1       338 0.00000E+00 6.20000E+01 5.00000E+00
 -1       339 2.50000E+00 6.20000E+01 5.00000E+00
 -1       340 2.50000E+00 6.20000E+01 1.00000E+01
 -1       341 5.00000E+00 6.20000E+01 5.00000E+00
 -1       342 5.00000E+00 6.20000E+01 1.00000E+01
 -1       343 7.50000E+00 6.20000E+01 5.00000E+00
 -1       344 7.50000E+00 6.20000E+01 1.00000E+01
 -1       345 1.00000E+01 6.20000E+01 5.00000E+00
 -1       346 1.00000E+01 6.20000E+01 1.00000E+01
 -1       347 1.25000E+01 6.20000E+01 5.00000E+00
 -1       348 1.25000E+01 6.20000E+01 1.00000E+01
 -1       349 1.50000E+01 6.20000E+01 5.00000E+00
 -1       350 1.50000E+01 6.20000E+01 1.00000E+01
 -1       351 1.75000E+01 6.20000E+01 5.00000E+00
 -1       352 1.75000E+01 6.20000E+01 1.00000E+01
 -1       353 2.00000E+01 6.20000E+01 5.00000E+00
 -1       354 2.00000E+01 6.20000E+01 1.00000E+01
 -1       355 2.25000E+01 6.20000E+01 5.00000E+00
 -1       356 2.25000E+01 6.20000E+01 1.00000E+01
 -1       357 2.50000E+01 6.20000E+01 5.00000E+00
 -1       358 2.50000E+01 6.20000E+01 1.00000E+01
 -1       359 2.75000E+01 6.20000E+01 5.00000E+00
 -1       360 2.75000E+01 6.20000E+01 1.00000E+01
 -1       361 3.00000E+01 6.20000E+01 5.00000E+00
 -1       362 3.00000E+01 6.20000E+01 1.00000E+01
 -1       363 3.25000E+01 6.20000E+01 5.00000E+00
 -1       364 3.25000E+01 6.20000E+01 1.00000E+01
 -1       365 3.50000E+01 6.20000E+01 5.00000E+00
 -1       366 3.50000E+01 6.20000E+01 1.00000E+01
 -1       367 3.75000E+01 6.20000E+01 5.00000E+00
 -1       368 3.75000E+01 6.20000E+01 1.00000E+01
 -1       369 4.00000E+01 6.20000E+01 5.00000E+00
 -1       370 4.00000E+01 6.20000E+01 1.00000E+01
 -1       371 4.25000E+01 6.20000E+01 5.00000E+00
 -1       372 4.25000E+01 6.20000E+01 1.00000E+01
 -1       373 4.50000E+01 6.20000E+01 5.00000E+00
 -1       374 4.50000E+01 6.20000E+01 1.00000E+01
 -1       375 4.75000E+01 6.20000E+01 5.00000E+00
 -1       376 4.75000E+01 6.20000E+01 1.00000E+01
 -1       377 5.00000E+01 6.20000E+01 5.00000E+00
 -1       378 5.00000E+01 6.20000E+01 1.00000E+01
 -1       379 0.00000E+00 7.20000E+01 0.00000E+00
 -1       380 2.50000E+00 7.20000E+01 0.00000E+00
 -1       381 0.00000E+00 6.70000E+01 0.00000E+00
 -1       382 2.50000E+00 6.70000E+01 0.00000E+00
 -1       383 5.00000E+00 7.20000E+01 0.00000E+00
 -1       384 5.00000E+00 6.70000E+01 0.00000E+00
 -1       385 7.50000E+00 7.20000E+01 0.00000E+00
 -1       386 7.50000E+00 6.70000E+01 0.00000E+00
 -1       387 1.00000E+01 7.20000E+01 0.00000E+00
 -1       388 1.00000E+01 6.70000E+01 0.00000E+00
 -1       389 1.25000E+01 7.20000E+01 0.00000E+00
 -1       390 1.25000E+01 6.70000E+01 0.00000E+00
 -1       391 1.50000E+01 7.20000E+01 0.00000E+00
 -1       392 1.50000E+01 6.70000E+01 0.00000E+00
 -1       393 1.75000E+01 7.20000E+01 0.00000E+00
 -1       394 1.75000E+01 6.70000E+01 0.00000E+00
 -1       395 2.00000E+01 7.20000E+01 0.00000E+00
 -1       396 2.00000E+01 6.70000E+01 0.00000E+00
 -1       397 2.25000E+01 7.20000E+01 0.00000E+00
 -1       398 2.25000E+01 6.70000E+01 0.00000E+00
 -1       399 2.50000E+01 7.20000E+01 0.00000E+00
 -1       400 2.50000E+01 6.70000E+01 0.00000E+00
 -1       401 2.75000E+01 7.20000E+01 0.00000E+00
 -1       402 2.75000E+01 6.70000E+01 0.00000E+00
 -1       403 3.00000E+01 7.20000E+01 0.00000E+00
 -1       404 3.00000E+01 6.70000E+01 0.00000E+00
 -1       405 3.25000E+01 7.20000E+01 0.00000E+00
 -1       406 3.25000E+01 6.70000E+01 0.00000E+00
 -1       407 3.50000E+01 7.20000E+01 0.00000E+00
 -1       408 3.50000E+01 6.70000E+01 0.00000E+00
 -1       409 3.75000E+01 7.20000E+01 0.00000E+00
 -1       410 3.75000E+01 6.70000E+01 0.00000E+00
 -1       411 4.00000E+01 7.20000E+01 0.00000E+00
 -1       412 4.00000E+01 6.70000E+01 0.00000E+00
 -1       413 4.25000E+01 7.20000E+01 0.00000E+00
 -1       414 4.25000E+01 6.70000E+01 0.00000E+00
 -1       415 4.50000E+01 7.20000E+01 0.00000E+00
 -1       416 4.50000E+01 6.70000E+01 0.00000E+00
 -1       417 4.75000E+01 7.20000E+01 0.00000E+00
 -1       418 4.75000E+01 6.70000E+01 0.00000E+00
 -1       419 5.00000E+01 7.20000E+01 0.00000E+00
 -1       420 5.00000E+01 6.70000E+01 0.00000E+00
 -1       421 0.00000E+00 6.20000E+01 0.00000E+00
 -1       422 2.50000E+00 6.20000E+01 0.00000E+00
 -1       423 5.00000E+00 6.20000E+01 0.00000E+00
 -1       424 7.50000E+00 6.20000E+01 0.00000E+00
 -1       425 1.00000E+01 6.20000E+01 0.00000E+00
 -1       426 1.25000E+01 6.20000E+01 0.00000E+00
 -1       427 1.50000E+01 6.20000E+01 0.00000E+00
 -1       428 1.75000E+01 6.20000E+01 0.00000E+00
 -1       429 2.00000E+01 6.20000E+01 0.00000E+00
 -1       430 2.25000E+01 6.20000E+01 0.00000E+00
 -1       431 2.50000E+01 6.20000E+01 0.00000E+00
 -1       432 2.75000E+01 6.20000E+01 0.00000E+00
 -1       433 3.00000E+01 6.20000E+01 0.00000E+00
 -1       434 3.25000E+01 6.20000E+01 0.00000E+00
 -1       435 3.50000E+01 6.20000E+01 0.00000E+00
 -1       436 3.75000E+01 6.20000E+01 0.00000E+00
 -1       437 4.00000E+01 6.20000E+01 0.00000E+00
 -1       438 4.25000E+01 6.20000E+01 0.00000E+00
 -1       439 4.50000E+01 6.20000E+01 0.00000E+00
 -1       440 4.75000E+01 6.20000E+01 0.00000E+00
 -1       441 5.00000E+01 6.20000E+01 0.00000E+00
 -1       442 0.00000E+00 2.52000E+02 1.00000E+01
 -1       443 0.00000E+00 2.52000E+02 5.00000E+00
 -1       444 2.50000E+00 2.52000E+02 5.00000E+00
 -1       445 2.50000E+00 2.52000E+02 1.00000E+01
 -1       446 0.00000E+00 2.44500E+02 1.00000E+01
 -1       447 0.00000E+00 2.44500E+02 5.00000E+00
 -1       448 2.50000E+00 2.44500E+02 5.00000E+00
 -1       449 2.50000E+00 2.44500E+02 1.00000E+01
 -1       450 5.00000E+00 2.52000E+02 5.00000E+00
 -1       451 5.00000E+00 2.52000E+02 1.00000E+01
 -1       452 5.00000E+00 2.44500E+02 5.00000E+00
 -1       453 5.00000E+00 2.44500E+02 1.00000E+01
 -1       454 7.50000E+00 2.52000E+02 5.00000E+00
 -1       455 7.50000E+00 2.52000E+02 1.00000E+01
 -1       456 7.50000E+00 2.44500E+02 5.00000E+00
 -1       457 7.50000E+00 2.44500E+02 1.00000E+01
 -1       458 1.00000E+01 2.52000E+02 5.00000E+00
 -1       459 1.00000E+01 2.52000E+02 1.00000E+01
 -1       460 1.00000E+01 2.44500E+02 5.00000E+00
 -1       461 1.00000E+01 2.44500E+02 1.00000E+01
 -1       462 1.25000E+01 2.52000E+02 5.00000E+00
 -1       463 1.25000E+01 2.52000E+02 1.00000E+01
 -1       464 1.25000E+01 2.44500E+02 5.00000E+00
 -1       465 1.25000E+01 2.44500E+02 1.00000E+01
 -1       466 1.50000E+01 2.52000E+02 5.00000E+00
 -1       467 1.50000E+01 2.52000E+02 1.00000E+01
 -1       468 1.50000E+01 2.44500E+02 5.00000E+00
 -1       469 1.50000E+01 2.44500E+02 1.00000E+01
 -1       470 1.75000E+01 2.52000E+02 5.00000E+00
 -1       471 1.75000E+01 2.52000E+02 1.00000E+01
 -1       472 1.75000E+01 2.44500E+02 5.00000E+00
 -1       473 1.75000E+01 2.44500E+02 1.00000E+01
 -1       474 2.00000E+01 2.52000E+02 5.00000E+00
 -1       475 2.00000E+01 2.52000E+02 1.00000E+01
 -1       476 2.00000E+01 2.44500E+02 5.00000E+00
 -1       477 2.00000E+01 2.44500E+02 1.00000E+01
 -1       478 2.25000E+01 2.52000E+02 5.00000E+00
 -1       479 2.25000E+01 2.52000E+02 1.00000E+01
 -1       480 2.25000E+01 2.44500E+02 5.00000E+00
 -1       481 2.25000E+01 2.44500E+02 1.00000E+01
 -1       482 2.50000E+01 2.52000E+02 5.00000E+00
 -1       483 2.50000E+01 2.52000E+02 1.00000E+01
 -1       484 2.50000E+01 2.44500E+02 5.00000E+00
 -1       485 2.50000E+01 2.44500E+02 1.00000E+01
 -1       486 2.75000E+01 2.52000E+02 5.00000E+00
 -1       487 2.75000E+01 2.52000E+02 1.00000E+01
 -1       488 2.75000E+01 2.44500E+02 5.00000E+00
 -1       489 2.75000E+01 2.44500E+02 1.00000E+01
 -1       490 3.00000E+01 2.52000E+02 5.00000E+00
 -1       491 3.00000E+01 2.52000E+02 1.00000E+01
 -1       492 3.00000E+01 2.44500E+02 5.00000E+00
 -1       493 3.00000E+01 2.44500E+02 1.00000E+01
 -1       494 3.25000E+01 2.52000E+02 5.00000E+00
 -1       495 3.25000E+01 2.52000E+02 1.00000E+01
 -1       496 3.25000E+01 2.44500E+02 5.00000E+00
 -1       497 3.25000E+01 2.44500E+02 1.00000E+01
 -1       498 3.50000E+01 2.52000E+02 5.00000E+00
 -1       499 3.50000E+01 2.52000E+02 1.00000E+01
 -1       500 3.50000E+01 2.44500E+02 5.00000E+00
 -1       501 3.50000E+01 2.44500E+02 1.00000E+01
 -1       502 3.75000E+01 2.52000E+02 5.00000E+00
 -1       503 3.75000E+01 2.52000E+02 1.00000E+01
 -1       504 3.75000E+01 2.44500E+02 5.00000E+00
 -1       505 3.75000E+01 2.44500E+02 1.00000E+01
 -1       506 4.00000E+01 2.52000E+02 5.00000E+00
 -1       507 4.00000E+01 2.52000E+02 1.00000E+01
 -1       508 4.00000E+01 2.44500E+02 5.00000E+00
 -1       509 4.00000E+01 2.44500E+02 1.00000E+01
 -1       510 4.25000E+01 2.52000E+02 5.00000E+00
 -1       511 4.25000E+01 2.52000E+02 1.00000E+01
 -1       512 4.25000E+01 2.44500E+02 5.00000E+00
 -1       513 4.25000E+01 2.44500E+02 1.00000E+01
 -1       514 4.50000E+01 2.52000E+02 5.00000E+00
 -1       515 4.50000E+01 2.52000E+02 1.00000E+01
 -1       516 4.50000E+01 2.44500E+02 5.00000E+00
 -1       517 4.50000E+01 2.44500E+02 1.00000E+01
 -1       518 4.75000E+01 2.52000E+02 5.00000E+00
 -1       519 4.75000E+01 2.52000E+02 1.00000E+01
 -1       520 4.75000E+01 2.44500E+02 5.00000E+00
 -1       521 4.75000E+01 2.44500E+02 1.00000E+01
 -1       522 5.00000E+01 2.52000E+02 5.00000E+00
 -1       523 5.00000E+01 2.52000E+02 1.00000E+01
 -1       524 5.00000E+01 2.44500E+02 5.00000E+00
 -1       525 5.00000E+01 2.44500E+02 1.00000E+01
 -1       526 0.00000E+00 2.37000E+02 1.00000E+01
 -1       527 0.00000E+00 2.37000E+02 5.00000E+00
 -1       528 2.50000E+00 2.37000E+02 5.00000E+00
 -1       529 2.50000E+00 2.37000E+02 1.00000E+01
 -1       530 5.00000E+00 2.37000E+02 5.00000E+00
 -1       531 5.00000E+00 2.37000E+02 1.00000E+01
 -1       532 7.50000E+00 2.37000E+02 5.00000E+00
 -1       533 7.50000E+00 2.37000E+02 1.00000E+01
 -1       534 1.00000E+01 2.37000E+02 5.00000E+00
 -1       535 1.00000E+01 2.37000E+02 1.00000E+01
 -1       536 1.25000E+01 2.37000E+02 5.00000E+00
 -1       537 1.25000E+01 2.37000E+02 1.00000E+01
 -1       538 1.50000E+01 2.37000E+02 5.00000E+00
 -1       539 1.50000E+01 2.37000E+02 1.00000E+01
 -1       540 1.75000E+01 2.37000E+02 5.00000E+00
 -1       541 1.75000E+01 2.37000E+02 1.00000E+01
 -1       542 2.00000E+01 2.37000E+02 5.00000E+00
 -1       543 2.00000E+01 2.37000E+02 1.00000E+01
 -1       544 2.25000E+01 2.37000E+02 5.00000E+00
 -1       545 2.25000E+01 2.37000E+02 1.00000E+01
 -1       546 2.50000E+01 2.37000E+02 5.00000E+00
 -1       547 2.50000E+01 2.37000E+02 1.00000E+01
 -1       548 2.75000E+01 2.37000E+02 5.00000E+00
 -1       549 2.75000E+01 2.37000E+02 1.00000E+01
 -1       550 3.00000E+01 2.37000E+02 5.00000E+00
 -1       551 3.00000E+01 2.37000E+02 1.00000E+01
 -1       552 3.25000E+01 2.37000E+02 5.00000E+00
 -1       553 3.25000E+01 2.37000E+02 1.00000E+01
 -1       554 3.50000E+01 2.37000E+02 5.00000E+00
 -1       555 3.50000E+01 2.37000E+02 1.00000E+01
 -1       556 3.75000E+01 2.37000E+02 5.00000E+00
 -1       557 3.75000E+01 2.37000E+02 1.00000E+01
 -1       558 4.00000E+01 2.37000E+02 5.00000E+00
 -1       559 4.00000E+01 2.37000E+02 1.00000E+01
 -1       560 4.25000E+01 2.37000E+02 5.00000E+00
 -1       561 4.25000E+01 2.37000E+02 1.00000E+01
 -1       562 4.50000E+01 2.37000E+02 5.00000E+00
 -1       563 4.50000E+01 2.37000E+02 1.00000E+01
 -1       564 4.75000E+01 2.37000E+02 5.00000E+00
 -1       565 4.75000E+01 2.37000E+02 1.00000E+01
 -1       566 5.00000E+01 2.37000E+02 5.00000E+00
 -1       567 5.00000E+01 2.37000E+02 1.00000E+01
 -1       568 0.00000E+00 2.29500E+02 1.00000E+01
 -1       569 0.00000E+00 2.29500E+02 5.00000E+00
 -1       570 2.50000E+00 2.29500E+02 5.00000E+00
 -1       571 2.50000E+00 2.29500E+02 1.00000E+01
 -1       572 5.00000E+00 2.29500E+02 5.00000E+00
 -1       573 5.00000E+00 2.29500E+02 1.00000E+01
 -1       574 7.50000E+00 2.29500E+02 5.00000E+00
 -1       575 7.50000E+00 2.29500E+02 1.00000E+01
 -1       576 1.00000E+01 2.29500E+02 5.00000E+00
 -1       577 1.00000E+01 2.29500E+02 1.00000E+01
 -1       578 1.25000E+01 2.29500E+02 5.00000E+00
 -1       579 1.25000E+01 2.29500E+02 1.00000E+01
 -1       580 1.50000E+01 2.29500E+02 5.00000E+00
 -1       581 1.50000E+01 2.29500E+02 1.00000E+01
 -1       582 1.75000E+01 2.29500E+02 5.00000E+00
 -1       583 1.75000E+01 2.29500E+02 1.00000E+01
 -1       584 2.00000E+01 2.29500E+02 5.00000E+00
 -1       585 2.00000E+01 2.29500E+02 1.00000E+01
 -1       586 2.25000E+01 2.29500E+02 5.00000E+00
 -1       587 2.25000E+01 2.29500E+02 1.00000E+01
 -1       588 2.50000E+01 2.29500E+02 5.00000E+00
 -1       589 2.50000E+01 2.29500E+02 1.00000E+01
 -1       590 2.75000E+01 2.29500E+02 5.00000E+00
 -1       591 2.75000E+01 2.29500E+02 1.00000E+01
 -1       592 3.00000E+01 2.29500E+02 5.00000E+00
 -1       593 3.00000E+01 2.29500E+02 1.00000E+01
 -1       594 3.25000E+01 2.29500E+02 5.00000E+00
 -1       595 3.25000E+01 2.29500E+02 1.00000E+01
 -1       596 3.50000E+01 2.29500E+02 5.00000E+00
 -1       597 3.50000E+01 2.29500E+02 1.00000E+01
 -1       598 3.75000E+01 2.29500E+02 5.00000E+00
 -1       599 3.75000E+01 2.29500E+02 1.00000E+01
 -1       600 4.00000E+01 2.29500E+02 5.00000E+00
 -1       601 4.00000E+01 2.29500E+02 1.00000E+01
 -1       602 4.25000E+01 2.29500E+02 5.00000E+00
 -1       603 4.25000E+01 2.29500E+02 1.00000E+01
 -1       604 4.50000E+01 2.29500E+02 5.00000E+00
 -1       605 4.50000E+01 2.29500E+02 1.00000E+01
 -1       606 4.75000E+01 2.29500E+02 5.00000E+00
 -1       607 4.75000E+01 2.29500E+02 1.00000E+01
 -1       608 5.00000E+01 2.29500E+02 5.00000E+00
 -1       609 5.00000E+01 2.29500E+02 1.00000E+01
 -1       610 0.00000E+00 2.22000E+02 1.00000E+01
 -1       611 0.00000E+00 2.22000E+02 5.00000E+00
 -1       612 2.50000E+00 2.22000E+02 5.00000E+00
 -1       613 2.50000E+00 2.22000E+02 1.00000E+01
 -1       614 5.00000E+00 2.22000E+02 5.00000E+00
 -1       615 5.00000E+00 2.22000E+02 1.00000E+01
 -1       616 7.50000E+00 2.22000E+02 5.00000E+00
 -1       617 7.50000E+00 2.22000E+02 1.00000E+01
 -1       618 1.00000E+01 2.22000E+02 5.00000E+00
 -1       619 1.00000E+01 2.22000E+02 1.00000E+01
 -1       620 1.25000E+01 2.22000E+02 5.00000E+00
 -1       621 1.25000E+01 2.22000E+02 1.00000E+01
 -1       622 1.50000E+01 2.22000E+02 5.00000E+00
 -1       623 1.50000E+01 2.22000E+02 1.00000E+01
 -1       624 1.75000E+01 2.22000E+02 5.00000E+00
 -1       625 1.75000E+01 2.22000E+02 1.00000E+01
 -1       626 2.00000E+01 2.22000E+02 5.00000E+00
 -1       627 2.00000E+01 2.22000E+02 1.00000E+01
 -1       628 2.25000E+01 2.22000E+02 5.00000E+00
 -1       629 2.25000E+01 2.22000E+02 1.00000E+01
 -1       630 2.50000E+01 2.22000E+02 5.00000E+00
 -1       631 2.50000E+01 2.22000E+02 1.00000E+01
 -1       632 2.75000E+01 2.22000E+02 5.00000E+00
 -1       633 2.75000E+01 2.22000E+02 1.00000E+01
 -1       634 3.00000E+01 2.22000E+02 5.00000E+00
 -1       635 3.00000E+01 2.22000E+02 1.00000E+01
 -1       636 3.25000E+01 2.22000E+02 5.00000E+00
 -1       637 3.25000E+01 2.22000E+02 1.00000E+01
 -1       638 3.50000E+01 2.22000E+02 5.00000E+00
 -1       639 3.50000E+01 2.22000E+02 1.00000E+01
 -1       640 3.75000E+01 2.22000E+02 5.00000E+00
 -1       641 3.75000E+01 2.22000E+02 1.00000E+01
 -1       642 4.00000E+01 2.22000E+02 5.00000E+00
 -1       643 4.00000E+01 2.22000E+02 1.00000E+01
 -1       644 4.25000E+01 2.22000E+02 5.00000E+00
 -1       645 4.25000E+01 2.22000E+02 1.00000E+01
 -1       646 4.50000E+01 2.22000E+02 5.00000E+00
 -1       647 4.50000E+01 2.22000E+02 1.00000E+01
 -1       648 4.75000E+01 2.22000E+02 5.00000E+00
 -1       649 4.75000E+01 2.22000E+02 1.00000E+01
 -1       650 5.00000E+01 2.22000E+02 5.00000E+00
 -1       651 5.00000E+01 2.22000E+02 1.00000E+01
 -1       652 0.00000E+00 2.14500E+02 1.00000E+01
 -1       653 0.00000E+00 2.14500E+02 5.00000E+00
 -1       654 2.50000E+00 2.14500E+02 5.00000E+00
 -1       655 2.50000E+00 2.14500E+02 1.00000E+01
 -1       656 5.00000E+00 2.14500E+02 5.00000E+00
 -1       657 5.00000E+00 2.14500E+02 1.00000E+01
 -1       658 7.50000E+00 2.14500E+02 5.00000E+00
 -1       659 7.50000E+00 2.14500E+02 1.00000E+01
 -1       660 1.00000E+01 2.14500E+02 5.00000E+00
 -1       661 1.00000E+01 2.14500E+02 1.00000E+01
 -1       662 1.25000E+01 2.14500E+02 5.00000E+00
 -1       663 1.25000E+01 2.14500E+02 1.00000E+01
 -1       664 1.50000E+01 2.14500E+02 5.00000E+00
 -1       665 1.50000E+01 2.14500E+02 1.00000E+01
 -1       666 1.75000E+01 2.14500E+02 5.00000E+00
 -1       667 1.75000E+01 2.14500E+02 1.00000E+01
 -1       668 2.00000E+01 2.14500E+02 5.00000E+00
 -1       669 2.00000E+01 2.14500E+02 1.00000E+01
 -1       670 2.25000E+01 2.14500E+02 5.00000E+00
 -1       671 2.25000E+01 2.14500E+02 1.00000E+01
 -1       672 2.50000E+01 2.14500E+02 5.00000E+00
 -1       673 2.50000E+01 2.14500E+02 1.00000E+01
 -1       674 2.75000E+01 2.14500E+02 5.00000E+00
 -1       675 2.75000E+01 2.14500E+02 1.00000E+01
 -1       676 3.00000E+01 2.14500E+02 5.00000E+00
 -1       677 3.00000E+01 2.14500E+02 1.00000E+01
 -1       678 3.25000E+01 2.14500E+02 5.00000E+00
 -1       679 3.25000E+01 2.14500E+02 1.00000E+01
 -1       680 3.50000E+01 2.14500E+02 5.00000E+00
 -1       681 3.50000E+01 2.14500E+02 1.00000E+01
 -1       682 3.75000E+01 2.14500E+02 5.00000E+00
 -1       683 3.75000E+01 2.14500E+02 1.00000E+01
 -1       684 4.00000E+01 2.14500E+02 5.00000E+00
 -1       685 4.00000E+01 2.14500E+02 1.00000E+01
 -1       686 4.25000E+01 2.14500E+02 5.00000E+00
 -1       687 4.25000E+01 2.14500E+02 1.00000E+01
 -1       688 4.50000E+01 2.14500E+02 5.00000E+00
 -1       689 4.50000E+01 2.14500E+02 1.00000E+01
 -1       690 4.75000E+01 2.14500E+02 5.00000E+00
 -1       691 4.75000E+01 2.14500E+02 1.00000E+01
 -1       692 5.00000E+01 2.14500E+02 5.00000E+00
 -1       693 5.00000E+01 2.14500E+02 1.00000E+01
 -1       694 0.00000E+00 2.07000E+02 1.00000E+01
 -1       695 0.00000E+00 2.07000E+02 5.00000E+00
 -1       696 2.50000E+00 2.07000E+02 5.00000E+00
 -1       697 2.50000E+00 2.07000E+02 1.00000E+01
 -1       698 5.00000E+00 2.07000E+02 5.00000E+00
 -1       699 5.00000E+00 2.07000E+02 1.00000E+01
 -1       700 7.50000E+00 2.07000E+02 5.00000E+00
 -1       701 7.50000E+00 2.07000E+02 1.00000E+01
 -1       702 1.00000E+01 2.07000E+02 5.00000E+00
 -1       703 1.00000E+01 2.07000E+02 1.00000E+01
 -1       704 1.25000E+01 2.07000E+02 5.00000E+00
 -1       705 1.25000E+01 2.07000E+02 1.00000E+01
 -1       706 1.50000E+01 2.07000E+02 5.00000E+00
 -1       707 1.50000E+01 2.07000E+02 1.00000E+01
 -1       708 1.75000E+01 2.07000E+02 5.00000E+00
 -1       709 1.75000E+01 2.07000E+02 1.00000E+01
 -1       710 2.00000E+01 2.07000E+02 5.00000E+00
 -1       711 2.00000E+01 2.07000E+02 1.00000E+01
 -1       712 2.25000E+01 2.07000E+02 5.00000E+00
 -1       713 2.25000E+01 2.07000E+02 1.00000E+01
 -1       714 2.50000E+01 2.07000E+02 5.00000E+00
 -1       715 2.50000E+01 2.07000E+02 1.00000E+01
 -1       716 2.75000E+01 2.07000E+02 5.00000E+00
 -1       717 2.75000E+01 2.07000E+02 1.00000E+01
 -1       718 3.00000E+01 2.07000E+02 5.00000E+00
 -1       719 3.00000E+01 2.07000E+02 1.00000E+01
 -1       720 3.25000E+01 2.07000E+02 5.00000E+00
 -1       721 3.25000E+01 2.07000E+02 1.00000E+01
 -1       722 3.50000E+01 2.07000E+02 5.00000E+00
 -1       723 3.50000E+01 2.07000E+02 1.00000E+01
 -1       724 3.75000E+01 2.07000E+02 5.00000E+00
 -1       725 3.75000E+01 2.07000E+02 1.00000E+01
 -1       726 4.00000E+01 2.07000E+02 5.00000E+00
 -1       727 4.00000E+01 2.07000E+02 1.00000E+01
 -1       728 4.25000E+01 2.07000E+02 5.00000E+00
 -1       729 4.25000E+01 2.07000E+02 1.00000E+01
 -1       730 4.50000E+01 2.07000E+02 5.00000E+00
 -1       731 4.50000E+01 2.07000E+02 1.00000E+01
 -1       732 4.75000E+01 2.07000E+02 5.00000E+00
 -1       733 4.75000E+01 2.07000E+02 1.00000E+01
 -1       734 5.00000E+01 2.07000E+02 5.00000E+00
 -1       735 5.00000E+01 2.07000E+02 1.00000E+01
 -1       736 0.00000E+00 1.99500E+02 1.00000E+01
 -1       737 0.00000E+00 1.99500E+02 5.00000E+00
 -1       738 2.50000E+00 1.99500E+02 5.00000E+00
 -1       739 2.50000E+00 1.99500E+02 1.00000E+01
 -1       740 5.00000E+00 1.99500E+02 5.00000E+00
 -1       741 5.00000E+00 1.99500E+02 1.00000E+01
 -1       742 7.50000E+00 1.99500E+02 5.00000E+00
 -1       743 7.50000E+00 1.99500E+02 1.00000E+01
 -1       744 1.00000E+01 1.99500E+02 5.00000E+00
 -1       745 1.00000E+01 1.99500E+02 1.00000E+01
 -1       746 1.25000E+01 1.99500E+02 5.00000E+00
 -1       747 1.25000E+01 1.99500E+02 1.00000E+01
 -1       748 1.50000E+01 1.99500E+02 5.00000E+00
 -1       749 1.50000E+01 1.99500E+02 1.00000E+01
 -1       750 1.75000E+01 1.99500E+02 5.00000E+00
 -1       751 1.75000E+01 1.99500E+02 1.00000E+01
 -1       752 2.00000E+01 1.99500E+02 5.00000E+00
 -1       753 2.00000E+01 1.99500E+02 1.00000E+01
 -1       754 2.25000E+01 1.99500E+02 5.00000E+00
 -1       755 2.25000E+01 1.99500E+02 1.00000E+01
 -1       756 2.50000E+01 1.99500E+02 5.00000E+00
 -1       757 2.50000E+01 1.99500E+02 1.00000E+01
 -1       758 2.75000E+01 1.99500E+02 5.00000E+00
 -1       759 2.75000E+01 1.99500E+02 1.00000E+01
 -1       760 3.00000E+01 1.99500E+02 5.00000E+00
 -1       761 3.00000E+01 1.99500E+02 1.00000E+01
 -1       762 3.25000E+01 1.99500E+02 5.00000E+00
 -1       763 3.25000E+01 1.99500E+02 1.00000E+01
 -1       764 3.50000E+01 1.99500E+02 5.00000E+00
 -1       765 3.50000E+01 1.99500E+02 1.00000E+01
 -1       766 3.75000E+01 1.99500E+02 5.00000E+00
 -1       767 3.75000E+01 1.99500E+02 1.00000E+01
 -1       768 4.00000E+01 1.99500E+02 5.00000E+00
 -1       769 4.00000E+01 1.99500E+02 1.00000E+01
 -1       770 4.25000E+01 1.99500E+02 5.00000E+00
 -1       771 4.25000E+01 1.99500E+02 1.00000E+01
 -1       772 4.50000E+01 1.99500E+02 5.00000E+00
 -1       773 4.50000E+01 1.99500E+02 1.00000E+01
 -1       774 4.75000E+01 1.99500E+02 5.00000E+00
 -1       775 4.75000E+01 1.99500E+02 1.00000E+01
 -1       776 5.00000E+01 1.99500E+02 5.00000E+00
 -1       777 5.00000E+01 1.99500E+02 1.00000E+01
 -1       778 0.00000E+00 1.92000E+02 1.00000E+01
 -1       779 0.00000E+00 1.92000E+02 5.00000E+00
 -1       780 2.50000E+00 1.92000E+02 5.00000E+00
 -1       781 2.50000E+00 1.92000E+02 1.00000E+01
 -1       782 5.00000E+00 1.92000E+02 5.00000E+00
 -1       783 5.00000E+00 1.92000E+02 1.00000E+01
 -1       784 7.50000E+00 1.92000E+02 5.00000E+00
 -1       785 7.50000E+00 1.92000E+02 1.00000E+01
 -1       786 1.00000E+01 1.92000E+02 5.00000E+00
 -1       787 1.00000E+01 1.92000E+02 1.00000E+01
 -1       788 1.25000E+01 1.92000E+02 5.00000E+00
 -1       789 1.25000E+01 1.92000E+02 1.00000E+01
 -1       790 1.50000E+01 1.92000E+02 5.00000E+00
 -1       791 1.50000E+01 1.92000E+02 1.00000E+01
 -1       792 1.75000E+01 1.92000E+02 5.00000E+00
 -1       793 1.75000E+01 1.92000E+02 1.00000E+01
 -1       794 2.00000E+01 1.92000E+02 5.00000E+00
 -1       795 2.00000E+01 1.92000E+02 1.00000E+01
 -1       796 2.25000E+01 1.92000E+02 5.00000E+00
 -1       797 2.25000E+01 1.92000E+02 1.00000E+01
 -1       798 2.50000E+01 1.92000E+02 5.00000E+00
 -1       799 2.50000E+01 1.92000E+02 1.00000E+01
 -1       800 2.75000E+01 1.92000E+02 5.00000E+00
 -1       801 2.75000E+01 1.92000E+02 1.00000E+01
 -1       802 3.00000E+01 1.92000E+02 5.00000E+00
 -1       803 3.00000E+01 1.92000E+02 1.00000E+01
 -1       804 3.25000E+01 1.92000E+02 5.00000E+00
 -1       805 3.25000E+01 1.92000E+02 1.00000E+01
 -1       806 3.50000E+01 1.92000E+02 5.00000E+00
 -1       807 3.50000E+01 1.92000E+02 1.00000E+01
 -1       808 3.75000E+01 1.92000E+02 5.00000E+00
 -1       809 3.75000E+01 1.92000E+02 1.00000E+01
 -1       810 4.00000E+01 1.92000E+02 5.00000E+00
 -1       811 4.00000E+01 1.92000E+02 1.00000E+01
 -1       812 4.25000E+01 1.92000E+02 5.00000E+00
 -1       813 4.25000E+01 1.92000E+02 1.00000E+01
 -1       814 4.50000E+01 1.92000E+02 5.00000E+00
 -1       815 4.50000E+01 1.92000E+02 1.00000E+01
 -1       816 4.75000E+01 1.92000E+02 5.00000E+00
 -1       817 4.75000E+01 1.92000E+02 1.00000E+01
 -1       818 5.00000E+01 1.92000E+02 5.00000E+00
 -1       819 5.00000E+01 1.92000E+02 1.00000E+01
 -1       820 0.00000E+00 1.84500E+02 1.00000E+01
 -1       821 0.00000E+00 1.84500E+02 5.00000E+00
 -1       822 2.50000E+00 1.84500E+02 5.00000E+00
 -1       823 2.50000E+00 1.84500E+02 1.00000E+01
 -1       824 5.00000E+00 1.84500E+02 5.00000E+00
 -1       825 5.00000E+00 1.84500E+02 1.00000E+01
 -1       826 7.50000E+00 1.84500E+02 5.00000E+00
 -1       827 7.50000E+00 1.84500E+02 1.00000E+01
 -1       828 1.00000E+01 1.84500E+02 5.00000E+00
 -1       829 1.00000E+01 1.84500E+02 1.00000E+01
 -1       830 1.25000E+01 1.84500E+02 5.00000E+00
 -1       831 1.25000E+01 1.84500E+02 1.00000E+01
 -1       832 1.50000E+01 1.84500E+02 5.00000E+00
 -1       833 1.50000E+01 1.84500E+02 1.00000E+01
 -1       834 1.75000E+01 1.84500E+02 5.00000E+00
 -1       835 1.75000E+01 1.84500E+02 1.00000E+01
 -1       836 2.00000E+01 1.84500E+02 5.00000E+00
 -1       837 2.00000E+01 1.84500E+02 1.00000E+01
 -1       838 2.25000E+01 1.84500E+02 5.00000E+00
 -1       839 2.25000E+01 1.84500E+02 1.00000E+01
 -1       840 2.50000E+01 1.84500E+02 5.00000E+00
 -1       841 2.50000E+01 1.84500E+02 1.00000E+01
 -1       842 2.75000E+01 1.84500E+02 5.00000E+00
 -1       843 2.75000E+01 1.84500E+02 1.00000E+01
 -1       844 3.00000E+01 1.84500E+02 5.00000E+00
 -1       845 3.00000E+01 1.84500E+02 1.00000E+01
 -1       846 3.25000E+01 1.84500E+02 5.00000E+00
 -1       847 3.25000E+01 1.84500E+02 1.00000E+01
 -1       848 3.50000E+01 1.84500E+02 5.00000E+00
 -1       849 3.50000E+01 1.84500E+02 1.00000E+01
 -1       850 3.75000E+01 1.84500E+02 5.00000E+00
 -1       851 3.75000E+01 1.84500E+02 1.00000E+01
 -1       852 4.00000E+01 1.84500E+02 5.00000E+00
 -1       853 4.00000E+01 1.84500E+02 1.00000E+01
 -1       854 4.25000E+01 1.84500E+02 5.00000E+00
 -1       855 4.25000E+01 1.84500E+02 1.00000E+01
 -1       856 4.50000E+01 1.84500E+02 5.00000E+00
 -1       857 4.50000E+01 1.84500E+02 1.00000E+01
 -1       858 4.75000E+01 1.84500E+02 5.00000E+00
 -1       859 4.75000E+01 1.84500E+02 1.00000E+01
 -1       860 5.00000E+01 1.84500E+02 5.00000E+00
 -1       861 5.00000E+01 1.84500E+02 1.00000E+01
 -1       862 0.00000E+00 1.77000E+02 1.00000E+01
 -1       863 0.00000E+00 1.77000E+02 5.00000E+00
 -1       864 2.50000E+00 1.77000E+02 5.00000E+00
 -1       865 2.50000E+00 1.77000E+02 1.00000E+01
 -1       866 5.00000E+00 1.77000E+02 5.00000E+00
 -1       867 5.00000E+00 1.77000E+02 1.00000E+01
 -1       868 7.50000E+00 1.77000E+02 5.00000E+00
 -1       869 7.50000E+00 1.77000E+02 1.00000E+01
 -1       870 1.00000E+01 1.77000E+02 5.00000E+00
 -1       871 1.00000E+01 1.77000E+02 1.00000E+01
 -1       872 1.25000E+01 1.77000E+02 5.00000E+00
 -1       873 1.25000E+01 1.77000E+02 1.00000E+01
 -1       874 1.50000E+01 1.77000E+02 5.00000E+00
 -1       875 1.50000E+01 1.77000E+02 1.00000E+01
 -1       876 1.75000E+01 1.77000E+02 5.00000E+00
 -1       877 1.75000E+01 1.77000E+02 1.00000E+01
 -1       878 2.00000E+01 1.77000E+02 5.00000E+00
 -1       879 2.00000E+01 1.77000E+02 1.00000E+01
 -1       880 2.25000E+01 1.77000E+02 5.00000E+00
 -1       881 2.25000E+01 1.77000E+02 1.00000E+01
 -1       882 2.50000E+01 1.77000E+02 5.00000E+00
 -1       883 2.50000E+01 1.77000E+02 1.00000E+01
 -1       884 2.75000E+01 1.77000E+02 5.00000E+00
 -1       885 2.75000E+01 1.77000E+02 1.00000E+01
 -1       886 3.00000E+01 1.77000E+02 5.00000E+00
 -1       887 3.00000E+01 1.77000E+02 1.00000E+01
 -1       888 3.25000E+01 1.77000E+02 5.00000E+00
 -1       889 3.25000E+01 1.77000E+02 1.00000E+01
 -1       890 3.50000E+01 1.77000E+02 5.00000E+00
 -1       891 3.50000E+01 1.77000E+02 1.00000E+01
 -1       892 3.75000E+01 1.77000E+02 5.00000E+00
 -1       893 3.75000E+01 1.77000E+02 1.00000E+01
 -1       894 4.00000E+01 1.77000E+02 5.00000E+00
 -1       895 4.00000E+01 1.77000E+02 1.00000E+01
 -1       896 4.25000E+01 1.77000E+02 5.00000E+00
 -1       897 4.25000E+01 1.77000E+02 1.00000E+01
 -1       898 4.50000E+01 1.77000E+02 5.00000E+00
 -1       899 4.50000E+01 1.77000E+02 1.00000E+01
 -1       900 4.75000E+01 1.77000E+02 5.00000E+00
 -1       901 4.75000E+01 1.77000E+02 1.00000E+01
 -1       902 5.00000E+01 1.77000E+02 5.00000E+00
 -1       903 5.00000E+01 1.77000E+02 1.00000E+01
 -1       904 0.00000E+00 1.69500E+02 1.00000E+01
 -1       905 0.00000E+00 1.69500E+02 5.00000E+00
 -1       906 2.50000E+00 1.69500E+02 5.00000E+00
 -1       907 2.50000E+00 1.69500E+02 1.00000E+01
 -1       908 5.00000E+00 1.69500E+02 5.00000E+00
 -1       909 5.00000E+00 1.69500E+02 1.00000E+01
 -1       910 7.50000E+00 1.69500E+02 5.00000E+00
 -1       911 7.50000E+00 1.69500E+02 1.00000E+01
 -1       912 1.00000E+01 1.69500E+02 5.00000E+00
 -1       913 1.00000E+01 1.69500E+02 1.00000E+01
 -1       914 1.25000E+01 1.69500E+02 5.00000E+00
 -1       915 1.25000E+01 1.69500E+02 1.00000E+01
 -1       916 1.50000E+01 1.69500E+02 5.00000E+00
 -1       917 1.50000E+01 1.69500E+02 1.00000E+01
 -1       918 1.75000E+01 1.69500E+02 5.00000E+00
 -1       919 1.75000E+01 1.69500E+02 1.00000E+01
 -1       920 2.00000E+01 1.69500E+02 5.00000E+00
 -1       921 2.00000E+01 1.69500E+02 1.00000E+01
 -1       922 2.25000E+01 1.69500E+02 5.00000E+00
 -1       923 2.25000E+01 1.69500E+02 1.00000E+01
 -1       924 2.50000E+01 1.69500E+02 5.00000E+00
 -1       925 2.50000E+01 1.69500E+02 1.00000E+01
 -1       926 2.75000E+01 1.69500E+02 5.00000E+00
 -1       927 2.75000E+01 1.69500E+02 1.00000E+01
 -1       928 3.00000E+01 1.69500E+02 5.00000E+00
 -1       929 3.00000E+01 1.69500E+02 1.00000E+01
 -1       930 3.25000E+01 1.69500E+02 5.00000E+00
 -1       931 3.25000E+01 1.69500E+02 1.00000E+01
 -1       932 3.50000E+01 1.69500E+02 5.00000E+00
 -1       933 3.50000E+01 1.69500E+02 1.00000E+01
 -1       934 3.75000E+01 1.69500E+02 5.00000E+00
 -1       935 3.75000E+01 1.69500E+02 1.00000E+01
 -1       936 4.00000E+01 1.69500E+02 5.00000E+00
 -1       937 4.00000E+01 1.69500E+02 1.00000E+01
 -1       938 4.25000E+01 1.69500E+02 5.00000E+00
 -1       939 4.25000E+01 1.69500E+02 1.00000E+01
 -1       940 4.50000E+01 1.69500E+02 5.00000E+00
 -1       941 4.50000E+01 1.69500E+02 1.00000E+01
 -1       942 4.75000E+01 1.69500E+02 5.00000E+00
 -1       943 4.75000E+01 1.69500E+02 1.00000E+01
 -1       944 5.00000E+01 1.69500E+02 5.00000E+00
 -1       945 5.00000E+01 1.69500E+02 1.00000E+01
 -1       946 0.00000E+00 1.62000E+02 1.00000E+01
 -1       947 0.00000E+00 1.62000E+02 5.00000E+00
 -1       948 2.50000E+00 1.62000E+02 5.00000E+00
 -1       949 2.50000E+00 1.62000E+02 1.00000E+01
 -1       950 5.00000E+00 1.62000E+02 5.00000E+00
 -1       951 5.00000E+00 1.62000E+02 1.00000E+01
 -1       952 7.50000E+00 1.62000E+02 5.00000E+00
 -1       953 7.50000E+00 1.62000E+02 1.00000E+01
 -1       954 1.00000E+01 1.62000E+02 5.00000E+00
 -1       955 1.00000E+01 1.62000E+02 1.00000E+01
 -1       956 1.25000E+01 1.62000E+02 5.00000E+00
 -1       957 1.25000E+01 1.62000E+02 1.00000E+01
 -1       958 1.50000E+01 1.62000E+02 5.00000E+00
 -1       959 1.50000E+01 1.62000E+02 1.00000E+01
 -1       960 1.75000E+01 1.62000E+02 5.00000E+00
 -1       961 1.75000E+01 1.62000E+02 1.00000E+01
 -1       962 2.00000E+01 1.62000E+02 5.00000E+00
 -1       963 2.00000E+01 1.62000E+02 1.00000E+01
 -1       964 2.25000E+01 1.62000E+02 5.00000E+00
 -1       965 2.25000E+01 1.62000E+02 1.00000E+01
 -1       966 2.50000E+01 1.62000E+02 5.00000E+00
 -1       967 2.50000E+01 1.62000E+02 1.00000E+01
 -1       968 2.75000E+01 1.62000E+02 5.00000E+00
 -1       969 2.75000E+01 1.62000E+02 1.00000E+01
 -1       970 3.00000E+01 1.62000E+02 5.00000E+00
 -1       971 3.00000E+01 1.62000E+02 1.00000E+01
 -1       972 3.25000E+01 1.62000E+02 5.00000E+00
 -1       973 3.25000E+01 1.62000E+02 1.00000E+01
 -1       974 3.50000E+01 1.62000E+02 5.00000E+00
 -1       975 3.50000E+01 1.62000E+02 1.00000E+01
 -1       976 3.75000E+01 1.62000E+02 5.00000E+00
 -1       977 3.75000E+01 1.62000E+02 1.00000E+01
 -1       978 4.00000E+01 1.62000E+02 5.00000E+00
 -1       979 4.00000E+01 1.62000E+02 1.00000E+01
 -1       980 4.25000E+01 1.62000E+02 5.00000E+00
 -1       981 4.25000E+01 1.62000E+02 1.00000E+01
 -1       982 4.50000E+01 1.62000E+02 5.00000E+00
 -1       983 4.50000E+01 1.62000E+02 1.00000E+01
 -1       984 4.75000E+01 1.62000E+02 5.00000E+00
 -1       985 4.75000E+01 1.62000E+02 1.00000E+01
 -1       986 5.00000E+01 1.62000E+02 5.00000E+00
 -1       987 5.00000E+01 1.62000E+02 1.00000E+01
 -1       988 0.00000E+00 1.54500E+02 1.00000E+01
 -1       989 0.00000E+00 1.54500E+02 5.00000E+00
 -1       990 2.50000E+00 1.54500E+02 5.00000E+00
 -1       991 2.50000E+00 1.54500E+02 1.00000E+01
 -1       992 5.00000E+00 1.54500E+02 5.00000E+00
 -1       993 5.00000E+00 1.54500E+02 1.00000E+01
 -1       994 7.50000E+00 1.54500E+02 5.00000E+00
 -1       995 7.50000E+00 1.54500E+02 1.00000E+01
 -1       996 1.00000E+01 1.54500E+02 5.00000E+00
 -1       997 1.00000E+01 1.54500E+02 1.00000E+01
 -1       998 1.25000E+01 1.54500E+02 5.00000E+00
 -1       999 1.25000E+01 1.54500E+02 1.00000E+01
 -1      1000 1.50000E+01 1.54500E+02 5.00000E+00
 -1      1001 1.50000E+01 1.54500E+02 1.00000E+01
 -1      1002 1.75000E+01 1.54500E+02 5.00000E+00
 -1      1003 1.75000E+01 1.54500E+02 1.00000E+01
 -1      1004 2.00000E+01 1.54500E+02 5.00000E+00
 -1      1005 2.00000E+01 1.54500E+02 1.00000E+01
 -1      1006 2.25000E+01 1.54500E+02 5.00000E+00
 -1      1007 2.25000E+01 1.54500E+02 1.00000E+01
 -1      1008 2.50000E+01 1.54500E+02 5.00000E+00
 -1      1009 2.50000E+01 1.54500E+02 1.00000E+01
 -1      1010 2.75000E+01 1.54500E+02 5.00000E+00
 -1      1011 2.75000E+01 1.54500E+02 1.00000E+01
 -1      1012 3.00000E+01 1.54500E+02 5.00000E+00
 -1      1013 3.00000E+01 1.54500E+02 1.00000E+01
 -1      1014 3.25000E+01 1.54500E+02 5.00000E+00
 -1      1015 3.25000E+01 1.54500E+02 1.00000E+01
 -1      1016 3.50000E+01 1.54500E+02 5.00000E+00
 -1      1017 3.50000E+01 1.54500E+02 1.00000E+01
 -1      1018 3.75000E+01 1.54500E+02 5.00000E+00
 -1      1019 3.75000E+01 1.54500E+02 1.00000E+01
 -1      1020 4.00000E+01 1.54500E+02 5.00000E+00
 -1      1021 4.00000E+01 1.54500E+02 1.00000E+01
 -1      1022 4.25000E+01 1.54500E+02 5.00000E+00
 -1      1023 4.25000E+01 1.54500E+02 1.00000E+01
 -1      1024 4.50000E+01 1.54500E+02 5.00000E+00
 -1      1025 4.50000E+01 1.54500E+02 1.00000E+01
 -1      1026 4.75000E+01 1.54500E+02 5.00000E+00
 -1      1027 4.75000E+01 1.54500E+02 1.00000E+01
 -1      1028 5.00000E+01 1.54500E+02 5.00000E+00
 -1      1029 5.00000E+01 1.54500E+02 1.00000E+01
 -1      1030 0.00000E+00 1.47000E+02 1.00000E+01
 -1      1031 0.00000E+00 1.47000E+02 5.00000E+00
 -1      1032 2.50000E+00 1.47000E+02 5.00000E+00
 -1      1033 2.50000E+00 1.47000E+02 1.00000E+01
 -1      1034 5.00000E+00 1.47000E+02 5.00000E+00
 -1      1035 5.00000E+00 1.47000E+02 1.00000E+01
 -1      1036 7.50000E+00 1.47000E+02 5.00000E+00
 -1      1037 7.50000E+00 1.47000E+02 1.00000E+01
 -1      1038 1.00000E+01 1.47000E+02 5.00000E+00
 -1      1039 1.00000E+01 1.47000E+02 1.00000E+01
 -1      1040 1.25000E+01 1.47000E+02 5.00000E+00
 -1      1041 1.25000E+01 1.47000E+02 1.00000E+01
 -1      1042 1.50000E+01 1.47000E+02 5.00000E+00
 -1      1043 1.50000E+01 1.47000E+02 1.00000E+01
 -1      1044 1.75000E+01 1.47000E+02 5.00000E+00
 -1      1045 1.75000E+01 1.47000E+02 1.00000E+01
 -1      1046 2.00000E+01 1.47000E+02 5.00000E+00
 -1      1047 2.00000E+01 1.47000E+02 1.00000E+01
 -1      1048 2.25000E+01 1.47000E+02 5.00000E+00
 -1      1049 2.25000E+01 1.47000E+02 1.00000E+01
 -1      1050 2.50000E+01 1.47000E+02 5.00000E+00
 -1      1051 2.50000E+01 1.47000E+02 1.00000E+01
 -1      1052 2.75000E+01 1.47000E+02 5.00000E+00
 -1      1053 2.75000E+01 1.47000E+02 1.00000E+01
 -1      1054 3.00000E+01 1.47000E+02 5.00000E+00
 -1      1055 3.00000E+01 1.47000E+02 1.00000E+01
 -1      1056 3.25000E+01 1.47000E+02 5.00000E+00
 -1      1057 3.25000E+01 1.47000E+02 1.00000E+01
 -1      1058 3.50000E+01 1.47000E+02 5.00000E+00
 -1      1059 3.50000E+01 1.47000E+02 1.00000E+01
 -1      1060 3.75000E+01 1.47000E+02 5.00000E+00
 -1      1061 3.75000E+01 1.47000E+02 1.00000E+01
 -1      1062 4.00000E+01 1.47000E+02 5.00000E+00
 -1      1063 4.00000E+01 1.47000E+02 1.00000E+01
 -1      1064 4.25000E+01 1.47000E+02 5.00000E+00
 -1      1065 4.25000E+01 1.47000E+02 1.00000E+01
 -1      1066 4.50000E+01 1.47000E+02 5.00000E+00
 -1      1067 4.50000E+01 1.47000E+02 1.00000E+01
 -1      1068 4.75000E+01 1.47000E+02 5.00000E+00
 -1      1069 4.75000E+01 1.47000E+02 1.00000E+01
 -1      1070 5.00000E+01 1.47000E+02 5.00000E+00
 -1      1071 5.00000E+01 1.47000E+02 1.00000E+01
 -1      1072 0.00000E+00 1.39500E+02 1.00000E+01
 -1      1073 0.00000E+00 1.39500E+02 5.00000E+00
 -1      1074 2.50000E+00 1.39500E+02 5.00000E+00
 -1      1075 2.50000E+00 1.39500E+02 1.00000E+01
 -1      1076 5.00000E+00 1.39500E+02 5.00000E+00
 -1      1077 5.00000E+00 1.39500E+02 1.00000E+01
 -1      1078 7.50000E+00 1.39500E+02 5.00000E+00
 -1      1079 7.50000E+00 1.39500E+02 1.00000E+01
 -1      1080 1.00000E+01 1.39500E+02 5.00000E+00
 -1      1081 1.00000E+01 1.39500E+02 1.00000E+01
 -1      1082 1.25000E+01 1.39500E+02 5.00000E+00
 -1      1083 1.25000E+01 1.39500E+02 1.00000E+01
 -1      1084 1.50000E+01 1.39500E+02 5.00000E+00
 -1      1085 1.50000E+01 1.39500E+02 1.00000E+01
 -1      1086 1.75000E+01 1.39500E+02 5.00000E+00
 -1      1087 1.75000E+01 1.39500E+02 1.00000E+01
 -1      1088 2.00000E+01 1.39500E+02 5.00000E+00
 -1      1089 2.00000E+01 1.39500E+02 1.00000E+01
 -1      1090 2.25000E+01 1.39500E+02 5.00000E+00
 -1      1091 2.25000E+01 1.39500E+02 1.00000E+01
 -1      1092 2.50000E+01 1.39500E+02 5.00000E+00
 -1      1093 2.50000E+01 1.39500E+02 1.00000E+01
 -1      1094 2.75000E+01 1.39500E+02 5.00000E+00
 -1      1095 2.75000E+01 1.39500E+02 1.00000E+01
 -1      1096 3.00000E+01 1.39500E+02 5.00000E+00
 -1      1097 3.00000E+01 1.39500E+02 1.00000E+01
 -1      1098 3.25000E+01 1.39500E+02 5.00000E+00
 -1      1099 3.25000E+01 1.39500E+02 1.00000E+01
 -1      1100 3.50000E+01 1.39500E+02 5.00000E+00
 -1      1101 3.50000E+01 1.39500E+02 1.00000E+01
 -1      1102 3.75000E+01 1.39500E+02 5.00000E+00
 -1      1103 3.75000E+01 1.39500E+02 1.00000E+01
 -1      1104 4.00000E+01 1.39500E+02 5.00000E+00
 -1      1105 4.00000E+01 1.39500E+02 1.00000E+01
 -1      1106 4.25000E+01 1.39500E+02 5.00000E+00
 -1      1107 4.25000E+01 1.39500E+02 1.00000E+01
 -1      1108 4.50000E+01 1.39500E+02 5.00000E+00
 -1      1109 4.50000E+01 1.39500E+02 1.00000E+01
 -1      1110 4.75000E+01 1.39500E+02 5.00000E+00
 -1      1111 4.75000E+01 1.39500E+02 1.00000E+01
 -1      1112 5.00000E+01 1.39500E+02 5.00000E+00
 -1      1113 5.00000E+01 1.39500E+02 1.00000E+01
 -1      1114 0.00000E+00 1.32000E+02 1.00000E+01
 -1      1115 0.00000E+00 1.32000E+02 5.00000E+00
 -1      1116 2.50000E+00 1.32000E+02 5.00000E+00
 -1      1117 2.50000E+00 1.32000E+02 1.00000E+01
 -1      1118 5.00000E+00 1.32000E+02 5.00000E+00
 -1      1119 5.00000E+00 1.32000E+02 1.00000E+01
 -1      1120 7.50000E+00 1.32000E+02 5.00000E+00
 -1      1121 7.50000E+00 1.32000E+02 1.00000E+01
 -1      1122 1.00000E+01 1.32000E+02 5.00000E+00
 -1      1123 1.00000E+01 1.32000E+02 1.00000E+01
 -1      1124 1.25000E+01 1.32000E+02 5.00000E+00
 -1      1125 1.25000E+01 1.32000E+02 1.00000E+01
 -1      1126 1.50000E+01 1.32000E+02 5.00000E+00
 -1      1127 1.50000E+01 1.32000E+02 1.00000E+01
 -1      1128 1.75000E+01 1.32000E+02 5.00000E+00
 -1      1129 1.75000E+01 1.32000E+02 1.00000E+01
 -1      1130 2.00000E+01 1.32000E+02 5.00000E+00
 -1      1131 2.00000E+01 1.32000E+02 1.00000E+01
 -1      1132 2.25000E+01 1.32000E+02 5.00000E+00
 -1      1133 2.25000E+01 1.32000E+02 1.00000E+01
 -1      1134 2.50000E+01 1.32000E+02 5.00000E+00
 -1      1135 2.50000E+01 1.32000E+02 1.00000E+01
 -1      1136 2.75000E+01 1.32000E+02 5.00000E+00
 -1      1137 2.75000E+01 1.32000E+02 1.00000E+01
 -1      1138 3.00000E+01 1.32000E+02 5.00000E+00
 -1      1139 3.00000E+01 1.32000E+02 1.00000E+01
 -1      1140 3.25000E+01 1.32000E+02 5.00000E+00
 -1      1141 3.25000E+01 1.32000E+02 1.00000E+01
 -1      1142 3.50000E+01 1.32000E+02 5.00000E+00
 -1      1143 3.50000E+01 1.32000E+02 1.00000E+01
 -1      1144 3.75000E+01 1.32000E+02 5.00000E+00
 -1      1145 3.75000E+01 1.32000E+02 1.00000E+01
 -1      1146 4.00000E+01 1.32000E+02 5.00000E+00
 -1      1147 4.00000E+01 1.32000E+02 1.00000E+01
 -1      1148 4.25000E+01 1.32000E+02 5.00000E+00
 -1      1149 4.25000E+01 1.32000E+02 1.00000E+01
 -1      1150 4.50000E+01 1.32000E+02 5.00000E+00
 -1      1151 4.50000E+01 1.32000E+02 1.00000E+01
 -1      1152 4.75000E+01 1.32000E+02 5.00000E+00
 -1      1153 4.75000E+01 1.32000E+02 1.00000E+01
 -1      1154 5.00000E+01 1.32000E+02 5.00000E+00
 -1      1155 5.00000E+01 1.32000E+02 1.00000E+01
 -1      1156 0.00000E+00 1.24500E+02 1.00000E+01
 -1      1157 0.00000E+00 1.24500E+02 5.00000E+00
 -1      1158 2.50000E+00 1.24500E+02 5.00000E+00
 -1      1159 2.50000E+00 1.24500E+02 1.00000E+01
 -1      1160 5.00000E+00 1.24500E+02 5.00000E+00
 -1      1161 5.00000E+00 1.24500E+02 1.00000E+01
 -1      1162 7.50000E+00 1.24500E+02 5.00000E+00
 -1      1163 7.50000E+00 1.24500E+02 1.00000E+01
 -1      1164 1.00000E+01 1.24500E+02 5.00000E+00
 -1      1165 1.00000E+01 1.24500E+02 1.00000E+01
 -1      1166 1.25000E+01 1.24500E+02 5.00000E+00
 -1      1167 1.25000E+01 1.24500E+02 1.00000E+01
 -1      1168 1.50000E+01 1.24500E+02 5.00000E+00
 -1      1169 1.50000E+01 1.24500E+02 1.00000E+01
 -1      1170 1.75000E+01 1.24500E+02 5.00000E+00
 -1      1171 1.75000E+01 1.24500E+02 1.00000E+01
 -1      1172 2.00000E+01 1.24500E+02 5.00000E+00
 -1      1173 2.00000E+01 1.24500E+02 1.00000E+01
 -1      1174 2.25000E+01 1.24500E+02 5.00000E+00
 -1      1175 2.25000E+01 1.24500E+02 1.00000E+01
 -1      1176 2.50000E+01 1.24500E+02 5.00000E+00
 -1      1177 2.50000E+01 1.24500E+02 1.00000E+01
 -1      1178 2.75000E+01 1.24500E+02 5.00000E+00
 -1      1179 2.75000E+01 1.24500E+02 1.00000E+01
 -1      1180 3.00000E+01 1.24500E+02 5.00000E+00
 -1      1181 3.00000E+01 1.24500E+02 1.00000E+01
 -1      1182 3.25000E+01 1.24500E+02 5.00000E+00
 -1      1183 3.25000E+01 1.24500E+02 1.00000E+01
 -1      1184 3.50000E+01 1.24500E+02 5.00000E+00
 -1      1185 3.50000E+01 1.24500E+02 1.00000E+01
 -1      1186 3.75000E+01 1.24500E+02 5.00000E+00
 -1      1187 3.75000E+01 1.24500E+02 1.00000E+01
 -1      1188 4.00000E+01 1.24500E+02 5.00000E+00
 -1      1189 4.00000E+01 1.24500E+02 1.00000E+01
 -1      1190 4.25000E+01 1.24500E+02 5.00000E+00
 -1      1191 4.25000E+01 1.24500E+02 1.00000E+01
 -1      1192 4.50000E+01 1.24500E+02 5.00000E+00
 -1      1193 4.50000E+01 1.24500E+02 1.00000E+01
 -1      1194 4.75000E+01 1.24500E+02 5.00000E+00
 -1      1195 4.75000E+01 1.24500E+02 1.00000E+01
 -1      1196 5.00000E+01 1.24500E+02 5.00000E+00
 -1      1197 5.00000E+01 1.24500E+02 1.00000E+01
 -1      1198 0.00000E+00 1.17000E+02 1.00000E+01
 -1      1199 0.00000E+00 1.17000E+02 5.00000E+00
 -1      1200 2.50000E+00 1.17000E+02 5.00000E+00
 -1      1201 2.50000E+00 1.17000E+02 1.00000E+01
 -1      1202 5.00000E+00 1.17000E+02 5.00000E+00
 -1      1203 5.00000E+00 1.17000E+02 1.00000E+01
 -1      1204 7.50000E+00 1.17000E+02 5.00000E+00
 -1      1205 7.50000E+00 1.17000E+02 1.00000E+01
 -1      1206 1.00000E+01 1.17000E+02 5.00000E+00
 -1      1207 1.00000E+01 1.17000E+02 1.00000E+01
 -1      1208 1.25000E+01 1.17000E+02 5.00000E+00
 -1      1209 1.25000E+01 1.17000E+02 1.00000E+01
 -1      1210 1.50000E+01 1.17000E+02 5.00000E+00
 -1      1211 1.50000E+01 1.17000E+02 1.00000E+01
 -1      1212 1.75000E+01 1.17000E+02 5.00000E+00
 -1      1213 1.75000E+01 1.17000E+02 1.00000E+01
 -1      1214 2.00000E+01 1.17000E+02 5.00000E+00
 -1      1215 2.00000E+01 1.17000E+02 1.00000E+01
 -1      1216 2.25000E+01 1.17000E+02 5.00000E+00
 -1      1217 2.25000E+01 1.17000E+02 1.00000E+01
 -1      1218 2.50000E+01 1.17000E+02 5.00000E+00
 -1      1219 2.50000E+01 1.17000E+02 1.00000E+01
 -1      1220 2.75000E+01 1.17000E+02 5.00000E+00
 -1      1221 2.75000E+01 1.17000E+02 1.00000E+01
 -1      1222 3.00000E+01 1.17000E+02 5.00000E+00
 -1      1223 3.00000E+01 1.17000E+02 1.00000E+01
 -1      1224 3.25000E+01 1.17000E+02 5.00000E+00
 -1      1225 3.25000E+01 1.17000E+02 1.00000E+01
 -1      1226 3.50000E+01 1.17000E+02 5.00000E+00
 -1      1227 3.50000E+01 1.17000E+02 1.00000E+01
 -1      1228 3.75000E+01 1.17000E+02 5.00000E+00
 -1      1229 3.75000E+01 1.17000E+02 1.00000E+01
 -1      1230 4.00000E+01 1.17000E+02 5.00000E+00
 -1      1231 4.00000E+01 1.17000E+02 1.00000E+01
 -1      1232 4.25000E+01 1.17000E+02 5.00000E+00
 -1      1233 4.25000E+01 1.17000E+02 1.00000E+01
 -1      1234 4.50000E+01 1.17000E+02 5.00000E+00
 -1      1235 4.50000E+01 1.17000E+02 1.00000E+01
 -1      1236 4.75000E+01 1.17000E+02 5.00000E+00
 -1      1237 4.75000E+01 1.17000E+02 1.00000E+01
 -1      1238 5.00000E+01 1.17000E+02 5.00000E+00
 -1      1239 5.00000E+01 1.17000E+02 1.00000E+01
 -1      1240 0.00000E+00 1.09500E+02 1.00000E+01
 -1      1241 0.00000E+00 1.09500E+02 5.00000E+00
 -1      1242 2.50000E+00 1.09500E+02 5.00000E+00
 -1      1243 2.50000E+00 1.09500E+02 1.00000E+01
 -1      1244 5.00000E+00 1.09500E+02 5.00000E+00
 -1      1245 5.00000E+00 1.09500E+02 1.00000E+01
 -1      1246 7.50000E+00 1.09500E+02 5.00000E+00
 -1      1247 7.50000E+00 1.09500E+02 1.00000E+01
 -1      1248 1.00000E+01 1.09500E+02 5.00000E+00
 -1      1249 1.00000E+01 1.09500E+02 1.00000E+01
 -1      1250 1.25000E+01 1.09500E+02 5.00000E+00
 -1      1251 1.25000E+01 1.09500E+02 1.00000E+01
 -1      1252 1.50000E+01 1.09500E+02 5.00000E+00
 -1      1253 1.50000E+01 1.09500E+02 1.00000E+01
 -1      1254 1.75000E+01 1.09500E+02 5.00000E+00
 -1      1255 1.75000E+01 1.09500E+02 1.00000E+01
 -1      1256 2.00000E+01 1.09500E+02 5.00000E+00
 -1      1257 2.00000E+01 1.09500E+02 1.00000E+01
 -1      1258 2.25000E+01 1.09500E+02 5.00000E+00
 -1      1259 2.25000E+01 1.09500E+02 1.00000E+01
 -1      1260 2.50000E+01 1.09500E+02 5.00000E+00
 -1      1261 2.50000E+01 1.09500E+02 1.00000E+01
 -1      1262 2.75000E+01 1.09500E+02 5.00000E+00
 -1      1263 2.75000E+01 1.09500E+02 1.00000E+01
 -1      1264 3.00000E+01 1.09500E+02 5.00000E+00
 -1      1265 3.00000E+01 1.09500E+02 1.00000E+01
 -1      1266 3.25000E+01 1.09500E+02 5.00000E+00
 -1      1267 3.25000E+01 1.09500E+02 1.00000E+01
 -1      1268 3.50000E+01 1.09500E+02 5.00000E+00
 -1      1269 3.50000E+01 1.09500E+02 1.00000E+01
 -1      1270 3.75000E+01 1.09500E+02 5.00000E+00
 -1      1271 3.75000E+01 1.09500E+02 1.00000E+01
 -1      1272 4.00000E+01 1.09500E+02 5.00000E+00
 -1      1273 4.00000E+01 1.09500E+02 1.00000E+01
 -1      1274 4.25000E+01 1.09500E+02 5.00000E+00
 -1      1275 4.25000E+01 1.09500E+02 1.00000E+01
 -1      1276 4.50000E+01 1.09500E+02 5.00000E+00
 -1      1277 4.50000E+01 1.09500E+02 1.00000E+01
 -1      1278 4.75000E+01 1.09500E+02 5.00000E+00
 -1      1279 4.75000E+01 1.09500E+02 1.00000E+01
 -1      1280 5.00000E+01 1.09500E+02 5.00000E+00
 -1      1281 5.00000E+01 1.09500E+02 1.00000E+01
 -1      1282 0.00000E+00 1.02000E+02 1.00000E+01
 -1      1283 0.00000E+00 1.02000E+02 5.00000E+00
 -1      1284 2.50000E+00 1.02000E+02 5.00000E+00
 -1      1285 2.50000E+00 1.02000E+02 1.00000E+01
 -1      1286 5.00000E+00 1.02000E+02 5.00000E+00
 -1      1287 5.00000E+00 1.02000E+02 1.00000E+01
 -1      1288 7.50000E+00 1.02000E+02 5.00000E+00
 -1      1289 7.50000E+00 1.02000E+02 1.00000E+01
 -1      1290 1.00000E+01 1.02000E+02 5.00000E+00
 -1      1291 1.00000E+01 1.02000E+02 1.00000E+01
 -1      1292 1.25000E+01 1.02000E+02 5.00000E+00
 -1      1293 1.25000E+01 1.02000E+02 1.00000E+01
 -1      1294 1.50000E+01 1.02000E+02 5.00000E+00
 -1      1295 1.50000E+01 1.02000E+02 1.00000E+01
 -1      1296 1.75000E+01 1.02000E+02 5.00000E+00
 -1      1297 1.75000E+01 1.02000E+02 1.00000E+01
 -1      1298 2.00000E+01 1.02000E+02 5.00000E+00
 -1      1299 2.00000E+01 1.02000E+02 1.00000E+01
 -1      1300 2.25000E+01 1.02000E+02 5.00000E+00
 -1      1301 2.25000E+01 1.02000E+02 1.00000E+01
 -1      1302 2.50000E+01 1.02000E+02 5.00000E+00
 -1      1303 2.50000E+01 1.02000E+02 1.00000E+01
 -1      1304 2.75000E+01 1.02000E+02 5.00000E+00
 -1      1305 2.75000E+01 1.02000E+02 1.00000E+01
 -1      1306 3.00000E+01 1.02000E+02 5.00000E+00
 -1      1307 3.00000E+01 1.02000E+02 1.00000E+01
 -1      1308 3.25000E+01 1.02000E+02 5.00000E+00
 -1      1309 3.25000E+01 1.02000E+02 1.00000E+01
 -1      1310 3.50000E+01 1.02000E+02 5.00000E+00
 -1      1311 3.50000E+01 1.02000E+02 1.00000E+01
 -1      1312 3.75000E+01 1.02000E+02 5.00000E+00
 -1      1313 3.75000E+01 1.02000E+02 1.00000E+01
 -1      1314 4.00000E+01 1.02000E+02 5.00000E+00
 -1      1315 4.00000E+01 1.02000E+02 1.00000E+01
 -1      1316 4.25000E+01 1.02000E+02 5.00000E+00
 -1      1317 4.25000E+01 1.02000E+02 1.00000E+01
 -1      1318 4.50000E+01 1.02000E+02 5.00000E+00
 -1      1319 4.50000E+01 1.02000E+02 1.00000E+01
 -1      1320 4.75000E+01 1.02000E+02 5.00000E+00
 -1      1321 4.75000E+01 1.02000E+02 1.00000E+01
 -1      1322 5.00000E+01 1.02000E+02 5.00000E+00
 -1      1323 5.00000E+01 1.02000E+02 1.00000E+01
 -1      1324 0.00000E+00 2.52000E+02 0.00000E+00
 -1      1325 2.50000E+00 2.52000E+02 0.00000E+00
 -1      1326 0.00000E+00 2.44500E+02 0.00000E+00
 -1      1327 2.50000E+00 2.44500E+02 0.00000E+00
 -1      1328 5.00000E+00 2.52000E+02 0.00000E+00
 -1      1329 5.00000E+00 2.44500E+02 0.00000E+00
 -1      1330 7.50000E+00 2.52000E+02 0.00000E+00
 -1      1331 7.50000E+00 2.44500E+02 0.00000E+00
 -1      1332 1.00000E+01 2.52000E+02 0.00000E+00
 -1      1333 1.00000E+01 2.44500E+02 0.00000E+00
 -1      1334 1.25000E+01 2.52000E+02 0.00000E+00
 -1      1335 1.25000E+01 2.44500E+02 0.00000E+00
 -1      1336 1.50000E+01 2.52000E+02 0.00000E+00
 -1      1337 1.50000E+01 2.44500E+02 0.00000E+00
 -1      1338 1.75000E+01 2.52000E+02 0.00000E+00
 -1      1339 1.75000E+01 2.44500E+02 0.00000E+00
 -1      1340 2.00000E+01 2.52000E+02 0.00000E+00
 -1      1341 2.00000E+01 2.44500E+02 0.00000E+00
 -1      1342 2.25000E+01 2.52000E+02 0.00000E+00
 -1      1343 2.25000E+01 2.44500E+02 0.00000E+00
 -1      1344 2.50000E+01 2.52000E+02 0.00000E+00
 -1      1345 2.50000E+01 2.44500E+02 0.00000E+00
 -1      1346 2.75000E+01 2.52000E+02 0.00000E+00
 -1      1347 2.75000E+01 2.44500E+02 0.00000E+00
 -1      1348 3.00000E+01 2.52000E+02 0.00000E+00
 -1      1349 3.00000E+01 2.44500E+02 0.00000E+00
 -1      1350 3.25000E+01 2.52000E+02 0.00000E+00
 -1      1351 3.25000E+01 2.44500E+02 0.00000E+00
 -1      1352 3.50000E+01 2.52000E+02 0.00000E+00
 -1      1353 3.50000E+01 2.44500E+02 0.00000E+00
 -1      1354 3.75000E+01 2.52000E+02 0.00000E+00
 -1      1355 3.75000E+01 2.44500E+02 0.00000E+00
 -1      1356 4.00000E+01 2.52000E+02 0.00000E+00
 -1      1357 4.00000E+01 2.44500E+02 0.00000E+00
 -1      1358 4.25000E+01 2.52000E+02 0.00000E+00
 -1      1359 4.25000E+01 2.44500E+02 0.00000E+00
 -1      1360 4.50000E+01 2.52000E+02 0.00000E+00
 -1      1361 4.50000E+01 2.44500E+02 0.00000E+00
 -1      1362 4.75000E+01 2.52000E+02 0.00000E+00
 -1      1363 4.75000E+01 2.44500E+02 0.00000E+00
 -1      1364 5.00000E+01 2.52000E+02 0.00000E+00
 -1      1365 5.00000E+01 2.44500E+02 0.00000E+00
 -1      1366 0.00000E+00 2.37000E+02 0.00000E+00
 -1      1367 2.50000E+00 2.37000E+02 0.00000E+00
 -1      1368 5.00000E+00 2.37000E+02 0.00000E+00
 -1      1369 7.50000E+00 2.37000E+02 0.00000E+00
 -1      1370 1.00000E+01 2.37000E+02 0.00000E+00
 -1      1371 1.25000E+01 2.37000E+02 0.00000E+00
 -1      1372 1.50000E+01 2.37000E+02 0.00000E+00
 -1      1373 1.75000E+01 2.37000E+02 0.00000E+00
 -1      1374 2.00000E+01 2.37000E+02 0.00000E+00
 -1      1375 2.25000E+01 2.37000E+02 0.00000E+00
 -1      1376 2.50000E+01 2.37000E+02 0.00000E+00
 -1      1377 2.75000E+01 2.37000E+02 0.00000E+00
 -1      1378 3.00000E+01 2.37000E+02 0.00000E+00
 -1      1379 3.25000E+01 2.37000E+02 0.00000E+00
 -1      1380 3.50000E+01 2.37000E+02 0.00000E+00
 -1      1381 3.75000E+01 2.37000E+02 0.00000E+00
 -1      1382 4.00000E+01 2.37000E+02 0.00000E+00
 -1      1383 4.25000E+01 2.37000E+02 0.00000E+00
 -1      1384 4.50000E+01 2.37000E+02 0.00000E+00
 -1      1385 4.75000E+01 2.37000E+02 0.00000E+00
 -1      1386 5.00000E+01 2.37000E+02 0.00000E+00
 -1      1387 0.00000E+00 2.29500E+02 0.00000E+00
 -1      1388 2.50000E+00 2.29500E+02 0.00000E+00
 -1      1389 5.00000E+00 2.29500E+02 0.00000E+00
 -1      1390 7.50000E+00 2.29500E+02 0.00000E+00
 -1      1391 1.00000E+01 2.29500E+02 0.00000E+00
 -1      1392 1.25000E+01 2.29500E+02 0.00000E+00
 -1      1393 1.50000E+01 2.29500E+02 0.00000E+00
 -1      1394 1.75000E+01 2.29500E+02 0.00000E+00
 -1      1395 2.00000E+01 2.29500E+02 0.00000E+00
 -1      1396 2.25000E+01 2.29500E+02 0.00000E+00
 -1      1397 2.50000E+01 2.29500E+02 0.00000E+00
 -1      1398 2.75000E+01 2.29500E+02 0.00000E+00
 -1      1399 3.00000E+01 2.29500E+02 0.00000E+00
 -1      1400 3.25000E+01 2.29500E+02 0.00000E+00
 -1      1401 3.50000E+01 2.29500E+02 0.00000E+00
 -1      1402 3.75000E+01 2.29500E+02 0.00000E+00
 -1      1403 4.00000E+01 2.29500E+02 0.00000E+00
 -1      1404 4.25000E+01 2.29500E+02 0.00000E+00
 -1      1405 4.50000E+01 2.29500E+02 0.00000E+00
 -1      1406 4.75000E+01 2.29500E+02 0.00000E+00
 -1      1407 5.00000E+01 2.29500E+02 0.00000E+00
 -1      1408 0.00000E+00 2.22000E+02 0.00000E+00
 -1      1409 2.50000E+00 2.22000E+02 0.00000E+00
 -1      1410 5.00000E+00 2.22000E+02 0.00000E+00
 -1      1411 7.50000E+00 2.22000E+02 0.00000E+00
 -1      1412 1.00000E+01 2.22000E+02 0.00000E+00
 -1      1413 1.25000E+01 2.22000E+02 0.00000E+00
 -1      1414 1.50000E+01 2.22000E+02 0.00000E+00
 -1      1415 1.75000E+01 2.22000E+02 0.00000E+00
 -1      1416 2.00000E+01 2.22000E+02 0.00000E+00
 -1      1417 2.25000E+01 2.22000E+02 0.00000E+00
 -1      1418 2.50000E+01 2.22000E+02 0.00000E+00
 -1      1419 2.75000E+01 2.22000E+02 0.00000E+00
 -1      1420 3.00000E+01 2.22000E+02 0.00000E+00
 -1      1421 3.25000E+01 2.22000E+02 0.00000E+00
 -1      1422 3.50000E+01 2.22000E+02 0.00000E+00
 -1      1423 3.75000E+01 2.22000E+02 0.00000E+00
 -1      1424 4.00000E+01 2.22000E+02 0.00000E+00
 -1      1425 4.25000E+01 2.22000E+02 0.00000E+00
 -1      1426 4.50000E+01 2.22000E+02 0.00000E+00
 -1      1427 4.75000E+01 2.22000E+02 0.00000E+00
 -1      1428 5.00000E+01 2.22000E+02 0.00000E+00
 -1      1429 0.00000E+00 2.14500E+02 0.00000E+00
 -1      1430 2.50000E+00 2.14500E+02 0.00000E+00
 -1      1431 5.00000E+00 2.14500E+02 0.00000E+00
 -1      1432 7.50000E+00 2.14500E+02 0.00000E+00
 -1      1433 1.00000E+01 2.14500E+02 0.00000E+00
 -1      1434 1.25000E+01 2.14500E+02 0.00000E+00
 -1      1435 1.50000E+01 2.14500E+02 0.00000E+00
 -1      1436 1.75000E+01 2.14500E+02 0.00000E+00
 -1      1437 2.00000E+01 2.14500E+02 0.00000E+00
 -1      1438 2.25000E+01 2.14500E+02 0.00000E+00
 -1      1439 2.50000E+01 2.14500E+02 0.00000E+00
 -1      1440 2.75000E+01 2.14500E+02 0.00000E+00
 -1      1441 3.00000E+01 2.14500E+02 0.00000E+00
 -1      1442 3.25000E+01 2.14500E+02 0.00000E+00
 -1      1443 3.50000E+01 2.14500E+02 0.00000E+00
 -1      1444 3.75000E+01 2.14500E+02 0.00000E+00
 -1      1445 4.00000E+01 2.14500E+02 0.00000E+00
 -1      1446 4.25000E+01 2.14500E+02 0.00000E+00
 -1      1447 4.50000E+01 2.14500E+02 0.00000E+00
 -1      1448 4.75000E+01 2.14500E+02 0.00000E+00
 -1      1449 5.00000E+01 2.14500E+02 0.00000E+00
 -1      1450 0.00000E+00 2.07000E+02 0.00000E+00
 -1      1451 2.50000E+00 2.07000E+02 0.00000E+00
 -1      1452 5.00000E+00 2.07000E+02 0.00000E+00
 -1      1453 7.50000E+00 2.07000E+02 0.00000E+00
 -1      1454 1.00000E+01 2.07000E+02 0.00000E+00
 -1      1455 1.25000E+01 2.07000E+02 0.00000E+00
 -1      1456 1.50000E+01 2.07000E+02 0.00000E+00
 -1      1457 1.75000E+01 2.07000E+02 0.00000E+00
 -1      1458 2.00000E+01 2.07000E+02 0.00000E+00
 -1      1459 2.25000E+01 2.07000E+02 0.00000E+00
 -1      1460 2.50000E+01 2.07000E+02 0.00000E+00
 -1      1461 2.75000E+01 2.07000E+02 0.00000E+00
 -1      1462 3.00000E+01 2.07000E+02 0.00000E+00
 -1      1463 3.25000E+01 2.07000E+02 0.00000E+00
 -1      1464 3.50000E+01 2.07000E+02 0.00000E+00
 -1      1465 3.75000E+01 2.07000E+02 0.00000E+00
 -1      1466 4.00000E+01 2.07000E+02 0.00000E+00
 -1      1467 4.25000E+01 2.07000E+02 0.00000E+00
 -1      1468 4.50000E+01 2.07000E+02 0.00000E+00
 -1      1469 4.75000E+01 2.07000E+02 0.00000E+00
 -1      1470 5.00000E+01 2.07000E+02 0.00000E+00
 -1      1471 0.00000E+00 1.99500E+02 0.00000E+00
 -1      1472 2.50000E+00 1.99500E+02 0.00000E+00
 -1      1473 5.00000E+00 1.99500E+02 0.00000E+00
 -1      1474 7.50000E+00 1.99500E+02 0.00000E+00
 -1      1475 1.00000E+01 1.99500E+02 0.00000E+00
 -1      1476 1.25000E+01 1.99500E+02 0.00000E+00
 -1      1477 1.50000E+01 1.99500E+02 0.00000E+00
 -1      1478 1.75000E+01 1.99500E+02 0.00000E+00
 -1      1479 2.00000E+01 1.99500E+02 0.00000E+00
 -1      1480 2.25000E+01 1.99500E+02 0.00000E+00
 -1      1481 2.50000E+01 1.99500E+02 0.00000E+00
 -1      1482 2.75000E+01 1.99500E+02 0.00000E+00
 -1      1483 3.00000E+01 1.99500E+02 0.00000E+00
 -1      1484 3.25000E+01 1.99500E+02 0.00000E+00
 -1      1485 3.50000E+01 1.99500E+02 0.00000E+00
 -1      1486 3.75000E+01 1.99500E+02 0.00000E+00
 -1      1487 4.00000E+01 1.99500E+02 0.00000E+00
 -1      1488 4.25000E+01 1.99500E+02 0.00000E+00
 -1      1489 4.50000E+01 1.99500E+02 0.00000E+00
 -1      1490 4.75000E+01 1.99500E+02 0.00000E+00
 -1      1491 5.00000E+01 1.99500E+02 0.00000E+00
 -1      1492 0.00000E+00 1.92000E+02 0.00000E+00
 -1      1493 2.50000E+00 1.92000E+02 0.00000E+00
 -1      1494 5.00000E+00 1.92000E+02 0.00000E+00
 -1      1495 7.50000E+00 1.92000E+02 0.00000E+00
 -1      1496 1.00000E+01 1.92000E+02 0.00000E+00
 -1      1497 1.25000E+01 1.92000E+02 0.00000E+00
 -1      1498 1.50000E+01 1.92000E+02 0.00000E+00
 -1      1499 1.75000E+01 1.92000E+02 0.00000E+00
 -1      1500 2.00000E+01 1.92000E+02 0.00000E+00
 -1      1501 2.25000E+01 1.92000E+02 0.00000E+00
 -1      1502 2.50000E+01 1.92000E+02 0.00000E+00
 -1      1503 2.75000E+01 1.92000E+02 0.00000E+00
 -1      1504 3.00000E+01 1.92000E+02 0.00000E+00
 -1      1505 3.25000E+01 1.92000E+02 0.00000E+00
 -1      1506 3.50000E+01 1.92000E+02 0.00000E+00
 -1      1507 3.75000E+01 1.92000E+02 0.00000E+00
 -1      1508 4.00000E+01 1.92000E+02 0.00000E+00
 -1      1509 4.25000E+01 1.92000E+02 0.00000E+00
 -1      1510 4.50000E+01 1.92000E+02 0.00000E+00
 -1      1511 4.75000E+01 1.92000E+02 0.00000E+00
 -1      1512 5.00000E+01 1.92000E+02 0.00000E+00
 -1      1513 0.00000E+00 1.84500E+02 0.00000E+00
 -1      1514 2.50000E+00 1.84500E+02 0.00000E+00
 -1      1515 5.00000E+00 1.84500E+02 0.00000E+00
 -1      1516 7.50000E+00 1.84500E+02 0.00000E+00
 -1      1517 1.00000E+01 1.84500E+02 0.00000E+00
 -1      1518 1.25000E+01 1.84500E+02 0.00000E+00
 -1      1519 1.50000E+01 1.84500E+02 0.00000E+00
 -1      1520 1.75000E+01 1.84500E+02 0.00000E+00
 -1      1521 2.00000E+01 1.84500E+02 0.00000E+00
 -1      1522 2.25000E+01 1.84500E+02 0.00000E+00
 -1      1523 2.50000E+01 1.84500E+02 0.00000E+00
 -1      1524 2.75000E+01 1.84500E+02 0.00000E+00
 -1      1525 3.00000E+01 1.84500E+02 0.00000E+00
 -1      1526 3.25000E+01 1.84500E+02 0.00000E+00
 -1      1527 3.50000E+01 1.84500E+02 0.00000E+00
 -1      1528 3.75000E+01 1.84500E+02 0.00000E+00
 -1      1529 4.00000E+01 1.84500E+02 0.00000E+00
 -1      1530 4.25000E+01 1.84500E+02 0.00000E+00
 -1      1531 4.50000E+01 1.84500E+02 0.00000E+00
 -1      1532 4.75000E+01 1.84500E+02 0.00000E+00
 -1      1533 5.00000E+01 1.84500E+02 0.00000E+00
 -1      1534 0.00000E+00 1.77000E+02 0.00000E+00
 -1      1535 2.50000E+00 1.77000E+02 0.00000E+00
 -1      1536 5.00000E+00 1.77000E+02 0.00000E+00
 -1      1537 7.50000E+00 1.77000E+02 0.00000E+00
 -1      1538 1.00000E+01 1.77000E+02 0.00000E+00
 -1      1539 1.25000E+01 1.77000E+02 0.00000E+00
 -1      1540 1.50000E+01 1.77000E+02 0.00000E+00
 -1      1541 1.75000E+01 1.77000E+02 0.00000E+00
 -1      1542 2.00000E+01 1.77000E+02 0.00000E+00
 -1      1543 2.25000E+01 1.77000E+02 0.00000E+00
 -1      1544 2.50000E+01 1.77000E+02 0.00000E+00
 -1      1545 2.75000E+01 1.77000E+02 0.00000E+00
 -1      1546 3.00000E+01 1.77000E+02 0.00000E+00
 -1      1547 3.25000E+01 1.77000E+02 0.00000E+00
 -1      1548 3.50000E+01 1.77000E+02 0.00000E+00
 -1      1549 3.75000E+01 1.77000E+02 0.00000E+00
 -1      1550 4.00000E+01 1.77000E+02 0.00000E+00
 -1      1551 4.25000E+01 1.77000E+02 0.00000E+00
 -1      1552 4.50000E+01 1.77000E+02 0.00000E+00
 -1      1553 4.75000E+01 1.77000E+02 0.00000E+00
 -1      1554 5.00000E+01 1.77000E+02 0.00000E+00
 -1      1555 0.00000E+00 1.69500E+02 0.00000E+00
 -1      1556 2.50000E+00 1.69500E+02 0.00000E+00
 -1      1557 5.00000E+00 1.69500E+02 0.00000E+00
 -1      1558 7.50000E+00 1.69500E+02 0.00000E+00
 -1      1559 1.00000E+01 1.69500E+02 0.00000E+00
 -1      1560 1.25000E+01 1.69500E+02 0.00000E+00
 -1      1561 1.50000E+01 1.69500E+02 0.00000E+00
 -1      1562 1.75000E+01 1.69500E+02 0.00000E+00
 -1      1563 2.00000E+01 1.69500E+02 0.00000E+00
 -1      1564 2.25000E+01 1.69500E+02 0.00000E+00
 -1      1565 2.50000E+01 1.69500E+02 0.00000E+00
 -1      1566 2.75000E+01 1.69500E+02 0.00000E+00
 -1      1567 3.00000E+01 1.69500E+02 0.00000E+00
 -1      1568 3.25000E+01 1.69500E+02 0.00000E+00
 -1      1569 3.50000E+01 1.69500E+02 0.00000E+00
 -1      1570 3.75000E+01 1.69500E+02 0.00000E+00
 -1      1571 4.00000E+01 1.69500E+02 0.00000E+00
 -1      1572 4.25000E+01 1.69500E+02 0.00000E+00
 -1      1573 4.50000E+01 1.69500E+02 0.00000E+00
 -1      1574 4.75000E+01 1.69500E+02 0.00000E+00
 -1      1575 5.00000E+01 1.69500E+02 0.00000E+00
 -1      1576 0.00000E+00 1.62000E+02 0.00000E+00
 -1      1577 2.50000E+00 1.62000E+02 0.00000E+00
 -1      1578 5.00000E+00 1.62000E+02 0.00000E+00
 -1      1579 7.50000E+00 1.62000E+02 0.00000E+00
 -1      1580 1.00000E+01 1.62000E+02 0.00000E+00
 -1      1581 1.25000E+01 1.62000E+02 0.00000E+00
 -1      1582 1.50000E+01 1.62000E+02 0.00000E+00
 -1      1583 1.75000E+01 1.62000E+02 0.00000E+00
 -1      1584 2.00000E+01 1.62000E+02 0.00000E+00
 -1      1585 2.25000E+01 1.62000E+02 0.00000E+00
 -1      1586 2.50000E+01 1.62000E+02 0.00000E+00
 -1      1587 2.75000E+01 1.62000E+02 0.00000E+00
 -1      1588 3.00000E+01 1.62000E+02 0.00000E+00
 -1      1589 3.25000E+01 1.62000E+02 0.00000E+00
 -1      1590 3.50000E+01 1.62000E+02 0.00000E+00
 -1      1591 3.75000E+01 1.62000E+02 0.00000E+00
 -1      1592 4.00000E+01 1.62000E+02 0.00000E+00
 -1      1593 4.25000E+01 1.62000E+02 0.00000E+00
 -1      1594 4.50000E+01 1.62000E+02 0.00000E+00
 -1      1595 4.75000E+01 1.62000E+02 0.00000E+00
 -1      1596 5.00000E+01 1.62000E+02 0.00000E+00
 -1      1597 0.00000E+00 1.54500E+02 0.00000E+00
 -1      1598 2.50000E+00 1.54500E+02 0.00000E+00
 -1      1599 5.00000E+00 1.54500E+02 0.00000E+00
 -1      1600 7.50000E+00 1.54500E+02 0.00000E+00
 -1      1601 1.00000E+01 1.54500E+02 0.00000E+00
 -1      1602 1.25000E+01 1.54500E+02 0.00000E+00
 -1      1603 1.50000E+01 1.54500E+02 0.00000E+00
 -1      1604 1.75000E+01 1.54500E+02 0.00000E+00
 -1      1605 2.00000E+01 1.54500E+02 0.00000E+00
 -1      1606 2.25000E+01 1.54500E+02 0.00000E+00
 -1      1607 2.50000E+01 1.54500E+02 0.00000E+00
 -1      1608 2.75000E+01 1.54500E+02 0.00000E+00
 -1      1609 3.00000E+01 1.54500E+02 0.00000E+00
 -1      1610 3.25000E+01 1.54500E+02 0.00000E+00
 -1      1611 3.50000E+01 1.54500E+02 0.00000E+00
 -1      1612 3.75000E+01 1.54500E+02 0.00000E+00
 -1      1613 4.00000E+01 1.54500E+02 0.00000E+00
 -1      1614 4.25000E+01 1.54500E+02 0.00000E+00
 -1      1615 4.50000E+01 1.54500E+02 0.00000E+00
 -1      1616 4.75000E+01 1.54500E+02 0.00000E+00
 -1      1617 5.00000E+01 1.54500E+02 0.00000E+00
 -1      1618 0.00000E+00 1.47000E+02 0.00000E+00
 -1      1619 2.50000E+00 1.47000E+02 0.00000E+00
 -1      1620 5.00000E+00 1.47000E+02 0.00000E+00
 -1      1621 7.50000E+00 1.47000E+02 0.00000E+00
 -1      1622 1.00000E+01 1.47000E+02 0.00000E+00
 -1      1623 1.25000E+01 1.47000E+02 0.00000E+00
 -1      1624 1.50000E+01 1.47000E+02 0.00000E+00
 -1      1625 1.75000E+01 1.47000E+02 0.00000E+00
 -1      1626 2.00000E+01 1.47000E+02 0.00000E+00
 -1      1627 2.25000E+01 1.47000E+02 0.00000E+00
 -1      1628 2.50000E+01 1.47000E+02 0.00000E+00
 -1      1629 2.75000E+01 1.47000E+02 0.00000E+00
 -1      1630 3.00000E+01 1.47000E+02 0.00000E+00
 -1      1631 3.25000E+01 1.47000E+02 0.00000E+00
 -1      1632 3.50000E+01 1.47000E+02 0.00000E+00
 -1      1633 3.75000E+01 1.47000E+02 0.00000E+00
 -1      1634 4.00000E+01 1.47000E+02 0.00000E+00
 -1      1635 4.25000E+01 1.47000E+02 0.00000E+00
 -1      1636 4.50000E+01 1.47000E+02 0.00000E+00
 -1      1637 4.75000E+01 1.47000E+02 0.00000E+00
 -1      1638 5.00000E+01 1.47000E+02 0.00000E+00
 -1      1639 0.00000E+00 1.39500E+02 0.00000E+00
 -1      1640 2.50000E+00 1.39500E+02 0.00000E+00
 -1      1641 5.00000E+00 1.39500E+02 0.00000E+00
 -1      1642 7.50000E+00 1.39500E+02 0.00000E+00
 -1      1643 1.00000E+01 1.39500E+02 0.00000E+00
 -1      1644 1.25000E+01 1.39500E+02 0.00000E+00
 -1      1645 1.50000E+01 1.39500E+02 0.00000E+00
 -1      1646 1.75000E+01 1.39500E+02 0.00000E+00
 -1      1647 2.00000E+01 1.39500E+02 0.00000E+00
 -1      1648 2.25000E+01 1.39500E+02 0.00000E+00
 -1      1649 2.50000E+01 1.39500E+02 0.00000E+00
 -1      1650 2.75000E+01 1.39500E+02 0.00000E+00
 -1      1651 3.00000E+01 1.39500E+02 0.00000E+00
 -1      1652 3.25000E+01 1.39500E+02 0.00000E+00
 -1      1653 3.50000E+01 1.39500E+02 0.00000E+00
 -1      1654 3.75000E+01 1.39500E+02 0.00000E+00
 -1      1655 4.00000E+01 1.39500E+02 0.00000E+00
 -1      1656 4.25000E+01 1.39500E+02 0.00000E+00
 -1      1657 4.50000E+01 1.39500E+02 0.00000E+00
 -1      1658 4.75000E+01 1.39500E+02 0.00000E+00
 -1      1659 5.00000E+01 1.39500E+02 0.00000E+00
 -1      1660 0.00000E+00 1.32000E+02 0.00000E+00
 -1      1661 2.50000E+00 1.32000E+02 0.00000E+00
 -1      1662 5.00000E+00 1.32000E+02 0.00000E+00
 -1      1663 7.50000E+00 1.32000E+02 0.00000E+00
 -1      1664 1.00000E+01 1.32000E+02 0.00000E+00
 -1      1665 1.25000E+01 1.32000E+02 0.00000E+00
 -1      1666 1.50000E+01 1.32000E+02 0.00000E+00
 -1      1667 1.75000E+01 1.32000E+02 0.00000E+00
 -1      1668 2.00000E+01 1.32000E+02 0.00000E+00
 -1      1669 2.25000E+01 1.32000E+02 0.00000E+00
 -1      1670 2.50000E+01 1.32000E+02 0.00000E+00
 -1      1671 2.75000E+01 1.32000E+02 0.00000E+00
 -1      1672 3.00000E+01 1.32000E+02 0.00000E+00
 -1      1673 3.25000E+01 1.32000E+02 0.00000E+00
 -1      1674 3.50000E+01 1.32000E+02 0.00000E+00
 -1      1675 3.75000E+01 1.32000E+02 0.00000E+00
 -1      1676 4.00000E+01 1.32000E+02 0.00000E+00
 -1      1677 4.25000E+01 1.32000E+02 0.00000E+00
 -1      1678 4.50000E+01 1.32000E+02 0.00000E+00
 -1      1679 4.75000E+01 1.32000E+02 0.00000E+00
 -1      1680 5.00000E+01 1.32000E+02 0.00000E+00
 -1      1681 0.00000E+00 1.24500E+02 0.00000E+00
 -1      1682 2.50000E+00 1.24500E+02 0.00000E+00
 -1      1683 5.00000E+00 1.24500E+02 0.00000E+00
 -1      1684 7.50000E+00 1.24500E+02 0.00000E+00
 -1      1685 1.00000E+01 1.24500E+02 0.00000E+00
 -1      1686 1.25000E+01 1.24500E+02 0.00000E+00
 -1      1687 1.50000E+01 1.24500E+02 0.00000E+00
 -1      1688 1.75000E+01 1.24500E+02 0.00000E+00
 -1      1689 2.00000E+01 1.24500E+02 0.00000E+00
 -1      1690 2.25000E+01 1.24500E+02 0.00000E+00
 -1      1691 2.50000E+01 1.24500E+02 0.00000E+00
 -1      1692 2.75000E+01 1.24500E+02 0.00000E+00
 -1      1693 3.00000E+01 1.24500E+02 0.00000E+00
 -1      1694 3.25000E+01 1.24500E+02 0.00000E+00
 -1      1695 3.50000E+01 1.24500E+02 0.00000E+00
 -1      1696 3.75000E+01 1.24500E+02 0.00000E+00
 -1      1697 4.00000E+01 1.24500E+02 0.00000E+00
 -1      1698 4.25000E+01 1.24500E+02 0.00000E+00
 -1      1699 4.50000E+01 1.24500E+02 0.00000E+00
 -1      1700 4.75000E+01 1.24500E+02 0.00000E+00
 -1      1701 5.00000E+01 1.24500E+02 0.00000E+00
 -1      1702 0.00000E+00 1.17000E+02 0.00000E+00
 -1      1703 2.50000E+00 1.17000E+02 0.00000E+00
 -1      1704 5.00000E+00 1.17000E+02 0.00000E+00
 -1      1705 7.50000E+00 1.17000E+02 0.00000E+00
 -1      1706 1.00000E+01 1.17000E+02 0.00000E+00
 -1      1707 1.25000E+01 1.17000E+02 0.00000E+00
 -1      1708 1.50000E+01 1.17000E+02 0.00000E+00
 -1      1709 1.75000E+01 1.17000E+02 0.00000E+00
 -1      1710 2.00000E+01 1.17000E+02 0.00000E+00
 -1      1711 2.25000E+01 1.17000E+02 0.00000E+00
 -1      1712 2.50000E+01 1.17000E+02 0.00000E+00
 -1      1713 2.75000E+01 1.17000E+02 0.00000E+00
 -1      1714 3.00000E+01 1.17000E+02 0.00000E+00
 -1      1715 3.25000E+01 1.17000E+02 0.00000E+00
 -1      1716 3.50000E+01 1.17000E+02 0.00000E+00
 -1      1717 3.75000E+01 1.17000E+02 0.00000E+00
 -1      1718 4.00000E+01 1.17000E+02 0.00000E+00
 -1      1719 4.25000E+01 1.17000E+02 0.00000E+00
 -1      1720 4.50000E+01 1.17000E+02 0.00000E+00
 -1      1721 4.75000E+01 1.17000E+02 0.00000E+00
 -1      1722 5.00000E+01 1.17000E+02 0.00000E+00
 -1      1723 0.00000E+00 1.09500E+02 0.00000E+00
 -1      1724 2.50000E+00 1.09500E+02 0.00000E+00
 -1      1725 5.00000E+00 1.09500E+02 0.00000E+00
 -1      1726 7.50000E+00 1.09500E+02 0.00000E+00
 -1      1727 1.00000E+01 1.09500E+02 0.00000E+00
 -1      1728 1.25000E+01 1.09500E+02 0.00000E+00
 -1      1729 1.50000E+01 1.09500E+02 0.00000E+00
 -1      1730 1.75000E+01 1.09500E+02 0.00000E+00
 -1      1731 2.00000E+01 1.09500E+02 0.00000E+00
 -1      1732 2.25000E+01 1.09500E+02 0.00000E+00
 -1      1733 2.50000E+01 1.09500E+02 0.00000E+00
 -1      1734 2.75000E+01 1.09500E+02 0.00000E+00
 -1      1735 3.00000E+01 1.09500E+02 0.00000E+00
 -1      1736 3.25000E+01 1.09500E+02 0.00000E+00
 -1      1737 3.50000E+01 1.09500E+02 0.00000E+00
 -1      1738 3.75000E+01 1.09500E+02 0.00000E+00
 -1      1739 4.00000E+01 1.09500E+02 0.00000E+00
 -1      1740 4.25000E+01 1.09500E+02 0.00000E+00
 -1      1741 4.50000E+01 1.09500E+02 0.00000E+00
 -1      1742 4.75000E+01 1.09500E+02 0.00000E+00
 -1      1743 5.00000E+01 1.09500E+02 0.00000E+00
 -1      1744 0.00000E+00 1.02000E+02 0.00000E+00
 -1      1745 2.50000E+00 1.02000E+02 0.00000E+00
 -1      1746 5.00000E+00 1.02000E+02 0.00000E+00
 -1      1747 7.50000E+00 1.02000E+02 0.00000E+00
 -1      1748 1.00000E+01 1.02000E+02 0.00000E+00
 -1      1749 1.25000E+01 1.02000E+02 0.00000E+00
 -1      1750 1.50000E+01 1.02000E+02 0.00000E+00
 -1      1751 1.75000E+01 1.02000E+02 0.00000E+00
 -1      1752 2.00000E+01 1.02000E+02 0.00000E+00
 -1      1753 2.25000E+01 1.02000E+02 0.00000E+00
 -1      1754 2.50000E+01 1.02000E+02 0.00000E+00
 -1      1755 2.75000E+01 1.02000E+02 0.00000E+00
 -1      1756 3.00000E+01 1.02000E+02 0.00000E+00
 -1      1757 3.25000E+01 1.02000E+02 0.00000E+00
 -1      1758 3.50000E+01 1.02000E+02 0.00000E+00
 -1      1759 3.75000E+01 1.02000E+02 0.00000E+00
 -1      1760 4.00000E+01 1.02000E+02 0.00000E+00
 -1      1761 4.25000E+01 1.02000E+02 0.00000E+00
 -1      1762 4.50000E+01 1.02000E+02 0.00000E+00
 -1      1763 4.75000E+01 1.02000E+02 0.00000E+00
 -1      1764 5.00000E+01 1.02000E+02 0.00000E+00
 -3
    3C                           960                                     1
 -1         1    1    0    1
 -2         1         2         3         4         5         6         7         8
 -1         2    1    0    1
 -2         4         3         9        10         8         7        11        12
 -1         3    1    0    1
 -2        10         9        13        14        12        11        15        16
 -1         4    1    0    1
 -2        14        13        17        18        16        15        19        20
 -1         5    1    0    1
 -2        18        17        21        22        20        19        23        24
 -1         6    1    0    1
 -2        22        21        25        26        24        23        27        28
 -1         7    1    0    1
 -2        26        25        29        30        28        27        31        32
 -1         8    1    0    1
 -2        30        29        33        34        32        31        35        36
 -1         9    1    0    1
 -2        34        33        37        38        36        35        39        40
 -1        10    1    0    1
 -2        38        37        41        42        40        39        43        44
 -1        11    1    0    1
 -2        42        41        45        46        44        43        47        48
 -1        12    1    0    1
 -2        46        45        49        50        48        47        51        52
 -1        13    1    0    1
 -2        50        49        53        54        52        51        55        56
 -1        14    1    0    1
 -2        54        53        57        58        56        55        59        60
 -1        15    1    0    1
 -2        58        57        61        62        60        59        63        64
 -1        16    1    0    1
 -2        62        61        65        66        64        63        67        68
 -1        17    1    0    1
 -2        66        65        69        70        68        67        71        72
 -1        18    1    0    1
 -2        70        69        73        74        72        71        75        76
 -1        19    1    0    1
 -2        74        73        77        78        76        75        79        80
 -1        20    1    0    1
 -2        78        77        81        82        80        79        83        84
 -1        21    1    0    1
 -2         2        85        86         3         6        87        88         7
 -1        22    1    0    1
 -2         3        86        89         9         7        88        90        11
 -1        23    1    0    1
 -2         9        89        91        13        11        90        92        15
 -1        24    1    0    1
 -2        13        91        93        17        15        92        94        19
 -1        25    1    0    1
 -2        17        93        95        21        19        94        96        23
 -1        26    1    0    1
 -2        21        95        97        25        23        96        98        27
 -1        27    1    0    1
 -2        25        97        99        29        27        98       100        31
 -1        28    1    0    1
 -2        29        99       101        33        31       100       102        35
 -1        29    1    0    1
 -2        33       101       103        37        35       102       104        39
 -1        30    1    0    1
 -2        37       103       105        41        39       104       106        43
 -1        31    1    0    1
 -2        41       105       107        45        43       106       108        47
 -1        32    1    0    1
 -2        45       107       109        49        47       108       110        51
 -1        33    1    0    1
 -2        49       109       111        53        51       110       112        55
 -1        34    1    0    1
 -2        53       111       113        57        55       112       114        59
 -1        35    1    0    1
 -2        57       113       115        61        59       114       116        63
 -1        36    1    0    1
 -2        61       115       117        65        63       116       118        67
 -1        37    1    0    1
 -2        65       117       119        69        67       118       120        71
 -1        38    1    0    1
 -2        69       119       121        73        71       120       122        75
 -1        39    1    0    1
 -2        73       121       123        77        75       122       124        79
 -1        40    1    0    1
 -2        77       123       125        81        79       124       126        83
 -1        41    1    0    1
 -2       127       128       129       130       131       132       133       134
 -1        42    1    0    1
 -2       130       129       135       136       134       133       137       138
 -1        43    1    0    1
 -2       136       135       139       140       138       137       141       142
 -1        44    1    0    1
 -2       140       139       143       144       142       141       145       146
 -1        45    1    0    1
 -2       144       143       147       148       146       145       149       150
 -1        46    1    0    1
 -2       148       147       151       152       150       149       153       154
 -1        47    1    0    1
 -2       152       151       155       156       154       153       157       158
 -1        48    1    0    1
 -2       156       155       159       160       158       157       161       162
 -1        49    1    0    1
 -2       160       159       163       164       162       161       165       166
 -1        50    1    0    1
 -2       164       163       167       168       166       165       169       170
 -1        51    1    0    1
 -2       168       167       171       172       170       169       173       174
 -1        52    1    0    1
 -2       172       171       175       176       174       173       177       178
 -1        53    1    0    1
 -2       176       175       179       180       178       177       181       182
 -1        54    1    0    1
 -2       180       179       183       184       182       181       185       186
 -1        55    1    0    1
 -2       184       183       187       188       186       185       189       190
 -1        56    1    0    1
 -2       188       187       191       192       190       189       193       194
 -1        57    1    0    1
 -2       192       191       195       196       194       193       197       198
 -1        58    1    0    1
 -2       196       195       199       200       198       197       201       202
 -1        59    1    0    1
 -2       200       199       203       204       202       201       205       206
 -1        60    1    0    1
 -2       204       203       207       208       206       205       209       210
 -1        61    1    0    1
 -2       128       211       212       129       132       213       214       133
 -1        62    1    0    1
 -2       129       212       215       135       133       214       216       137
 -1        63    1    0    1
 -2       135       215       217       139       137       216       218       141
 -1        64    1    0    1
 -2       139       217       219       143       141       218       220       145
 -1        65    1    0    1
 -2       143       219       221       147       145       220       222       149
 -1        66    1    0    1
 -2       147       221       223       151       149       222       224       153
 -1        67    1    0    1
 -2       151       223       225       155       153       224       226       157
 -1        68    1    0    1
 -2       155       225       227       159       157       226       228       161
 -1        69    1    0    1
 -2       159       227       229       163       161       228       230       165
 -1        70    1    0    1
 -2       163       229       231       167       165       230       232       169
 -1        71    1    0    1
 -2       167       231       233       171       169       232       234       173
 -1        72    1    0    1
 -2       171       233       235       175       173       234       236       177
 -1        73    1    0    1
 -2       175       235       237       179       177       236       238       181
 -1        74    1    0    1
 -2       179       237       239       183       181       238       240       185
 -1        75    1    0    1
 -2       183       239       241       187       185       240       242       189
 -1        76    1    0    1
 -2       187       241       243       191       189       242       244       193
 -1        77    1    0    1
 -2       191       243       245       195       193       244       246       197
 -1        78    1    0    1
 -2       195       245       247       199       197       246       248       201
 -1        79    1    0    1
 -2       199       247       249       203       201       248       250       205
 -1        80    1    0    1
 -2       203       249       251       207       205       250       252       209
 -1        81    1    0    1
 -2       253       254       255       256       257       258       259       260
 -1        82    1    0    1
 -2       256       255       261       262       260       259       263       264
 -1        83    1    0    1
 -2       262       261       265       266       264       263       267       268
 -1        84    1    0    1
 -2       266       265       269       270       268       267       271       272
 -1        85    1    0    1
 -2       270       269       273       274       272       271       275       276
 -1        86    1    0    1
 -2       274       273       277       278       276       275       279       280
 -1        87    1    0    1
 -2       278       277       281       282       280       279       283       284
 -1        88    1    0    1
 -2       282       281       285       286       284       283       287       288
 -1        89    1    0    1
 -2       286       285       289       290       288       287       291       292
 -1        90    1    0    1
 -2       290       289       293       294       292       291       295       296
 -1        91    1    0    1
 -2       294       293       297       298       296       295       299       300
 -1        92    1    0    1
 -2       298       297       301       302       300       299       303       304
 -1        93    1    0    1
 -2       302       301       305       306       304       303       307       308
 -1        94    1    0    1
 -2       306       305       309       310       308       307       311       312
 -1        95    1    0    1
 -2       310       309       313       314       312       311       315       316
 -1        96    1    0    1
 -2       314       313       317       318       316       315       319       320
 -1        97    1    0    1
 -2       318       317       321       322       320       319       323       324
 -1        98    1    0    1
 -2       322       321       325       326       324       323       327       328
 -1        99    1    0    1
 -2       326       325       329       330       328       327       331       332
 -1       100    1    0    1
 -2       330       329       333       334       332       331       335       336
 -1       101    1    0    1
 -2       257       258       259       260       337       338       339       340
 -1       102    1    0    1
 -2       260       259       263       264       340       339       341       342
 -1       103    1    0    1
 -2       264       263       267       268       342       341       343       344
 -1       104    1    0    1
 -2       268       267       271       272       344       343       345       346
 -1       105    1    0    1
 -2       272       271       275       276       346       345       347       348
 -1       106    1    0    1
 -2       276       275       279       280       348       347       349       350
 -1       107    1    0    1
 -2       280       279       283       284       350       349       351       352
 -1       108    1    0    1
 -2       284       283       287       288       352       351       353       354
 -1       109    1    0    1
 -2       288       287       291       292       354       353       355       356
 -1       110    1    0    1
 -2       292       291       295       296       356       355       357       358
 -1       111    1    0    1
 -2       296       295       299       300       358       357       359       360
 -1       112    1    0    1
 -2       300       299       303       304       360       359       361       362
 -1       113    1    0    1
 -2       304       303       307       308       362       361       363       364
 -1       114    1    0    1
 -2       308       307       311       312       364       363       365       366
 -1       115    1    0    1
 -2       312       311       315       316       366       365       367       368
 -1       116    1    0    1
 -2       316       315       319       320       368       367       369       370
 -1       117    1    0    1
 -2       320       319       323       324       370       369       371       372
 -1       118    1    0    1
 -2       324       323       327       328       372       371       373       374
 -1       119    1    0    1
 -2       328       327       331       332       374       373       375       376
 -1       120    1    0    1
 -2       332       331       335       336       376       375       377       378
 -1       121    1    0    1
 -2       254       379       380       255       258       381       382       259
 -1       122    1    0    1
 -2       255       380       383       261       259       382       384       263
 -1       123    1    0    1
 -2       261       383       385       265       263       384       386       267
 -1       124    1    0    1
 -2       265       385       387       269       267       386       388       271
 -1       125    1    0    1
 -2       269       387       389       273       271       388       390       275
 -1       126    1    0    1
 -2       273       389       391       277       275       390       392       279
 -1       127    1    0    1
 -2       277       391       393       281       279       392       394       283
 -1       128    1    0    1
 -2       281       393       395       285       283       394       396       287
 -1       129    1    0    1
 -2       285       395       397       289       287       396       398       291
 -1       130    1    0    1
 -2       289       397       399       293       291       398       400       295
 -1       131    1    0    1
 -2       293       399       401       297       295       400       402       299
 -1       132    1    0    1
 -2       297       401       403       301       299       402       404       303
 -1       133    1    0    1
 -2       301       403       405       305       303       404       406       307
 -1       134    1    0    1
 -2       305       405       407       309       307       406       408       311
 -1       135    1    0    1
 -2       309       407       409       313       311       408       410       315
 -1       136    1    0    1
 -2       313       409       411       317       315       410       412       319
 -1       137    1    0    1
 -2       317       411       413       321       319       412       414       323
 -1       138    1    0    1
 -2       321       413       415       325       323       414       416       327
 -1       139    1    0    1
 -2       325       415       417       329       327       416       418       331
 -1       140    1    0    1
 -2       329       417       419       333       331       418       420       335
 -1       141    1    0    1
 -2       258       381       382       259       338       421       422       339
 -1       142    1    0    1
 -2       259       382       384       263       339       422       423       341
 -1       143    1    0    1
 -2       263       384       386       267       341       423       424       343
 -1       144    1    0    1
 -2       267       386       388       271       343       424       425       345
 -1       145    1    0    1
 -2       271       388       390       275       345       425       426       347
 -1       146    1    0    1
 -2       275       390       392       279       347       426       427       349
 -1       147    1    0    1
 -2       279       392       394       283       349       427       428       351
 -1       148    1    0    1
 -2       283       394       396       287       351       428       429       353
 -1       149    1    0    1
 -2       287       396       398       291       353       429       430       355
 -1       150    1    0    1
 -2       291       398       400       295       355       430       431       357
 -1       151    1    0    1
 -2       295       400       402       299       357       431       432       359
 -1       152    1    0    1
 -2       299       402       404       303       359       432       433       361
 -1       153    1    0    1
 -2       303       404       406       307       361       433       434       363
 -1       154    1    0    1
 -2       307       406       408       311       363       434       435       365
 -1       155    1    0    1
 -2       311       408       410       315       365       435       436       367
 -1       156    1    0    1
 -2       315       410       412       319       367       436       437       369
 -1       157    1    0    1
 -2       319       412       414       323       369       437       438       371
 -1       158    1    0    1
 -2       323       414       416       327       371       438       439       373
 -1       159    1    0    1
 -2       327       416       418       331       373       439       440       375
 -1       160    1    0    1
 -2       331       418       420       335       375       440       441       377
 -1       161    1    0    1
 -2       442       443       444       445       446       447       448       449
 -1       162    1    0    1
 -2       445       444       450       451       449       448       452       453
 -1       163    1    0    1
 -2       451       450       454       455       453       452       456       457
 -1       164    1    0    1
 -2       455       454       458       459       457       456       460       461
 -1       165    1    0    1
 -2       459       458       462       463       461       460       464       465
 -1       166    1    0    1
 -2       463       462       466       467       465       464       468       469
 -1       167    1    0    1
 -2       467       466       470       471       469       468       472       473
 -1       168    1    0    1
 -2       471       470       474       475       473       472       476       477
 -1       169    1    0    1
 -2       475       474       478       479       477       476       480       481
 -1       170    1    0    1
 -2       479       478       482       483       481       480       484       485
 -1       171    1    0    1
 -2       483       482       486       487       485       484       488       489
 -1       172    1    0    1
 -2       487       486       490       491       489       488       492       493
 -1       173    1    0    1
 -2       491       490       494       495       493       492       496       497
 -1       174    1    0    1
 -2       495       494       498       499       497       496       500       501
 -1       175    1    0    1
 -2       499       498       502       503       501       500       504       505
 -1       176    1    0    1
 -2       503       502       506       507       505       504       508       509
 -1       177    1    0    1
 -2       507       506       510       511       509       508       512       513
 -1       178    1    0    1
 -2       511       510       514       515       513       512       516       517
 -1       179    1    0    1
 -2       515       514       518       519       517       516       520       521
 -1       180    1    0    1
 -2       519       518       522       523       521       520       524       525
 -1       181    1    0    1
 -2       446       447       448       449       526       527       528       529
 -1       182    1    0    1
 -2       449       448       452       453       529       528       530       531
 -1       183    1    0    1
 -2       453       452       456       457       531       530       532       533
 -1       184    1    0    1
 -2       457       456       460       461       533       532       534       535
 -1       185    1    0    1
 -2       461       460       464       465       535       534       536       537
 -1       186    1    0    1
 -2       465       464       468       469       537       536       538       539
 -1       187    1    0    1
 -2       469       468       472       473       539       538       540       541
 -1       188    1    0    1
 -2       473       472       476       477       541       540       542       543
 -1       189    1    0    1
 -2       477       476       480       481       543       542       544       545
 -1       190    1    0    1
 -2       481       480       484       485       545       544       546       547
 -1       191    1    0    1
 -2       485       484       488       489       547       546       548       549
 -1       192    1    0    1
 -2       489       488       492       493       549       548       550       551
 -1       193    1    0    1
 -2       493       492       496       497       551       550       552       553
 -1       194    1    0    1
 -2       497       496       500       501       553       552       554       555
 -1       195    1    0    1
 -2       501       500       504       505       555       554       556       557
 -1       196    1    0    1
 -2       505       504       508       509       557       556       558       559
 -1       197    1    0    1
 -2       509       508       512       513       559       558       560       561
 -1       198    1    0    1
 -2       513       512       516       517       561       560       562       563
 -1       199    1    0    1
 -2       517       516       520       521       563       562       564       565
 -1       200    1    0    1
 -2       521       520       524       525       565       564       566       567
 -1       201    1    0    1
 -2       526       527       528       529       568       569       570       571
 -1       202    1    0    1
 -2       529       528       530       531       571       570       572       573
 -1       203    1    0    1
 -2       531       530       532       533       573       572       574       575
 -1       204    1    0    1
 -2       533       532       534       535       575       574       576       577
 -1       205    1    0    1
 -2       535       534       536       537       577       576       578       579
 -1       206    1    0    1
 -2       537       536       538       539       579       578       580       581
 -1       207    1    0    1
 -2       539       538       540       541       581       580       582       583
 -1       208    1    0    1
 -2       541       540       542       543       583       582       584       585
 -1       209    1    0    1
 -2       543       542       544       545       585       584       586       587
 -1       210    1    0    1
 -2       545       544       546       547       587       586       588       589
 -1       211    1    0    1
 -2       547       546       548       549       589       588       590       591
 -1       212    1    0    1
 -2       549       548       550       551       591       590       592       593
 -1       213    1    0    1
 -2       551       550       552       553       593       592       594       595
 -1       214    1    0    1
 -2       553       552       554       555       595       594       596       597
 -1       215    1    0    1
 -2       555       554       556       557       597       596       598       599
 -1       216    1    0    1
 -2       557       556       558       559       599       598       600       601
 -1       217    1    0    1
 -2       559       558       560       561       601       600       602       603
 -1       218    1    0    1
 -2       561       560       562       563       603       602       604       605
 -1       219    1    0    1
 -2       563       562       564       565       605       604       606       607
 -1       220    1    0    1
 -2       565       564       566       567       607       606       608       609
 -1       221    1    0    1
 -2       568       569       570       571       610       611       612       613
 -1       222    1    0    1
 -2       571       570       572       573       613       612       614       615
 -1       223    1    0    1
 -2       573       572       574       575       615       614       616       617
 -1       224    1    0    1
 -2       575       574       576       577       617       616       618       619
 -1       225    1    0    1
 -2       577       576       578       579       619       618       620       621
 -1       226    1    0    1
 -2       579       578       580       581       621       620       622       623
 -1       227    1    0    1
 -2       581       580       582       583       623       622       624       625
 -1       228    1    0    1
 -2       583       582       584       585       625       624       626       627
 -1       229    1    0    1
 -2       585       584       586       587       627       626       628       629
 -1       230    1    0    1
 -2       587       586       588       589       629       628       630       631
 -1       231    1    0    1
 -2       589       588       590       591       631       630       632       633
 -1       232    1    0    1
 -2       591       590       592       593       633       632       634       635
 -1       233    1    0    1
 -2       593       592       594       595       635       634       636       637
 -1       234    1    0    1
 -2       595       594       596       597       637       636       638       639
 -1       235    1    0    1
 -2       597       596       598       599       639       638       640       641
 -1       236    1    0    1
 -2       599       598       600       601       641       640       642       643
 -1       237    1    0    1
 -2       601       600       602       603       643       642       644       645
 -1       238    1    0    1
 -2       603       602       604       605       645       644       646       647
 -1       239    1    0    1
 -2       605       604       606       607       647       646       648       649
 -1       240    1    0    1
 -2       607       606       608       609       649       648       650       651
 -1       241    1    0    1
 -2       610       611       612       613       652       653       654       655
 -1       242    1    0    1
 -2       613       612       614       615       655       654       656       657
 -1       243    1    0    1
 -2       615       614       616       617       657       656       658       659
 -1       244    1    0    1
 -2       617       616       618       619       659       658       660       661
 -1       245    1    0    1
 -2       619       618       620       621       661       660       662       663
 -1       246    1    0    1
 -2       621       620       622       623       663       662       664       665
 -1       247    1    0    1
 -2       623       622       624       625       665       664       666       667
 -1       248    1    0    1
 -2       625       624       626       627       667       666       668       669
 -1       249    1    0    1
 -2       627       626       628       629       669       668       670       671
 -1       250    1    0    1
 -2       629       628       630       631       671       670       672       673
 -1       251    1    0    1
 -2       631       630       632       633       673       672       674       675
 -1       252    1    0    1
 -2       633       632       634       635       675       674       676       677
 -1       253    1    0    1
 -2       635       634       636       637       677       676       678       679
 -1       254    1    0    1
 -2       637       636       638       639       679       678       680       681
 -1       255    1    0    1
 -2       639       638       640       641       681       680       682       683
 -1       256    1    0    1
 -2       641       640       642       643       683       682       684       685
 -1       257    1    0    1
 -2       643       642       644       645       685       684       686       687
 -1       258    1    0    1
 -2       645       644       646       647       687       686       688       689
 -1       259    1    0    1
 -2       647       646       648       649       689       688       690       691
 -1       260    1    0    1
 -2       649       648       650       651       691       690       692       693
 -1       261    1    0    1
 -2       652       653       654       655       694       695       696       697
 -1       262    1    0    1
 -2       655       654       656       657       697       696       698       699
 -1       263    1    0    1
 -2       657       656       658       659       699       698       700       701
 -1       264    1    0    1
 -2       659       658       660       661       701       700       702       703
 -1       265    1    0    1
 -2       661       660       662       663       703       702       704       705
 -1       266    1    0    1
 -2       663       662       664       665       705       704       706       707
 -1       267    1    0    1
 -2       665       664       666       667       707       706       708       709
 -1       268    1    0    1
 -2       667       666       668       669       709       708       710       711
 -1       269    1    0    1
 -2       669       668       670       671       711       710       712       713
 -1       270    1    0    1
 -2       671       670       672       673       713       712       714       715
 -1       271    1    0    1
 -2       673       672       674       675       715       714       716       717
 -1       272    1    0    1
 -2       675       674       676       677       717       716       718       719
 -1       273    1    0    1
 -2       677       676       678       679       719       718       720       721
 -1       274    1    0    1
 -2       679       678       680       681       721       720       722       723
 -1       275    1    0    1
 -2       681       680       682       683       723       722       724       725
 -1       276    1    0    1
 -2       683       682       684       685       725       724       726       727
 -1       277    1    0    1
 -2       685       684       686       687       727       726       728       729
 -1       278    1    0    1
 -2       687       686       688       689       729       728       730       731
 -1       279    1    0    1
 -2       689       688       690       691       731       730       732       733
 -1       280    1    0    1
 -2       691       690       692       693       733       732       734       735
 -1       281    1    0    1
 -2       694       695       696       697       736       737       738       739
 -1       282    1    0    1
 -2       697       696       698       699       739       738       740       741
 -1       283    1    0    1
 -2       699       698       700       701       741       740       742       743
 -1       284    1    0    1
 -2       701       700       702       703       743       742       744       745
 -1       285    1    0    1
 -2       703       702       704       705       745       744       746       747
 -1       286    1    0    1
 -2       705       704       706       707       747       746       748       749
 -1       287    1    0    1
 -2       707       706       708       709       749       748       750       751
 -1       288    1    0    1
 -2       709       708       710       711       751       750       752       753
 -1       289    1    0    1
 -2       711       710       712       713       753       752       754       755
 -1       290    1    0    1
 -2       713       712       714       715       755       754       756       757
 -1       291    1    0    1
 -2       715       714       716       717       757       756       758       759
 -1       292    1    0    1
 -2       717       716       718       719       759       758       760       761
 -1       293    1    0    1
 -2       719       718       720       721       761       760       762       763
 -1       294    1    0    1
 -2       721       720       722       723       763       762       764       765
 -1       295    1    0    1
 -2       723       722       724       725       765       764       766       767
 -1       296    1    0    1
 -2       725       724       726       727       767       766       768       769
 -1       297    1    0    1
 -2       727       726       728       729       769       768       770       771
 -1       298    1    0    1
 -2       729       728       730       731       771       770       772       773
 -1       299    1    0    1
 -2       731       730       732       733       773       772       774       775
 -1       300    1    0    1
 -2       733       732       734       735       775       774       776       777
 -1       301    1    0    1
 -2       736       737       738       739       778       779       780       781
 -1       302    1    0    1
 -2       739       738       740       741       781       780       782       783
 -1       303    1    0    1
 -2       741       740       742       743       783       782       784       785
 -1       304    1    0    1
 -2       743       742       744       745       785       784       786       787
 -1       305    1    0    1
 -2       745       744       746       747       787       786       788       789
 -1       306    1    0    1
 -2       747       746       748       749       789       788       790       791
 -1       307    1    0    1
 -2       749       748       750       751       791       790       792       793
 -1       308    1    0    1
 -2       751       750       752       753       793       792       794       795
 -1       309    1    0    1
 -2       753       752       754       755       795       794       796       797
 -1       310    1    0    1
 -2       755       754       756       757       797       796       798       799
 -1       311    1    0    1
 -2       757       756       758       759       799       798       800       801
 -1       312    1    0    1
 -2       759       758       760       761       801       800       802       803
 -1       313    1    0    1
 -2       761       760       762       763       803       802       804       805
 -1       314    1    0    1
 -2       763       762       764       765       805       804       806       807
 -1       315    1    0    1
 -2       765       764       766       767       807       806       808       809
 -1       316    1    0    1
 -2       767       766       768       769       809       808       810       811
 -1       317    1    0    1
 -2       769       768       770       771       811       810       812       813
 -1       318    1    0    1
 -2       771       770       772       773       813       812       814       815
 -1       319    1    0    1
 -2       773       772       774       775       815       814       816       817
 -1       320    1    0    1
 -2       775       774       776       777       817       816       818       819
 -1       321    1    0    1
 -2       778       779       780       781       820       821       822       823
 -1       322    1    0    1
 -2       781       780       782       783       823       822       824       825
 -1       323    1    0    1
 -2       783       782       784       785       825       824       826       827
 -1       324    1    0    1
 -2       785       784       786       787       827       826       828       829
 -1       325    1    0    1
 -2       787       786       788       789       829       828       830       831
 -1       326    1    0    1
 -2       789       788       790       791       831       830       832       833
 -1       327    1    0    1
 -2       791       790       792       793       833       832       834       835
 -1       328    1    0    1
 -2       793       792       794       795       835       834       836       837
 -1       329    1    0    1
 -2       795       794       796       797       837       836       838       839
 -1       330    1    0    1
 -2       797       796       798       799       839       838       840       841
 -1       331    1    0    1
 -2       799       798       800       801       841       840       842       843
 -1       332    1    0    1
 -2       801       800       802       803       843       842       844       845
 -1       333    1    0    1
 -2       803       802       804       805       845       844       846       847
 -1       334    1    0    1
 -2       805       804       806       807       847       846       848       849
 -1       335    1    0    1
 -2       807       806       808       809       849       848       850       851
 -1       336    1    0    1
 -2       809       808       810       811       851       850       852       853
 -1       337    1    0    1
 -2       811       810       812       813       853       852       854       855
 -1       338    1    0    1
 -2       813       812       814       815       855       854       856       857
 -1       339    1    0    1
 -2       815       814       816       817       857       856       858       859
 -1       340    1    0    1
 -2       817       816       818       819       859       858       860       861
 -1       341    1    0    1
 -2       820       821       822       823       862       863       864       865
 -1       342    1    0    1
 -2       823       822       824       825       865       864       866       867
 -1       343    1    0    1
 -2       825       824       826       827       867       866       868       869
 -1       344    1    0    1
 -2       827       826       828       829       869       868       870       871
 -1       345    1    0    1
 -2       829       828       830       831       871       870       872       873
 -1       346    1    0    1
 -2       831       830       832       833       873       872       874       875
 -1       347    1    0    1
 -2       833       832       834       835       875       874       876       877
 -1       348    1    0    1
 -2       835       834       836       837       877       876       878       879
 -1       349    1    0    1
 -2       837       836       838       839       879       878       880       881
 -1       350    1    0    1
 -2       839       838       840       841       881       880       882       883
 -1       351    1    0    1
 -2       841       840       842       843       883       882       884       885
 -1       352    1    0    1
 -2       843       842       844       845       885       884       886       887
 -1       353    1    0    1
 -2       845       844       846       847       887       886       888       889
 -1       354    1    0    1
 -2       847       846       848       849       889       888       890       891
 -1       355    1    0    1
 -2       849       848       850       851       891       890       892       893
 -1       356    1    0    1
 -2       851       850       852       853       893       892       894       895
 -1       357    1    0    1
 -2       853       852       854       855       895       894       896       897
 -1       358    1    0    1
 -2       855       854       856       857       897       896       898       899
 -1       359    1    0    1
 -2       857       856       858       859       899       898       900       901
 -1       360    1    0    1
 -2       859       858       860       861       901       900       902       903
 -1       361    1    0    1
 -2       862       863       864       865       904       905       906       907
 -1       362    1    0    1
 -2       865       864       866       867       907       906       908       909
 -1       363    1    0    1
 -2       867       866       868       869       909       908       910       911
 -1       364    1    0    1
 -2       869       868       870       871       911       910       912       913
 -1       365    1    0    1
 -2       871       870       872       873       913       912       914       915
 -1       366    1    0    1
 -2       873       872       874       875       915       914       916       917
 -1       367    1    0    1
 -2       875       874       876       877       917       916       918       919
 -1       368    1    0    1
 -2       877       876       878       879       919       918       920       921
 -1       369    1    0    1
 -2       879       878       880       881       921       920       922       923
 -1       370    1    0    1
 -2       881       880       882       883       923       922       924       925
 -1       371    1    0    1
 -2       883       882       884       885       925       924       926       927
 -1       372    1    0    1
 -2       885       884       886       887       927       926       928       929
 -1       373    1    0    1
 -2       887       886       888       889       929       928       930       931
 -1       374    1    0    1
 -2       889       888       890       891       931       930       932       933
 -1       375    1    0    1
 -2       891       890       892       893       933       932       934       935
 -1       376    1    0    1
 -2       893       892       894       895       935       934       936       937
 -1       377    1    0    1
 -2       895       894       896       897       937       936       938       939
 -1       378    1    0    1
 -2       897       896       898       899       939       938       940       941
 -1       379    1    0    1
 -2       899       898       900       901       941       940       942       943
 -1       380    1    0    1
 -2       901       900       902       903       943       942       944       945
 -1       381    1    0    1
 -2       904       905       906       907       946       947       948       949
 -1       382    1    0    1
 -2       907       906       908       909       949       948       950       951
 -1       383    1    0    1
 -2       909       908       910       911       951       950       952       953
 -1       384    1    0    1
 -2       911       910       912       913       953       952       954       955
 -1       385    1    0    1
 -2       913       912       914       915       955       954       956       957
 -1       386    1    0    1
 -2       915       914       916       917       957       956       958       959
 -1       387    1    0    1
 -2       917       916       918       919       959       958       960       961
 -1       388    1    0    1
 -2       919       918       920       921       961       960       962       963
 -1       389    1    0    1
 -2       921       920       922       923       963       962       964       965
 -1       390    1    0    1
 -2       923       922       924       925       965       964       966       967
 -1       391    1    0    1
 -2       925       924       926       927       967       966       968       969
 -1       392    1    0    1
 -2       927       926       928       929       969       968       970       971
 -1       393    1    0    1
 -2       929       928       930       931       971       970       972       973
 -1       394    1    0    1
 -2       931       930       932       933       973       972       974       975
 -1       395    1    0    1
 -2       933       932       934       935       975       974       976       977
 -1       396    1    0    1
 -2       935       934       936       937       977       976       978       979
 -1       397    1    0    1
 -2       937       936       938       939       979       978       980       981
 -1       398    1    0    1
 -2       939       938       940       941       981       980       982       983
 -1       399    1    0    1
 -2       941       940       942       943       983       982       984       985
 -1       400    1    0    1
 -2       943       942       944       945       985       984       986       987
 -1       401    1    0    1
 -2       946       947       948       949       988       989       990       991
 -1       402    1    0    1
 -2       949       948       950       951       991       990       992       993
 -1       403    1    0    1
 -2       951       950       952       953       993       992       994       995
 -1       404    1    0    1
 -2       953       952       954       955       995       994       996       997
 -1       405    1    0    1
 -2       955       954       956       957       997       996       998       999
 -1       406    1    0    1
 -2       957       956       958       959       999       998      1000      1001
 -1       407    1    0    1
 -2       959       958       960       961      1001      1000      1002      1003
 -1       408    1    0    1
 -2       961       960       962       963      1003      1002      1004      1005
 -1       409    1    0    1
 -2       963       962       964       965      1005      1004      1006      1007
 -1       410    1    0    1
 -2       965       964       966       967      1007      1006      1008      1009
 -1       411    1    0    1
 -2       967       966       968       969      1009      1008      1010      1011
 -1       412    1    0    1
 -2       969       968       970       971      1011      1010      1012      1013
 -1       413    1    0    1
 -2       971       970       972       973      1013      1012      1014      1015
 -1       414    1    0    1
 -2       973       972       974       975      1015      1014      1016      1017
 -1       415    1    0    1
 -2       975       974       976       977      1017      1016      1018      1019
 -1       416    1    0    1
 -2       977       976       978       979      1019      1018      1020      1021
 -1       417    1    0    1
 -2       979       978       980       981      1021      1020      1022      1023
 -1       418    1    0    1
 -2       981       980       982       983      1023      1022      1024      1025
 -1       419    1    0    1
 -2       983       982       984       985      1025      1024      1026      1027
 -1       420    1    0    1
 -2       985       984       986       987      1027      1026      1028      1029
 -1       421    1    0    1
 -2       988       989       990       991      1030      1031      1032      1033
 -1       422    1    0    1
 -2       991       990       992       993      1033      1032      1034      1035
 -1       423    1    0    1
 -2       993       992       994       995      1035      1034      1036      1037
 -1       424    1    0    1
 -2       995       994       996       997      1037      1036      1038      1039
 -1       425    1    0    1
 -2       997       996       998       999      1039      1038      1040      1041
 -1       426    1    0    1
 -2       999       998      1000      1001      1041      1040      1042      1043
 -1       427    1    0    1
 -2      1001      1000      1002      1003      1043      1042      1044      1045
 -1       428    1    0    1
 -2      1003      1002      1004      1005      1045      1044      1046      1047
 -1       429    1    0    1
 -2      1005      1004      1006      1007      1047      1046      1048      1049
 -1       430    1    0    1
 -2      1007      1006      1008      1009      1049      1048      1050      1051
 -1       431    1    0    1
 -2      1009      1008      1010      1011      1051      1050      1052      1053
 -1       432    1    0    1
 -2      1011      1010      1012      1013      1053      1052      1054      1055
 -1       433    1    0    1
 -2      1013      1012      1014      1015      1055      1054      1056      1057
 -1       434    1    0    1
 -2      1015      1014      1016      1017      1057      1056      1058      1059
 -1       435    1    0    1
 -2      1017      1016      1018      1019      1059      1058      1060      1061
 -1       436    1    0    1
 -2      1019      1018      1020      1021      1061      1060      1062      1063
 -1       437    1    0    1
 -2      1021      1020      1022      1023      1063      1062      1064      1065
 -1       438    1    0    1
 -2      1023      1022      1024      1025      1065      1064      1066      1067
 -1       439    1    0    1
 -2      1025      1024      1026      1027      1067      1066      1068      1069
 -1       440    1    0    1
 -2      1027      1026      1028      1029      1069      1068      1070      1071
 -1       441    1    0    1
 -2      1030      1031      1032      1033      1072      1073      1074      1075
 -1       442    1    0    1
 -2      1033      1032      1034      1035      1075      1074      1076      1077
 -1       443    1    0    1
 -2      1035      1034      1036      1037      1077      1076      1078      1079
 -1       444    1    0    1
 -2      1037      1036      1038      1039      1079      1078      1080      1081
 -1       445    1    0    1
 -2      1039      1038      1040      1041      1081      1080      1082      1083
 -1       446    1    0    1
 -2      1041      1040      1042      1043      1083      1082      1084      1085
 -1       447    1    0    1
 -2      1043      1042      1044      1045      1085      1084      1086      1087
 -1       448    1    0    1
 -2      1045      1044      1046      1047      1087      1086      1088      1089
 -1       449    1    0    1
 -2      1047      1046      1048      1049      1089      1088      1090      1091
 -1       450    1    0    1
 -2      1049      1048      1050      1051      1091      1090      1092      1093
 -1       451    1    0    1
 -2      1051      1050      1052      1053      1093      1092      1094      1095
 -1       452    1    0    1
 -2      1053      1052      1054      1055      1095      1094      1096      1097
 -1       453    1    0    1
 -2      1055      1054      1056      1057      1097      1096      1098      1099
 -1       454    1    0    1
 -2      1057      1056      1058      1059      1099      1098      1100      1101
 -1       455    1    0    1
 -2      1059      1058      1060      1061      1101      1100      1102      1103
 -1       456    1    0    1
 -2      1061      1060      1062      1063      1103      1102      1104      1105
 -1       457    1    0    1
 -2      1063      1062      1064      1065      1105      1104      1106      1107
 -1       458    1    0    1
 -2      1065      1064      1066      1067      1107      1106      1108      1109
 -1       459    1    0    1
 -2      1067      1066      1068      1069      1109      1108      1110      1111
 -1       460    1    0    1
 -2      1069      1068      1070      1071      1111      1110      1112      1113
 -1       461    1    0    1
 -2      1072      1073      1074      1075      1114      1115      1116      1117
 -1       462    1    0    1
 -2      1075      1074      1076      1077      1117      1116      1118      1119
 -1       463    1    0    1
 -2      1077      1076      1078      1079      1119      1118      1120      1121
 -1       464    1    0    1
 -2      1079      1078      1080      1081      1121      1120      1122      1123
 -1       465    1    0    1
 -2      1081      1080      1082      1083      1123      1122      1124      1125
 -1       466    1    0    1
 -2      1083      1082      1084      1085      1125      1124      1126      1127
 -1       467    1    0    1
 -2      1085      1084      1086      1087      1127      1126      1128      1129
 -1       468    1    0    1
 -2      1087      1086      1088      1089      1129      1128      1130      1131
 -1       469    1    0    1
 -2      1089      1088      1090      1091      1131      1130      1132      1133
 -1       470    1    0    1
 -2      1091      1090      1092      1093      1133      1132      1134      1135
 -1       471    1    0    1
 -2      1093      1092      1094      1095      1135      1134      1136      1137
 -1       472    1    0    1
 -2      1095      1094      1096      1097      1137      1136      1138      1139
 -1       473    1    0    1
 -2      1097      1096      1098      1099      1139      1138      1140      1141
 -1       474    1    0    1
 -2      1099      1098      1100      1101      1141      1140      1142      1143
 -1       475    1    0    1
 -2      1101      1100      1102      1103      1143      1142      1144      1145
 -1       476    1    0    1
 -2      1103      1102      1104      1105      1145      1144      1146      1147
 -1       477    1    0    1
 -2      1105      1104      1106      1107      1147      1146      1148      1149
 -1       478    1    0    1
 -2      1107      1106      1108      1109      1149      1148      1150      1151
 -1       479    1    0    1
 -2      1109      1108      1110      1111      1151      1150      1152      1153
 -1       480    1    0    1
 -2      1111      1110      1112      1113      1153      1152      1154      1155
 -1       481    1    0    1
 -2      1114      1115      1116      1117      1156      1157      1158      1159
 -1       482    1    0    1
 -2      1117      1116      1118      1119      1159      1158      1160      1161
 -1       483    1    0    1
 -2      1119      1118      1120      1121      1161      1160      1162      1163
 -1       484    1    0    1
 -2      1121      1120      1122      1123      1163      1162      1164      1165
 -1       485    1    0    1
 -2      1123      1122      1124      1125      1165      1164      1166      1167
 -1       486    1    0    1
 -2      1125      1124      1126      1127      1167      1166      1168      1169
 -1       487    1    0    1
 -2      1127      1126      1128      1129      1169      1168      1170      1171
 -1       488    1    0    1
 -2      1129      1128      1130      1131      1171      1170      1172      1173
 -1       489    1    0    1
 -2      1131      1130      1132      1133      1173      1172      1174      1175
 -1       490    1    0    1
 -2      1133      1132      1134      1135      1175      1174      1176      1177
 -1       491    1    0    1
 -2      1135      1134      1136      1137      1177      1176      1178      1179
 -1       492    1    0    1
 -2      1137      1136      1138      1139      1179      1178      1180      1181
 -1       493    1    0    1
 -2      1139      1138      1140      1141      1181      1180      1182      1183
 -1       494    1    0    1
 -2      1141      1140      1142      1143      1183      1182      1184      1185
 -1       495    1    0    1
 -2      1143      1142      1144      1145      1185      1184      1186      1187
 -1       496    1    0    1
 -2      1145      1144      1146      1147      1187      1186      1188      1189
 -1       497    1    0    1
 -2      1147      1146      1148      1149      1189      1188      1190      1191
 -1       498    1    0    1
 -2      1149      1148      1150      1151      1191      1190      1192      1193
 -1       499    1    0    1
 -2      1151      1150      1152      1153      1193      1192      1194      1195
 -1       500    1    0    1
 -2      1153      1152      1154      1155      1195      1194      1196      1197
 -1       501    1    0    1
 -2      1156      1157      1158      1159      1198      1199      1200      1201
 -1       502    1    0    1
 -2      1159      1158      1160      1161      1201      1200      1202      1203
 -1       503    1    0    1
 -2      1161      1160      1162      1163      1203      1202      1204      1205
 -1       504    1    0    1
 -2      1163      1162      1164      1165      1205      1204      1206      1207
 -1       505    1    0    1
 -2      1165      1164      1166      1167      1207      1206      1208      1209
 -1       506    1    0    1
 -2      1167      1166      1168      1169      1209      1208      1210      1211
 -1       507    1    0    1
 -2      1169      1168      1170      1171      1211      1210      1212      1213
 -1       508    1    0    1
 -2      1171      1170      1172      1173      1213      1212      1214      1215
 -1       509    1    0    1
 -2      1173      1172      1174      1175      1215      1214      1216      1217
 -1       510    1    0    1
 -2      1175      1174      1176      1177      1217      1216      1218      1219
 -1       511    1    0    1
 -2      1177      1176      1178      1179      1219      1218      1220      1221
 -1       512    1    0    1
 -2      1179      1178      1180      1181      1221      1220      1222      1223
 -1       513    1    0    1
 -2      1181      1180      1182      1183      1223      1222      1224      1225
 -1       514    1    0    1
 -2      1183      1182      1184      1185      1225      1224      1226      1227
 -1       515    1    0    1
 -2      1185      1184      1186      1187      1227      1226      1228      1229
 -1       516    1    0    1
 -2      1187      1186      1188      1189      1229      1228      1230      1231
 -1       517    1    0    1
 -2      1189      1188      1190      1191      1231      1230      1232      1233
 -1       518    1    0    1
 -2      1191      1190      1192      1193      1233      1232      1234      1235
 -1       519    1    0    1
 -2      1193      1192      1194      1195      1235      1234      1236      1237
 -1       520    1    0    1
 -2      1195      1194      1196      1197      1237      1236      1238      1239
 -1       521    1    0    1
 -2      1198      1199      1200      1201      1240      1241      1242      1243
 -1       522    1    0    1
 -2      1201      1200      1202      1203      1243      1242      1244      1245
 -1       523    1    0    1
 -2      1203      1202      1204      1205      1245      1244      1246      1247
 -1       524    1    0    1
 -2      1205      1204      1206      1207      1247      1246      1248      1249
 -1       525    1    0    1
 -2      1207      1206      1208      1209      1249      1248      1250      1251
 -1       526    1    0    1
 -2      1209      1208      1210      1211      1251      1250      1252      1253
 -1       527    1    0    1
 -2      1211      1210      1212      1213      1253      1252      1254      1255
 -1       528    1    0    1
 -2      1213      1212      1214      1215      1255      1254      1256      1257
 -1       529    1    0    1
 -2      1215      1214      1216      1217      1257      1256      1258      1259
 -1       530    1    0    1
 -2      1217      1216      1218      1219      1259      1258      1260      1261
 -1       531    1    0    1
 -2      1219      1218      1220      1221      1261      1260      1262      1263
 -1       532    1    0    1
 -2      1221      1220      1222      1223      1263      1262      1264      1265
 -1       533    1    0    1
 -2      1223      1222      1224      1225      1265      1264      1266      1267
 -1       534    1    0    1
 -2      1225      1224      1226      1227      1267      1266      1268      1269
 -1       535    1    0    1
 -2      1227      1226      1228      1229      1269      1268      1270      1271
 -1       536    1    0    1
 -2      1229      1228      1230      1231      1271      1270      1272      1273
 -1       537    1    0    1
 -2      1231      1230      1232      1233      1273      1272      1274      1275
 -1       538    1    0    1
 -2      1233      1232      1234      1235      1275      1274      1276      1277
 -1       539    1    0    1
 -2      1235      1234      1236      1237      1277      1276      1278      1279
 -1       540    1    0    1
 -2      1237      1236      1238      1239      1279      1278      1280      1281
 -1       541    1    0    1
 -2      1240      1241      1242      1243      1282      1283      1284      1285
 -1       542    1    0    1
 -2      1243      1242      1244      1245      1285      1284      1286      1287
 -1       543    1    0    1
 -2      1245      1244      1246      1247      1287      1286      1288      1289
 -1       544    1    0    1
 -2      1247      1246      1248      1249      1289      1288      1290      1291
 -1       545    1    0    1
 -2      1249      1248      1250      1251      1291      1290      1292      1293
 -1       546    1    0    1
 -2      1251      1250      1252      1253      1293      1292      1294      1295
 -1       547    1    0    1
 -2      1253      1252      1254      1255      1295      1294      1296      1297
 -1       548    1    0    1
 -2      1255      1254      1256      1257      1297      1296      1298      1299
 -1       549    1    0    1
 -2      1257      1256      1258      1259      1299      1298      1300      1301
 -1       550    1    0    1
 -2      1259      1258      1260      1261      1301      1300      1302      1303
 -1       551    1    0    1
 -2      1261      1260      1262      1263      1303      1302      1304      1305
 -1       552    1    0    1
 -2      1263      1262      1264      1265      1305      1304      1306      1307
 -1       553    1    0    1
 -2      1265      1264      1266      1267      1307      1306      1308      1309
 -1       554    1    0    1
 -2      1267      1266      1268      1269      1309      1308      1310      1311
 -1       555    1    0    1
 -2      1269      1268      1270      1271      1311      1310      1312      1313
 -1       556    1    0    1
 -2      1271      1270      1272      1273      1313      1312      1314      1315
 -1       557    1    0    1
 -2      1273      1272      1274      1275      1315      1314      1316      1317
 -1       558    1    0    1
 -2      1275      1274      1276      1277      1317      1316      1318      1319
 -1       559    1    0    1
 -2      1277      1276      1278      1279      1319      1318      1320      1321
 -1       560    1    0    1
 -2      1279      1278      1280      1281      1321      1320      1322      1323
 -1       561    1    0    1
 -2       443      1324      1325       444       447      1326      1327       448
 -1       562    1    0    1
 -2       444      1325      1328       450       448      1327      1329       452
 -1       563    1    0    1
 -2       450      1328      1330       454       452      1329      1331       456
 -1       564    1    0    1
 -2       454      1330      1332       458       456      1331      1333       460
 -1       565    1    0    1
 -2       458      1332      1334       462       460      1333      1335       464
 -1       566    1    0    1
 -2       462      1334      1336       466       464      1335      1337       468
 -1       567    1    0    1
 -2       466      1336      1338       470       468      1337      1339       472
 -1       568    1    0    1
 -2       470      1338      1340       474       472      1339      1341       476
 -1       569    1    0    1
 -2       474      1340      1342       478       476      1341      1343       480
 -1       570    1    0    1
 -2       478      1342      1344       482       480      1343      1345       484
 -1       571    1    0    1
 -2       482      1344      1346       486       484      1345      1347       488
 -1       572    1    0    1
 -2       486      1346      1348       490       488      1347      1349       492
 -1       573    1    0    1
 -2       490      1348      1350       494       492      1349      1351       496
 -1       574    1    0    1
 -2       494      1350      1352       498       496      1351      1353       500
 -1       575    1    0    1
 -2       498      1352      1354       502       500      1353      1355       504
 -1       576    1    0    1
 -2       502      1354      1356       506       504      1355      1357       508
 -1       577    1    0    1
 -2       506      1356      1358       510       508      1357      1359       512
 -1       578    1    0    1
 -2       510      1358      1360       514       512      1359      1361       516
 -1       579    1    0    1
 -2       514      1360      1362       518       516      1361      1363       520
 -1       580    1    0    1
 -2       518      1362      1364       522       520      1363      1365       524
 -1       581    1    0    1
 -2       447      1326      1327       448       527      1366      1367       528
 -1       582    1    0    1
 -2       448      1327      1329       452       528      1367      1368       530
 -1       583    1    0    1
 -2       452      1329      1331       456       530      1368      1369       532
 -1       584    1    0    1
 -2       456      1331      1333       460       532      1369      1370       534
 -1       585    1    0    1
 -2       460      1333      1335       464       534      1370      1371       536
 -1       586    1    0    1
 -2       464      1335      1337       468       536      1371      1372       538
 -1       587    1    0    1
 -2       468      1337      1339       472       538      1372      1373       540
 -1       588    1    0    1
 -2       472      1339      1341       476       540      1373      1374       542
 -1       589    1    0    1
 -2       476      1341      1343       480       542      1374      1375       544
 -1       590    1    0    1
 -2       480      1343      1345       484       544      1375      1376       546
 -1       591    1    0    1
 -2       484      1345      1347       488       546      1376      1377       548
 -1       592    1    0    1
 -2       488      1347      1349       492       548      1377      1378       550
 -1       593    1    0    1
 -2       492      1349      1351       496       550      1378      1379       552
 -1       594    1    0    1
 -2       496      1351      1353       500       552      1379      1380       554
 -1       595    1    0    1
 -2       500      1353      1355       504       554      1380      1381       556
 -1       596    1    0    1
 -2       504      1355      1357       508       556      1381      1382       558
 -1       597    1    0    1
 -2       508      1357      1359       512       558      1382      1383       560
 -1       598    1    0    1
 -2       512      1359      1361       516       560      1383      1384       562
 -1       599    1    0    1
 -2       516      1361      1363       520       562      1384      1385       564
 -1       600    1    0    1
 -2       520      1363      1365       524       564      1385      1386       566
 -1       601    1    0    1
 -2       527      1366      1367       528       569      1387      1388       570
 -1       602    1    0    1
 -2       528      1367      1368       530       570      1388      1389       572
 -1       603    1    0    1
 -2       530      1368      1369       532       572      1389      1390       574
 -1       604    1    0    1
 -2       532      1369      1370       534       574      1390      1391       576
 -1       605    1    0    1
 -2       534      1370      1371       536       576      1391      1392       578
 -1       606    1    0    1
 -2       536      1371      1372       538       578      1392      1393       580
 -1       607    1    0    1
 -2       538      1372      1373       540       580      1393      1394       582
 -1       608    1    0    1
 -2       540      1373      1374       542       582      1394      1395       584
 -1       609    1    0    1
 -2       542      1374      1375       544       584      1395      1396       586
 -1       610    1    0    1
 -2       544      1375      1376       546       586      1396      1397       588
 -1       611    1    0    1
 -2       546      1376      1377       548       588      1397      1398       590
 -1       612    1    0    1
 -2       548      1377      1378       550       590      1398      1399       592
 -1       613    1    0    1
 -2       550      1378      1379       552       592      1399      1400       594
 -1       614    1    0    1
 -2       552      1379      1380       554       594      1400      1401       596
 -1       615    1    0    1
 -2       554      1380      1381       556       596      1401      1402       598
 -1       616    1    0    1
 -2       556      1381      1382       558       598      1402      1403       600
 -1       617    1    0    1
 -2       558      1382      1383       560       600      1403      1404       602
 -1       618    1    0    1
 -2       560      1383      1384       562       602      1404      1405       604
 -1       619    1    0    1
 -2       562      1384      1385       564       604      1405      1406       606
 -1       620    1    0    1
 -2       564      1385      1386       566       606      1406      1407       608
 -1       621    1    0    1
 -2       569      1387      1388       570       611      1408      1409       612
 -1       622    1    0    1
 -2       570      1388      1389       572       612      1409      1410       614
 -1       623    1    0    1
 -2       572      1389      1390       574       614      1410      1411       616
 -1       624    1    0    1
 -2       574      1390      1391       576       616      1411      1412       618
 -1       625    1    0    1
 -2       576      1391      1392       578       618      1412      1413       620
 -1       626    1    0    1
 -2       578      1392      1393       580       620      1413      1414       622
 -1       627    1    0    1
 -2       580      1393      1394       582       622      1414      1415       624
 -1       628    1    0    1
 -2       582      1394      1395       584       624      1415      1416       626
 -1       629    1    0    1
 -2       584      1395      1396       586       626      1416      1417       628
 -1       630    1    0    1
 -2       586      1396      1397       588       628      1417      1418       630
 -1       631    1    0    1
 -2       588      1397      1398       590       630      1418      1419       632
 -1       632    1    0    1
 -2       590      1398      1399       592       632      1419      1420       634
 -1       633    1    0    1
 -2       592      1399      1400       594       634      1420      1421       636
 -1       634    1    0    1
 -2       594      1400      1401       596       636      1421      1422       638
 -1       635    1    0    1
 -2       596      1401      1402       598       638      1422      1423       640
 -1       636    1    0    1
 -2       598      1402      1403       600       640      1423      1424       642
 -1       637    1    0    1
 -2       600      1403      1404       602       642      1424      1425       644
 -1       638    1    0    1
 -2       602      1404      1405       604       644      1425      1426       646
 -1       639    1    0    1
 -2       604      1405      1406       606       646      1426      1427       648
 -1       640    1    0    1
 -2       606      1406      1407       608       648      1427      1428       650
 -1       641    1    0    1
 -2       611      1408      1409       612       653      1429      1430       654
 -1       642    1    0    1
 -2       612      1409      1410       614       654      1430      1431       656
 -1       643    1    0    1
 -2       614      1410      1411       616       656      1431      1432       658
 -1       644    1    0    1
 -2       616      1411      1412       618       658      1432      1433       660
 -1       645    1    0    1
 -2       618      1412      1413       620       660      1433      1434       662
 -1       646    1    0    1
 -2       620      1413      1414       622       662      1434      1435       664
 -1       647    1    0    1
 -2       622      1414      1415       624       664      1435      1436       666
 -1       648    1    0    1
 -2       624      1415      1416       626       666      1436      1437       668
 -1       649    1    0    1
 -2       626      1416      1417       628       668      1437      1438       670
 -1       650    1    0    1
 -2       628      1417      1418       630       670      1438      1439       672
 -1       651    1    0    1
 -2       630      1418      1419       632       672      1439      1440       674
 -1       652    1    0    1
 -2       632      1419      1420       634       674      1440      1441       676
 -1       653    1    0    1
 -2       634      1420      1421       636       676      1441      1442       678
 -1       654    1    0    1
 -2       636      1421      1422       638       678      1442      1443       680
 -1       655    1    0    1
 -2       638      1422      1423       640       680      1443      1444       682
 -1       656    1    0    1
 -2       640      1423      1424       642       682      1444      1445       684
 -1       657    1    0    1
 -2       642      1424      1425       644       684      1445      1446       686
 -1       658    1    0    1
 -2       644      1425      1426       646       686      1446      1447       688
 -1       659    1    0    1
 -2       646      1426      1427       648       688      1447      1448       690
 -1       660    1    0    1
 -2       648      1427      1428       650       690      1448      1449       692
 -1       661    1    0    1
 -2       653      1429      1430       654       695      1450      1451       696
 -1       662    1    0    1
 -2       654      1430      1431       656       696      1451      1452       698
 -1       663    1    0    1
 -2       656      1431      1432       658       698      1452      1453       700
 -1       664    1    0    1
 -2       658      1432      1433       660       700      1453      1454       702
 -1       665    1    0    1
 -2       660      1433      1434       662       702      1454      1455       704
 -1       666    1    0    1
 -2       662      1434      1435       664       704      1455      1456       706
 -1       667    1    0    1
 -2       664      1435      1436       666       706      1456      1457       708
 -1       668    1    0    1
 -2       666      1436      1437       668       708      1457      1458       710
 -1       669    1    0    1
 -2       668      1437      1438       670       710      1458      1459       712
 -1       670    1    0    1
 -2       670      1438      1439       672       712      1459      1460       714
 -1       671    1    0    1
 -2       672      1439      1440       674       714      1460      1461       716
 -1       672    1    0    1
 -2       674      1440      1441       676       716      1461      1462       718
 -1       673    1    0    1
 -2       676      1441      1442       678       718      1462      1463       720
 -1       674    1    0    1
 -2       678      1442      1443       680       720      1463      1464       722
 -1       675    1    0    1
 -2       680      1443      1444       682       722      1464      1465       724
 -1       676    1    0    1
 -2       682      1444      1445       684       724      1465      1466       726
 -1       677    1    0    1
 -2       684      1445      1446       686       726      1466      1467       728
 -1       678    1    0    1
 -2       686      1446      1447       688       728      1467      1468       730
 -1       679    1    0    1
 -2       688      1447      1448       690       730      1468      1469       732
 -1       680    1    0    1
 -2       690      1448      1449       692       732      1469      1470       734
 -1       681    1    0    1
 -2       695      1450      1451       696       737      1471      1472       738
 -1       682    1    0    1
 -2       696      1451      1452       698       738      1472      1473       740
 -1       683    1    0    1
 -2       698      1452      1453       700       740      1473      1474       742
 -1       684    1    0    1
 -2       700      1453      1454       702       742      1474      1475       744
 -1       685    1    0    1
 -2       702      1454      1455       704       744      1475      1476       746
 -1       686    1    0    1
 -2       704      1455      1456       706       746      1476      1477       748
 -1       687    1    0    1
 -2       706      1456      1457       708       748      1477      1478       750
 -1       688    1    0    1
 -2       708      1457      1458       710       750      1478      1479       752
 -1       689    1    0    1
 -2       710      1458      1459       712       752      1479      1480       754
 -1       690    1    0    1
 -2       712      1459      1460       714       754      1480      1481       756
 -1       691    1    0    1
 -2       714      1460      1461       716       756      1481      1482       758
 -1       692    1    0    1
 -2       716      1461      1462       718       758      1482      1483       760
 -1       693    1    0    1
 -2       718      1462      1463       720       760      1483      1484       762
 -1       694    1    0    1
 -2       720      1463      1464       722       762      1484      1485       764
 -1       695    1    0    1
 -2       722      1464      1465       724       764      1485      1486       766
 -1       696    1    0    1
 -2       724      1465      1466       726       766      1486      1487       768
 -1       697    1    0    1
 -2       726      1466      1467       728       768      1487      1488       770
 -1       698    1    0    1
 -2       728      1467      1468       730       770      1488      1489       772
 -1       699    1    0    1
 -2       730      1468      1469       732       772      1489      1490       774
 -1       700    1    0    1
 -2       732      1469      1470       734       774      1490      1491       776
 -1       701    1    0    1
 -2       737      1471      1472       738       779      1492      1493       780
 -1       702    1    0    1
 -2       738      1472      1473       740       780      1493      1494       782
 -1       703    1    0    1
 -2       740      1473      1474       742       782      1494      1495       784
 -1       704    1    0    1
 -2       742      1474      1475       744       784      1495      1496       786
 -1       705    1    0    1
 -2       744      1475      1476       746       786      1496      1497       788
 -1       706    1    0    1
 -2       746      1476      1477       748       788      1497      1498       790
 -1       707    1    0    1
 -2       748      1477      1478       750       790      1498      1499       792
 -1       708    1    0    1
 -2       750      1478      1479       752       792      1499      1500       794
 -1       709    1    0    1
 -2       752      1479      1480       754       794      1500      1501       796
 -1       710    1    0    1
 -2       754      1480      1481       756       796      1501      1502       798
 -1       711    1    0    1
 -2       756      1481      1482       758       798      1502      1503       800
 -1       712    1    0    1
 -2       758      1482      1483       760       800      1503      1504       802
 -1       713    1    0    1
 -2       760      1483      1484       762       802      1504      1505       804
 -1       714    1    0    1
 -2       762      1484      1485       764       804      1505      1506       806
 -1       715    1    0    1
 -2       764      1485      1486       766       806      1506      1507       808
 -1       716    1    0    1
 -2       766      1486      1487       768       808      1507      1508       810
 -1       717    1    0    1
 -2       768      1487      1488       770       810      1508      1509       812
 -1       718    1    0    1
 -2       770      1488      1489       772       812      1509      1510       814
 -1       719    1    0    1
 -2       772      1489      1490       774       814      1510      1511       816
 -1       720    1    0    1
 -2       774      1490      1491       776       816      1511      1512       818
 -1       721    1    0    1
 -2       779      1492      1493       780       821      1513      1514       822
 -1       722    1    0    1
 -2       780      1493      1494       782       822      1514      1515       824
 -1       723    1    0    1
 -2       782      1494      1495       784       824      1515      1516       826
 -1       724    1    0    1
 -2       784      1495      1496       786       826      1516      1517       828
 -1       725    1    0    1
 -2       786      1496      1497       788       828      1517      1518       830
 -1       726    1    0    1
 -2       788      1497      1498       790       830      1518      1519       832
 -1       727    1    0    1
 -2       790      1498      1499       792       832      1519      1520       834
 -1       728    1    0    1
 -2       792      1499      1500       794       834      1520      1521       836
 -1       729    1    0    1
 -2       794      1500      1501       796       836      1521      1522       838
 -1       730    1    0    1
 -2       796      1501      1502       798       838      1522      1523       840
 -1       731    1    0    1
 -2       798      1502      1503       800       840      1523      1524       842
 -1       732    1    0    1
 -2       800      1503      1504       802       842      1524      1525       844
 -1       733    1    0    1
 -2       802      1504      1505       804       844      1525      1526       846
 -1       734    1    0    1
 -2       804      1505      1506       806       846      1526      1527       848
 -1       735    1    0    1
 -2       806      1506      1507       808       848      1527      1528       850
 -1       736    1    0    1
 -2       808      1507      1508       810       850      1528      1529       852
 -1       737    1    0    1
 -2       810      1508      1509       812       852      1529      1530       854
 -1       738    1    0    1
 -2       812      1509      1510       814       854      1530      1531       856
 -1       739    1    0    1
 -2       814      1510      1511       816       856      1531      1532       858
 -1       740    1    0    1
 -2       816      1511      1512       818       858      1532      1533       860
 -1       741    1    0    1
 -2       821      1513      1514       822       863      1534      1535       864
 -1       742    1    0    1
 -2       822      1514      1515       824       864      1535      1536       866
 -1       743    1    0    1
 -2       824      1515      1516       826       866      1536      1537       868
 -1       744    1    0    1
 -2       826      1516      1517       828       868      1537      1538       870
 -1       745    1    0    1
 -2       828      1517      1518       830       870      1538      1539       872
 -1       746    1    0    1
 -2       830      1518      1519       832       872      1539      1540       874
 -1       747    1    0    1
 -2       832      1519      1520       834       874      1540      1541       876
 -1       748    1    0    1
 -2       834      1520      1521       836       876      1541      1542       878
 -1       749    1    0    1
 -2       836      1521      1522       838       878      1542      1543       880
 -1       750    1    0    1
 -2       838      1522      1523       840       880      1543      1544       882
 -1       751    1    0    1
 -2       840      1523      1524       842       882      1544      1545       884
 -1       752    1    0    1
 -2       842      1524      1525       844       884      1545      1546       886
 -1       753    1    0    1
 -2       844      1525      1526       846       886      1546      1547       888
 -1       754    1    0    1
 -2       846      1526      1527       848       888      1547      1548       890
 -1       755    1    0    1
 -2       848      1527      1528       850       890      1548      1549       892
 -1       756    1    0    1
 -2       850      1528      1529       852       892      1549      1550       894
 -1       757    1    0    1
 -2       852      1529      1530       854       894      1550      1551       896
 -1       758    1    0    1
 -2       854      1530      1531       856       896      1551      1552       898
 -1       759    1    0    1
 -2       856      1531      1532       858       898      1552      1553       900
 -1       760    1    0    1
 -2       858      1532      1533       860       900      1553      1554       902
 -1       761    1    0    1
 -2       863      1534      1535       864       905      1555      1556       906
 -1       762    1    0    1
 -2       864      1535      1536       866       906      1556      1557       908
 -1       763    1    0    1
 -2       866      1536      1537       868       908      1557      1558       910
 -1       764    1    0    1
 -2       868      1537      1538       870       910      1558      1559       912
 -1       765    1    0    1
 -2       870      1538      1539       872       912      1559      1560       914
 -1       766    1    0    1
 -2       872      1539      1540       874       914      1560      1561       916
 -1       767    1    0    1
 -2       874      1540      1541       876       916      1561      1562       918
 -1       768    1    0    1
 -2       876      1541      1542       878       918      1562      1563       920
 -1       769    1    0    1
 -2       878      1542      1543       880       920      1563      1564       922
 -1       770    1    0    1
 -2       880      1543      1544       882       922      1564      1565       924
 -1       771    1    0    1
 -2       882      1544      1545       884       924      1565      1566       926
 -1       772    1    0    1
 -2       884      1545      1546       886       926      1566      1567       928
 -1       773    1    0    1
 -2       886      1546      1547       888       928      1567      1568       930
 -1       774    1    0    1
 -2       888      1547      1548       890       930      1568      1569       932
 -1       775    1    0    1
 -2       890      1548      1549       892       932      1569      1570       934
 -1       776    1    0    1
 -2       892      1549      1550       894       934      1570      1571       936
 -1       777    1    0    1
 -2       894      1550      1551       896       936      1571      1572       938
 -1       778    1    0    1
 -2       896      1551      1552       898       938      1572      1573       940
 -1       779    1    0    1
 -2       898      1552      1553       900       940      1573      1574       942
 -1       780    1    0    1
 -2       900      1553      1554       902       942      1574      1575       944
 -1       781    1    0    1
 -2       905      1555      1556       906       947      1576      1577       948
 -1       782    1    0    1
 -2       906      1556      1557       908       948      1577      1578       950
 -1       783    1    0    1
 -2       908      1557      1558       910       950      1578      1579       952
 -1       784    1    0    1
 -2       910      1558      1559       912       952      1579      1580       954
 -1       785    1    0    1
 -2       912      1559      1560       914       954      1580      1581       956
 -1       786    1    0    1
 -2       914      1560      1561       916       956      1581      1582       958
 -1       787    1    0    1
 -2       916      1561      1562       918       958      1582      1583       960
 -1       788    1    0    1
 -2       918      1562      1563       920       960      1583      1584       962
 -1       789    1    0    1
 -2       920      1563      1564       922       962      1584      1585       964
 -1       790    1    0    1
 -2       922      1564      1565       924       964      1585      1586       966
 -1       791    1    0    1
 -2       924      1565      1566       926       966      1586      1587       968
 -1       792    1    0    1
 -2       926      1566      1567       928       968      1587      1588       970
 -1       793    1    0    1
 -2       928      1567      1568       930       970      1588      1589       972
 -1       794    1    0    1
 -2       930      1568      1569       932       972      1589      1590       974
 -1       795    1    0    1
 -2       932      1569      1570       934       974      1590      1591       976
 -1       796    1    0    1
 -2       934      1570      1571       936       976      1591      1592       978
 -1       797    1    0    1
 -2       936      1571      1572       938       978      1592      1593       980
 -1       798    1    0    1
 -2       938      1572      1573       940       980      1593      1594       982
 -1       799    1    0    1
 -2       940      1573      1574       942       982      1594      1595       984
 -1       800    1    0    1
 -2       942      1574      1575       944       984      1595      1596       986
 -1       801    1    0    1
 -2       947      1576      1577       948       989      1597      1598       990
 -1       802    1    0    1
 -2       948      1577      1578       950       990      1598      1599       992
 -1       803    1    0    1
 -2       950      1578      1579       952       992      1599      1600       994
 -1       804    1    0    1
 -2       952      1579      1580       954       994      1600      1601       996
 -1       805    1    0    1
 -2       954      1580      1581       956       996      1601      1602       998
 -1       806    1    0    1
 -2       956      1581      1582       958       998      1602      1603      1000
 -1       807    1    0    1
 -2       958      1582      1583       960      1000      1603      1604      1002
 -1       808    1    0    1
 -2       960      1583      1584       962      1002      1604      1605      1004
 -1       809    1    0    1
 -2       962      1584      1585       964      1004      1605      1606      1006
 -1       810    1    0    1
 -2       964      1585      1586       966      1006      1606      1607      1008
 -1       811    1    0    1
 -2       966      1586      1587       968      1008      1607      1608      1010
 -1       812    1    0    1
 -2       968      1587      1588       970      1010      1608      1609      1012
 -1       813    1    0    1
 -2       970      1588      1589       972      1012      1609      1610      1014
 -1       814    1    0    1
 -2       972      1589      1590       974      1014      1610      1611      1016
 -1       815    1    0    1
 -2       974      1590      1591       976      1016      1611      1612      1018
 -1       816    1    0    1
 -2       976      1591      1592       978      1018      1612      1613      1020
 -1       817    1    0    1
 -2       978      1592      1593       980      1020      1613      1614      1022
 -1       818    1    0    1
 -2       980      1593      1594       982      1022      1614      1615      1024
 -1       819    1    0    1
 -2       982      1594      1595       984      1024      1615      1616      1026
 -1       820    1    0    1
 -2       984      1595      1596       986      1026      1616      1617      1028
 -1       821    1    0    1
 -2       989      1597      1598       990      1031      1618      1619      1032
 -1       822    1    0    1
 -2       990      1598      1599       992      1032      1619      1620      1034
 -1       823    1    0    1
 -2       992      1599      1600       994      1034      1620      1621      1036
 -1       824    1    0    1
 -2       994      1600      1601       996      1036      1621      1622      1038
 -1       825    1    0    1
 -2       996      1601      1602       998      1038      1622      1623      1040
 -1       826    1    0    1
 -2       998      1602      1603      1000      1040      1623      1624      1042
 -1       827    1    0    1
 -2      1000      1603      1604      1002      1042      1624      1625      1044
 -1       828    1    0    1
 -2      1002      1604      1605      1004      1044      1625      1626      1046
 -1       829    1    0    1
 -2      1004      1605      1606      1006      1046      1626      1627      1048
 -1       830    1    0    1
 -2      1006      1606      1607      1008      1048      1627      1628      1050
 -1       831    1    0    1
 -2      1008      1607      1608      1010      1050      1628      1629      1052
 -1       832    1    0    1
 -2      1010      1608      1609      1012      1052      1629      1630      1054
 -1       833    1    0    1
 -2      1012      1609      1610      1014      1054      1630      1631      1056
 -1       834    1    0    1
 -2      1014      1610      1611      1016      1056      1631      1632      1058
 -1       835    1    0    1
 -2      1016      1611      1612      1018      1058      1632      1633      1060
 -1       836    1    0    1
 -2      1018      1612      1613      1020      1060      1633      1634      1062
 -1       837    1    0    1
 -2      1020      1613      1614      1022      1062      1634      1635      1064
 -1       838    1    0    1
 -2      1022      1614      1615      1024      1064      1635      1636      1066
 -1       839    1    0    1
 -2      1024      1615      1616      1026      1066      1636      1637      1068
 -1       840    1    0    1
 -2      1026      1616      1617      1028      1068      1637      1638      1070
 -1       841    1    0    1
 -2      1031      1618      1619      1032      1073      1639      1640      1074
 -1       842    1    0    1
 -2      1032      1619      1620      1034      1074      1640      1641      1076
 -1       843    1    0    1
 -2      1034      1620      1621      1036      1076      1641      1642      1078
 -1       844    1    0    1
 -2      1036      1621      1622      1038      1078      1642      1643      1080
 -1       845    1    0    1
 -2      1038      1622      1623      1040      1080      1643      1644      1082
 -1       846    1    0    1
 -2      1040      1623      1624      1042      1082      1644      1645      1084
 -1       847    1    0    1
 -2      1042      1624      1625      1044      1084      1645      1646      1086
 -1       848    1    0    1
 -2      1044      1625      1626      1046      1086      1646      1647      1088
 -1       849    1    0    1
 -2      1046      1626      1627      1048      1088      1647      1648      1090
 -1       850    1    0    1
 -2      1048      1627      1628      1050      1090      1648      1649      1092
 -1       851    1    0    1
 -2      1050      1628      1629      1052      1092      1649      1650      1094
 -1       852    1    0    1
 -2      1052      1629      1630      1054      1094      1650      1651      1096
 -1       853    1    0    1
 -2      1054      1630      1631      1056      1096      1651      1652      1098
 -1       854    1    0    1
 -2      1056      1631      1632      1058      1098      1652      1653      1100
 -1       855    1    0    1
 -2      1058      1632      1633      1060      1100      1653      1654      1102
 -1       856    1    0    1
 -2      1060      1633      1634      1062      1102      1654      1655      1104
 -1       857    1    0    1
 -2      1062      1634      1635      1064      1104      1655      1656      1106
 -1       858    1    0    1
 -2      1064      1635      1636      1066      1106      1656      1657      1108
 -1       859    1    0    1
 -2      1066      1636      1637      1068      1108      1657      1658      1110
 -1       860    1    0    1
 -2      1068      1637      1638      1070      1110      1658      1659      1112
 -1       861    1    0    1
 -2      1073      1639      1640      1074      1115      1660      1661      1116
 -1       862    1    0    1
 -2      1074      1640      1641      1076      1116      1661      1662      1118
 -1       863    1    0    1
 -2      1076      1641      1642      1078      1118      1662      1663      1120
 -1       864    1    0    1
 -2      1078      1642      1643      1080      1120      1663      1664      1122
 -1       865    1    0    1
 -2      1080      1643      1644      1082      1122      1664      1665      1124
 -1       866    1    0    1
 -2      1082      1644      1645      1084      1124      1665      1666      1126
 -1       867    1    0    1
 -2      1084      1645      1646      1086      1126      1666      1667      1128
 -1       868    1    0    1
 -2      1086      1646      1647      1088      1128      1667      1668      1130
 -1       869    1    0    1
 -2      1088      1647      1648      1090      1130      1668      1669      1132
 -1       870    1    0    1
 -2      1090      1648      1649      1092      1132      1669      1670      1134
 -1       871    1    0    1
 -2      1092      1649      1650      1094      1134      1670      1671      1136
 -1       872    1    0    1
 -2      1094      1650      1651      1096      1136      1671      1672      1138
 -1       873    1    0    1
 -2      1096      1651      1652      1098      1138      1672      1673      1140
 -1       874    1    0    1
 -2      1098      1652      1653      1100      1140      1673      1674      1142
 -1       875    1    0    1
 -2      1100      1653      1654      1102      1142      1674      1675      1144
 -1       876    1    0    1
 -2      1102      1654      1655      1104      1144      1675      1676      1146
 -1       877    1    0    1
 -2      1104      1655      1656      1106      1146      1676      1677      1148
 -1       878    1    0    1
 -2      1106      1656      1657      1108      1148      1677      1678      1150
 -1       879    1    0    1
 -2      1108      1657      1658      1110      1150      1678      1679      1152
 -1       880    1    0    1
 -2      1110      1658      1659      1112      1152      1679      1680      1154
 -1       881    1    0    1
 -2      1115      1660      1661      1116      1157      1681      1682      1158
 -1       882    1    0    1
 -2      1116      1661      1662      1118      1158      1682      1683      1160
 -1       883    1    0    1
 -2      1118      1662      1663      1120      1160      1683      1684      1162
 -1       884    1    0    1
 -2      1120      1663      1664      1122      1162      1684      1685      1164
 -1       885    1    0    1
 -2      1122      1664      1665      1124      1164      1685      1686      1166
 -1       886    1    0    1
 -2      1124      1665      1666      1126      1166      1686      1687      1168
 -1       887    1    0    1
 -2      1126      1666      1667      1128      1168      1687      1688      1170
 -1       888    1    0    1
 -2      1128      1667      1668      1130      1170      1688      1689      1172
 -1       889    1    0    1
 -2      1130      1668      1669      1132      1172      1689      1690      1174
 -1       890    1    0    1
 -2      1132      1669      1670      1134      1174      1690      1691      1176
 -1       891    1    0    1
 -2      1134      1670      1671      1136      1176      1691      1692      1178
 -1       892    1    0    1
 -2      1136      1671      1672      1138      1178      1692      1693      1180
 -1       893    1    0    1
 -2      1138      1672      1673      1140      1180      1693      1694      1182
 -1       894    1    0    1
 -2      1140      1673      1674      1142      1182      1694      1695      1184
 -1       895    1    0    1
 -2      1142      1674      1675      1144      1184      1695      1696      1186
 -1       896    1    0    1
 -2      1144      1675      1676      1146      1186      1696      1697      1188
 -1       897    1    0    1
 -2      1146      1676      1677      1148      1188      1697      1698      1190
 -1       898    1    0    1
 -2      1148      1677      1678      1150      1190      1698      1699      1192
 -1       899    1    0    1
 -2      1150      1678      1679      1152      1192      1699      1700      1194
 -1       900    1    0    1
 -2      1152      1679      1680      1154      1194      1700      1701      1196
 -1       901    1    0    1
 -2      1157      1681      1682      1158      1199      1702      1703      1200
 -1       902    1    0    1
 -2      1158      1682      1683      1160      1200      1703      1704      1202
 -1       903    1    0    1
 -2      1160      1683      1684      1162      1202      1704      1705      1204
 -1       904    1    0    1
 -2      1162      1684      1685      1164      1204      1705      1706      1206
 -1       905    1    0    1
 -2      1164      1685      1686      1166      1206      1706      1707      1208
 -1       906    1    0    1
 -2      1166      1686      1687      1168      1208      1707      1708      1210
 -1       907    1    0    1
 -2      1168      1687      1688      1170      1210      1708      1709      1212
 -1       908    1    0    1
 -2      1170      1688      1689      1172      1212      1709      1710      1214
 -1       909    1    0    1
 -2      1172      1689      1690      1174      1214      1710      1711      1216
 -1       910    1    0    1
 -2      1174      1690      1691      1176      1216      1711      1712      1218
 -1       911    1    0    1
 -2      1176      1691      1692      1178      1218      1712      1713      1220
 -1       912    1    0    1
 -2      1178      1692      1693      1180      1220      1713      1714      1222
 -1       913    1    0    1
 -2      1180      1693      1694      1182      1222      1714      1715      1224
 -1       914    1    0    1
 -2      1182      1694      1695      1184      1224      1715      1716      1226
 -1       915    1    0    1
 -2      1184      1695      1696      1186      1226      1716      1717      1228
 -1       916    1    0    1
 -2      1186      1696      1697      1188      1228      1717      1718      1230
 -1       917    1    0    1
 -2      1188      1697      1698      1190      1230      1718      1719      1232
 -1       918    1    0    1
 -2      1190      1698      1699      1192      1232      1719      1720      1234
 -1       919    1    0    1
 -2      1192      1699      1700      1194      1234      1720      1721      1236
 -1       920    1    0    1
 -2      1194      1700      1701      1196      1236      1721      1722      1238
 -1       921    1    0    1
 -2      1199      1702      1703      1200      1241      1723      1724      1242
 -1       922    1    0    1
 -2      1200      1703      1704      1202      1242      1724      1725      1244
 -1       923    1    0    1
 -2      1202      1704      1705      1204      1244      1725      1726      1246
 -1       924    1    0    1
 -2      1204      1705      1706      1206      1246      1726      1727      1248
 -1       925    1    0    1
 -2      1206      1706      1707      1208      1248      1727      1728      1250
 -1       926    1    0    1
 -2      1208      1707      1708      1210      1250      1728      1729      1252
 -1       927    1    0    1
 -2      1210      1708      1709      1212      1252      1729      1730      1254
 -1       928    1    0    1
 -2      1212      1709      1710      1214      1254      1730      1731      1256
 -1       929    1    0    1
 -2      1214      1710      1711      1216      1256      1731      1732      1258
 -1       930    1    0    1
 -2      1216      1711      1712      1218      1258      1732      1733      1260
 -1       931    1    0    1
 -2      1218      1712      1713      1220      1260      1733      1734      1262
 -1       932    1    0    1
 -2      1220      1713      1714      1222      1262      1734      1735      1264
 -1       933    1    0    1
 -2      1222      1714      1715      1224      1264      1735      1736      1266
 -1       934    1    0    1
 -2      1224      1715      1716      1226      1266      1736      1737      1268
 -1       935    1    0    1
 -2      1226      1716      1717      1228      1268      1737      1738      1270
 -1       936    1    0    1
 -2      1228      1717      1718      1230      1270      1738      1739      1272
 -1       937    1    0    1
 -2      1230      1718      1719      1232      1272      1739      1740      1274
 -1       938    1    0    1
 -2      1232      1719      1720      1234      1274      1740      1741      1276
 -1       939    1    0    1
 -2      1234      1720      1721      1236      1276      1741      1742      1278
 -1       940    1    0    1
 -2      1236      1721      1722      1238      1278      1742      1743      1280
 -1       941    1    0    1
 -2      1241      1723      1724      1242      1283      1744      1745      1284
 -1       942    1    0    1
 -2      1242      1724      1725      1244      1284      1745      1746      1286
 -1       943    1    0    1
 -2      1244      1725      1726      1246      1286      1746      1747      1288
 -1       944    1    0    1
 -2      1246      1726      1727      1248      1288      1747      1748      1290
 -1       945    1    0    1
 -2      1248      1727      1728      1250      1290      1748      1749      1292
 -1       946    1    0    1
 -2      1250      1728      1729      1252      1292      1749      1750      1294
 -1       947    1    0    1
 -2      1252      1729      1730      1254      1294      1750      1751      1296
 -1       948    1    0    1
 -2      1254      1730      1731      1256      1296      1751      1752      1298
 -1       949    1    0    1
 -2      1256      1731      1732      1258      1298      1752      1753      1300
 -1       950    1    0    1
 -2      1258      1732      1733      1260      1300      1753      1754      1302
 -1       951    1    0    1
 -2      1260      1733      1734      1262      1302      1754      1755      1304
 -1       952    1    0    1
 -2      1262      1734      1735      1264      1304      1755      1756      1306
 -1       953    1    0    1
 -2      1264      1735      1736      1266      1306      1756      1757      1308
 -1       954    1    0    1
 -2      1266      1736      1737      1268      1308      1757      1758      1310
 -1       955    1    0    1
 -2      1268      1737      1738      1270      1310      1758      1759      1312
 -1       956    1    0    1
 -2      1270      1738      1739      1272      1312      1759      1760      1314
 -1       957    1    0    1
 -2      1272      1739      1740      1274      1314      1760      1761      1316
 -1       958    1    0    1
 -2      1274      1740      1741      1276      1316      1761      1762      1318
 -1       959    1    0    1
 -2      1276      1741      1742      1278      1318      1762      1763      1320
 -1       960    1    0    1
 -2      1278      1742      1743      1280      1320      1763      1764      1322
 -3
    1PSTEP                         1           1           1          
  100CL  101 1.000000000        1764                     0    1           1
 -4  DISP        4    1
 -5  D1          1    2    1    0
 -5  D2          1    2    2    0
 -5  D3          1    2    3    0
 -5  ALL         1    2    0    0    1ALL
 -1         1 0.00000E+00 0.00000E+00-6.88489E-02
 -1         2 0.00000E+00 0.00000E+00-6.91810E-02
 -1         3 2.32143E-06 0.00000E+00-6.89743E-02
 -1         4-8.07375E-04 0.00000E+00-6.86431E-02
 -1         5 0.00000E+00 0.00000E+00-6.88489E-02
 -1         6 0.00000E+00 0.00000E+00-6.91810E-02
 -1         7 2.32143E-06 0.00000E+00-6.89743E-02
 -1         8-8.07375E-04 0.00000E+00-6.86431E-02
 -1         9 4.64286E-06 0.00000E+00-6.83551E-02
 -1        10-1.61069E-03 0.00000E+00-6.80265E-02
 -1        11 4.64286E-06 0.00000E+00-6.83551E-02
 -1        12-1.61069E-03 0.00000E+00-6.80265E-02
 -1        13 6.96429E-06 0.00000E+00-6.73265E-02
 -1        14-2.40588E-03 0.00000E+00-6.70023E-02
 -1        15 6.96429E-06 0.00000E+00-6.73265E-02
 -1        16-2.40588E-03 0.00000E+00-6.70023E-02
 -1        17 9.28571E-06 0.00000E+00-6.58937E-02
 -1        18-3.18888E-03 0.00000E+00-6.55755E-02
 -1        19 9.28571E-06 0.00000E+00-6.58937E-02
 -1        20-3.18888E-03 0.00000E+00-6.55755E-02
 -1        21 1.16071E-05 0.00000E+00-6.40636E-02
 -1        22-3.95563E-03 0.00000E+00-6.37533E-02
 -1        23 1.16071E-05 0.00000E+00-6.40636E-02
 -1        24-3.95563E-03 0.00000E+00-6.37533E-02
 -1        25 1.39286E-05 0.00000E+00-6.18454E-02
 -1        26-4.70206E-03 0.00000E+00-6.15447E-02
 -1        27 1.39286E-05 0.00000E+00-6.18454E-02
 -1        28-4.70206E-03 0.00000E+00-6.15447E-02
 -1        29 1.62500E-05 0.00000E+00-5.92504E-02
 -1        30-5.42413E-03 0.00000E+00-5.89609E-02
 -1        31 1.62500E-05 0.00000E+00-5.92504E-02
 -1        32-5.42413E-03 0.00000E+00-5.89609E-02
 -1        33 1.85714E-05 0.00000E+00-5.62916E-02
 -1        34-6.11775E-03 0.00000E+00-5.60153E-02
 -1        35 1.85714E-05 0.00000E+00-5.62916E-02
 -1        36-6.11775E-03 0.00000E+00-5.60153E-02
 -1        37 2.08929E-05 0.00000E+00-5.29844E-02
 -1        38-6.77888E-03 0.00000E+00-5.27229E-02
 -1        39 2.08929E-05 0.00000E+00-5.29844E-02
 -1        40-6.77888E-03 0.00000E+00-5.27229E-02
 -1        41 2.32143E-05 0.00000E+00-4.93460E-02
 -1        42-7.40344E-03 0.00000E+00-4.91010E-02
 -1        43 2.32143E-05 0.00000E+00-4.93460E-02
 -1        44-7.40344E-03 0.00000E+00-4.91010E-02
 -1        45 2.55356E-05 0.00000E+00-4.53958E-02
 -1        46-7.98738E-03 0.00000E+00-4.51690E-02
 -1        47 2.55356E-05 0.00000E+00-4.53958E-02
 -1        48-7.98738E-03 0.00000E+00-4.51690E-02
 -1        49 2.78566E-05 0.00000E+00-4.11549E-02
 -1        50-8.52663E-03 0.00000E+00-4.09482E-02
 -1        51 2.78566E-05 0.00000E+00-4.11549E-02
 -1        52-8.52663E-03 0.00000E+00-4.09482E-02
 -1        53 3.01770E-05 0.00000E+00-3.66469E-02
 -1        54-9.01713E-03 0.00000E+00-3.64619E-02
 -1        55 3.01770E-05 0.00000E+00-3.66469E-02
 -1        56-9.01713E-03 0.00000E+00-3.64619E-02
 -1        57 3.24971E-05 0.00000E+00-3.18970E-02
 -1        58-9.45481E-03 0.00000E+00-3.17355E-02
 -1        59 3.24971E-05 0.00000E+00-3.18970E-02
 -1        60-9.45481E-03 0.00000E+00-3.17355E-02
 -1        61 3.48245E-05 0.00000E+00-2.69327E-02
 -1        62-9.83562E-03 0.00000E+00-2.67965E-02
 -1        63 3.48245E-05 0.00000E+00-2.69327E-02
 -1        64-9.83562E-03 0.00000E+00-2.67965E-02
 -1        65 3.71976E-05 0.00000E+00-2.17835E-02
 -1        66-1.01555E-02 0.00000E+00-2.16744E-02
 -1        67 3.71976E-05 0.00000E+00-2.17835E-02
 -1        68-1.01555E-02 0.00000E+00-2.16744E-02
 -1        69 3.97538E-05 0.00000E+00-1.64808E-02
 -1        70-1.04105E-02 0.00000E+00-1.64007E-02
 -1        71 3.97538E-05 0.00000E+00-1.64808E-02
 -1        72-1.04105E-02 0.00000E+00-1.64007E-02
 -1        73 4.28309E-05 0.00000E+00-1.10584E-02
 -1        74-1.05970E-02 0.00000E+00-1.10085E-02
 -1        75 4.28309E-05 0.00000E+00-1.10584E-02
 -1        76-1.05970E-02 0.00000E+00-1.10085E-02
 -1        77 4.67180E-05 0.00000E+00-5.55051E-03
 -1        78-1.07111E-02 0.00000E+00-5.53348E-03
 -1        79 4.67180E-05 0.00000E+00-5.55051E-03
 -1        80-1.07111E-02 0.00000E+00-5.53348E-03
 -1        81 4.88784E-05 0.00000E+00 0.00000E+00
 -1        82-1.07495E-02 0.00000E+00 0.00000E+00
 -1        83 4.88784E-05 0.00000E+00 0.00000E+00
 -1        84-1.07495E-02 0.00000E+00 0.00000E+00
 -1        85 0.00000E+00 0.00000E+00-6.88273E-02
 -1        86 8.12018E-04 0.00000E+00-6.86214E-02
 -1        87 0.00000E+00 0.00000E+00-6.88273E-02
 -1        88 8.12018E-04 0.00000E+00-6.86214E-02
 -1        89 1.61997E-03 0.00000E+00-6.80048E-02
 -1        90 1.61997E-03 0.00000E+00-6.80048E-02
 -1        91 2.41980E-03 0.00000E+00-6.69806E-02
 -1        92 2.41980E-03 0.00000E+00-6.69806E-02
 -1        93 3.20745E-03 0.00000E+00-6.55538E-02
 -1        94 3.20745E-03 0.00000E+00-6.55538E-02
 -1        95 3.97884E-03 0.00000E+00-6.37316E-02
 -1        96 3.97884E-03 0.00000E+00-6.37316E-02
 -1        97 4.72992E-03 0.00000E+00-6.15230E-02
 -1        98 4.72992E-03 0.00000E+00-6.15230E-02
 -1        99 5.45663E-03 0.00000E+00-5.89393E-02
 -1       100 5.45663E-03 0.00000E+00-5.89393E-02
 -1       101 6.15489E-03 0.00000E+00-5.59936E-02
 -1       102 6.15489E-03 0.00000E+00-5.59936E-02
 -1       103 6.82066E-03 0.00000E+00-5.27012E-02
 -1       104 6.82066E-03 0.00000E+00-5.27012E-02
 -1       105 7.44987E-03 0.00000E+00-4.90794E-02
 -1       106 7.44987E-03 0.00000E+00-4.90794E-02
 -1       107 8.03845E-03 0.00000E+00-4.51474E-02
 -1       108 8.03845E-03 0.00000E+00-4.51474E-02
 -1       109 8.58234E-03 0.00000E+00-4.09265E-02
 -1       110 8.58234E-03 0.00000E+00-4.09265E-02
 -1       111 9.07749E-03 0.00000E+00-3.64402E-02
 -1       112 9.07749E-03 0.00000E+00-3.64402E-02
 -1       113 9.51982E-03 0.00000E+00-3.17139E-02
 -1       114 9.51982E-03 0.00000E+00-3.17139E-02
 -1       115 9.90527E-03 0.00000E+00-2.67748E-02
 -1       116 9.90527E-03 0.00000E+00-2.67748E-02
 -1       117 1.02298E-02 0.00000E+00-2.16525E-02
 -1       118 1.02298E-02 0.00000E+00-2.16525E-02
 -1       119 1.04891E-02 0.00000E+00-1.63784E-02
 -1       120 1.04891E-02 0.00000E+00-1.63784E-02
 -1       121 1.06791E-02 0.00000E+00-1.09858E-02
 -1       122 1.06791E-02 0.00000E+00-1.09858E-02
 -1       123 1.07946E-02 0.00000E+00-5.51322E-03
 -1       124 1.07946E-02 0.00000E+00-5.51322E-03
 -1       125 1.08331E-02 0.00000E+00 0.00000E+00
 -1       126 1.08331E-02 0.00000E+00 0.00000E+00
 -1       127 0.00000E+00 7.14285E-07-7.56167E-02
 -1       128 0.00000E+00-5.31003E-05-7.58670E-02
 -1       129 1.78571E-06-5.31003E-05-7.56402E-02
 -1       130-8.88532E-04 5.80357E-07-7.53906E-02
 -1       131 0.00000E+00-1.07629E-04-7.56167E-02
 -1       132 0.00000E+00-5.38146E-05-7.58670E-02
 -1       133 1.78571E-06-5.38146E-05-7.56402E-02
 -1       134-8.88532E-04-1.07495E-04-7.53906E-02
 -1       135 3.57143E-06-5.31003E-05-7.49610E-02
 -1       136-1.77260E-03 1.78571E-07-7.47134E-02
 -1       137 3.57143E-06-5.38146E-05-7.49610E-02
 -1       138-1.77260E-03-1.07093E-04-7.47134E-02
 -1       139 5.35714E-06-5.31003E-05-7.38326E-02
 -1       140-2.64774E-03-4.91072E-07-7.35884E-02
 -1       141 5.35714E-06-5.38146E-05-7.38326E-02
 -1       142-2.64774E-03-1.06424E-04-7.35884E-02
 -1       143 7.14286E-06-5.31003E-05-7.22608E-02
 -1       144-3.50949E-03-1.42857E-06-7.20212E-02
 -1       145 7.14286E-06-5.38146E-05-7.22608E-02
 -1       146-3.50949E-03-1.05486E-04-7.20212E-02
 -1       147 8.92857E-06-5.31003E-05-7.02532E-02
 -1       148-4.35338E-03-2.63393E-06-7.00197E-02
 -1       149 8.92857E-06-5.38146E-05-7.02532E-02
 -1       150-4.35338E-03-1.04281E-04-7.00197E-02
 -1       151 1.07143E-05-5.31003E-05-6.78200E-02
 -1       152-5.17494E-03-4.10714E-06-6.75938E-02
 -1       153 1.07143E-05-5.38146E-05-6.78200E-02
 -1       154-5.17494E-03-1.02808E-04-6.75938E-02
 -1       155 1.25000E-05-5.31003E-05-6.49734E-02
 -1       156-5.96973E-03-5.84822E-06-6.47559E-02
 -1       157 1.25000E-05-5.38146E-05-6.49734E-02
 -1       158-5.96973E-03-1.01067E-04-6.47559E-02
 -1       159 1.42857E-05-5.31003E-05-6.17279E-02
 -1       160-6.73326E-03-7.85714E-06-6.15204E-02
 -1       161 1.42857E-05-5.38146E-05-6.17279E-02
 -1       162-6.73326E-03-9.90578E-05-6.15204E-02
 -1       163 1.60714E-05-5.31003E-05-5.81002E-02
 -1       164-7.46108E-03-1.01339E-05-5.79042E-02
 -1       165 1.60714E-05-5.38146E-05-5.81002E-02
 -1       166-7.46108E-03-9.67810E-05-5.79042E-02
 -1       167 1.78572E-05-5.31003E-05-5.41094E-02
 -1       168-8.14872E-03-1.26786E-05-5.39261E-02
 -1       169 1.78572E-05-5.38146E-05-5.41094E-02
 -1       170-8.14872E-03-9.42363E-05-5.39261E-02
 -1       171 1.96428E-05-5.31003E-05-4.97767E-02
 -1       172-8.79171E-03-1.54911E-05-4.96074E-02
 -1       173 1.96428E-05-5.38146E-05-4.97767E-02
 -1       174-8.79171E-03-9.14238E-05-4.96074E-02
 -1       175 2.14280E-05-5.31003E-05-4.51254E-02
 -1       176-9.38560E-03-1.85715E-05-4.49715E-02
 -1       177 2.14280E-05-5.38146E-05-4.51254E-02
 -1       178-9.38560E-03-8.83434E-05-4.49715E-02
 -1       179 2.32118E-05-5.31002E-05-4.01812E-02
 -1       180-9.92592E-03-2.19200E-05-4.00441E-02
 -1       181 2.32118E-05-5.38147E-05-4.01812E-02
 -1       182-9.92592E-03-8.49950E-05-4.00441E-02
 -1       183 2.49931E-05-5.30999E-05-3.49721E-02
 -1       184-1.04082E-02-2.55356E-05-3.48531E-02
 -1       185 2.49931E-05-5.38150E-05-3.49721E-02
 -1       186-1.04082E-02-8.13793E-05-3.48531E-02
 -1       187 2.67769E-05-5.30997E-05-2.95282E-02
 -1       188-1.08280E-02-2.94202E-05-2.94287E-02
 -1       189 2.67769E-05-5.38152E-05-2.95282E-02
 -1       190-1.08280E-02-7.74947E-05-2.94287E-02
 -1       191 2.86028E-05-5.31017E-05-2.38819E-02
 -1       192-1.11808E-02-3.35567E-05-2.38031E-02
 -1       193 2.86028E-05-5.38132E-05-2.38819E-02
 -1       194-1.11808E-02-7.33583E-05-2.38031E-02
 -1       195 3.06255E-05-5.31122E-05-1.80676E-02
 -1       196-1.14623E-02-3.79821E-05-1.80114E-02
 -1       197 3.06255E-05-5.38027E-05-1.80676E-02
 -1       198-1.14623E-02-6.89329E-05-1.80114E-02
 -1       199 3.32445E-05-5.31650E-05-1.21227E-02
 -1       200-1.16687E-02-4.24763E-05-1.20895E-02
 -1       201 3.32445E-05-5.37499E-05-1.21227E-02
 -1       202-1.16687E-02-6.44386E-05-1.20895E-02
 -1       203 3.67843E-05-5.32246E-05-6.08447E-03
 -1       204-1.17951E-02-4.79805E-05-6.07669E-03
 -1       205 3.67843E-05-5.36904E-05-6.08447E-03
 -1       206-1.17951E-02-5.89344E-05-6.07669E-03
 -1       207 3.88448E-05-5.35225E-05 0.00000E+00
 -1       208-1.18396E-02-5.14463E-05 0.00000E+00
 -1       209 3.88448E-05-5.33924E-05 0.00000E+00
 -1       210-1.18396E-02-5.54686E-05 0.00000E+00
 -1       211 0.00000E+00-1.06915E-04-7.55929E-02
 -1       212 8.92104E-04-1.06781E-04-7.53668E-02
 -1       213 0.00000E+00 0.00000E+00-7.55929E-02
 -1       214 8.92104E-04-1.33929E-07-7.53668E-02
 -1       215 1.77974E-03-1.06379E-04-7.46896E-02
 -1       216 1.77974E-03-5.35714E-07-7.46896E-02
 -1       217 2.65845E-03-1.05710E-04-7.35646E-02
 -1       218 2.65845E-03-1.20536E-06-7.35646E-02
 -1       219 3.52377E-03-1.04772E-04-7.19974E-02
 -1       220 3.52377E-03-2.14286E-06-7.19974E-02
 -1       221 4.37123E-03-1.03567E-04-6.99959E-02
 -1       222 4.37123E-03-3.34821E-06-6.99959E-02
 -1       223 5.19637E-03-1.02093E-04-6.75700E-02
 -1       224 5.19637E-03-4.82143E-06-6.75700E-02
 -1       225 5.99473E-03-1.00352E-04-6.47321E-02
 -1       226 5.99473E-03-6.56250E-06-6.47321E-02
 -1       227 6.76183E-03-9.83435E-05-6.14966E-02
 -1       228 6.76183E-03-8.57143E-06-6.14966E-02
 -1       229 7.49322E-03-9.60667E-05-5.78804E-02
 -1       230 7.49322E-03-1.08482E-05-5.78804E-02
 -1       231 8.18443E-03-9.35221E-05-5.39023E-02
 -1       232 8.18443E-03-1.33929E-05-5.39023E-02
 -1       233 8.83100E-03-9.07096E-05-4.95836E-02
 -1       234 8.83100E-03-1.62053E-05-4.95836E-02
 -1       235 9.42846E-03-8.76293E-05-4.49477E-02
 -1       236 9.42846E-03-1.92856E-05-4.49477E-02
 -1       237 9.97235E-03-8.42811E-05-4.00203E-02
 -1       238 9.97235E-03-2.26338E-05-4.00203E-02
 -1       239 1.04582E-02-8.06656E-05-3.48293E-02
 -1       240 1.04582E-02-2.62493E-05-3.48293E-02
 -1       241 1.08816E-02-7.67786E-05-2.94048E-02
 -1       242 1.08816E-02-3.01363E-05-2.94048E-02
 -1       243 1.12379E-02-7.26266E-05-2.37791E-02
 -1       244 1.12379E-02-3.42883E-05-2.37791E-02
 -1       245 1.15227E-02-6.81508E-05-1.79868E-02
 -1       246 1.15227E-02-3.87641E-05-1.79868E-02
 -1       247 1.17312E-02-6.35233E-05-1.20645E-02
 -1       248 1.17312E-02-4.33916E-05-1.20645E-02
 -1       249 1.18576E-02-5.80807E-05-6.05470E-03
 -1       250 1.18576E-02-4.88342E-05-6.05470E-03
 -1       251 1.19013E-02-5.53385E-05 0.00000E+00
 -1       252 1.19013E-02-5.15765E-05 0.00000E+00
 -1       253 0.00000E+00 7.14286E-06-7.57372E-02
 -1       254 0.00000E+00-5.30076E-04-7.59874E-02
 -1       255 1.78571E-06-5.30076E-04-7.57603E-02
 -1       256-8.87590E-04 5.80357E-06-7.55108E-02
 -1       257 0.00000E+00-5.33647E-04-7.54691E-02
 -1       258 0.00000E+00-5.33647E-04-7.57197E-02
 -1       259 1.78571E-06-5.33647E-04-7.54933E-02
 -1       260-8.89197E-04-5.33647E-04-7.52433E-02
 -1       261 3.57143E-06-5.30076E-04-7.50802E-02
 -1       262-1.77072E-03 1.78571E-06-7.48327E-02
 -1       263 3.57143E-06-5.33647E-04-7.48152E-02
 -1       264-1.77393E-03-5.33647E-04-7.45672E-02
 -1       265 5.35714E-06-5.30076E-04-7.39503E-02
 -1       266-2.64491E-03-4.91071E-06-7.37062E-02
 -1       267 5.35714E-06-5.33647E-04-7.36887E-02
 -1       268-2.64973E-03-5.33647E-04-7.34441E-02
 -1       269 7.14286E-06-5.30076E-04-7.23764E-02
 -1       270-3.50572E-03-1.42857E-05-7.21369E-02
 -1       271 7.14286E-06-5.33647E-04-7.21194E-02
 -1       272-3.51214E-03-5.33647E-04-7.18795E-02
 -1       273 8.92857E-06-5.30076E-04-7.03661E-02
 -1       274-4.34866E-03-2.63393E-05-7.01327E-02
 -1       275 8.92857E-06-5.33647E-04-7.01152E-02
 -1       276-4.35670E-03-5.33647E-04-6.98813E-02
 -1       277 1.07143E-05-5.30076E-04-6.79296E-02
 -1       278-5.16929E-03-4.10714E-05-6.77035E-02
 -1       279 1.07143E-05-5.33647E-04-6.76860E-02
 -1       280-5.17893E-03-5.33647E-04-6.74595E-02
 -1       281 1.25000E-05-5.30076E-04-6.50790E-02
 -1       282-5.96313E-03-5.84821E-05-6.48617E-02
 -1       283 1.25000E-05-5.33647E-04-6.48442E-02
 -1       284-5.97438E-03-5.33647E-04-6.46263E-02
 -1       285 1.42857E-05-5.30076E-04-6.18290E-02
 -1       286-6.72572E-03-7.85714E-05-6.16217E-02
 -1       287 1.42857E-05-5.33647E-04-6.16042E-02
 -1       288-6.73858E-03-5.33647E-04-6.13964E-02
 -1       289 1.60715E-05-5.30076E-04-5.81963E-02
 -1       290-7.45259E-03-1.01339E-04-5.80004E-02
 -1       291 1.60714E-05-5.33647E-04-5.79829E-02
 -1       292-7.46706E-03-5.33647E-04-5.77865E-02
 -1       293 1.78573E-05-5.30076E-04-5.41998E-02
 -1       294-8.13929E-03-1.26786E-04-5.40166E-02
 -1       295 1.78571E-05-5.33647E-04-5.39991E-02
 -1       296-8.15536E-03-5.33647E-04-5.38154E-02
 -1       297 1.96428E-05-5.30076E-04-4.98607E-02
 -1       298-8.78134E-03-1.54912E-04-4.96916E-02
 -1       299 1.96428E-05-5.33647E-04-4.96741E-02
 -1       300-8.79902E-03-5.33647E-04-4.95045E-02
 -1       301 2.14270E-05-5.30077E-04-4.52025E-02
 -1       302-9.37429E-03-1.85717E-04-4.50488E-02
 -1       303 2.14284E-05-5.33647E-04-4.50313E-02
 -1       304-9.39358E-03-5.33647E-04-4.48771E-02
 -1       305 2.32079E-05-5.30077E-04-4.02509E-02
 -1       306-9.91367E-03-2.19200E-04-4.01139E-02
 -1       307 2.32137E-05-5.33647E-04-4.00964E-02
 -1       308-9.93455E-03-5.33647E-04-3.99589E-02
 -1       309 2.49835E-05-5.30076E-04-3.50337E-02
 -1       310-1.03950E-02-2.55357E-04-3.49148E-02
 -1       311 2.49987E-05-5.33647E-04-3.48973E-02
 -1       312-1.04175E-02-5.33647E-04-3.47779E-02
 -1       313 2.67640E-05-5.30073E-04-2.95811E-02
 -1       314-1.08138E-02-2.94173E-04-2.94816E-02
 -1       315 2.67867E-05-5.33647E-04-2.94641E-02
 -1       316-1.08379E-02-5.33647E-04-2.93641E-02
 -1       317 2.86120E-05-5.30073E-04-2.39255E-02
 -1       318-1.11658E-02-3.35630E-04-2.38469E-02
 -1       319 2.86004E-05-5.33647E-04-2.38292E-02
 -1       320-1.11914E-02-5.33647E-04-2.37500E-02
 -1       321 3.07349E-05-5.30132E-04-1.81015E-02
 -1       322-1.14466E-02-3.79742E-04-1.80453E-02
 -1       323 3.05418E-05-5.33647E-04-1.80269E-02
 -1       324-1.14734E-02-5.33647E-04-1.79704E-02
 -1       325 3.35759E-05-5.30450E-04-1.21468E-02
 -1       326-1.16528E-02-4.26495E-04-1.21131E-02
 -1       327 3.29218E-05-5.33647E-04-1.20945E-02
 -1       328-1.16794E-02-5.33647E-04-1.20609E-02
 -1       329 3.74546E-05-5.31409E-04-6.09787E-03
 -1       330-1.17815E-02-4.74211E-04-6.09075E-03
 -1       331 3.61303E-05-5.33647E-04-6.06808E-03
 -1       332-1.18037E-02-5.33647E-04-6.06168E-03
 -1       333 3.96072E-05-5.33277E-04 0.00000E+00
 -1       334-1.18288E-02-5.06680E-04 0.00000E+00
 -1       335 3.79279E-05-5.33647E-04 0.00000E+00
 -1       336-1.18474E-02-5.33647E-04 0.00000E+00
 -1       337 0.00000E+00-1.07444E-03-7.57372E-02
 -1       338 0.00000E+00-5.37219E-04-7.59874E-02
 -1       339 1.78571E-06-5.37219E-04-7.57603E-02
 -1       340-8.87590E-04-1.07310E-03-7.55108E-02
 -1       341 3.57143E-06-5.37219E-04-7.50802E-02
 -1       342-1.77072E-03-1.06908E-03-7.48327E-02
 -1       343 5.35714E-06-5.37219E-04-7.39503E-02
 -1       344-2.64491E-03-1.06238E-03-7.37062E-02
 -1       345 7.14286E-06-5.37219E-04-7.23764E-02
 -1       346-3.50572E-03-1.05301E-03-7.21369E-02
 -1       347 8.92857E-06-5.37219E-04-7.03661E-02
 -1       348-4.34866E-03-1.04096E-03-7.01327E-02
 -1       349 1.07143E-05-5.37219E-04-6.79296E-02
 -1       350-5.16929E-03-1.02622E-03-6.77035E-02
 -1       351 1.25000E-05-5.37219E-04-6.50790E-02
 -1       352-5.96313E-03-1.00881E-03-6.48617E-02
 -1       353 1.42857E-05-5.37219E-04-6.18290E-02
 -1       354-6.72572E-03-9.88723E-04-6.16217E-02
 -1       355 1.60715E-05-5.37219E-04-5.81963E-02
 -1       356-7.45259E-03-9.65955E-04-5.80004E-02
 -1       357 1.78573E-05-5.37219E-04-5.41998E-02
 -1       358-8.13929E-03-9.40509E-04-5.40166E-02
 -1       359 1.96428E-05-5.37219E-04-4.98607E-02
 -1       360-8.78134E-03-9.12383E-04-4.96916E-02
 -1       361 2.14270E-05-5.37218E-04-4.52025E-02
 -1       362-9.37429E-03-8.81578E-04-4.50488E-02
 -1       363 2.32079E-05-5.37218E-04-4.02509E-02
 -1       364-9.91367E-03-8.48095E-04-4.01139E-02
 -1       365 2.49835E-05-5.37219E-04-3.50337E-02
 -1       366-1.03950E-02-8.11937E-04-3.49148E-02
 -1       367 2.67640E-05-5.37222E-04-2.95811E-02
 -1       368-1.08138E-02-7.73121E-04-2.94816E-02
 -1       369 2.86120E-05-5.37222E-04-2.39255E-02
 -1       370-1.11658E-02-7.31665E-04-2.38469E-02
 -1       371 3.07349E-05-5.37163E-04-1.81015E-02
 -1       372-1.14466E-02-6.87553E-04-1.80453E-02
 -1       373 3.35759E-05-5.36845E-04-1.21468E-02
 -1       374-1.16528E-02-6.40799E-04-1.21131E-02
 -1       375 3.74546E-05-5.35886E-04-6.09787E-03
 -1       376-1.17815E-02-5.93084E-04-6.09075E-03
 -1       377 3.96072E-05-5.34018E-04 0.00000E+00
 -1       378-1.18288E-02-5.60615E-04 0.00000E+00
 -1       379 0.00000E+00-1.06729E-03-7.57134E-02
 -1       380 8.91161E-04-1.06596E-03-7.54870E-02
 -1       381 0.00000E+00-5.33647E-04-7.54452E-02
 -1       382 8.92768E-04-5.33647E-04-7.52195E-02
 -1       383 1.77786E-03-1.06194E-03-7.48088E-02
 -1       384 1.78107E-03-5.33647E-04-7.45434E-02
 -1       385 2.65563E-03-1.05524E-03-7.36824E-02
 -1       386 2.66045E-03-5.33647E-04-7.34202E-02
 -1       387 3.52000E-03-1.04587E-03-7.21131E-02
 -1       388 3.52643E-03-5.33647E-04-7.18557E-02
 -1       389 4.36652E-03-1.03381E-03-7.01088E-02
 -1       390 4.37456E-03-5.33647E-04-6.98574E-02
 -1       391 5.19072E-03-1.01908E-03-6.76797E-02
 -1       392 5.20036E-03-5.33647E-04-6.74356E-02
 -1       393 5.98813E-03-1.00167E-03-6.48379E-02
 -1       394 5.99938E-03-5.33647E-04-6.46025E-02
 -1       395 6.75429E-03-9.81580E-04-6.15979E-02
 -1       396 6.76715E-03-5.33647E-04-6.13726E-02
 -1       397 7.48474E-03-9.58813E-04-5.79765E-02
 -1       398 7.49920E-03-5.33647E-04-5.77626E-02
 -1       399 8.17501E-03-9.33366E-04-5.39928E-02
 -1       400 8.19108E-03-5.33647E-04-5.37916E-02
 -1       401 8.82063E-03-9.05242E-04-4.96678E-02
 -1       402 8.83831E-03-5.33647E-04-4.94807E-02
 -1       403 9.41715E-03-8.74440E-04-4.50250E-02
 -1       404 9.43644E-03-5.33647E-04-4.48533E-02
 -1       405 9.96009E-03-8.40959E-04-4.00901E-02
 -1       406 9.98100E-03-5.33647E-04-3.99351E-02
 -1       407 1.04450E-02-8.04787E-04-3.48910E-02
 -1       408 1.04675E-02-5.33647E-04-3.47541E-02
 -1       409 1.08674E-02-7.65890E-04-2.94577E-02
 -1       410 1.08916E-02-5.33647E-04-2.93403E-02
 -1       411 1.12229E-02-7.24177E-04-2.38226E-02
 -1       412 1.12485E-02-5.33647E-04-2.37261E-02
 -1       413 1.15070E-02-6.79550E-04-1.80204E-02
 -1       414 1.15336E-02-5.33647E-04-1.79462E-02
 -1       415 1.17158E-02-6.32432E-04-1.20875E-02
 -1       416 1.17413E-02-5.33647E-04-1.20366E-02
 -1       417 1.18453E-02-5.86425E-04-6.06829E-03
 -1       418 1.18652E-02-5.33647E-04-6.04047E-03
 -1       419 1.18921E-02-5.58091E-04 0.00000E+00
 -1       420 1.19077E-02-5.33647E-04 0.00000E+00
 -1       421 0.00000E+00 0.00000E+00-7.57134E-02
 -1       422 8.91161E-04-1.33929E-06-7.54870E-02
 -1       423 1.77786E-03-5.35714E-06-7.48088E-02
 -1       424 2.65563E-03-1.20536E-05-7.36824E-02
 -1       425 3.52000E-03-2.14286E-05-7.21131E-02
 -1       426 4.36652E-03-3.34821E-05-7.01088E-02
 -1       427 5.19072E-03-4.82143E-05-6.76797E-02
 -1       428 5.98813E-03-6.56250E-05-6.48379E-02
 -1       429 6.75429E-03-8.57143E-05-6.15979E-02
 -1       430 7.48474E-03-1.08482E-04-5.79765E-02
 -1       431 8.17501E-03-1.33928E-04-5.39928E-02
 -1       432 8.82063E-03-1.62053E-04-4.96678E-02
 -1       433 9.41715E-03-1.92855E-04-4.50250E-02
 -1       434 9.96009E-03-2.26336E-04-4.00901E-02
 -1       435 1.04450E-02-2.62507E-04-3.48910E-02
 -1       436 1.08674E-02-3.01405E-04-2.94577E-02
 -1       437 1.12229E-02-3.43118E-04-2.38226E-02
 -1       438 1.15070E-02-3.87745E-04-1.80204E-02
 -1       439 1.17158E-02-4.34863E-04-1.20875E-02
 -1       440 1.18453E-02-4.80870E-04-6.06829E-03
 -1       441 1.18921E-02-5.09204E-04 0.00000E+00
 -1       442 0.00000E+00 1.06589E-04-8.16632E-02
 -1       443 0.00000E+00-2.98182E-03-8.19291E-02
 -1       444 1.87914E-06-2.98182E-03-8.16861E-02
 -1       445-9.25684E-04 9.82794E-05-8.14209E-02
 -1       446 0.00000E+00-6.70927E-04-7.76446E-02
 -1       447 0.00000E+00-2.98711E-03-7.79189E-02
 -1       448 1.84896E-06-2.98711E-03-7.76868E-02
 -1       449-9.12983E-04-6.77303E-04-7.74132E-02
 -1       450 3.75888E-06-2.98184E-03-8.09582E-02
 -1       451-1.84677E-03 7.33769E-05-8.06951E-02
 -1       452 3.69799E-06-2.98713E-03-7.69916E-02
 -1       453-1.82142E-03-6.96405E-04-7.67202E-02
 -1       454 5.63984E-06-2.98186E-03-7.97490E-02
 -1       455-2.75865E-03 3.19636E-05-7.94894E-02
 -1       456 5.54713E-06-2.98715E-03-7.58368E-02
 -1       457-2.72077E-03-7.28158E-04-7.55689E-02
 -1       458 7.52267E-06-2.98189E-03-7.80643E-02
 -1       459-3.65675E-03-2.58234E-05-7.78096E-02
 -1       460 7.39643E-06-2.98718E-03-7.42280E-02
 -1       461-3.60650E-03-7.72439E-04-7.39651E-02
 -1       462 9.40811E-06-2.98193E-03-7.59125E-02
 -1       463-4.53648E-03-9.97916E-05-7.56640E-02
 -1       464 9.24588E-06-2.98722E-03-7.21731E-02
 -1       465-4.47407E-03-8.29075E-04-7.19167E-02
 -1       466 1.12970E-05-2.98198E-03-7.33039E-02
 -1       467-5.39328E-03-1.89691E-04-7.30631E-02
 -1       468 1.10954E-05-2.98727E-03-6.96824E-02
 -1       469-5.31899E-03-8.97843E-04-6.94339E-02
 -1       470 1.31902E-05-2.98205E-03-7.02517E-02
 -1       471-6.22261E-03-2.95215E-04-7.00199E-02
 -1       472 1.29450E-05-2.98733E-03-6.67684E-02
 -1       473-6.13675E-03-9.78474E-04-6.65291E-02
 -1       474 1.50890E-05-2.98212E-03-6.67710E-02
 -1       475-7.01996E-03-4.15995E-04-6.65496E-02
 -1       476 1.47942E-05-2.98740E-03-6.34457E-02
 -1       477-6.92290E-03-1.07066E-03-6.32172E-02
 -1       478 1.69947E-05-2.98221E-03-6.28794E-02
 -1       479-7.78088E-03-5.51603E-04-6.26698E-02
 -1       480 1.66428E-05-2.98749E-03-5.97313E-02
 -1       481-7.67302E-03-1.17403E-03-5.95149E-02
 -1       482 1.89091E-05-2.98232E-03-5.85968E-02
 -1       483-8.50100E-03-7.01548E-04-5.84003E-02
 -1       484 1.84900E-05-2.98760E-03-5.56444E-02
 -1       485-8.38273E-03-1.28823E-03-5.54414E-02
 -1       486 2.08342E-05-2.98245E-03-5.39454E-02
 -1       487-9.17605E-03-8.65270E-04-5.37632E-02
 -1       488 2.03345E-05-2.98772E-03-5.12061E-02
 -1       489-9.04773E-03-1.41283E-03-5.10181E-02
 -1       490 2.27727E-05-2.98261E-03-4.89497E-02
 -1       491-9.80199E-03-1.04214E-03-4.87831E-02
 -1       492 2.21744E-05-2.98788E-03-4.64401E-02
 -1       493-9.66380E-03-1.54743E-03-4.62683E-02
 -1       494 2.47280E-05-2.98279E-03-4.36363E-02
 -1       495-1.03751E-02-1.23144E-03-4.34863E-02
 -1       496 2.40064E-05-2.98806E-03-4.13716E-02
 -1       497-1.02268E-02-1.69162E-03-4.12176E-02
 -1       498 2.67060E-05-2.98303E-03-3.80341E-02
 -1       499-1.08921E-02-1.43229E-03-3.79017E-02
 -1       500 2.58262E-05-2.98828E-03-3.60282E-02
 -1       501-1.07325E-02-1.84497E-03-3.58933E-02
 -1       502 2.87235E-05-2.98332E-03-3.21740E-02
 -1       503-1.13510E-02-1.64350E-03-3.20598E-02
 -1       504 2.76342E-05-2.98856E-03-3.04390E-02
 -1       505-1.11767E-02-2.00679E-03-3.03248E-02
 -1       506 3.08353E-05-2.98373E-03-2.60886E-02
 -1       507-1.17508E-02-1.86300E-03-2.59925E-02
 -1       508 2.94608E-05-2.98891E-03-2.46346E-02
 -1       509-1.15545E-02-2.17540E-03-2.45428E-02
 -1       510 3.32034E-05-2.98435E-03-1.98102E-02
 -1       511-1.20925E-02-2.08625E-03-1.97326E-02
 -1       512 3.14428E-05-2.98937E-03-1.86470E-02
 -1       513-1.18596E-02-2.34590E-03-1.85807E-02
 -1       514 3.61799E-05-2.98534E-03-1.33687E-02
 -1       515-1.23772E-02-2.30140E-03-1.33083E-02
 -1       516 3.39498E-05-2.98997E-03-1.25123E-02
 -1       517-1.20838E-02-2.50398E-03-1.24728E-02
 -1       518 4.00187E-05-2.98689E-03-6.77192E-03
 -1       519-1.25937E-02-2.47785E-03-6.74301E-03
 -1       520 3.73554E-05-2.99063E-03-6.27052E-03
 -1       521-1.22175E-02-2.60807E-03-6.26402E-03
 -1       522 4.20849E-05-2.98922E-03 0.00000E+00
 -1       523-1.26854E-02-2.50935E-03 0.00000E+00
 -1       524 3.90892E-05-2.99083E-03 0.00000E+00
 -1       525-1.22649E-02-2.56554E-03 0.00000E+00
 -1       526 0.00000E+00-1.29616E-03-7.46778E-02
 -1       527 0.00000E+00-2.99243E-03-7.49631E-02
 -1       528 1.81660E-06-2.99244E-03-7.47392E-02
 -1       529-8.79035E-04-1.30093E-03-7.44547E-02
 -1       530 3.63283E-06-2.99245E-03-7.40687E-02
 -1       531-1.75366E-03-1.31521E-03-7.37863E-02
 -1       532 5.44832E-06-2.99247E-03-7.29547E-02
 -1       533-2.61948E-03-1.33895E-03-7.26761E-02
 -1       534 7.26266E-06-2.99250E-03-7.14029E-02
 -1       535-3.47209E-03-1.37204E-03-7.11295E-02
 -1       536 9.07538E-06-2.99254E-03-6.94209E-02
 -1       537-4.30710E-03-1.41435E-03-6.91542E-02
 -1       538 1.08859E-05-2.99260E-03-6.70186E-02
 -1       539-5.12013E-03-1.46569E-03-6.67601E-02
 -1       540 1.26936E-05-2.99266E-03-6.42081E-02
 -1       541-5.90680E-03-1.52586E-03-6.39593E-02
 -1       542 1.44978E-05-2.99274E-03-6.10036E-02
 -1       543-6.66276E-03-1.59462E-03-6.07659E-02
 -1       544 1.62974E-05-2.99283E-03-5.74215E-02
 -1       545-7.38365E-03-1.67171E-03-5.71965E-02
 -1       546 1.80915E-05-2.99294E-03-5.34803E-02
 -1       547-8.06513E-03-1.75687E-03-5.32695E-02
 -1       548 1.98788E-05-2.99307E-03-4.92007E-02
 -1       549-8.70284E-03-1.84981E-03-4.90058E-02
 -1       550 2.16580E-05-2.99322E-03-4.46056E-02
 -1       551-9.29237E-03-1.95026E-03-4.44280E-02
 -1       552 2.34278E-05-2.99340E-03-3.97199E-02
 -1       553-9.82923E-03-2.05794E-03-3.95613E-02
 -1       554 2.51892E-05-2.99361E-03-3.45707E-02
 -1       555-1.03087E-02-2.17240E-03-3.44329E-02
 -1       556 2.69527E-05-2.99387E-03-2.91875E-02
 -1       557-1.07259E-02-2.29277E-03-2.90722E-02
 -1       558 2.87682E-05-2.99416E-03-2.36024E-02
 -1       559-1.10756E-02-2.41691E-03-2.35116E-02
 -1       560 3.08002E-05-2.99448E-03-1.78503E-02
 -1       561-1.13523E-02-2.53945E-03-1.77865E-02
 -1       562 3.34390E-05-2.99478E-03-1.19709E-02
 -1       563-1.15520E-02-2.64717E-03-1.19346E-02
 -1       564 3.70078E-05-2.99495E-03-6.00233E-03
 -1       565-1.16731E-02-2.71064E-03-6.00036E-03
 -1       566 3.87008E-05-2.99515E-03 0.00000E+00
 -1       567-1.17212E-02-2.65202E-03 0.00000E+00
 -1       568 0.00000E+00-1.76598E-03-7.25149E-02
 -1       569 0.00000E+00-2.99779E-03-7.28087E-02
 -1       570 1.79032E-06-2.99779E-03-7.25909E-02
 -1       571-8.54210E-04-1.76951E-03-7.22979E-02
 -1       572 3.58021E-06-2.99780E-03-7.19386E-02
 -1       573-1.70412E-03-1.78008E-03-7.16479E-02
 -1       574 5.36926E-06-2.99783E-03-7.08550E-02
 -1       575-2.54544E-03-1.79765E-03-7.05681E-02
 -1       576 7.15702E-06-2.99786E-03-6.93454E-02
 -1       577-3.37386E-03-1.82215E-03-6.90639E-02
 -1       578 8.94307E-06-2.99790E-03-6.74174E-02
 -1       579-4.18509E-03-1.85346E-03-6.71429E-02
 -1       580 1.07270E-05-2.99795E-03-6.50806E-02
 -1       581-4.97484E-03-1.89148E-03-6.48145E-02
 -1       582 1.25084E-05-2.99802E-03-6.23468E-02
 -1       583-5.73880E-03-1.93603E-03-6.20907E-02
 -1       584 1.42869E-05-2.99809E-03-5.92298E-02
 -1       585-6.47269E-03-1.98696E-03-5.89854E-02
 -1       586 1.60624E-05-2.99818E-03-5.57458E-02
 -1       587-7.17218E-03-2.04408E-03-5.55145E-02
 -1       588 1.78348E-05-2.99829E-03-5.19129E-02
 -1       589-7.83293E-03-2.10719E-03-5.16964E-02
 -1       590 1.96044E-05-2.99841E-03-4.77514E-02
 -1       591-8.45057E-03-2.17608E-03-4.75514E-02
 -1       592 2.13719E-05-2.99855E-03-4.32840E-02
 -1       593-9.02067E-03-2.25047E-03-4.31020E-02
 -1       594 2.31388E-05-2.99870E-03-3.85353E-02
 -1       595-9.53868E-03-2.33005E-03-3.83731E-02
 -1       596 2.49086E-05-2.99887E-03-3.35324E-02
 -1       597-1.00000E-02-2.41426E-03-3.33917E-02
 -1       598 2.66941E-05-2.99906E-03-2.83047E-02
 -1       599-1.04000E-02-2.50213E-03-2.81872E-02
 -1       600 2.85428E-05-2.99924E-03-2.28840E-02
 -1       601-1.07339E-02-2.59169E-03-2.27916E-02
 -1       602 3.06085E-05-2.99940E-03-1.73044E-02
 -1       603-1.09974E-02-2.67878E-03-1.72394E-02
 -1       604 3.32552E-05-2.99953E-03-1.16036E-02
 -1       605-1.11874E-02-2.75459E-03-1.15662E-02
 -1       606 3.67842E-05-2.99967E-03-5.81665E-03
 -1       607-1.13017E-02-2.79809E-03-5.81326E-03
 -1       608 3.84517E-05-2.99972E-03 0.00000E+00
 -1       609-1.13464E-02-2.76601E-03 0.00000E+00
 -1       610 0.00000E+00-2.11858E-03-7.09534E-02
 -1       611 0.00000E+00-3.00315E-03-7.12539E-02
 -1       612 1.77364E-06-3.00316E-03-7.10405E-02
 -1       613-8.35895E-04-2.12116E-03-7.07409E-02
 -1       614 3.54705E-06-3.00317E-03-7.04016E-02
 -1       615-1.66757E-03-2.12892E-03-7.01044E-02
 -1       616 5.32003E-06-3.00319E-03-6.93403E-02
 -1       617-2.49080E-03-2.14182E-03-6.90470E-02
 -1       618 7.09240E-06-3.00322E-03-6.78619E-02
 -1       619-3.30136E-03-2.15979E-03-6.75741E-02
 -1       620 8.86401E-06-3.00326E-03-6.59736E-02
 -1       621-4.09503E-03-2.18278E-03-6.56929E-02
 -1       622 1.06348E-05-3.00331E-03-6.36850E-02
 -1       623-4.86758E-03-2.21068E-03-6.34131E-02
 -1       624 1.24048E-05-3.00337E-03-6.10077E-02
 -1       625-5.61476E-03-2.24339E-03-6.07461E-02
 -1       626 1.41742E-05-3.00344E-03-5.79554E-02
 -1       627-6.33234E-03-2.28078E-03-5.77056E-02
 -1       628 1.59435E-05-3.00352E-03-5.45438E-02
 -1       629-7.01603E-03-2.32268E-03-5.43076E-02
 -1       630 1.77131E-05-3.00361E-03-5.07910E-02
 -1       631-7.66157E-03-2.36894E-03-5.05700E-02
 -1       632 1.94840E-05-3.00371E-03-4.67170E-02
 -1       633-8.26463E-03-2.41933E-03-4.65128E-02
 -1       634 2.12574E-05-3.00382E-03-4.23440E-02
 -1       635-8.82086E-03-2.47360E-03-4.21583E-02
 -1       636 2.30345E-05-3.00394E-03-3.76966E-02
 -1       637-9.32591E-03-2.53139E-03-3.75310E-02
 -1       638 2.48179E-05-3.00406E-03-3.28013E-02
 -1       639-9.77537E-03-2.59218E-03-3.26576E-02
 -1       640 2.66172E-05-3.00417E-03-2.76870E-02
 -1       641-1.01649E-02-2.65517E-03-2.75669E-02
 -1       642 2.84751E-05-3.00428E-03-2.23848E-02
 -1       643-1.04902E-02-2.71889E-03-2.22900E-02
 -1       644 3.05404E-05-3.00438E-03-1.69278E-02
 -1       645-1.07475E-02-2.78052E-03-1.68604E-02
 -1       646 3.31799E-05-3.00447E-03-1.13523E-02
 -1       647-1.09336E-02-2.83390E-03-1.13127E-02
 -1       648 3.67138E-05-3.00452E-03-5.69289E-03
 -1       649-1.10468E-02-2.86574E-03-5.68611E-03
 -1       650 3.83684E-05-3.00456E-03 0.00000E+00
 -1       651-1.10889E-02-2.84135E-03 0.00000E+00
 -1       652 0.00000E+00-2.38295E-03-6.98407E-02
 -1       653 0.00000E+00-3.00852E-03-7.01462E-02
 -1       654 1.76577E-06-3.00852E-03-6.99362E-02
 -1       655-8.22528E-04-2.38482E-03-6.96315E-02
 -1       656 3.53157E-06-3.00853E-03-6.93071E-02
 -1       657-1.64089E-03-2.39044E-03-6.90048E-02
 -1       658 5.29746E-06-3.00855E-03-6.82620E-02
 -1       659-2.45092E-03-2.39978E-03-6.79638E-02
 -1       660 7.06352E-06-3.00858E-03-6.68063E-02
 -1       661-3.24845E-03-2.41280E-03-6.65136E-02
 -1       662 8.82988E-06-3.00862E-03-6.49470E-02
 -1       663-4.02931E-03-2.42944E-03-6.46616E-02
 -1       664 1.05968E-05-3.00866E-03-6.26936E-02
 -1       665-4.78932E-03-2.44963E-03-6.24171E-02
 -1       666 1.23645E-05-3.00871E-03-6.00576E-02
 -1       667-5.52429E-03-2.47328E-03-5.97916E-02
 -1       668 1.41334E-05-3.00877E-03-5.70524E-02
 -1       669-6.23005E-03-2.50027E-03-5.67985E-02
 -1       670 1.59041E-05-3.00883E-03-5.36938E-02
 -1       671-6.90237E-03-2.53049E-03-5.34536E-02
 -1       672 1.76772E-05-3.00890E-03-4.99993E-02
 -1       673-7.53707E-03-2.56376E-03-4.97746E-02
 -1       674 1.94534E-05-3.00898E-03-4.59889E-02
 -1       675-8.12990E-03-2.59990E-03-4.57812E-02
 -1       676 2.12334E-05-3.00906E-03-4.16845E-02
 -1       677-8.67664E-03-2.63868E-03-4.14955E-02
 -1       678 2.30174E-05-3.00914E-03-3.71101E-02
 -1       679-9.17308E-03-2.67978E-03-3.69416E-02
 -1       680 2.48068E-05-3.00922E-03-3.22920E-02
 -1       681-9.61498E-03-2.72281E-03-3.21456E-02
 -1       682 2.66097E-05-3.00929E-03-2.72585E-02
 -1       683-9.99819E-03-2.76716E-03-2.71358E-02
 -1       684 2.84682E-05-3.00936E-03-2.20399E-02
 -1       685-1.03186E-02-2.81183E-03-2.19427E-02
 -1       686 3.05323E-05-3.00942E-03-1.66686E-02
 -1       687-1.05725E-02-2.85483E-03-1.65990E-02
 -1       688 3.31715E-05-3.00946E-03-1.11800E-02
 -1       689-1.07567E-02-2.89204E-03-1.11384E-02
 -1       690 3.66983E-05-3.00950E-03-5.60776E-03
 -1       691-1.08687E-02-2.91353E-03-5.59867E-03
 -1       692 3.83419E-05-3.00951E-03 0.00000E+00
 -1       693-1.09096E-02-2.89723E-03 0.00000E+00
 -1       694 0.00000E+00-2.58173E-03-6.90625E-02
 -1       695 0.00000E+00-3.01387E-03-6.93719E-02
 -1       696 1.76395E-06-3.01387E-03-6.91642E-02
 -1       697-8.12940E-04-2.58306E-03-6.88556E-02
 -1       698 3.52812E-06-3.01388E-03-6.85421E-02
 -1       699-1.62176E-03-2.58703E-03-6.82360E-02
 -1       700 5.29276E-06-3.01390E-03-6.75088E-02
 -1       701-2.42233E-03-2.59363E-03-6.72067E-02
 -1       702 7.05813E-06-3.01392E-03-6.60692E-02
 -1       703-3.21053E-03-2.60283E-03-6.57729E-02
 -1       704 8.82451E-06-3.01395E-03-6.42308E-02
 -1       705-3.98223E-03-2.61458E-03-6.39418E-02
 -1       706 1.05922E-05-3.01398E-03-6.20027E-02
 -1       707-4.73331E-03-2.62882E-03-6.17226E-02
 -1       708 1.23617E-05-3.01402E-03-5.93962E-02
 -1       709-5.45963E-03-2.64548E-03-5.91267E-02
 -1       710 1.41333E-05-3.01406E-03-5.64247E-02
 -1       711-6.15704E-03-2.66446E-03-5.61676E-02
 -1       712 1.59075E-05-3.01411E-03-5.31038E-02
 -1       713-6.82143E-03-2.68566E-03-5.28605E-02
 -1       714 1.76847E-05-3.01416E-03-4.94509E-02
 -1       715-7.44863E-03-2.70894E-03-4.92232E-02
 -1       716 1.94653E-05-3.01422E-03-4.54856E-02
 -1       717-8.03451E-03-2.73415E-03-4.52752E-02
 -1       718 2.12496E-05-3.01427E-03-4.12296E-02
 -1       719-8.57493E-03-2.76110E-03-4.10381E-02
 -1       720 2.30373E-05-3.01433E-03-3.67066E-02
 -1       721-9.06577E-03-2.78957E-03-3.65357E-02
 -1       722 2.48292E-05-3.01438E-03-3.19425E-02
 -1       723-9.50290E-03-2.81925E-03-3.17938E-02
 -1       724 2.66334E-05-3.01443E-03-2.69651E-02
 -1       725-9.88226E-03-2.84972E-03-2.68403E-02
 -1       726 2.84920E-05-3.01447E-03-2.18043E-02
 -1       727-1.01999E-02-2.88029E-03-2.17052E-02
 -1       728 3.05549E-05-3.01451E-03-1.64919E-02
 -1       729-1.04519E-02-2.90961E-03-1.64206E-02
 -1       730 3.31904E-05-3.01453E-03-1.10626E-02
 -1       731-1.06352E-02-2.93482E-03-1.10196E-02
 -1       732 3.67149E-05-3.01455E-03-5.54986E-03
 -1       733-1.07470E-02-2.94958E-03-5.53915E-03
 -1       734 3.83527E-05-3.01455E-03 0.00000E+00
 -1       735-1.07871E-02-2.93839E-03 0.00000E+00
 -1       736 0.00000E+00-2.73285E-03-6.85347E-02
 -1       737 0.00000E+00-3.01920E-03-6.88470E-02
 -1       738 1.76529E-06-3.01920E-03-6.86409E-02
 -1       739-8.06281E-04-2.73375E-03-6.83295E-02
 -1       740 3.53090E-06-3.01921E-03-6.80237E-02
 -1       741-1.60847E-03-2.73643E-03-6.77147E-02
 -1       742 5.29718E-06-3.01922E-03-6.69984E-02
 -1       743-2.40249E-03-2.74090E-03-6.66936E-02
 -1       744 7.06446E-06-3.01924E-03-6.55702E-02
 -1       745-3.18423E-03-2.74711E-03-6.52711E-02
 -1       746 8.83309E-06-3.01926E-03-6.37461E-02
 -1       747-3.94962E-03-2.75504E-03-6.34545E-02
 -1       748 1.06034E-05-3.01928E-03-6.15355E-02
 -1       749-4.69455E-03-2.76463E-03-6.12529E-02
 -1       750 1.23758E-05-3.01931E-03-5.89494E-02
 -1       751-5.41494E-03-2.77584E-03-5.86775E-02
 -1       752 1.41506E-05-3.01934E-03-5.60012E-02
 -1       753-6.10670E-03-2.78859E-03-5.57417E-02
 -1       754 1.59281E-05-3.01938E-03-5.27063E-02
 -1       755-6.76573E-03-2.80280E-03-5.24608E-02
 -1       756 1.77087E-05-3.01941E-03-4.90819E-02
 -1       757-7.38794E-03-2.81837E-03-4.88521E-02
 -1       758 1.94925E-05-3.01945E-03-4.51475E-02
 -1       759-7.96925E-03-2.83518E-03-4.49350E-02
 -1       760 2.12794E-05-3.01948E-03-4.09245E-02
 -1       761-8.50558E-03-2.85311E-03-4.07311E-02
 -1       762 2.30692E-05-3.01952E-03-3.64365E-02
 -1       763-8.99286E-03-2.87198E-03-3.62637E-02
 -1       764 2.48624E-05-3.01955E-03-3.17089E-02
 -1       765-9.42702E-03-2.89161E-03-3.15585E-02
 -1       766 2.66670E-05-3.01958E-03-2.67693E-02
 -1       767-9.80405E-03-2.91170E-03-2.66430E-02
 -1       768 2.85249E-05-3.01961E-03-2.16473E-02
 -1       769-1.01200E-02-2.93179E-03-2.15468E-02
 -1       770 3.05860E-05-3.01963E-03-1.63743E-02
 -1       771-1.03710E-02-2.95102E-03-1.63017E-02
 -1       772 3.32196E-05-3.01964E-03-1.09846E-02
 -1       773-1.05539E-02-2.96757E-03-1.09406E-02
 -1       774 3.67414E-05-3.01965E-03-5.51142E-03
 -1       775-1.06656E-02-2.97717E-03-5.49955E-03
 -1       776 3.83743E-05-3.01964E-03 0.00000E+00
 -1       777-1.07052E-02-2.96989E-03 0.00000E+00
 -1       778 0.00000E+00-2.85086E-03-6.81973E-02
 -1       779 0.00000E+00-3.02452E-03-6.85115E-02
 -1       780 1.76758E-06-3.02452E-03-6.83065E-02
 -1       781-8.01940E-04-2.85142E-03-6.79931E-02
 -1       782 3.53553E-06-3.02452E-03-6.76924E-02
 -1       783-1.59981E-03-2.85307E-03-6.73816E-02
 -1       784 5.30421E-06-3.02453E-03-6.66725E-02
 -1       785-2.38956E-03-2.85582E-03-6.63657E-02
 -1       786 7.07399E-06-3.02454E-03-6.52516E-02
 -1       787-3.16711E-03-2.85964E-03-6.49506E-02
 -1       788 8.84520E-06-3.02455E-03-6.34369E-02
 -1       789-3.92841E-03-2.86451E-03-6.31434E-02
 -1       790 1.06182E-05-3.02457E-03-6.12376E-02
 -1       791-4.66938E-03-2.87040E-03-6.09532E-02
 -1       792 1.23933E-05-3.02459E-03-5.86648E-02
 -1       793-5.38597E-03-2.87727E-03-5.83912E-02
 -1       794 1.41708E-05-3.02460E-03-5.57317E-02
 -1       795-6.07411E-03-2.88508E-03-5.54705E-02
 -1       796 1.59509E-05-3.02463E-03-5.24535E-02
 -1       797-6.72974E-03-2.89376E-03-5.22064E-02
 -1       798 1.77339E-05-3.02465E-03-4.88475E-02
 -1       799-7.34882E-03-2.90326E-03-4.86162E-02
 -1       800 1.95198E-05-3.02467E-03-4.49330E-02
 -1       801-7.92728E-03-2.91350E-03-4.47191E-02
 -1       802 2.13084E-05-3.02469E-03-4.07312E-02
 -1       803-8.46109E-03-2.92439E-03-4.05364E-02
 -1       804 2.30994E-05-3.02471E-03-3.62655E-02
 -1       805-8.94620E-03-2.93584E-03-3.60915E-02
 -1       806 2.48933E-05-3.02473E-03-3.15612E-02
 -1       807-9.37859E-03-2.94772E-03-3.14097E-02
 -1       808 2.66979E-05-3.02475E-03-2.66457E-02
 -1       809-9.75425E-03-2.95985E-03-2.65183E-02
 -1       810 2.85551E-05-3.02476E-03-2.15483E-02
 -1       811-1.00692E-02-2.97197E-03-2.14468E-02
 -1       812 3.06151E-05-3.02477E-03-1.63002E-02
 -1       813-1.03197E-02-2.98356E-03-1.62267E-02
 -1       814 3.32471E-05-3.02478E-03-1.09354E-02
 -1       815-1.05024E-02-2.99349E-03-1.08907E-02
 -1       816 3.67674E-05-3.02478E-03-5.48721E-03
 -1       817-1.06142E-02-2.99927E-03-5.47459E-03
 -1       818 3.83975E-05-3.02478E-03 0.00000E+00
 -1       819-1.06534E-02-2.99489E-03 0.00000E+00
 -1       820 0.00000E+00-2.94802E-03-6.80101E-02
 -1       821 0.00000E+00-3.02982E-03-6.83254E-02
 -1       822 1.76944E-06-3.02982E-03-6.81210E-02
 -1       823-7.99498E-04-2.94828E-03-6.78066E-02
 -1       824 3.53926E-06-3.02982E-03-6.75088E-02
 -1       825-1.59495E-03-2.94907E-03-6.71968E-02
 -1       826 5.30982E-06-3.02982E-03-6.64918E-02
 -1       827-2.38230E-03-2.95038E-03-6.61839E-02
 -1       828 7.08148E-06-3.02983E-03-6.50750E-02
 -1       829-3.15750E-03-2.95219E-03-6.47730E-02
 -1       830 8.85458E-06-3.02983E-03-6.32656E-02
 -1       831-3.91650E-03-2.95450E-03-6.29710E-02
 -1       832 1.06295E-05-3.02984E-03-6.10727E-02
 -1       833-4.65526E-03-2.95730E-03-6.07872E-02
 -1       834 1.24064E-05-3.02985E-03-5.85073E-02
 -1       835-5.36974E-03-2.96056E-03-5.82326E-02
 -1       836 1.41856E-05-3.02986E-03-5.55826E-02
 -1       837-6.05588E-03-2.96426E-03-5.53204E-02
 -1       838 1.59674E-05-3.02987E-03-5.23138E-02
 -1       839-6.70964E-03-2.96837E-03-5.20658E-02
 -1       840 1.77518E-05-3.02988E-03-4.87181E-02
 -1       841-7.32700E-03-2.97285E-03-4.84858E-02
 -1       842 1.95389E-05-3.02989E-03-4.48146E-02
 -1       843-7.90391E-03-2.97769E-03-4.45998E-02
 -1       844 2.13285E-05-3.02990E-03-4.06246E-02
 -1       845-8.43635E-03-2.98283E-03-4.04290E-02
 -1       846 2.31202E-05-3.02991E-03-3.61713E-02
 -1       847-8.92030E-03-2.98822E-03-3.59965E-02
 -1       848 2.49143E-05-3.02992E-03-3.14799E-02
 -1       849-9.35175E-03-2.99381E-03-3.13276E-02
 -1       850 2.67188E-05-3.02993E-03-2.65776E-02
 -1       851-9.72670E-03-2.99951E-03-2.64496E-02
 -1       852 2.85756E-05-3.02993E-03-2.14938E-02
 -1       853-1.00412E-02-3.00520E-03-2.13918E-02
 -1       854 3.06348E-05-3.02994E-03-1.62595E-02
 -1       855-1.02915E-02-3.01063E-03-1.61855E-02
 -1       856 3.32660E-05-3.02994E-03-1.09084E-02
 -1       857-1.04741E-02-3.01529E-03-1.08633E-02
 -1       858 3.67854E-05-3.02994E-03-5.47392E-03
 -1       859-1.05858E-02-3.01799E-03-5.46087E-03
 -1       860 3.84137E-05-3.02994E-03 0.00000E+00
 -1       861-1.06249E-02-3.01594E-03 0.00000E+00
 -1       862 0.00000E+00-3.03511E-03-6.79502E-02
 -1       863 0.00000E+00-3.03511E-03-6.82659E-02
 -1       864 1.77014E-06-3.03511E-03-6.80617E-02
 -1       865-7.98712E-04-3.03511E-03-6.77469E-02
 -1       866 3.54065E-06-3.03511E-03-6.74500E-02
 -1       867-1.59338E-03-3.03511E-03-6.71377E-02
 -1       868 5.31190E-06-3.03511E-03-6.64340E-02
 -1       869-2.37996E-03-3.03511E-03-6.61258E-02
 -1       870 7.08425E-06-3.03511E-03-6.50185E-02
 -1       871-3.15440E-03-3.03511E-03-6.47162E-02
 -1       872 8.85803E-06-3.03511E-03-6.32108E-02
 -1       873-3.91267E-03-3.03511E-03-6.29159E-02
 -1       874 1.06336E-05-3.03511E-03-6.10199E-02
 -1       875-4.65072E-03-3.03511E-03-6.07342E-02
 -1       876 1.24111E-05-3.03511E-03-5.84569E-02
 -1       877-5.36452E-03-3.03511E-03-5.81820E-02
 -1       878 1.41910E-05-3.03511E-03-5.55350E-02
 -1       879-6.05002E-03-3.03511E-03-5.52725E-02
 -1       880 1.59733E-05-3.03511E-03-5.22692E-02
 -1       881-6.70319E-03-3.03511E-03-5.20208E-02
 -1       882 1.77582E-05-3.03511E-03-4.86768E-02
 -1       883-7.32000E-03-3.03511E-03-4.84442E-02
 -1       884 1.95457E-05-3.03511E-03-4.47768E-02
 -1       885-7.89642E-03-3.03511E-03-4.45618E-02
 -1       886 2.13356E-05-3.03511E-03-4.05906E-02
 -1       887-8.42843E-03-3.03511E-03-4.03947E-02
 -1       888 2.31275E-05-3.03511E-03-3.61412E-02
 -1       889-8.91201E-03-3.03511E-03-3.59662E-02
 -1       890 2.49217E-05-3.03511E-03-3.14539E-02
 -1       891-9.34317E-03-3.03511E-03-3.13015E-02
 -1       892 2.67262E-05-3.03511E-03-2.65559E-02
 -1       893-9.71789E-03-3.03511E-03-2.64277E-02
 -1       894 2.85828E-05-3.03511E-03-2.14764E-02
 -1       895-1.00323E-02-3.03511E-03-2.13742E-02
 -1       896 3.06418E-05-3.03511E-03-1.62465E-02
 -1       897-1.02824E-02-3.03511E-03-1.61723E-02
 -1       898 3.32727E-05-3.03511E-03-1.08998E-02
 -1       899-1.04650E-02-3.03511E-03-1.08546E-02
 -1       900 3.67918E-05-3.03511E-03-5.46969E-03
 -1       901-1.05768E-02-3.03511E-03-5.45650E-03
 -1       902 3.84196E-05-3.03511E-03 0.00000E+00
 -1       903-1.06158E-02-3.03511E-03 0.00000E+00
 -1       904 0.00000E+00-3.12220E-03-6.80101E-02
 -1       905 0.00000E+00-3.04040E-03-6.83254E-02
 -1       906 1.76944E-06-3.04040E-03-6.81210E-02
 -1       907-7.99498E-04-3.12193E-03-6.78066E-02
 -1       908 3.53926E-06-3.04040E-03-6.75088E-02
 -1       909-1.59495E-03-3.12115E-03-6.71968E-02
 -1       910 5.30982E-06-3.04039E-03-6.64918E-02
 -1       911-2.38230E-03-3.11984E-03-6.61839E-02
 -1       912 7.08148E-06-3.04039E-03-6.50750E-02
 -1       913-3.15750E-03-3.11803E-03-6.47730E-02
 -1       914 8.85458E-06-3.04038E-03-6.32656E-02
 -1       915-3.91650E-03-3.11571E-03-6.29710E-02
 -1       916 1.06295E-05-3.04038E-03-6.10727E-02
 -1       917-4.65526E-03-3.11292E-03-6.07872E-02
 -1       918 1.24064E-05-3.04037E-03-5.85073E-02
 -1       919-5.36974E-03-3.10966E-03-5.82326E-02
 -1       920 1.41856E-05-3.04036E-03-5.55826E-02
 -1       921-6.05588E-03-3.10596E-03-5.53204E-02
 -1       922 1.59674E-05-3.04035E-03-5.23138E-02
 -1       923-6.70964E-03-3.10185E-03-5.20658E-02
 -1       924 1.77518E-05-3.04034E-03-4.87181E-02
 -1       925-7.32700E-03-3.09736E-03-4.84858E-02
 -1       926 1.95389E-05-3.04033E-03-4.48146E-02
 -1       927-7.90391E-03-3.09253E-03-4.45998E-02
 -1       928 2.13285E-05-3.04032E-03-4.06246E-02
 -1       929-8.43635E-03-3.08739E-03-4.04290E-02
 -1       930 2.31202E-05-3.04031E-03-3.61713E-02
 -1       931-8.92030E-03-3.08200E-03-3.59965E-02
 -1       932 2.49143E-05-3.04030E-03-3.14799E-02
 -1       933-9.35175E-03-3.07641E-03-3.13276E-02
 -1       934 2.67188E-05-3.04029E-03-2.65776E-02
 -1       935-9.72670E-03-3.07071E-03-2.64496E-02
 -1       936 2.85756E-05-3.04028E-03-2.14938E-02
 -1       937-1.00412E-02-3.06502E-03-2.13918E-02
 -1       938 3.06348E-05-3.04028E-03-1.62595E-02
 -1       939-1.02915E-02-3.05959E-03-1.61855E-02
 -1       940 3.32660E-05-3.04028E-03-1.09084E-02
 -1       941-1.04741E-02-3.05493E-03-1.08633E-02
 -1       942 3.67854E-05-3.04028E-03-5.47392E-03
 -1       943-1.05858E-02-3.05223E-03-5.46087E-03
 -1       944 3.84137E-05-3.04028E-03 0.00000E+00
 -1       945-1.06249E-02-3.05428E-03 0.00000E+00
 -1       946 0.00000E+00-3.21935E-03-6.81973E-02
 -1       947 0.00000E+00-3.04570E-03-6.85115E-02
 -1       948 1.76758E-06-3.04570E-03-6.83065E-02
 -1       949-8.01940E-04-3.21880E-03-6.79931E-02
 -1       950 3.53553E-06-3.04570E-03-6.76924E-02
 -1       951-1.59981E-03-3.21715E-03-6.73816E-02
 -1       952 5.30421E-06-3.04569E-03-6.66725E-02
 -1       953-2.38956E-03-3.21440E-03-6.63657E-02
 -1       954 7.07399E-06-3.04568E-03-6.52516E-02
 -1       955-3.16711E-03-3.21058E-03-6.49506E-02
 -1       956 8.84520E-06-3.04566E-03-6.34369E-02
 -1       957-3.92841E-03-3.20571E-03-6.31434E-02
 -1       958 1.06182E-05-3.04565E-03-6.12376E-02
 -1       959-4.66938E-03-3.19982E-03-6.09532E-02
 -1       960 1.23933E-05-3.04563E-03-5.86648E-02
 -1       961-5.38597E-03-3.19294E-03-5.83912E-02
 -1       962 1.41708E-05-3.04561E-03-5.57317E-02
 -1       963-6.07411E-03-3.18514E-03-5.54705E-02
 -1       964 1.59509E-05-3.04559E-03-5.24535E-02
 -1       965-6.72974E-03-3.17645E-03-5.22064E-02
 -1       966 1.77339E-05-3.04557E-03-4.88475E-02
 -1       967-7.34882E-03-3.16696E-03-4.86162E-02
 -1       968 1.95198E-05-3.04555E-03-4.49330E-02
 -1       969-7.92728E-03-3.15672E-03-4.47191E-02
 -1       970 2.13084E-05-3.04553E-03-4.07312E-02
 -1       971-8.46109E-03-3.14582E-03-4.05364E-02
 -1       972 2.30994E-05-3.04550E-03-3.62655E-02
 -1       973-8.94620E-03-3.13438E-03-3.60915E-02
 -1       974 2.48933E-05-3.04549E-03-3.15612E-02
 -1       975-9.37859E-03-3.12250E-03-3.14097E-02
 -1       976 2.66979E-05-3.04547E-03-2.66457E-02
 -1       977-9.75425E-03-3.11036E-03-2.65183E-02
 -1       978 2.85551E-05-3.04545E-03-2.15483E-02
 -1       979-1.00692E-02-3.09824E-03-2.14468E-02
 -1       980 3.06151E-05-3.04544E-03-1.63002E-02
 -1       981-1.03197E-02-3.08666E-03-1.62267E-02
 -1       982 3.32471E-05-3.04544E-03-1.09354E-02
 -1       983-1.05024E-02-3.07672E-03-1.08907E-02
 -1       984 3.67674E-05-3.04543E-03-5.48721E-03
 -1       985-1.06142E-02-3.07094E-03-5.47459E-03
 -1       986 3.83975E-05-3.04544E-03 0.00000E+00
 -1       987-1.06534E-02-3.07533E-03 0.00000E+00
 -1       988 0.00000E+00-3.33737E-03-6.85347E-02
 -1       989 0.00000E+00-3.05102E-03-6.88470E-02
 -1       990 1.76529E-06-3.05101E-03-6.86409E-02
 -1       991-8.06281E-04-3.33647E-03-6.83295E-02
 -1       992 3.53090E-06-3.05101E-03-6.80237E-02
 -1       993-1.60847E-03-3.33378E-03-6.77147E-02
 -1       994 5.29718E-06-3.05099E-03-6.69984E-02
 -1       995-2.40249E-03-3.32932E-03-6.66936E-02
 -1       996 7.06446E-06-3.05098E-03-6.55702E-02
 -1       997-3.18423E-03-3.32311E-03-6.52711E-02
 -1       998 8.83309E-06-3.05096E-03-6.37461E-02
 -1       999-3.94962E-03-3.31518E-03-6.34545E-02
 -1      1000 1.06034E-05-3.05093E-03-6.15355E-02
 -1      1001-4.69455E-03-3.30558E-03-6.12529E-02
 -1      1002 1.23758E-05-3.05091E-03-5.89494E-02
 -1      1003-5.41494E-03-3.29437E-03-5.86775E-02
 -1      1004 1.41506E-05-3.05088E-03-5.60012E-02
 -1      1005-6.10670E-03-3.28162E-03-5.57417E-02
 -1      1006 1.59281E-05-3.05084E-03-5.27063E-02
 -1      1007-6.76573E-03-3.26742E-03-5.24608E-02
 -1      1008 1.77087E-05-3.05081E-03-4.90819E-02
 -1      1009-7.38794E-03-3.25185E-03-4.88521E-02
 -1      1010 1.94925E-05-3.05077E-03-4.51475E-02
 -1      1011-7.96925E-03-3.23503E-03-4.49350E-02
 -1      1012 2.12794E-05-3.05073E-03-4.09245E-02
 -1      1013-8.50558E-03-3.21711E-03-4.07311E-02
 -1      1014 2.30692E-05-3.05070E-03-3.64365E-02
 -1      1015-8.99286E-03-3.19823E-03-3.62637E-02
 -1      1016 2.48624E-05-3.05067E-03-3.17089E-02
 -1      1017-9.42702E-03-3.17861E-03-3.15585E-02
 -1      1018 2.66670E-05-3.05064E-03-2.67693E-02
 -1      1019-9.80405E-03-3.15852E-03-2.66430E-02
 -1      1020 2.85249E-05-3.05061E-03-2.16473E-02
 -1      1021-1.01200E-02-3.13843E-03-2.15468E-02
 -1      1022 3.05860E-05-3.05059E-03-1.63743E-02
 -1      1023-1.03710E-02-3.11920E-03-1.63017E-02
 -1      1024 3.32196E-05-3.05058E-03-1.09846E-02
 -1      1025-1.05539E-02-3.10265E-03-1.09406E-02
 -1      1026 3.67414E-05-3.05057E-03-5.51142E-03
 -1      1027-1.06656E-02-3.09305E-03-5.49955E-03
 -1      1028 3.83743E-05-3.05057E-03 0.00000E+00
 -1      1029-1.07052E-02-3.10032E-03 0.00000E+00
 -1      1030 0.00000E+00-3.48849E-03-6.90625E-02
 -1      1031 0.00000E+00-3.05635E-03-6.93719E-02
 -1      1032 1.76395E-06-3.05634E-03-6.91642E-02
 -1      1033-8.12940E-04-3.48716E-03-6.88556E-02
 -1      1034 3.52812E-06-3.05633E-03-6.85421E-02
 -1      1035-1.62176E-03-3.48319E-03-6.82360E-02
 -1      1036 5.29276E-06-3.05632E-03-6.75088E-02
 -1      1037-2.42233E-03-3.47658E-03-6.72067E-02
 -1      1038 7.05813E-06-3.05630E-03-6.60692E-02
 -1      1039-3.21053E-03-3.46738E-03-6.57729E-02
 -1      1040 8.82451E-06-3.05627E-03-6.42308E-02
 -1      1041-3.98223E-03-3.45564E-03-6.39418E-02
 -1      1042 1.05922E-05-3.05624E-03-6.20027E-02
 -1      1043-4.73331E-03-3.44139E-03-6.17226E-02
 -1      1044 1.23617E-05-3.05620E-03-5.93962E-02
 -1      1045-5.45963E-03-3.42474E-03-5.91267E-02
 -1      1046 1.41333E-05-3.05615E-03-5.64247E-02
 -1      1047-6.15704E-03-3.40576E-03-5.61676E-02
 -1      1048 1.59075E-05-3.05610E-03-5.31038E-02
 -1      1049-6.82143E-03-3.38456E-03-5.28605E-02
 -1      1050 1.76847E-05-3.05605E-03-4.94509E-02
 -1      1051-7.44863E-03-3.36128E-03-4.92232E-02
 -1      1052 1.94653E-05-3.05600E-03-4.54856E-02
 -1      1053-8.03451E-03-3.33607E-03-4.52752E-02
 -1      1054 2.12496E-05-3.05594E-03-4.12296E-02
 -1      1055-8.57493E-03-3.30912E-03-4.10381E-02
 -1      1056 2.30373E-05-3.05589E-03-3.67066E-02
 -1      1057-9.06577E-03-3.28065E-03-3.65357E-02
 -1      1058 2.48292E-05-3.05584E-03-3.19425E-02
 -1      1059-9.50290E-03-3.25097E-03-3.17938E-02
 -1      1060 2.66334E-05-3.05579E-03-2.69651E-02
 -1      1061-9.88226E-03-3.22049E-03-2.68403E-02
 -1      1062 2.84920E-05-3.05575E-03-2.18043E-02
 -1      1063-1.01999E-02-3.18993E-03-2.17052E-02
 -1      1064 3.05549E-05-3.05571E-03-1.64919E-02
 -1      1065-1.04519E-02-3.16060E-03-1.64206E-02
 -1      1066 3.31904E-05-3.05568E-03-1.10626E-02
 -1      1067-1.06352E-02-3.13540E-03-1.10196E-02
 -1      1068 3.67149E-05-3.05567E-03-5.54986E-03
 -1      1069-1.07470E-02-3.12064E-03-5.53915E-03
 -1      1070 3.83527E-05-3.05567E-03 0.00000E+00
 -1      1071-1.07871E-02-3.13183E-03 0.00000E+00
 -1      1072 0.00000E+00-3.68727E-03-6.98407E-02
 -1      1073 0.00000E+00-3.06170E-03-7.01462E-02
 -1      1074 1.76577E-06-3.06169E-03-6.99362E-02
 -1      1075-8.22528E-04-3.68539E-03-6.96315E-02
 -1      1076 3.53157E-06-3.06168E-03-6.93071E-02
 -1      1077-1.64089E-03-3.67977E-03-6.90048E-02
 -1      1078 5.29746E-06-3.06166E-03-6.82620E-02
 -1      1079-2.45092E-03-3.67044E-03-6.79638E-02
 -1      1080 7.06352E-06-3.06164E-03-6.68063E-02
 -1      1081-3.24845E-03-3.65742E-03-6.65136E-02
 -1      1082 8.82988E-06-3.06160E-03-6.49470E-02
 -1      1083-4.02931E-03-3.64078E-03-6.46616E-02
 -1      1084 1.05968E-05-3.06156E-03-6.26936E-02
 -1      1085-4.78932E-03-3.62059E-03-6.24171E-02
 -1      1086 1.23645E-05-3.06151E-03-6.00576E-02
 -1      1087-5.52429E-03-3.59694E-03-5.97916E-02
 -1      1088 1.41334E-05-3.06145E-03-5.70524E-02
 -1      1089-6.23005E-03-3.56994E-03-5.67985E-02
 -1      1090 1.59041E-05-3.06139E-03-5.36938E-02
 -1      1091-6.90237E-03-3.53973E-03-5.34536E-02
 -1      1092 1.76772E-05-3.06132E-03-4.99993E-02
 -1      1093-7.53707E-03-3.50645E-03-4.97746E-02
 -1      1094 1.94534E-05-3.06124E-03-4.59889E-02
 -1      1095-8.12990E-03-3.47031E-03-4.57812E-02
 -1      1096 2.12334E-05-3.06116E-03-4.16845E-02
 -1      1097-8.67664E-03-3.43154E-03-4.14955E-02
 -1      1098 2.30174E-05-3.06108E-03-3.71101E-02
 -1      1099-9.17308E-03-3.39044E-03-3.69416E-02
 -1      1100 2.48068E-05-3.06100E-03-3.22920E-02
 -1      1101-9.61498E-03-3.34741E-03-3.21456E-02
 -1      1102 2.66097E-05-3.06093E-03-2.72585E-02
 -1      1103-9.99819E-03-3.30305E-03-2.71358E-02
 -1      1104 2.84682E-05-3.06086E-03-2.20399E-02
 -1      1105-1.03186E-02-3.25839E-03-2.19427E-02
 -1      1106 3.05323E-05-3.06080E-03-1.66686E-02
 -1      1107-1.05725E-02-3.21538E-03-1.65990E-02
 -1      1108 3.31715E-05-3.06075E-03-1.11800E-02
 -1      1109-1.07567E-02-3.17818E-03-1.11384E-02
 -1      1110 3.66983E-05-3.06072E-03-5.60776E-03
 -1      1111-1.08687E-02-3.15669E-03-5.59867E-03
 -1      1112 3.83419E-05-3.06071E-03 0.00000E+00
 -1      1113-1.09096E-02-3.17299E-03 0.00000E+00
 -1      1114 0.00000E+00-3.95164E-03-7.09534E-02
 -1      1115 0.00000E+00-3.06706E-03-7.12539E-02
 -1      1116 1.77364E-06-3.06706E-03-7.10405E-02
 -1      1117-8.35895E-04-3.94905E-03-7.07409E-02
 -1      1118 3.54705E-06-3.06705E-03-7.04016E-02
 -1      1119-1.66757E-03-3.94129E-03-7.01044E-02
 -1      1120 5.32003E-06-3.06702E-03-6.93403E-02
 -1      1121-2.49080E-03-3.92840E-03-6.90470E-02
 -1      1122 7.09240E-06-3.06699E-03-6.78619E-02
 -1      1123-3.30136E-03-3.91042E-03-6.75741E-02
 -1      1124 8.86401E-06-3.06695E-03-6.59736E-02
 -1      1125-4.09503E-03-3.88744E-03-6.56929E-02
 -1      1126 1.06348E-05-3.06690E-03-6.36850E-02
 -1      1127-4.86758E-03-3.85953E-03-6.34131E-02
 -1      1128 1.24048E-05-3.06684E-03-6.10077E-02
 -1      1129-5.61476E-03-3.82682E-03-6.07461E-02
 -1      1130 1.41742E-05-3.06677E-03-5.79554E-02
 -1      1131-6.33234E-03-3.78944E-03-5.77056E-02
 -1      1132 1.59435E-05-3.06669E-03-5.45438E-02
 -1      1133-7.01603E-03-3.74753E-03-5.43076E-02
 -1      1134 1.77131E-05-3.06660E-03-5.07910E-02
 -1      1135-7.66157E-03-3.70128E-03-5.05700E-02
 -1      1136 1.94840E-05-3.06650E-03-4.67170E-02
 -1      1137-8.26463E-03-3.65089E-03-4.65128E-02
 -1      1138 2.12574E-05-3.06639E-03-4.23440E-02
 -1      1139-8.82086E-03-3.59662E-03-4.21583E-02
 -1      1140 2.30345E-05-3.06628E-03-3.76966E-02
 -1      1141-9.32591E-03-3.53883E-03-3.75310E-02
 -1      1142 2.48179E-05-3.06616E-03-3.28013E-02
 -1      1143-9.77537E-03-3.47803E-03-3.26576E-02
 -1      1144 2.66172E-05-3.06604E-03-2.76870E-02
 -1      1145-1.01649E-02-3.41505E-03-2.75669E-02
 -1      1146 2.84751E-05-3.06594E-03-2.23848E-02
 -1      1147-1.04902E-02-3.35133E-03-2.22900E-02
 -1      1148 3.05404E-05-3.06584E-03-1.69278E-02
 -1      1149-1.07475E-02-3.28970E-03-1.68604E-02
 -1      1150 3.31799E-05-3.06575E-03-1.13523E-02
 -1      1151-1.09336E-02-3.23632E-03-1.13127E-02
 -1      1152 3.67138E-05-3.06570E-03-5.69289E-03
 -1      1153-1.10468E-02-3.20448E-03-5.68611E-03
 -1      1154 3.83684E-05-3.06566E-03 0.00000E+00
 -1      1155-1.10889E-02-3.22887E-03 0.00000E+00
 -1      1156 0.00000E+00-4.30424E-03-7.25149E-02
 -1      1157 0.00000E+00-3.07243E-03-7.28087E-02
 -1      1158 1.79032E-06-3.07243E-03-7.25909E-02
 -1      1159-8.54210E-04-4.30071E-03-7.22979E-02
 -1      1160 3.58021E-06-3.07241E-03-7.19386E-02
 -1      1161-1.70412E-03-4.29014E-03-7.16479E-02
 -1      1162 5.36926E-06-3.07239E-03-7.08550E-02
 -1      1163-2.54544E-03-4.27257E-03-7.05681E-02
 -1      1164 7.15702E-06-3.07236E-03-6.93454E-02
 -1      1165-3.37386E-03-4.24807E-03-6.90639E-02
 -1      1166 8.94307E-06-3.07232E-03-6.74174E-02
 -1      1167-4.18509E-03-4.21675E-03-6.71429E-02
 -1      1168 1.07270E-05-3.07226E-03-6.50806E-02
 -1      1169-4.97484E-03-4.17874E-03-6.48145E-02
 -1      1170 1.25084E-05-3.07220E-03-6.23468E-02
 -1      1171-5.73880E-03-4.13418E-03-6.20907E-02
 -1      1172 1.42869E-05-3.07212E-03-5.92298E-02
 -1      1173-6.47269E-03-4.08325E-03-5.89854E-02
 -1      1174 1.60624E-05-3.07203E-03-5.57458E-02
 -1      1175-7.17218E-03-4.02613E-03-5.55145E-02
 -1      1176 1.78348E-05-3.07193E-03-5.19129E-02
 -1      1177-7.83293E-03-3.96302E-03-5.16964E-02
 -1      1178 1.96044E-05-3.07181E-03-4.77514E-02
 -1      1179-8.45057E-03-3.89414E-03-4.75514E-02
 -1      1180 2.13719E-05-3.07167E-03-4.32840E-02
 -1      1181-9.02067E-03-3.81975E-03-4.31020E-02
 -1      1182 2.31388E-05-3.07151E-03-3.85353E-02
 -1      1183-9.53868E-03-3.74017E-03-3.83731E-02
 -1      1184 2.49086E-05-3.07134E-03-3.35324E-02
 -1      1185-1.00000E-02-3.65596E-03-3.33917E-02
 -1      1186 2.66941E-05-3.07116E-03-2.83047E-02
 -1      1187-1.04000E-02-3.56808E-03-2.81872E-02
 -1      1188 2.85428E-05-3.07098E-03-2.28840E-02
 -1      1189-1.07339E-02-3.47853E-03-2.27916E-02
 -1      1190 3.06085E-05-3.07081E-03-1.73044E-02
 -1      1191-1.09974E-02-3.39144E-03-1.72394E-02
 -1      1192 3.32552E-05-3.07068E-03-1.16036E-02
 -1      1193-1.11874E-02-3.31562E-03-1.15662E-02
 -1      1194 3.67842E-05-3.07055E-03-5.81665E-03
 -1      1195-1.13017E-02-3.27213E-03-5.81326E-03
 -1      1196 3.84517E-05-3.07049E-03 0.00000E+00
 -1      1197-1.13464E-02-3.30420E-03 0.00000E+00
 -1      1198 0.00000E+00-4.77406E-03-7.46778E-02
 -1      1199 0.00000E+00-3.07778E-03-7.49631E-02
 -1      1200 1.81660E-06-3.07778E-03-7.47392E-02
 -1      1201-8.79035E-04-4.76929E-03-7.44547E-02
 -1      1202 3.63283E-06-3.07777E-03-7.40687E-02
 -1      1203-1.75366E-03-4.75501E-03-7.37863E-02
 -1      1204 5.44832E-06-3.07775E-03-7.29547E-02
 -1      1205-2.61948E-03-4.73127E-03-7.26761E-02
 -1      1206 7.26266E-06-3.07771E-03-7.14029E-02
 -1      1207-3.47209E-03-4.69818E-03-7.11295E-02
 -1      1208 9.07538E-06-3.07767E-03-6.94209E-02
 -1      1209-4.30710E-03-4.65587E-03-6.91542E-02
 -1      1210 1.08859E-05-3.07762E-03-6.70186E-02
 -1      1211-5.12013E-03-4.60453E-03-6.67601E-02
 -1      1212 1.26936E-05-3.07756E-03-6.42081E-02
 -1      1213-5.90680E-03-4.54436E-03-6.39593E-02
 -1      1214 1.44978E-05-3.07748E-03-6.10036E-02
 -1      1215-6.66276E-03-4.47560E-03-6.07659E-02
 -1      1216 1.62974E-05-3.07739E-03-5.74215E-02
 -1      1217-7.38365E-03-4.39850E-03-5.71965E-02
 -1      1218 1.80915E-05-3.07728E-03-5.34803E-02
 -1      1219-8.06513E-03-4.31335E-03-5.32695E-02
 -1      1220 1.98788E-05-3.07715E-03-4.92007E-02
 -1      1221-8.70284E-03-4.22041E-03-4.90058E-02
 -1      1222 2.16580E-05-3.07700E-03-4.46056E-02
 -1      1223-9.29237E-03-4.11995E-03-4.44280E-02
 -1      1224 2.34278E-05-3.07682E-03-3.97199E-02
 -1      1225-9.82923E-03-4.01228E-03-3.95613E-02
 -1      1226 2.51892E-05-3.07660E-03-3.45707E-02
 -1      1227-1.03087E-02-3.89782E-03-3.44329E-02
 -1      1228 2.69527E-05-3.07635E-03-2.91875E-02
 -1      1229-1.07259E-02-3.77745E-03-2.90722E-02
 -1      1230 2.87682E-05-3.07606E-03-2.36024E-02
 -1      1231-1.10756E-02-3.65331E-03-2.35116E-02
 -1      1232 3.08002E-05-3.07573E-03-1.78503E-02
 -1      1233-1.13523E-02-3.53076E-03-1.77865E-02
 -1      1234 3.34390E-05-3.07544E-03-1.19709E-02
 -1      1235-1.15520E-02-3.42305E-03-1.19346E-02
 -1      1236 3.70078E-05-3.07527E-03-6.00233E-03
 -1      1237-1.16731E-02-3.35957E-03-6.00036E-03
 -1      1238 3.87008E-05-3.07506E-03 0.00000E+00
 -1      1239-1.17212E-02-3.41819E-03 0.00000E+00
 -1      1240 0.00000E+00-5.39929E-03-7.76446E-02
 -1      1241 0.00000E+00-3.08311E-03-7.79189E-02
 -1      1242 1.84896E-06-3.08310E-03-7.76868E-02
 -1      1243-9.12983E-04-5.39291E-03-7.74132E-02
 -1      1244 3.69799E-06-3.08309E-03-7.69916E-02
 -1      1245-1.82142E-03-5.37381E-03-7.67202E-02
 -1      1246 5.54713E-06-3.08307E-03-7.58368E-02
 -1      1247-2.72077E-03-5.34206E-03-7.55689E-02
 -1      1248 7.39643E-06-3.08304E-03-7.42280E-02
 -1      1249-3.60650E-03-5.29778E-03-7.39651E-02
 -1      1250 9.24588E-06-3.08300E-03-7.21731E-02
 -1      1251-4.47407E-03-5.24114E-03-7.19167E-02
 -1      1252 1.10954E-05-3.08295E-03-6.96824E-02
 -1      1253-5.31899E-03-5.17237E-03-6.94339E-02
 -1      1254 1.29450E-05-3.08289E-03-6.67684E-02
 -1      1255-6.13675E-03-5.09174E-03-6.65291E-02
 -1      1256 1.47942E-05-3.08281E-03-6.34457E-02
 -1      1257-6.92290E-03-4.99956E-03-6.32172E-02
 -1      1258 1.66428E-05-3.08272E-03-5.97313E-02
 -1      1259-7.67302E-03-4.89618E-03-5.95149E-02
 -1      1260 1.84900E-05-3.08262E-03-5.56444E-02
 -1      1261-8.38273E-03-4.78199E-03-5.54414E-02
 -1      1262 2.03345E-05-3.08249E-03-5.12061E-02
 -1      1263-9.04773E-03-4.65739E-03-5.10181E-02
 -1      1264 2.21744E-05-3.08234E-03-4.64401E-02
 -1      1265-9.66380E-03-4.52279E-03-4.62683E-02
 -1      1266 2.40064E-05-3.08216E-03-4.13716E-02
 -1      1267-1.02268E-02-4.37860E-03-4.12176E-02
 -1      1268 2.58262E-05-3.08193E-03-3.60282E-02
 -1      1269-1.07325E-02-4.22525E-03-3.58933E-02
 -1      1270 2.76342E-05-3.08166E-03-3.04390E-02
 -1      1271-1.11767E-02-4.06343E-03-3.03248E-02
 -1      1272 2.94608E-05-3.08130E-03-2.46346E-02
 -1      1273-1.15545E-02-3.89481E-03-2.45428E-02
 -1      1274 3.14428E-05-3.08085E-03-1.86470E-02
 -1      1275-1.18596E-02-3.72432E-03-1.85807E-02
 -1      1276 3.39498E-05-3.08025E-03-1.25123E-02
 -1      1277-1.20838E-02-3.56624E-03-1.24728E-02
 -1      1278 3.73554E-05-3.07959E-03-6.27052E-03
 -1      1279-1.22175E-02-3.46215E-03-6.26402E-03
 -1      1280 3.90892E-05-3.07938E-03 0.00000E+00
 -1      1281-1.22649E-02-3.50467E-03 0.00000E+00
 -1      1282 0.00000E+00-6.17681E-03-8.16632E-02
 -1      1283 0.00000E+00-3.08840E-03-8.19291E-02
 -1      1284 1.87914E-06-3.08839E-03-8.16861E-02
 -1      1285-9.25684E-04-6.16850E-03-8.14209E-02
 -1      1286 3.75888E-06-3.08838E-03-8.09582E-02
 -1      1287-1.84677E-03-6.14359E-03-8.06951E-02
 -1      1288 5.63984E-06-3.08836E-03-7.97490E-02
 -1      1289-2.75865E-03-6.10218E-03-7.94894E-02
 -1      1290 7.52267E-06-3.08833E-03-7.80643E-02
 -1      1291-3.65675E-03-6.04439E-03-7.78096E-02
 -1      1292 9.40811E-06-3.08829E-03-7.59125E-02
 -1      1293-4.53648E-03-5.97043E-03-7.56640E-02
 -1      1294 1.12970E-05-3.08823E-03-7.33039E-02
 -1      1295-5.39328E-03-5.88053E-03-7.30631E-02
 -1      1296 1.31902E-05-3.08817E-03-7.02517E-02
 -1      1297-6.22261E-03-5.77500E-03-7.00199E-02
 -1      1298 1.50890E-05-3.08810E-03-6.67710E-02
 -1      1299-7.01996E-03-5.65422E-03-6.65496E-02
 -1      1300 1.69947E-05-3.08800E-03-6.28794E-02
 -1      1301-7.78088E-03-5.51861E-03-6.26698E-02
 -1      1302 1.89091E-05-3.08790E-03-5.85968E-02
 -1      1303-8.50100E-03-5.36867E-03-5.84003E-02
 -1      1304 2.08342E-05-3.08777E-03-5.39454E-02
 -1      1305-9.17605E-03-5.20495E-03-5.37632E-02
 -1      1306 2.27727E-05-3.08761E-03-4.89497E-02
 -1      1307-9.80199E-03-5.02808E-03-4.87831E-02
 -1      1308 2.47280E-05-3.08742E-03-4.36363E-02
 -1      1309-1.03751E-02-4.83878E-03-4.34863E-02
 -1      1310 2.67060E-05-3.08719E-03-3.80341E-02
 -1      1311-1.08921E-02-4.63793E-03-3.79017E-02
 -1      1312 2.87235E-05-3.08689E-03-3.21740E-02
 -1      1313-1.13510E-02-4.42671E-03-3.20598E-02
 -1      1314 3.08353E-05-3.08649E-03-2.60886E-02
 -1      1315-1.17508E-02-4.20721E-03-2.59925E-02
 -1      1316 3.32034E-05-3.08587E-03-1.98102E-02
 -1      1317-1.20925E-02-3.98397E-03-1.97326E-02
 -1      1318 3.61799E-05-3.08487E-03-1.33687E-02
 -1      1319-1.23772E-02-3.76882E-03-1.33083E-02
 -1      1320 4.00187E-05-3.08332E-03-6.77192E-03
 -1      1321-1.25937E-02-3.59237E-03-6.74301E-03
 -1      1322 4.20849E-05-3.08100E-03 0.00000E+00
 -1      1323-1.26854E-02-3.56086E-03 0.00000E+00
 -1      1324 0.00000E+00-6.07022E-03-8.16393E-02
 -1      1325 9.29443E-04-6.06192E-03-8.13970E-02
 -1      1326 0.00000E+00-5.30328E-03-7.76207E-02
 -1      1327 9.16681E-04-5.29691E-03-7.73893E-02
 -1      1328 1.85429E-03-6.03704E-03-8.06712E-02
 -1      1329 1.82882E-03-5.27783E-03-7.66963E-02
 -1      1330 2.76994E-03-5.99567E-03-7.94654E-02
 -1      1331 2.73187E-03-5.24612E-03-7.55450E-02
 -1      1332 3.67180E-03-5.93794E-03-7.77856E-02
 -1      1333 3.62129E-03-5.20190E-03-7.39412E-02
 -1      1334 4.55530E-03-5.86406E-03-7.56400E-02
 -1      1335 4.49257E-03-5.14535E-03-7.18928E-02
 -1      1336 5.41588E-03-5.77426E-03-7.30392E-02
 -1      1337 5.34118E-03-5.07668E-03-6.94100E-02
 -1      1338 6.24900E-03-5.66886E-03-6.99959E-02
 -1      1339 6.16264E-03-4.99617E-03-6.65053E-02
 -1      1340 7.05015E-03-5.54823E-03-6.65256E-02
 -1      1341 6.95249E-03-4.90413E-03-6.31933E-02
 -1      1342 7.81488E-03-5.41280E-03-6.26458E-02
 -1      1343 7.70631E-03-4.80093E-03-5.94910E-02
 -1      1344 8.53883E-03-5.26307E-03-5.83763E-02
 -1      1345 8.41971E-03-4.68694E-03-5.54175E-02
 -1      1346 9.21774E-03-5.09959E-03-5.37392E-02
 -1      1347 9.08840E-03-4.56259E-03-5.09942E-02
 -1      1348 9.84755E-03-4.92302E-03-4.87591E-02
 -1      1349 9.70814E-03-4.42829E-03-4.62444E-02
 -1      1350 1.04246E-02-4.73409E-03-4.34623E-02
 -1      1351 1.02748E-02-4.28445E-03-4.11937E-02
 -1      1352 1.09456E-02-4.53366E-03-3.78776E-02
 -1      1353 1.07842E-02-4.13153E-03-3.58694E-02
 -1      1354 1.14085E-02-4.32295E-03-3.20356E-02
 -1      1355 1.12319E-02-3.97027E-03-3.03009E-02
 -1      1356 1.18123E-02-4.10404E-03-2.59680E-02
 -1      1357 1.16132E-02-3.80238E-03-2.45189E-02
 -1      1358 1.21579E-02-3.88153E-03-1.97076E-02
 -1      1359 1.19214E-02-3.63288E-03-1.85565E-02
 -1      1360 1.24454E-02-3.66758E-03-1.32829E-02
 -1      1361 1.21477E-02-3.47618E-03-1.24484E-02
 -1      1362 1.26626E-02-3.49404E-03-6.72068E-03
 -1      1363 1.22814E-02-3.37351E-03-6.24241E-03
 -1      1364 1.27537E-02-3.46739E-03 0.00000E+00
 -1      1365 1.23277E-02-3.41639E-03 0.00000E+00
 -1      1366 0.00000E+00-4.68870E-03-7.46540E-02
 -1      1367 8.82668E-04-4.68394E-03-7.44308E-02
 -1      1368 1.76093E-03-4.66968E-03-7.37625E-02
 -1      1369 2.63038E-03-4.64598E-03-7.26523E-02
 -1      1370 3.48662E-03-4.61295E-03-7.11057E-02
 -1      1371 4.32525E-03-4.57073E-03-6.91304E-02
 -1      1372 5.14190E-03-4.51949E-03-6.67363E-02
 -1      1373 5.93218E-03-4.45944E-03-6.39354E-02
 -1      1374 6.69175E-03-4.39083E-03-6.07421E-02
 -1      1375 7.41624E-03-4.31392E-03-5.71727E-02
 -1      1376 8.10130E-03-4.22899E-03-5.32457E-02
 -1      1377 8.74258E-03-4.13630E-03-4.89820E-02
 -1      1378 9.33567E-03-4.03615E-03-4.44042E-02
 -1      1379 9.87606E-03-3.92884E-03-3.95376E-02
 -1      1380 1.03591E-02-3.81481E-03-3.44091E-02
 -1      1381 1.07798E-02-3.69495E-03-2.90485E-02
 -1      1382 1.11329E-02-3.57141E-03-2.34877E-02
 -1      1383 1.14128E-02-3.44952E-03-1.77622E-02
 -1      1384 1.16149E-02-3.34240E-03-1.19099E-02
 -1      1385 1.17363E-02-3.27925E-03-5.97836E-03
 -1      1386 1.17832E-02-3.33828E-03 0.00000E+00
 -1      1387 0.00000E+00-4.22959E-03-7.24911E-02
 -1      1388 8.57790E-04-4.22606E-03-7.22741E-02
 -1      1389 1.71128E-03-4.21552E-03-7.16241E-02
 -1      1390 2.55617E-03-4.19799E-03-7.05443E-02
 -1      1391 3.38817E-03-4.17356E-03-6.90401E-02
 -1      1392 4.20297E-03-4.14233E-03-6.71190E-02
 -1      1393 4.99628E-03-4.10442E-03-6.47907E-02
 -1      1394 5.76381E-03-4.05999E-03-6.20669E-02
 -1      1395 6.50125E-03-4.00921E-03-5.89616E-02
 -1      1396 7.20429E-03-3.95227E-03-5.54907E-02
 -1      1397 7.86859E-03-3.88937E-03-5.16726E-02
 -1      1398 8.48977E-03-3.82073E-03-4.75276E-02
 -1      1399 9.06339E-03-3.74662E-03-4.30783E-02
 -1      1400 9.58495E-03-3.66735E-03-3.83494E-02
 -1      1401 1.00498E-02-3.58348E-03-3.33680E-02
 -1      1402 1.04533E-02-3.49598E-03-2.81635E-02
 -1      1403 1.07908E-02-3.40680E-03-2.27677E-02
 -1      1404 1.10576E-02-3.32003E-03-1.72152E-02
 -1      1405 1.12500E-02-3.24448E-03-1.15414E-02
 -1      1406 1.13645E-02-3.20126E-03-5.79121E-03
 -1      1407 1.14078E-02-3.23345E-03 0.00000E+00
 -1      1408 0.00000E+00-3.88773E-03-7.09296E-02
 -1      1409 8.39441E-04-3.88514E-03-7.07171E-02
 -1      1410 1.67466E-03-3.87741E-03-7.00806E-02
 -1      1411 2.50144E-03-3.86456E-03-6.90232E-02
 -1      1412 3.31554E-03-3.84665E-03-6.75503E-02
 -1      1413 4.11275E-03-3.82374E-03-6.56691E-02
 -1      1414 4.88884E-03-3.79594E-03-6.33893E-02
 -1      1415 5.63957E-03-3.76335E-03-6.07223E-02
 -1      1416 6.36068E-03-3.72610E-03-5.76819E-02
 -1      1417 7.04791E-03-3.68436E-03-5.42838E-02
 -1      1418 7.69698E-03-3.63828E-03-5.05462E-02
 -1      1419 8.30358E-03-3.58809E-03-4.64890E-02
 -1      1420 8.86337E-03-3.53405E-03-4.21346E-02
 -1      1421 9.37197E-03-3.47649E-03-3.75073E-02
 -1      1422 9.82501E-03-3.41593E-03-3.26339E-02
 -1      1423 1.02181E-02-3.35318E-03-2.75431E-02
 -1      1424 1.05470E-02-3.28968E-03-2.22661E-02
 -1      1425 1.08075E-02-3.22824E-03-1.68361E-02
 -1      1426 1.09961E-02-3.17505E-03-1.12879E-02
 -1      1427 1.11094E-02-3.14331E-03-5.66400E-03
 -1      1428 1.11502E-02-3.16778E-03 0.00000E+00
 -1      1429 0.00000E+00-3.63409E-03-6.98169E-02
 -1      1430 8.26058E-04-3.63222E-03-6.96077E-02
 -1      1431 1.64795E-03-3.62662E-03-6.89810E-02
 -1      1432 2.46151E-03-3.61732E-03-6.79400E-02
 -1      1433 3.26258E-03-3.60436E-03-6.64898E-02
 -1      1434 4.04697E-03-3.58779E-03-6.46378E-02
 -1      1435 4.81051E-03-3.56769E-03-6.23933E-02
 -1      1436 5.54902E-03-3.54414E-03-5.97678E-02
 -1      1437 6.25831E-03-3.51726E-03-5.67748E-02
 -1      1438 6.93418E-03-3.48717E-03-5.34299E-02
 -1      1439 7.57241E-03-3.45404E-03-4.97508E-02
 -1      1440 8.16880E-03-3.41805E-03-4.57575E-02
 -1      1441 8.71910E-03-3.37944E-03-4.14718E-02
 -1      1442 9.21911E-03-3.33849E-03-3.69179E-02
 -1      1443 9.66460E-03-3.29562E-03-3.21218E-02
 -1      1444 1.00514E-02-3.25142E-03-2.71120E-02
 -1      1445 1.03754E-02-3.20690E-03-2.19188E-02
 -1      1446 1.06326E-02-3.16402E-03-1.65747E-02
 -1      1447 1.08192E-02-3.12689E-03-1.11136E-02
 -1      1448 1.09313E-02-3.10548E-03-5.57653E-03
 -1      1449 1.09707E-02-3.12180E-03 0.00000E+00
 -1      1450 0.00000E+00-3.44601E-03-6.90388E-02
 -1      1451 8.16467E-04-3.44469E-03-6.88319E-02
 -1      1452 1.62881E-03-3.44073E-03-6.82122E-02
 -1      1453 2.43291E-03-3.43416E-03-6.71829E-02
 -1      1454 3.22464E-03-3.42500E-03-6.57491E-02
 -1      1455 3.99988E-03-3.41331E-03-6.39180E-02
 -1      1456 4.75449E-03-3.39914E-03-6.16989E-02
 -1      1457 5.48435E-03-3.38256E-03-5.91030E-02
 -1      1458 6.18531E-03-3.36367E-03-5.61438E-02
 -1      1459 6.85324E-03-3.34256E-03-5.28368E-02
 -1      1460 7.48399E-03-3.31939E-03-4.91995E-02
 -1      1461 8.07344E-03-3.29429E-03-4.52514E-02
 -1      1462 8.61743E-03-3.26744E-03-4.10143E-02
 -1      1463 9.11184E-03-3.23909E-03-3.65120E-02
 -1      1464 9.55257E-03-3.20951E-03-3.17701E-02
 -1      1465 9.93552E-03-3.17914E-03-2.68166E-02
 -1      1466 1.02567E-02-3.14866E-03-2.16813E-02
 -1      1467 1.05120E-02-3.11940E-03-1.63962E-02
 -1      1468 1.06976E-02-3.09425E-03-1.09948E-02
 -1      1469 1.08096E-02-3.07952E-03-5.51699E-03
 -1      1470 1.08482E-02-3.09071E-03 0.00000E+00
 -1      1471 0.00000E+00-3.30555E-03-6.85110E-02
 -1      1472 8.09811E-04-3.30466E-03-6.83057E-02
 -1      1473 1.61553E-03-3.30199E-03-6.76910E-02
 -1      1474 2.41308E-03-3.29755E-03-6.66698E-02
 -1      1475 3.19836E-03-3.29137E-03-6.52474E-02
 -1      1476 3.96728E-03-3.28348E-03-6.34307E-02
 -1      1477 4.71576E-03-3.27393E-03-6.12291E-02
 -1      1478 5.43969E-03-3.26278E-03-5.86538E-02
 -1      1479 6.13500E-03-3.25009E-03-5.57180E-02
 -1      1480 6.79758E-03-3.23595E-03-5.24370E-02
 -1      1481 7.42336E-03-3.22045E-03-4.88283E-02
 -1      1482 8.00824E-03-3.20371E-03-4.49113E-02
 -1      1483 8.54814E-03-3.18586E-03-4.07074E-02
 -1      1484 9.03900E-03-3.16705E-03-3.62400E-02
 -1      1485 9.47676E-03-3.14750E-03-3.15348E-02
 -1      1486 9.85738E-03-3.12747E-03-2.66193E-02
 -1      1487 1.01769E-02-3.10743E-03-2.15229E-02
 -1      1488 1.04312E-02-3.08824E-03-1.62773E-02
 -1      1489 1.06164E-02-3.07172E-03-1.09157E-02
 -1      1490 1.07283E-02-3.06213E-03-5.47737E-03
 -1      1491 1.07664E-02-3.06940E-03 0.00000E+00
 -1      1492 0.00000E+00-3.19817E-03-6.81736E-02
 -1      1493 8.05475E-04-3.19762E-03-6.79694E-02
 -1      1494 1.60689E-03-3.19597E-03-6.73578E-02
 -1      1495 2.40017E-03-3.19324E-03-6.63420E-02
 -1      1496 3.18126E-03-3.18944E-03-6.49269E-02
 -1      1497 3.94610E-03-3.18460E-03-6.31197E-02
 -1      1498 4.69061E-03-3.17873E-03-6.09294E-02
 -1      1499 5.41075E-03-3.17190E-03-5.83674E-02
 -1      1500 6.10245E-03-3.16413E-03-5.54467E-02
 -1      1501 6.76164E-03-3.15549E-03-5.21827E-02
 -1      1502 7.38429E-03-3.14603E-03-4.85924E-02
 -1      1503 7.96632E-03-3.13584E-03-4.46953E-02
 -1      1504 8.50371E-03-3.12499E-03-4.05127E-02
 -1      1505 8.99240E-03-3.11358E-03-3.60678E-02
 -1      1506 9.42838E-03-3.10175E-03-3.13859E-02
 -1      1507 9.80764E-03-3.08965E-03-2.64945E-02
 -1      1508 1.01262E-02-3.07756E-03-2.14228E-02
 -1      1509 1.03800E-02-3.06599E-03-1.62023E-02
 -1      1510 1.05650E-02-3.05607E-03-1.08658E-02
 -1      1511 1.06769E-02-3.05030E-03-5.45240E-03
 -1      1512 1.07147E-02-3.05467E-03 0.00000E+00
 -1      1513 0.00000E+00-3.11161E-03-6.79864E-02
 -1      1514 8.03037E-04-3.11135E-03-6.77828E-02
 -1      1515 1.60203E-03-3.11057E-03-6.71731E-02
 -1      1516 2.39292E-03-3.10927E-03-6.61602E-02
 -1      1517 3.17166E-03-3.10746E-03-6.47492E-02
 -1      1518 3.93421E-03-3.10516E-03-6.29473E-02
 -1      1519 4.67652E-03-3.10238E-03-6.07635E-02
 -1      1520 5.39455E-03-3.09914E-03-5.82089E-02
 -1      1521 6.08425E-03-3.09546E-03-5.52967E-02
 -1      1522 6.74158E-03-3.09137E-03-5.20420E-02
 -1      1523 7.36250E-03-3.08690E-03-4.84621E-02
 -1      1524 7.94299E-03-3.08209E-03-4.45761E-02
 -1      1525 8.47901E-03-3.07697E-03-4.04053E-02
 -1      1526 8.96655E-03-3.07160E-03-3.59728E-02
 -1      1527 9.40159E-03-3.06603E-03-3.13039E-02
 -1      1528 9.78013E-03-3.06035E-03-2.64259E-02
 -1      1529 1.00982E-02-3.05467E-03-2.13678E-02
 -1      1530 1.03517E-02-3.04925E-03-1.61611E-02
 -1      1531 1.05367E-02-3.04459E-03-1.08384E-02
 -1      1532 1.06485E-02-3.04189E-03-5.43867E-03
 -1      1533 1.06862E-02-3.04394E-03 0.00000E+00
 -1      1534 0.00000E+00-3.03511E-03-6.79265E-02
 -1      1535 8.02252E-04-3.03511E-03-6.77231E-02
 -1      1536 1.60046E-03-3.03511E-03-6.71139E-02
 -1      1537 2.39058E-03-3.03511E-03-6.61020E-02
 -1      1538 3.16857E-03-3.03511E-03-6.46924E-02
 -1      1539 3.93039E-03-3.03511E-03-6.28922E-02
 -1      1540 4.67199E-03-3.03511E-03-6.07104E-02
 -1      1541 5.38934E-03-3.03511E-03-5.81582E-02
 -1      1542 6.07840E-03-3.03511E-03-5.52487E-02
 -1      1543 6.73513E-03-3.03511E-03-5.19971E-02
 -1      1544 7.35551E-03-3.03511E-03-4.84205E-02
 -1      1545 7.93551E-03-3.03511E-03-4.45381E-02
 -1      1546 8.47110E-03-3.03511E-03-4.03710E-02
 -1      1547 8.95827E-03-3.03511E-03-3.59425E-02
 -1      1548 9.39302E-03-3.03511E-03-3.12777E-02
 -1      1549 9.77134E-03-3.03511E-03-2.64040E-02
 -1      1550 1.00893E-02-3.03511E-03-2.13503E-02
 -1      1551 1.03427E-02-3.03511E-03-1.61479E-02
 -1      1552 1.05276E-02-3.03511E-03-1.08297E-02
 -1      1553 1.06395E-02-3.03511E-03-5.43430E-03
 -1      1554 1.06771E-02-3.03511E-03 0.00000E+00
 -1      1555 0.00000E+00-2.95861E-03-6.79864E-02
 -1      1556 8.03037E-04-2.95887E-03-6.77828E-02
 -1      1557 1.60203E-03-2.95965E-03-6.71731E-02
 -1      1558 2.39292E-03-2.96095E-03-6.61602E-02
 -1      1559 3.17166E-03-2.96275E-03-6.47492E-02
 -1      1560 3.93421E-03-2.96505E-03-6.29473E-02
 -1      1561 4.67652E-03-2.96783E-03-6.07635E-02
 -1      1562 5.39455E-03-2.97108E-03-5.82089E-02
 -1      1563 6.08425E-03-2.97476E-03-5.52967E-02
 -1      1564 6.74158E-03-2.97884E-03-5.20420E-02
 -1      1565 7.36250E-03-2.98331E-03-4.84621E-02
 -1      1566 7.94299E-03-2.98813E-03-4.45761E-02
 -1      1567 8.47901E-03-2.99324E-03-4.04053E-02
 -1      1568 8.96655E-03-2.99861E-03-3.59728E-02
 -1      1569 9.40159E-03-3.00418E-03-3.13039E-02
 -1      1570 9.78013E-03-3.00987E-03-2.64259E-02
 -1      1571 1.00982E-02-3.01555E-03-2.13678E-02
 -1      1572 1.03517E-02-3.02097E-03-1.61611E-02
 -1      1573 1.05367E-02-3.02562E-03-1.08384E-02
 -1      1574 1.06485E-02-3.02833E-03-5.43867E-03
 -1      1575 1.06862E-02-3.02628E-03 0.00000E+00
 -1      1576 0.00000E+00-2.87205E-03-6.81736E-02
 -1      1577 8.05475E-04-2.87260E-03-6.79694E-02
 -1      1578 1.60689E-03-2.87424E-03-6.73578E-02
 -1      1579 2.40017E-03-2.87698E-03-6.63420E-02
 -1      1580 3.18126E-03-2.88078E-03-6.49269E-02
 -1      1581 3.94610E-03-2.88562E-03-6.31197E-02
 -1      1582 4.69061E-03-2.89148E-03-6.09294E-02
 -1      1583 5.41075E-03-2.89832E-03-5.83674E-02
 -1      1584 6.10245E-03-2.90609E-03-5.54467E-02
 -1      1585 6.76164E-03-2.91473E-03-5.21827E-02
 -1      1586 7.38429E-03-2.92418E-03-4.85924E-02
 -1      1587 7.96632E-03-2.93438E-03-4.46953E-02
 -1      1588 8.50371E-03-2.94523E-03-4.05127E-02
 -1      1589 8.99240E-03-2.95663E-03-3.60678E-02
 -1      1590 9.42838E-03-2.96847E-03-3.13859E-02
 -1      1591 9.80764E-03-2.98057E-03-2.64945E-02
 -1      1592 1.01262E-02-2.99266E-03-2.14228E-02
 -1      1593 1.03800E-02-3.00422E-03-1.62023E-02
 -1      1594 1.05650E-02-3.01414E-03-1.08658E-02
 -1      1595 1.06769E-02-3.01992E-03-5.45240E-03
 -1      1596 1.07147E-02-3.01555E-03 0.00000E+00
 -1      1597 0.00000E+00-2.76466E-03-6.85110E-02
 -1      1598 8.09811E-04-2.76556E-03-6.83057E-02
 -1      1599 1.61553E-03-2.76823E-03-6.76910E-02
 -1      1600 2.41308E-03-2.77267E-03-6.66698E-02
 -1      1601 3.19836E-03-2.77885E-03-6.52474E-02
 -1      1602 3.96728E-03-2.78674E-03-6.34307E-02
 -1      1603 4.71576E-03-2.79629E-03-6.12291E-02
 -1      1604 5.43969E-03-2.80744E-03-5.86538E-02
 -1      1605 6.13500E-03-2.82013E-03-5.57180E-02
 -1      1606 6.79758E-03-2.83427E-03-5.24370E-02
 -1      1607 7.42336E-03-2.84977E-03-4.88283E-02
 -1      1608 8.00824E-03-2.86651E-03-4.49113E-02
 -1      1609 8.54814E-03-2.88436E-03-4.07074E-02
 -1      1610 9.03900E-03-2.90316E-03-3.62400E-02
 -1      1611 9.47676E-03-2.92272E-03-3.15348E-02
 -1      1612 9.85738E-03-2.94275E-03-2.66193E-02
 -1      1613 1.01769E-02-2.96279E-03-2.15229E-02
 -1      1614 1.04312E-02-2.98198E-03-1.62773E-02
 -1      1615 1.06164E-02-2.99850E-03-1.09157E-02
 -1      1616 1.07283E-02-3.00809E-03-5.47737E-03
 -1      1617 1.07664E-02-3.00082E-03 0.00000E+00
 -1      1618 0.00000E+00-2.62421E-03-6.90388E-02
 -1      1619 8.16467E-04-2.62553E-03-6.88319E-02
 -1      1620 1.62881E-03-2.62949E-03-6.82122E-02
 -1      1621 2.43291E-03-2.63606E-03-6.71829E-02
 -1      1622 3.22464E-03-2.64521E-03-6.57491E-02
 -1      1623 3.99988E-03-2.65691E-03-6.39180E-02
 -1      1624 4.75449E-03-2.67108E-03-6.16989E-02
 -1      1625 5.48435E-03-2.68766E-03-5.91030E-02
 -1      1626 6.18531E-03-2.70655E-03-5.61438E-02
 -1      1627 6.85324E-03-2.72765E-03-5.28368E-02
 -1      1628 7.48399E-03-2.75083E-03-4.91995E-02
 -1      1629 8.07344E-03-2.77593E-03-4.52514E-02
 -1      1630 8.61743E-03-2.80277E-03-4.10143E-02
 -1      1631 9.11184E-03-2.83113E-03-3.65120E-02
 -1      1632 9.55257E-03-2.86070E-03-3.17701E-02
 -1      1633 9.93552E-03-2.89108E-03-2.68166E-02
 -1      1634 1.02567E-02-2.92156E-03-2.16813E-02
 -1      1635 1.05120E-02-2.95082E-03-1.63962E-02
 -1      1636 1.06976E-02-2.97596E-03-1.09948E-02
 -1      1637 1.08096E-02-2.99070E-03-5.51699E-03
 -1      1638 1.08482E-02-2.97950E-03 0.00000E+00
 -1      1639 0.00000E+00-2.43613E-03-6.98169E-02
 -1      1640 8.26058E-04-2.43800E-03-6.96077E-02
 -1      1641 1.64795E-03-2.44360E-03-6.89810E-02
 -1      1642 2.46151E-03-2.45290E-03-6.79400E-02
 -1      1643 3.26258E-03-2.46586E-03-6.64898E-02
 -1      1644 4.04697E-03-2.48243E-03-6.46378E-02
 -1      1645 4.81051E-03-2.50253E-03-6.23933E-02
 -1      1646 5.54902E-03-2.52608E-03-5.97678E-02
 -1      1647 6.25831E-03-2.55296E-03-5.67748E-02
 -1      1648 6.93418E-03-2.58305E-03-5.34299E-02
 -1      1649 7.57241E-03-2.61618E-03-4.97508E-02
 -1      1650 8.16880E-03-2.65217E-03-4.57575E-02
 -1      1651 8.71910E-03-2.69078E-03-4.14718E-02
 -1      1652 9.21911E-03-2.73172E-03-3.69179E-02
 -1      1653 9.66460E-03-2.77459E-03-3.21218E-02
 -1      1654 1.00514E-02-2.81879E-03-2.71120E-02
 -1      1655 1.03754E-02-2.86332E-03-2.19188E-02
 -1      1656 1.06326E-02-2.90620E-03-1.65747E-02
 -1      1657 1.08192E-02-2.94332E-03-1.11136E-02
 -1      1658 1.09313E-02-2.96474E-03-5.57653E-03
 -1      1659 1.09707E-02-2.94842E-03 0.00000E+00
 -1      1660 0.00000E+00-2.18249E-03-7.09296E-02
 -1      1661 8.39441E-04-2.18507E-03-7.07171E-02
 -1      1662 1.67466E-03-2.19280E-03-7.00806E-02
 -1      1663 2.50144E-03-2.20565E-03-6.90232E-02
 -1      1664 3.31554E-03-2.22357E-03-6.75503E-02
 -1      1665 4.11275E-03-2.24648E-03-6.56691E-02
 -1      1666 4.88884E-03-2.27428E-03-6.33893E-02
 -1      1667 5.63957E-03-2.30687E-03-6.07223E-02
 -1      1668 6.36068E-03-2.34411E-03-5.76819E-02
 -1      1669 7.04791E-03-2.38586E-03-5.42838E-02
 -1      1670 7.69698E-03-2.43193E-03-5.05462E-02
 -1      1671 8.30358E-03-2.48212E-03-4.64890E-02
 -1      1672 8.86337E-03-2.53617E-03-4.21346E-02
 -1      1673 9.37197E-03-2.59373E-03-3.75073E-02
 -1      1674 9.82501E-03-2.65429E-03-3.26339E-02
 -1      1675 1.02181E-02-2.71703E-03-2.75431E-02
 -1      1676 1.05470E-02-2.78053E-03-2.22661E-02
 -1      1677 1.08075E-02-2.84197E-03-1.68361E-02
 -1      1678 1.09961E-02-2.89517E-03-1.12879E-02
 -1      1679 1.11094E-02-2.92690E-03-5.66400E-03
 -1      1680 1.11502E-02-2.90243E-03 0.00000E+00
 -1      1681 0.00000E+00-1.84063E-03-7.24911E-02
 -1      1682 8.57790E-04-1.84415E-03-7.22741E-02
 -1      1683 1.71128E-03-1.85470E-03-7.16241E-02
 -1      1684 2.55617E-03-1.87223E-03-7.05443E-02
 -1      1685 3.38817E-03-1.89666E-03-6.90401E-02
 -1      1686 4.20297E-03-1.92789E-03-6.71190E-02
 -1      1687 4.99628E-03-1.96580E-03-6.47907E-02
 -1      1688 5.76381E-03-2.01023E-03-6.20669E-02
 -1      1689 6.50125E-03-2.06100E-03-5.89616E-02
 -1      1690 7.20429E-03-2.11794E-03-5.54907E-02
 -1      1691 7.86859E-03-2.18084E-03-5.16726E-02
 -1      1692 8.48977E-03-2.24948E-03-4.75276E-02
 -1      1693 9.06339E-03-2.32360E-03-4.30783E-02
 -1      1694 9.58495E-03-2.40286E-03-3.83494E-02
 -1      1695 1.00498E-02-2.48673E-03-3.33680E-02
 -1      1696 1.04533E-02-2.57424E-03-2.81635E-02
 -1      1697 1.07908E-02-2.66342E-03-2.27677E-02
 -1      1698 1.10576E-02-2.75018E-03-1.72152E-02
 -1      1699 1.12500E-02-2.82574E-03-1.15414E-02
 -1      1700 1.13645E-02-2.86896E-03-5.79121E-03
 -1      1701 1.14078E-02-2.83677E-03 0.00000E+00
 -1      1702 0.00000E+00-1.38152E-03-7.46540E-02
 -1      1703 8.82668E-04-1.38628E-03-7.44308E-02
 -1      1704 1.76093E-03-1.40054E-03-7.37625E-02
 -1      1705 2.63038E-03-1.42424E-03-7.26523E-02
 -1      1706 3.48662E-03-1.45727E-03-7.11057E-02
 -1      1707 4.32525E-03-1.49949E-03-6.91304E-02
 -1      1708 5.14190E-03-1.55073E-03-6.67363E-02
 -1      1709 5.93218E-03-1.61077E-03-6.39354E-02
 -1      1710 6.69175E-03-1.67938E-03-6.07421E-02
 -1      1711 7.41624E-03-1.75629E-03-5.71727E-02
 -1      1712 8.10130E-03-1.84123E-03-5.32457E-02
 -1      1713 8.74258E-03-1.93391E-03-4.89820E-02
 -1      1714 9.33567E-03-2.03407E-03-4.44042E-02
 -1      1715 9.87606E-03-2.14138E-03-3.95376E-02
 -1      1716 1.03591E-02-2.25540E-03-3.44091E-02
 -1      1717 1.07798E-02-2.37526E-03-2.90485E-02
 -1      1718 1.11329E-02-2.49881E-03-2.34877E-02
 -1      1719 1.14128E-02-2.62069E-03-1.77622E-02
 -1      1720 1.16149E-02-2.72782E-03-1.19099E-02
 -1      1721 1.17363E-02-2.79097E-03-5.97836E-03
 -1      1722 1.17832E-02-2.73194E-03 0.00000E+00
 -1      1723 0.00000E+00-7.66938E-04-7.76207E-02
 -1      1724 9.16681E-04-7.73306E-04-7.73893E-02
 -1      1725 1.82882E-03-7.92382E-04-7.66963E-02
 -1      1726 2.73187E-03-8.24094E-04-7.55450E-02
 -1      1727 3.62129E-03-8.68315E-04-7.39412E-02
 -1      1728 4.49257E-03-9.24872E-04-7.18928E-02
 -1      1729 5.34118E-03-9.93541E-04-6.94100E-02
 -1      1730 6.16264E-03-1.07405E-03-6.65053E-02
 -1      1731 6.95249E-03-1.16609E-03-6.31933E-02
 -1      1732 7.70631E-03-1.26929E-03-5.94910E-02
 -1      1733 8.41971E-03-1.38327E-03-5.54175E-02
 -1      1734 9.08840E-03-1.50763E-03-5.09942E-02
 -1      1735 9.70814E-03-1.64193E-03-4.62444E-02
 -1      1736 1.02748E-02-1.78577E-03-4.11937E-02
 -1      1737 1.07842E-02-1.93868E-03-3.58694E-02
 -1      1738 1.12319E-02-2.09995E-03-3.03009E-02
 -1      1739 1.16132E-02-2.26784E-03-2.45189E-02
 -1      1740 1.19214E-02-2.43733E-03-1.85565E-02
 -1      1741 1.21477E-02-2.59404E-03-1.24484E-02
 -1      1742 1.22814E-02-2.69670E-03-6.24241E-03
 -1      1743 1.23277E-02-2.65382E-03 0.00000E+00
 -1      1744 0.00000E+00 0.00000E+00-8.16393E-02
 -1      1745 9.29443E-04-8.30142E-06-8.13970E-02
 -1      1746 1.85429E-03-3.31783E-05-8.06712E-02
 -1      1747 2.76994E-03-7.45484E-05-7.94654E-02
 -1      1748 3.67180E-03-1.32274E-04-7.77856E-02
 -1      1749 4.55530E-03-2.06161E-04-7.56400E-02
 -1      1750 5.41588E-03-2.95960E-04-7.30392E-02
 -1      1751 6.24900E-03-4.01359E-04-6.99959E-02
 -1      1752 7.05015E-03-5.21989E-04-6.65256E-02
 -1      1753 7.81488E-03-6.57419E-04-6.26458E-02
 -1      1754 8.53883E-03-8.07152E-04-5.83763E-02
 -1      1755 9.21774E-03-9.70623E-04-5.37392E-02
 -1      1756 9.84755E-03-1.14719E-03-4.87591E-02
 -1      1757 1.04246E-02-1.33613E-03-4.34623E-02
 -1      1758 1.09456E-02-1.53656E-03-3.78776E-02
 -1      1759 1.14085E-02-1.74727E-03-3.20356E-02
 -1      1760 1.18123E-02-1.96618E-03-2.59680E-02
 -1      1761 1.21579E-02-2.18869E-03-1.97076E-02
 -1      1762 1.24454E-02-2.40263E-03-1.32829E-02
 -1      1763 1.26626E-02-2.57617E-03-6.72068E-03
 -1      1764 1.27537E-02-2.60283E-03 0.00000E+00
 -3
    1PSTEP                         2           1           1          
  100CL  101 1.000000000        1764                     0    1           1
 -4  STRESS      6    1
 -5  SXX         1    4    1    1
 -5  SYY         1    4    2    2
 -5  SZZ         1    4    3    3
 -5  SXY         1    4    1    2
 -5  SYZ         1    4    2    3
 -5  SZX         1    4    3    1
 -1         1-7.48495E+01-2.26758E+01-7.36577E-01 5.01128E-15-1.62157E-12 1.24995E-01
 -1         2-3.52292E-11-1.49994E-01-4.99980E-01 1.21034E-14 2.42821E-12 1.24995E-01
 -1         3-5.67639E-11-1.49994E-01-4.99980E-01 3.21697E-14-2.54444E-12 2.49990E-01
 -1         4-7.46620E+01-2.26196E+01-7.36577E-01 1.04491E-14 2.52806E-12 2.49990E-01
 -1         5-7.48495E+01-2.26758E+01-7.36577E-01 1.06831E-14 1.65042E-13 1.24995E-01
 -1         6-3.59188E-11-1.49994E-01-4.99980E-01 1.86593E-14 9.25358E-13 1.24995E-01
 -1         7-5.66329E-11-1.49994E-01-4.99980E-01 3.76400E-14-1.40602E-12 2.49990E-01
 -1         8-7.46620E+01-2.26196E+01-7.36577E-01-5.69247E-15 5.79308E-13 2.49990E-01
 -1         9-9.56397E-11-1.49994E-01-4.99980E-01-3.89726E-14 2.06162E-12 4.99980E-01
 -1        10-7.40995E+01-2.24508E+01-7.36577E-01 2.06707E-13 5.99427E-13 4.99980E-01
 -1        11-9.56799E-11-1.49994E-01-4.99980E-01-3.85375E-14 3.29906E-12 4.99980E-01
 -1        12-7.40995E+01-2.24508E+01-7.36577E-01 2.44526E-13-1.60300E-13 4.99980E-01
 -1        13 9.19043E-11-1.49994E-01-4.99980E-01 4.58861E-14-1.84071E-12 7.49970E-01
 -1        14-7.31620E+01-2.21696E+01-7.36577E-01-3.04455E-13 2.58232E-12 7.49970E-01
 -1        15 9.16551E-11-1.49994E-01-4.99980E-01 4.41277E-14-1.79921E-12 7.49970E-01
 -1        16-7.31620E+01-2.21696E+01-7.36577E-01-2.90779E-13 2.00998E-12 7.49970E-01
 -1        17 1.75279E-09-1.49994E-01-4.99980E-01 9.22277E-16 1.37105E-13 9.99960E-01
 -1        18-7.18496E+01-2.17758E+01-7.36577E-01-5.42347E-14 1.88179E-12 9.99960E-01
 -1        19 1.75267E-09-1.49994E-01-4.99980E-01 2.79653E-14-5.61967E-13 9.99960E-01
 -1        20-7.18496E+01-2.17758E+01-7.36577E-01-1.09379E-13-1.08683E-13 9.99960E-01
 -1        21 9.35255E-09-1.49994E-01-4.99980E-01-7.57337E-14-5.07570E-13 1.24995E+00
 -1        22-7.01621E+01-2.12696E+01-7.36577E-01 1.02485E-13 2.30932E-12 1.24995E+00
 -1        23 9.35261E-09-1.49994E-01-4.99980E-01-6.33155E-14-1.31997E-12 1.24995E+00
 -1        24-7.01621E+01-2.12696E+01-7.36577E-01 9.75853E-14 2.06477E-12 1.24995E+00
 -1        25 3.39645E-08-1.49994E-01-4.99980E-01 1.74025E-13 2.44363E-12 1.49994E+00
 -1        26-6.80997E+01-2.06509E+01-7.36577E-01-3.09633E-13-1.39044E-12 1.49994E+00
 -1        27 3.39648E-08-1.49994E-01-4.99980E-01 2.12401E-13 2.12588E-13 1.49994E+00
 -1        28-6.80997E+01-2.06509E+01-7.36577E-01-3.70870E-13-1.08306E-12 1.49994E+00
 -1        29 8.55516E-08-1.49994E-01-4.99980E-01-1.32427E-13 2.16226E-13 1.74993E+00
 -1        30-6.56622E+01-1.99196E+01-7.36577E-01 4.71372E-14-1.61982E-12 1.74993E+00
 -1        31 8.55516E-08-1.49994E-01-4.99980E-01-1.16427E-13 5.63888E-13 1.74993E+00
 -1        32-6.56622E+01-1.99196E+01-7.36577E-01 1.94366E-13-8.78305E-13 1.74993E+00
 -1        33 8.38418E-08-1.49994E-01-4.99980E-01 2.12276E-13 1.44188E-12 1.99992E+00
 -1        34-6.28498E+01-1.90759E+01-7.36577E-01-3.44031E-13-1.46067E-12 1.99992E+00
 -1        35 8.38418E-08-1.49994E-01-4.99980E-01 2.07404E-13-2.05028E-12 1.99992E+00
 -1        36-6.28498E+01-1.90759E+01-7.36577E-01-3.91996E-13 1.21390E-12 1.99992E+00
 -1        37-5.79034E-07-1.49994E-01-4.99980E-01-2.84082E-13-6.97301E-13 2.24991E+00
 -1        38-5.96624E+01-1.81197E+01-7.36577E-01 5.16356E-13 2.02712E-12 2.24991E+00
 -1        39-5.79033E-07-1.49994E-01-4.99980E-01-3.40259E-13-3.07964E-13 2.24991E+00
 -1        40-5.96624E+01-1.81197E+01-7.36577E-01 4.98968E-13-1.09857E-12 2.24991E+00
 -1        41-4.53636E-06-1.49995E-01-4.99978E-01 1.60283E-13 1.92834E-12 2.49990E+00
 -1        42-5.60999E+01-1.70510E+01-7.36574E-01 1.25729E-13-1.13542E-12 2.49990E+00
 -1        43-4.53636E-06-1.49995E-01-4.99978E-01 1.20158E-13 7.79976E-13 2.49990E+00
 -1        44-5.60999E+01-1.70510E+01-7.36574E-01 9.08182E-14-1.10192E-12 2.49990E+00
 -1        45-1.99046E-05-1.49998E-01-4.99972E-01-7.92777E-14-6.70908E-13 2.74989E+00
 -1        46-5.21625E+01-1.58697E+01-7.36572E-01-2.71811E-13-5.53805E-13 2.74990E+00
 -1        47-1.99046E-05-1.49998E-01-4.99972E-01-1.12000E-13-4.91992E-13 2.74989E+00
 -1        48-5.21625E+01-1.58697E+01-7.36572E-01-1.58421E-13-1.81879E-12 2.74990E+00
 -1        49-6.20905E-05-1.50007E-01-4.99962E-01 1.67255E-13-7.13877E-13 2.99988E+00
 -1        50-4.78501E+01-1.45760E+01-7.36550E-01-2.80366E-13 2.00732E-12 2.99990E+00
 -1        51-6.20905E-05-1.50007E-01-4.99962E-01 1.65543E-13-8.36335E-13 2.99988E+00
 -1        52-4.78501E+01-1.45760E+01-7.36550E-01-3.82864E-13 2.59453E-12 2.99990E+00
 -1        53-1.20894E-04-1.50027E-01-4.99969E-01-2.00040E-14 5.85747E-13 3.24987E+00
 -1        54-4.31626E+01-1.31698E+01-7.36597E-01-1.55389E-13 1.05924E-13 3.24989E+00
 -1        55-1.20894E-04-1.50027E-01-4.99969E-01-4.95639E-14 1.03007E-12 3.24987E+00
 -1        56-4.31626E+01-1.31698E+01-7.36597E-01-8.92699E-14-1.08262E-12 3.24989E+00
 -1        57 5.98223E-05-1.50026E-01-5.00147E-01-2.14956E-14-5.87918E-13 3.49986E+00
 -1        58-3.81004E+01-1.16511E+01-7.36632E-01 4.98613E-13 1.70168E-12 3.49972E+00
 -1        59 5.98223E-05-1.50026E-01-5.00147E-01-1.08836E-13-3.56672E-13 3.49986E+00
 -1        60-3.81004E+01-1.16511E+01-7.36632E-01 4.37952E-13 1.41474E-12 3.49972E+00
 -1        61 1.88849E-03-1.49770E-01-5.01122E-01 1.44877E-13-4.92772E-13 3.74985E+00
 -1        62-3.26649E+01-1.00209E+01-7.38123E-01-5.13150E-13-1.22929E-12 3.74877E+00
 -1        63 1.88849E-03-1.49770E-01-5.01122E-01 1.41906E-13-3.59627E-13 3.74985E+00
 -1        64-3.26649E+01-1.00209E+01-7.38123E-01-3.02630E-13-1.87944E-12 3.74877E+00
 -1        65 1.05790E-02-1.48243E-01-5.04723E-01-1.10422E-13-6.00173E-13 3.99984E+00
 -1        66-2.68610E+01-8.28028E+00-7.39873E-01 3.05052E-13 3.47769E-13 3.99513E+00
 -1        67 1.05790E-02-1.48243E-01-5.04723E-01-9.76389E-14-2.30715E-13 3.99984E+00
 -1        68-2.68610E+01-8.28028E+00-7.39873E-01 1.94492E-13-2.52946E-13 3.99513E+00
 -1        69 3.96105E-02-1.42317E-01-5.14000E-01 1.45620E-13 8.42731E-13 4.24983E+00
 -1        70-2.07034E+01-6.43777E+00-7.55786E-01-4.85604E-13 1.23916E-13 4.23519E+00
 -1        71 3.96105E-02-1.42317E-01-5.14000E-01 1.42089E-13 5.30994E-14 4.24983E+00
 -1        72-2.07034E+01-6.43777E+00-7.55786E-01-2.96003E-13-3.07165E-13 4.23519E+00
 -1        73 1.03932E-01-1.26060E-01-5.24131E-01-2.62653E-13 5.00130E-15 4.49982E+00
 -1        74-1.42029E+01-4.48349E+00-7.42116E-01 3.82868E-13 6.98858E-13 4.47158E+00
 -1        75 1.03932E-01-1.26060E-01-5.24131E-01-2.17241E-13-9.41739E-14 4.49982E+00
 -1        76-1.42029E+01-4.48349E+00-7.42116E-01 2.55435E-13 5.49102E-13 4.47158E+00
 -1        77 1.22755E-01-1.03450E-01-4.67589E-01 1.07824E-13 8.27618E-14 4.74981E+00
 -1        78-7.29348E+00-2.41933E+00-7.70940E-01-3.26461E-15 1.31562E-13 4.76550E+00
 -1        79 1.22755E-01-1.03450E-01-4.67589E-01 1.43089E-13 1.11773E-13 4.74981E+00
 -1        80-7.29348E+00-2.41933E+00-7.70940E-01-1.46616E-13 2.04703E-13 4.76550E+00
 -1        81 9.92167E-02 2.97674E-02 7.89322E-06-3.63615E-14 2.15241E-13 4.87480E+00
 -1        82-3.72021E+00-1.35336E+00-7.91001E-01-2.42293E-13-1.09166E-12 4.94095E+00
 -1        83 9.92167E-02 2.97674E-02 7.89322E-06-2.24455E-13 1.81824E-13 4.87480E+00
 -1        84-3.72021E+00-1.35336E+00-7.91001E-01 1.35064E-14-1.18416E-12 4.94095E+00
 -1        85 7.48495E+01 2.23758E+01-2.63383E-01 2.29606E-14-1.26528E-13 1.24995E-01
 -1        86 7.46620E+01 2.23196E+01-2.63383E-01-2.75553E-14-5.05695E-13 2.49990E-01
 -1        87 7.48495E+01 2.23758E+01-2.63383E-01 2.81619E-14-8.17161E-13 1.24995E-01
 -1        88 7.46620E+01 2.23196E+01-2.63383E-01-1.87785E-14-1.58133E-12 2.49990E-01
 -1        89 7.40995E+01 2.21508E+01-2.63383E-01-1.01600E-13 8.87921E-13 4.99980E-01
 -1        90 7.40995E+01 2.21508E+01-2.63383E-01-1.13490E-13 1.02497E-12 4.99980E-01
 -1        91 7.31620E+01 2.18696E+01-2.63383E-01 8.12791E-14-3.47051E-14 7.49970E-01
 -1        92 7.31620E+01 2.18696E+01-2.63383E-01 1.24349E-13 1.60554E-12 7.49970E-01
 -1        93 7.18496E+01 2.14759E+01-2.63383E-01 1.37226E-13-8.80573E-13 9.99960E-01
 -1        94 7.18496E+01 2.14759E+01-2.63383E-01 1.37074E-13-2.04649E-12 9.99960E-01
 -1        95 7.01621E+01 2.09696E+01-2.63383E-01-1.92632E-14 1.16451E-12 1.24995E+00
 -1        96 7.01621E+01 2.09696E+01-2.63383E-01 9.26106E-15 5.48001E-13 1.24995E+00
 -1        97 6.80997E+01 2.03509E+01-2.63383E-01-4.75060E-14 1.79458E-12 1.49994E+00
 -1        98 6.80997E+01 2.03509E+01-2.63383E-01 8.87760E-15 7.41477E-13 1.49994E+00
 -1        99 6.56622E+01 1.96197E+01-2.63383E-01 1.71899E-13 7.18230E-13 1.74993E+00
 -1       100 6.56622E+01 1.96197E+01-2.63383E-01 1.53283E-13-4.36422E-14 1.74993E+00
 -1       101 6.28498E+01 1.87759E+01-2.63383E-01-2.71142E-13-1.16845E-12 1.99992E+00
 -1       102 6.28498E+01 1.87759E+01-2.63383E-01-2.87346E-13 1.13326E-12 1.99992E+00
 -1       103 5.96624E+01 1.78197E+01-2.63382E-01 1.18540E-13 2.82464E-12 2.24991E+00
 -1       104 5.96624E+01 1.78197E+01-2.63382E-01 3.03563E-13 1.87710E-13 2.24991E+00
 -1       105 5.60999E+01 1.67510E+01-2.63381E-01-1.81040E-13 1.03416E-13 2.49990E+00
 -1       106 5.60999E+01 1.67510E+01-2.63381E-01-4.22819E-14-1.73215E-13 2.49990E+00
 -1       107 5.21626E+01 1.55698E+01-2.63373E-01 3.63805E-13-1.55080E-13 2.74988E+00
 -1       108 5.21626E+01 1.55698E+01-2.63373E-01 3.64212E-13-4.72523E-13 2.74988E+00
 -1       109 4.78502E+01 1.42760E+01-2.63373E-01-1.58842E-13-5.89453E-13 2.99986E+00
 -1       110 4.78502E+01 1.42760E+01-2.63373E-01-2.25923E-13-1.16264E-12 2.99986E+00
 -1       111 4.31629E+01 1.28699E+01-2.63341E-01 2.07731E-13 8.36350E-13 3.24985E+00
 -1       112 4.31629E+01 1.28699E+01-2.63341E-01 1.16520E-13 6.65588E-13 3.24985E+00
 -1       113 3.81003E+01 1.13510E+01-2.63663E-01-2.75025E-13 4.27775E-13 3.50000E+00
 -1       114 3.81003E+01 1.13510E+01-2.63663E-01-1.57121E-13 1.13394E-12 3.50000E+00
 -1       115 3.26611E+01 9.71911E+00-2.64122E-01-1.29427E-14 2.88638E-13 3.75093E+00
 -1       116 3.26611E+01 9.71911E+00-2.64122E-01-4.61205E-13-9.67708E-14 3.75093E+00
 -1       117 2.68399E+01 7.97109E+00-2.69573E-01 4.37908E-14 2.42096E-13 4.00455E+00
 -1       118 2.68399E+01 7.97109E+00-2.69573E-01 1.15621E-13-1.28022E-13 4.00455E+00
 -1       119 2.06242E+01 6.10560E+00-2.72213E-01-3.60165E-13-3.14907E-13 4.26447E+00
 -1       120 2.06242E+01 6.10560E+00-2.72213E-01-9.79000E-14 2.25796E-13 4.26447E+00
 -1       121 1.39950E+01 4.10665E+00-3.06147E-01 2.49419E-13 1.01647E-13 4.52806E+00
 -1       122 1.39950E+01 4.10665E+00-3.06147E-01 4.81539E-13 5.65280E-14 4.52806E+00
 -1       123 7.04797E+00 2.06512E+00-1.64238E-01-8.44970E-14-6.94740E-14 4.73412E+00
 -1       124 7.04797E+00 2.06512E+00-1.64238E-01-2.77295E-13-7.47222E-14 4.73412E+00
 -1       125 3.52178E+00 1.29384E+00 7.91016E-01 3.97905E-13 1.15019E-12 4.80866E+00
 -1       126 3.52178E+00 1.29384E+00 7.91016E-01-5.54725E-14 1.11688E-12 4.80866E+00
 -1       127-7.48414E+01 8.06465E-02-7.28464E-01-2.16343E-03 1.08172E-03 1.24995E-01
 -1       128 4.48180E-10-1.45970E-11-4.99980E-01 1.88670E-11 1.08172E-03 1.24995E-01
 -1       129 3.45186E-10-2.40471E-11-4.99980E-01-2.20377E-13 1.08172E-03 2.49990E-01
 -1       130-7.46539E+01 8.06465E-02-7.28464E-01-4.32687E-03 1.08172E-03 2.49990E-01
 -1       131-7.48414E+01 8.06465E-02-7.28464E-01 2.16343E-03-1.08172E-03 1.24995E-01
 -1       132-4.74055E-10 7.59377E-12-4.99980E-01 1.70882E-11-1.08172E-03 1.24995E-01
 -1       133-5.47956E-10-1.21987E-11-4.99980E-01-8.67628E-12-1.08172E-03 2.49990E-01
 -1       134-7.46539E+01 8.06465E-02-7.28464E-01 4.32687E-03-1.08172E-03 2.49990E-01
 -1       135-8.51640E-11-4.31427E-11-4.99980E-01 1.36590E-11 1.08172E-03 4.99980E-01
 -1       136-7.40914E+01 8.06465E-02-7.28464E-01-8.65373E-03 1.08172E-03 4.99980E-01
 -1       137-8.97473E-10-4.24129E-11-4.99980E-01-1.64717E-11-1.08172E-03 4.99980E-01
 -1       138-7.40914E+01 8.06465E-02-7.28464E-01 8.65373E-03-1.08172E-03 4.99980E-01
 -1       139-1.12648E-09-4.51117E-11-4.99980E-01 2.92969E-11 1.08172E-03 7.49970E-01
 -1       140-7.31539E+01 8.06465E-02-7.28464E-01-1.29806E-02 1.08172E-03 7.49970E-01
 -1       141-1.83112E-09-4.59147E-11-4.99980E-01-3.18376E-11-1.08172E-03 7.49970E-01
 -1       142-7.31539E+01 8.06465E-02-7.28464E-01 1.29806E-02-1.08172E-03 7.49970E-01
 -1       143-2.07122E-09 2.48352E-10-4.99980E-01-6.30228E-12 1.08172E-03 9.99960E-01
 -1       144-7.18415E+01 8.06465E-02-7.28464E-01-1.73075E-02 1.08172E-03 9.99960E-01
 -1       145-2.66490E-09 2.46126E-10-4.99980E-01 3.81438E-12-1.08172E-03 9.99960E-01
 -1       146-7.18415E+01 8.06465E-02-7.28464E-01 1.73075E-02-1.08172E-03 9.99960E-01
 -1       147 4.27723E-09 1.85471E-09-4.99980E-01-3.77550E-10 1.08172E-03 1.24995E+00
 -1       148-7.01540E+01 8.06465E-02-7.28464E-01-2.16343E-02 1.08172E-03 1.24995E+00
 -1       149 3.79392E-09 1.85288E-09-4.99980E-01 3.74254E-10-1.08172E-03 1.24995E+00
 -1       150-7.01540E+01 8.06465E-02-7.28464E-01 2.16343E-02-1.08172E-03 1.24995E+00
 -1       151 4.89498E-08 7.19169E-09-4.99980E-01-1.97372E-09 1.08172E-03 1.49994E+00
 -1       152-6.80916E+01 8.06465E-02-7.28464E-01-2.59612E-02 1.08172E-03 1.49994E+00
 -1       153 4.85728E-08 7.18943E-09-4.99980E-01 1.97052E-09-1.08172E-03 1.49994E+00
 -1       154-6.80916E+01 8.06465E-02-7.28464E-01 2.59612E-02-1.08172E-03 1.49994E+00
 -1       155 2.17853E-07 1.78605E-08-4.99980E-01-6.39418E-09 1.08172E-03 1.74993E+00
 -1       156-6.56541E+01 8.06465E-02-7.28464E-01-3.02880E-02 1.08171E-03 1.74993E+00
 -1       157 2.17573E-07 1.78584E-08-4.99980E-01 6.39127E-09-1.08172E-03 1.74993E+00
 -1       158-6.56541E+01 8.06465E-02-7.28464E-01 3.02880E-02-1.08171E-03 1.74993E+00
 -1       159 6.21467E-07 1.41400E-08-4.99980E-01-1.20399E-08 1.08172E-03 1.99992E+00
 -1       160-6.28417E+01 8.06465E-02-7.28464E-01-3.46149E-02 1.08172E-03 1.99992E+00
 -1       161 6.21262E-07 1.41368E-08-4.99980E-01 1.20389E-08-1.08172E-03 1.99992E+00
 -1       162-6.28417E+01 8.06465E-02-7.28464E-01 3.46149E-02-1.08172E-03 1.99992E+00
 -1       163 8.82029E-07-1.24070E-07-4.99980E-01 7.36028E-09 1.08171E-03 2.24991E+00
 -1       164-5.96543E+01 8.06463E-02-7.28464E-01-3.89418E-02 1.08172E-03 2.24991E+00
 -1       165 8.81880E-07-1.24072E-07-4.99980E-01-7.36086E-09-1.08171E-03 2.24991E+00
 -1       166-5.96543E+01 8.06463E-02-7.28464E-01 3.89418E-02-1.08172E-03 2.24991E+00
 -1       167-2.31737E-06-8.47096E-07-4.99978E-01 1.78743E-07 1.08175E-03 2.49990E+00
 -1       168-5.60918E+01 8.06484E-02-7.28460E-01-4.32689E-02 1.08182E-03 2.49990E+00
 -1       169-2.31748E-06-8.47098E-07-4.99978E-01-1.78744E-07-1.08175E-03 2.49990E+00
 -1       170-5.60918E+01 8.06484E-02-7.28460E-01 4.32689E-02-1.08182E-03 2.49990E+00
 -1       171-2.25148E-05-3.08317E-06-4.99971E-01 8.72323E-07 1.08158E-03 2.74989E+00
 -1       172-5.21544E+01 8.06455E-02-7.28455E-01-4.75962E-02 1.08185E-03 2.74990E+00
 -1       173-2.25148E-05-3.08317E-06-4.99971E-01-8.72324E-07-1.08158E-03 2.74989E+00
 -1       174-5.21544E+01 8.06455E-02-7.28455E-01 4.75962E-02-1.08185E-03 2.74990E+00
 -1       175-9.56231E-05-7.47380E-06-4.99949E-01 2.73533E-06 1.08227E-03 2.99988E+00
 -1       176-4.78419E+01 8.06701E-02-7.28405E-01-5.19258E-02 1.08293E-03 2.99992E+00
 -1       177-9.56232E-05-7.47380E-06-4.99949E-01-2.73533E-06-1.08227E-03 2.99988E+00
 -1       178-4.78419E+01 8.06701E-02-7.28405E-01 5.19258E-02-1.08293E-03 2.99992E+00
 -1       179-2.58954E-04-2.84942E-06-4.99916E-01 4.55708E-06 1.07944E-03 3.24987E+00
 -1       180-4.31544E+01 8.05856E-02-7.28462E-01-5.62510E-02 1.07969E-03 3.24994E+00
 -1       181-2.58954E-04-2.84942E-06-4.99916E-01-4.55708E-06-1.07944E-03 3.24987E+00
 -1       182-4.31544E+01 8.05856E-02-7.28462E-01 5.62510E-02-1.07969E-03 3.24994E+00
 -1       183-3.19827E-04 5.64379E-05-5.00001E-01-4.89975E-06 1.09102E-03 3.49986E+00
 -1       184-3.80918E+01 8.08425E-02-7.28316E-01-6.05825E-02 1.08604E-03 3.49985E+00
 -1       185-3.19827E-04 5.64379E-05-5.00001E-01 4.89975E-06-1.09102E-03 3.49986E+00
 -1       186-3.80918E+01 8.08425E-02-7.28316E-01 6.05825E-02-1.08604E-03 3.49985E+00
 -1       187 1.26692E-03 4.09348E-04-5.00774E-01-8.70976E-05 1.04368E-03 3.74985E+00
 -1       188-3.26565E+01 7.92338E-02-7.30711E-01-6.47697E-02 1.00756E-03 3.74896E+00
 -1       189 1.26692E-03 4.09348E-04-5.00774E-01 8.70976E-05-1.04368E-03 3.74985E+00
 -1       190-3.26565E+01 7.92338E-02-7.30711E-01 6.47697E-02-1.00756E-03 3.74896E+00
 -1       191 1.02338E-02 1.18129E-03-5.04280E-01-3.67800E-04 1.23732E-03 3.99984E+00
 -1       192-2.68513E+01 8.34649E-02-7.30918E-01-6.90510E-02 1.13309E-03 3.99510E+00
 -1       193 1.02338E-02 1.18129E-03-5.04280E-01 3.67800E-04-1.23732E-03 3.99984E+00
 -1       194-2.68513E+01 8.34649E-02-7.30918E-01 6.90510E-02-1.13309E-03 3.99510E+00
 -1       195 4.22870E-02 3.83197E-03-5.12840E-01-1.25250E-03 4.45214E-04 4.24983E+00
 -1       196-2.07031E+01 6.08290E-02-7.59214E-01-7.15314E-02 1.07098E-04 4.23437E+00
 -1       197 4.22870E-02 3.83197E-03-5.12840E-01 1.25250E-03-4.45214E-04 4.24983E+00
 -1       198-2.07031E+01 6.08290E-02-7.59214E-01 7.15314E-02-1.07098E-04 4.23437E+00
 -1       199 1.04546E-01-4.14835E-03-5.27824E-01-1.19666E-03 3.68537E-03 4.49982E+00
 -1       200-1.41747E+01 1.48838E-01-7.02438E-01-7.98483E-02 4.05140E-03 4.47025E+00
 -1       201 1.04546E-01-4.14835E-03-5.27824E-01 1.19666E-03-3.68537E-03 4.49982E+00
 -1       202-1.41747E+01 1.48838E-01-7.02438E-01 7.98483E-02-4.05140E-03 4.47025E+00
 -1       203 1.24446E-01-4.23528E-03-4.64604E-01 2.82805E-04-9.56867E-03 4.74981E+00
 -1       204-7.37087E+00-1.72260E-01-8.70837E-01-6.95612E-02-9.19497E-03 4.76607E+00
 -1       205 1.24446E-01-4.23528E-03-4.64604E-01-2.82805E-04 9.56867E-03 4.74981E+00
 -1       206-7.37087E+00-1.72260E-01-8.70837E-01 6.95612E-02 9.19497E-03 4.76607E+00
 -1       207 1.06715E-01 5.83783E-03 3.87108E-03 1.03021E-03-2.50705E-02 4.87480E+00
 -1       208-3.92665E+00-5.87085E-01-8.45829E-01-5.11713E-02-2.55856E-02 4.94337E+00
 -1       209 1.06715E-01 5.83783E-03 3.87108E-03-1.03021E-03 2.50705E-02 4.87480E+00
 -1       210-3.92665E+00-5.87085E-01-8.45829E-01 5.11713E-02 2.55856E-02 4.94337E+00
 -1       211 7.48414E+01-8.06465E-02-2.71496E-01 2.16343E-03 1.08172E-03 1.24995E-01
 -1       212 7.46539E+01-8.06465E-02-2.71496E-01 4.32687E-03 1.08172E-03 2.49990E-01
 -1       213 7.48414E+01-8.06465E-02-2.71496E-01-2.16343E-03-1.08172E-03 1.24995E-01
 -1       214 7.46539E+01-8.06465E-02-2.71496E-01-4.32687E-03-1.08172E-03 2.49990E-01
 -1       215 7.40914E+01-8.06465E-02-2.71496E-01 8.65373E-03 1.08172E-03 4.99980E-01
 -1       216 7.40914E+01-8.06465E-02-2.71496E-01-8.65373E-03-1.08172E-03 4.99980E-01
 -1       217 7.31539E+01-8.06465E-02-2.71496E-01 1.29806E-02 1.08172E-03 7.49970E-01
 -1       218 7.31539E+01-8.06465E-02-2.71496E-01-1.29806E-02-1.08172E-03 7.49970E-01
 -1       219 7.18415E+01-8.06465E-02-2.71496E-01 1.73075E-02 1.08172E-03 9.99960E-01
 -1       220 7.18415E+01-8.06465E-02-2.71496E-01-1.73075E-02-1.08172E-03 9.99960E-01
 -1       221 7.01540E+01-8.06465E-02-2.71496E-01 2.16343E-02 1.08172E-03 1.24995E+00
 -1       222 7.01540E+01-8.06465E-02-2.71496E-01-2.16343E-02-1.08172E-03 1.24995E+00
 -1       223 6.80916E+01-8.06465E-02-2.71496E-01 2.59612E-02 1.08172E-03 1.49994E+00
 -1       224 6.80916E+01-8.06465E-02-2.71496E-01-2.59612E-02-1.08172E-03 1.49994E+00
 -1       225 6.56541E+01-8.06465E-02-2.71496E-01 3.02881E-02 1.08172E-03 1.74993E+00
 -1       226 6.56541E+01-8.06465E-02-2.71496E-01-3.02881E-02-1.08172E-03 1.74993E+00
 -1       227 6.28417E+01-8.06466E-02-2.71496E-01 3.46149E-02 1.08172E-03 1.99992E+00
 -1       228 6.28417E+01-8.06466E-02-2.71496E-01-3.46149E-02-1.08172E-03 1.99992E+00
 -1       229 5.96542E+01-8.06461E-02-2.71495E-01 3.89418E-02 1.08170E-03 2.24991E+00
 -1       230 5.96542E+01-8.06461E-02-2.71495E-01-3.89418E-02-1.08170E-03 2.24991E+00
 -1       231 5.60918E+01-8.06467E-02-2.71494E-01 4.32685E-02 1.08167E-03 2.49990E+00
 -1       232 5.60918E+01-8.06467E-02-2.71494E-01-4.32685E-02-1.08167E-03 2.49990E+00
 -1       233 5.21544E+01-8.06393E-02-2.71478E-01 4.75945E-02 1.08131E-03 2.74988E+00
 -1       234 5.21544E+01-8.06393E-02-2.71478E-01-4.75945E-02-1.08131E-03 2.74988E+00
 -1       235 4.78421E+01-8.06551E-02-2.71472E-01 5.19203E-02 1.08161E-03 2.99984E+00
 -1       236 4.78421E+01-8.06551E-02-2.71472E-01-5.19203E-02-1.08161E-03 2.99984E+00
 -1       237 4.31549E+01-8.05799E-02-2.71363E-01 5.62419E-02 1.07919E-03 3.24980E+00
 -1       238 4.31549E+01-8.05799E-02-2.71363E-01-5.62419E-02-1.07919E-03 3.24980E+00
 -1       239 3.80925E+01-8.09554E-02-2.71836E-01 6.05923E-02 1.09600E-03 3.49987E+00
 -1       240 3.80925E+01-8.09554E-02-2.71836E-01-6.05923E-02-1.09600E-03 3.49987E+00
 -1       241 3.26540E+01-8.00525E-02-2.71921E-01 6.49439E-02 1.07980E-03 3.75074E+00
 -1       242 3.26540E+01-8.00525E-02-2.71921E-01-6.49439E-02-1.07980E-03 3.75074E+00
 -1       243 2.68309E+01-8.58275E-02-2.80769E-01 6.97866E-02 1.34155E-03 4.00458E+00
 -1       244 2.68309E+01-8.58275E-02-2.80769E-01-6.97866E-02-1.34155E-03 4.00458E+00
 -1       245 2.06185E+01-6.84929E-02-2.76609E-01 7.40363E-02 7.83330E-04 4.26529E+00
 -1       246 2.06185E+01-6.84929E-02-2.76609E-01-7.40363E-02-7.83330E-04 4.26529E+00
 -1       247 1.39656E+01-1.40541E-01-3.42228E-01 8.22417E-02 3.31933E-03 4.52939E+00
 -1       248 1.39656E+01-1.40541E-01-3.42228E-01-8.22417E-02-3.31933E-03 4.52939E+00
 -1       249 7.12198E+00 1.80730E-01-4.71596E-02 6.89956E-02-9.94237E-03 4.73355E+00
 -1       250 7.12198E+00 1.80730E-01-4.71596E-02-6.89956E-02 9.94237E-03 4.73355E+00
 -1       251 3.71322E+00 5.75410E-01 8.38118E-01 4.91108E-02-2.45554E-02 4.80624E+00
 -1       252 3.71322E+00 5.75410E-01 8.38118E-01-4.91108E-02 2.45554E-02 4.80624E+00
 -1       253-7.47622E+01 6.11760E-02-7.08993E-01-2.59611E-02 1.69466E-02 1.35812E-01
 -1       254-1.70841E-10-1.45441E-10-4.99980E-01 4.10148E-12 1.69466E-02 1.35812E-01
 -1       255-1.50144E-09-4.08938E-10-4.99980E-01-1.21594E-10 1.69466E-02 2.84605E-01
 -1       256-7.45747E+01 6.11760E-02-7.08993E-01-3.89416E-02 1.69466E-02 2.84605E-01
 -1       257-7.49206E+01 2.22342E-02-7.47935E-01-4.15672E-13-7.72354E-13 1.14178E-01
 -1       258-2.49800E-12-2.79251E-11-4.99980E-01 2.38596E-13-6.09541E-14 1.14178E-01
 -1       259-3.80646E-12-2.87764E-10-4.99980E-01 9.94296E-14-2.88998E-13 2.15375E-01
 -1       260-7.47331E+01 2.22342E-02-7.47935E-01-7.07522E-13 3.47855E-14 2.15375E-01
 -1       261-6.84476E-09-1.31919E-09-4.99980E-01-9.23180E-10 1.69466E-02 5.69210E-01
 -1       262-7.40122E+01 6.11760E-02-7.08993E-01-7.78832E-02 1.69466E-02 5.69210E-01
 -1       263-6.56553E-12-1.33892E-09-4.99980E-01 8.13993E-14-6.42410E-13 4.30750E-01
 -1       264-7.41706E+01 2.22342E-02-7.47935E-01-1.37267E-12-4.83827E-13 4.30750E-01
 -1       265-1.83817E-08-2.69585E-09-4.99980E-01-3.57641E-09 1.69466E-02 8.53815E-01
 -1       266-7.30748E+01 6.11760E-02-7.08993E-01-1.16825E-01 1.69466E-02 8.53815E-01
 -1       267 1.10087E-11-3.63695E-09-4.99980E-01 1.19705E-13-4.18725E-13 6.46124E-01
 -1       268-7.32331E+01 2.22342E-02-7.47935E-01-2.21662E-12-1.43907E-13 6.46124E-01
 -1       269-2.77194E-08-1.46758E-09-4.99980E-01-9.04946E-09 1.69466E-02 1.13842E+00
 -1       270-7.17623E+01 6.11760E-02-7.08993E-01-1.55766E-01 1.69466E-02 1.13842E+00
 -1       271 1.77672E-10-5.61249E-09-4.99980E-01 4.23168E-14-3.42201E-13 8.61499E-01
 -1       272-7.19206E+01 2.22342E-02-7.47935E-01-2.71821E-12-4.81898E-13 8.61499E-01
 -1       273 2.41451E-08 1.55006E-08-4.99980E-01-1.23588E-08 1.69466E-02 1.42303E+00
 -1       274-7.00748E+01 6.11760E-02-7.08993E-01-1.94708E-01 1.69466E-02 1.42303E+00
 -1       275 1.07140E-09 4.22400E-09-4.99980E-01 1.23937E-13 1.09513E-14 1.07687E+00
 -1       276-7.02332E+01 2.22342E-02-7.47935E-01-2.99129E-12 1.39265E-13 1.07687E+00
 -1       277 3.40726E-07 8.35636E-08-4.99980E-01 1.75676E-08 1.69466E-02 1.70763E+00
 -1       278-6.80124E+01 6.11761E-02-7.08993E-01-2.33650E-01 1.69466E-02 1.70763E+00
 -1       279 4.51134E-09 6.61680E-08-4.99980E-01 1.24584E-13 2.64258E-13 1.29225E+00
 -1       280-6.81707E+01 2.22343E-02-7.47935E-01-2.82904E-12-3.71401E-13 1.29225E+00
 -1       281 1.37396E-06 2.57407E-07-4.99980E-01 1.83562E-07 1.69466E-02 1.99224E+00
 -1       282-6.55749E+01 6.11762E-02-7.08993E-01-2.72591E-01 1.69466E-02 1.99224E+00
 -1       283 1.32098E-08 2.71745E-07-4.99980E-01 3.09162E-14-3.57723E-13 1.50762E+00
 -1       284-6.57333E+01 2.22344E-02-7.47935E-01-2.56433E-12-3.84213E-13 1.50762E+00
 -1       285 3.52866E-06 4.98513E-07-4.99980E-01 7.06660E-07 1.69466E-02 2.27684E+00
 -1       286-6.27625E+01 6.11761E-02-7.08993E-01-3.11533E-01 1.69466E-02 2.27684E+00
 -1       287 1.38460E-08 7.10978E-07-4.99981E-01 2.35922E-16-3.73110E-13 1.72300E+00
 -1       288-6.29209E+01 2.22345E-02-7.47935E-01-2.94864E-12-3.65468E-13 1.72300E+00
 -1       289 4.94616E-06 1.86487E-07-4.99979E-01 1.77016E-06 1.69466E-02 2.56145E+00
 -1       290-5.95751E+01 6.11746E-02-7.08992E-01-3.50476E-01 1.69466E-02 2.56145E+00
 -1       291-1.39028E-07 1.03908E-06-4.99981E-01 1.46386E-13-2.16308E-13 1.93837E+00
 -1       292-5.97334E+01 2.22333E-02-7.47936E-01-3.67573E-12-3.48901E-13 1.93837E+00
 -1       293-6.23735E-06-3.17695E-06-4.99974E-01 2.42978E-06 1.69467E-02 2.84605E+00
 -1       294-5.60126E+01 6.11698E-02-7.08983E-01-3.89424E-01 1.69469E-02 2.84606E+00
 -1       295-1.25759E-06-1.11848E-06-4.99979E-01 1.05950E-13-3.09535E-13 2.15375E+00
 -1       296-5.61710E+01 2.22286E-02-7.47931E-01-4.12375E-12 4.45859E-14 2.15375E+00
 -1       297-6.90849E-05-1.58238E-05-4.99957E-01-3.16303E-06 1.69475E-02 3.13066E+00
 -1       298-5.20752E+01 6.11561E-02-7.08969E-01-4.28385E-01 1.69479E-02 3.13069E+00
 -1       299-6.60018E-06-1.40980E-05-4.99966E-01-4.13558E-14-2.71321E-13 2.36912E+00
 -1       300-5.22335E+01 2.22118E-02-7.47924E-01-4.38982E-12-4.18936E-13 2.36913E+00
 -1       301-2.64467E-04-4.54716E-05-4.99925E-01-3.47204E-05 1.69515E-02 3.41528E+00
 -1       302-4.77628E+01 6.11495E-02-7.08922E-01-4.67360E-01 1.69513E-02 3.41534E+00
 -1       303-2.51840E-05-5.77845E-05-4.99928E-01-7.22963E-14-3.95810E-13 2.58448E+00
 -1       304-4.79210E+01 2.21902E-02-7.47872E-01-4.85728E-12-7.35523E-15 2.58453E+00
 -1       305-6.38632E-04-7.63392E-05-4.99919E-01-1.39349E-04 1.69672E-02 3.69990E+00
 -1       306-4.30754E+01 6.11415E-02-7.09038E-01-5.06314E-01 1.69579E-02 3.69994E+00
 -1       307-6.43835E-05-1.59075E-04-4.99858E-01 4.42216E-14-2.32939E-14 2.79984E+00
 -1       308-4.32332E+01 2.21573E-02-7.47883E-01-5.22700E-12-1.72758E-13 2.79999E+00
 -1       309-7.28951E-04 2.14828E-05-5.00173E-01-3.95395E-04 1.70098E-02 3.98446E+00
 -1       310-3.80134E+01 6.12551E-02-7.09319E-01-5.45125E-01 1.69465E-02 3.98418E+00
 -1       311-2.18748E-05-2.91558E-04-4.99859E-01 5.59552E-14-1.45828E-13 3.01526E+00
 -1       312-3.81702E+01 2.24061E-02-7.47583E-01-5.58364E-12-4.75314E-15 3.01547E+00
 -1       313 1.98237E-03 6.79480E-04-5.01544E-01-8.71198E-04 1.70425E-02 4.26846E+00
 -1       314-3.25799E+01 6.03294E-02-7.12725E-01-5.83735E-01 1.67522E-02 4.26691E+00
 -1       315 9.30626E-04-1.55543E-04-5.00463E-01-1.10745E-14-1.65961E-13 3.23124E+00
 -1       316-3.27326E+01 2.29127E-02-7.48448E-01-5.80277E-12-2.39427E-13 3.23065E+00
 -1       317 1.52714E-02 2.71321E-03-5.06292E-01-1.51976E-03 1.65316E-02 4.54956E+00
 -1       318-2.67870E+01 5.60723E-02-7.18536E-01-6.23279E-01 1.55765E-02 4.54486E+00
 -1       319 6.69335E-03 1.25906E-03-5.03224E-01 2.20379E-14-2.05475E-13 3.45012E+00
 -1       320-2.69188E+01 2.63406E-02-7.44581E-01-6.10264E-12-6.53644E-15 3.44465E+00
 -1       321 5.45314E-02 6.42775E-03-5.18019E-01-2.04720E-03 1.23262E-02 4.82032E+00
 -1       322-2.06786E+01 2.87735E-02-7.56002E-01-6.68622E-01 1.06824E-02 4.81027E+00
 -1       323 2.95019E-02 5.51454E-03-5.10582E-01-3.43683E-14-2.27211E-13 3.67934E+00
 -1       324-2.07183E+01 2.79742E-02-7.50404E-01-6.33105E-12-3.33483E-13 3.65818E+00
 -1       325 1.29281E-01 8.68693E-03-5.31579E-01-1.39016E-03-8.23997E-03 5.07150E+00
 -1       326-1.43238E+01-1.35300E-02-7.68195E-01-7.17892E-01-3.27913E-03 5.05063E+00
 -1       327 8.59527E-02 9.47228E-03-5.18423E-01-4.07660E-14-2.66932E-13 3.92814E+00
 -1       328-1.40868E+01 5.45230E-02-6.86380E-01-6.55307E-12-1.38799E-13 3.89042E+00
 -1       329 1.45683E-01-9.20037E-03-4.74353E-01-2.34027E-03-5.41481E-02 5.34267E+00
 -1       330-7.55393E+00-2.03700E-02-9.26837E-01-6.00049E-01-4.36874E-02 5.35630E+00
 -1       331 1.08315E-01-6.33003E-03-4.58261E-01 1.20459E-14 1.37735E-12 4.15695E+00
 -1       332-7.15163E+00 8.15402E-02-8.05521E-01-5.07177E-12 1.49149E-12 4.17644E+00
 -1       333 1.22535E-01 5.49701E-02 1.93026E-02-4.12469E-03 9.02673E-02 5.49408E+00
 -1       334-4.11457E+00-3.32498E-01-8.57058E-01-4.57999E-01 8.83596E-02 5.54984E+00
 -1       335 8.60317E-02 4.62557E-02 5.73723E-03-3.27793E-14 6.60848E-12 4.25553E+00
 -1       336-3.73312E+00-2.26996E-01-7.10972E-01-3.74788E-12 6.22732E-12 4.33720E+00
 -1       337-7.47622E+01 6.11760E-02-7.08993E-01 2.59611E-02-1.69466E-02 1.35812E-01
 -1       338-1.69971E-10-1.47166E-10-4.99980E-01-5.03031E-12-1.69466E-02 1.35812E-01
 -1       339-1.49986E-09-4.09358E-10-4.99980E-01 1.21031E-10-1.69466E-02 2.84605E-01
 -1       340-7.45747E+01 6.11760E-02-7.08993E-01 3.89416E-02-1.69466E-02 2.84605E-01
 -1       341-6.84351E-09-1.31870E-09-4.99980E-01 9.23143E-10-1.69466E-02 5.69210E-01
 -1       342-7.40122E+01 6.11760E-02-7.08993E-01 7.78832E-02-1.69466E-02 5.69210E-01
 -1       343-1.83804E-08-2.69546E-09-4.99980E-01 3.57654E-09-1.69466E-02 8.53815E-01
 -1       344-7.30748E+01 6.11760E-02-7.08993E-01 1.16825E-01-1.69466E-02 8.53815E-01
 -1       345-2.77186E-08-1.46755E-09-4.99980E-01 9.05001E-09-1.69466E-02 1.13842E+00
 -1       346-7.17623E+01 6.11760E-02-7.08993E-01 1.55766E-01-1.69466E-02 1.13842E+00
 -1       347 2.41457E-08 1.54997E-08-4.99980E-01 1.23592E-08-1.69466E-02 1.42303E+00
 -1       348-7.00748E+01 6.11760E-02-7.08993E-01 1.94708E-01-1.69466E-02 1.42303E+00
 -1       349 3.40726E-07 8.35637E-08-4.99980E-01-1.75678E-08-1.69466E-02 1.70763E+00
 -1       350-6.80124E+01 6.11761E-02-7.08993E-01 2.33650E-01-1.69466E-02 1.70763E+00
 -1       351 1.37396E-06 2.57407E-07-4.99980E-01-1.83562E-07-1.69466E-02 1.99224E+00
 -1       352-6.55749E+01 6.11762E-02-7.08993E-01 2.72591E-01-1.69466E-02 1.99224E+00
 -1       353 3.52866E-06 4.98512E-07-4.99980E-01-7.06660E-07-1.69466E-02 2.27684E+00
 -1       354-6.27625E+01 6.11761E-02-7.08993E-01 3.11533E-01-1.69466E-02 2.27684E+00
 -1       355 4.94616E-06 1.86487E-07-4.99979E-01-1.77016E-06-1.69466E-02 2.56145E+00
 -1       356-5.95751E+01 6.11746E-02-7.08992E-01 3.50476E-01-1.69466E-02 2.56145E+00
 -1       357-6.23735E-06-3.17695E-06-4.99974E-01-2.42978E-06-1.69467E-02 2.84605E+00
 -1       358-5.60126E+01 6.11698E-02-7.08983E-01 3.89424E-01-1.69469E-02 2.84606E+00
 -1       359-6.90849E-05-1.58238E-05-4.99957E-01 3.16303E-06-1.69475E-02 3.13066E+00
 -1       360-5.20752E+01 6.11561E-02-7.08969E-01 4.28385E-01-1.69479E-02 3.13069E+00
 -1       361-2.64467E-04-4.54716E-05-4.99925E-01 3.47204E-05-1.69515E-02 3.41528E+00
 -1       362-4.77628E+01 6.11495E-02-7.08922E-01 4.67360E-01-1.69513E-02 3.41534E+00
 -1       363-6.38632E-04-7.63392E-05-4.99919E-01 1.39349E-04-1.69672E-02 3.69990E+00
 -1       364-4.30754E+01 6.11415E-02-7.09038E-01 5.06314E-01-1.69579E-02 3.69994E+00
 -1       365-7.28951E-04 2.14828E-05-5.00173E-01 3.95395E-04-1.70098E-02 3.98446E+00
 -1       366-3.80134E+01 6.12551E-02-7.09319E-01 5.45125E-01-1.69465E-02 3.98418E+00
 -1       367 1.98237E-03 6.79480E-04-5.01544E-01 8.71198E-04-1.70425E-02 4.26846E+00
 -1       368-3.25799E+01 6.03294E-02-7.12725E-01 5.83735E-01-1.67522E-02 4.26691E+00
 -1       369 1.52714E-02 2.71321E-03-5.06292E-01 1.51976E-03-1.65316E-02 4.54956E+00
 -1       370-2.67870E+01 5.60723E-02-7.18536E-01 6.23279E-01-1.55765E-02 4.54486E+00
 -1       371 5.45314E-02 6.42775E-03-5.18019E-01 2.04720E-03-1.23262E-02 4.82032E+00
 -1       372-2.06786E+01 2.87735E-02-7.56002E-01 6.68622E-01-1.06824E-02 4.81027E+00
 -1       373 1.29281E-01 8.68693E-03-5.31579E-01 1.39016E-03 8.23997E-03 5.07150E+00
 -1       374-1.43238E+01-1.35300E-02-7.68195E-01 7.17892E-01 3.27913E-03 5.05063E+00
 -1       375 1.45683E-01-9.20037E-03-4.74353E-01 2.34027E-03 5.41481E-02 5.34267E+00
 -1       376-7.55393E+00-2.03700E-02-9.26837E-01 6.00049E-01 4.36874E-02 5.35630E+00
 -1       377 1.22535E-01 5.49701E-02 1.93026E-02 4.12469E-03-9.02673E-02 5.49408E+00
 -1       378-4.11457E+00-3.32498E-01-8.57058E-01 4.57999E-01-8.83596E-02 5.54984E+00
 -1       379 7.47622E+01-6.11760E-02-2.90967E-01 2.59611E-02 1.69466E-02 1.35812E-01
 -1       380 7.45747E+01-6.11760E-02-2.90967E-01 3.89416E-02 1.69466E-02 2.84605E-01
 -1       381 7.49206E+01-2.22342E-02-2.52025E-01 5.79871E-13-1.82305E-13 1.14178E-01
 -1       382 7.47331E+01-2.22342E-02-2.52025E-01 8.67028E-13-2.23130E-13 2.15375E-01
 -1       383 7.40122E+01-6.11760E-02-2.90967E-01 7.78832E-02 1.69466E-02 5.69210E-01
 -1       384 7.41706E+01-2.22342E-02-2.52025E-01 1.51178E-12-8.14469E-13 4.30750E-01
 -1       385 7.30748E+01-6.11760E-02-2.90967E-01 1.16825E-01 1.69466E-02 8.53815E-01
 -1       386 7.32331E+01-2.22342E-02-2.52025E-01 2.32975E-12 1.84748E-15 6.46124E-01
 -1       387 7.17623E+01-6.11760E-02-2.90967E-01 1.55766E-01 1.69466E-02 1.13842E+00
 -1       388 7.19206E+01-2.22342E-02-2.52025E-01 2.75712E-12-4.52291E-13 8.61499E-01
 -1       389 7.00748E+01-6.11759E-02-2.90967E-01 1.94708E-01 1.69466E-02 1.42303E+00
 -1       390 7.02332E+01-2.22342E-02-2.52025E-01 2.92163E-12 4.18342E-13 1.07687E+00
 -1       391 6.80124E+01-6.11758E-02-2.90967E-01 2.33650E-01 1.69466E-02 1.70763E+00
 -1       392 6.81707E+01-2.22341E-02-2.52025E-01 3.08493E-12-3.34049E-13 1.29225E+00
 -1       393 6.55749E+01-6.11757E-02-2.90967E-01 2.72592E-01 1.69466E-02 1.99224E+00
 -1       394 6.57333E+01-2.22339E-02-2.52025E-01 3.18969E-12 1.62478E-13 1.50762E+00
 -1       395 6.27625E+01-6.11759E-02-2.90967E-01 3.11533E-01 1.69466E-02 2.27684E+00
 -1       396 6.29209E+01-2.22340E-02-2.52026E-01 3.55642E-12-2.50900E-13 1.72300E+00
 -1       397 5.95751E+01-6.11776E-02-2.90965E-01 3.50473E-01 1.69466E-02 2.56144E+00
 -1       398 5.97334E+01-2.22348E-02-2.52025E-01 3.66721E-12-7.10671E-13 1.93838E+00
 -1       399 5.60126E+01-6.11855E-02-2.90960E-01 3.89407E-01 1.69469E-02 2.84604E+00
 -1       400 5.61710E+01-2.22400E-02-2.52022E-01 3.93183E-12-1.42875E-13 2.15375E+00
 -1       401 5.20752E+01-6.12031E-02-2.90940E-01 4.28325E-01 1.69481E-02 3.13063E+00
 -1       402 5.22337E+01-2.22502E-02-2.51999E-01 4.41987E-12-2.61589E-13 2.36912E+00
 -1       403 4.77628E+01-6.12398E-02-2.90951E-01 4.67229E-01 1.69528E-02 3.41521E+00
 -1       404 4.79215E+01-2.22711E-02-2.51973E-01 4.86012E-12-2.28369E-13 2.58444E+00
 -1       405 4.30753E+01-6.11902E-02-2.90965E-01 5.06198E-01 1.69653E-02 3.69986E+00
 -1       406 4.32346E+01-2.22130E-02-2.51840E-01 5.11606E-12-3.10731E-13 2.79968E+00
 -1       407 3.80128E+01-6.08364E-02-2.91692E-01 5.45640E-01 1.69716E-02 3.98497E+00
 -1       408 3.81723E+01-2.20353E-02-2.52221E-01 5.42896E-12-1.90480E-13 3.01481E+00
 -1       409 3.25762E+01-5.83934E-02-2.92276E-01 5.86939E-01 1.68000E-02 4.27151E+00
 -1       410 3.27305E+01-2.10259E-02-2.52770E-01 5.84372E-12-2.65094E-13 3.23032E+00
 -1       411 2.67700E+01-5.18084E-02-2.97873E-01 6.33409E-01 1.54796E-02 4.56085E+00
 -1       412 2.68918E+01-2.18858E-02-2.62591E-01 5.98155E-12-1.06616E-13 3.44901E+00
 -1       413 2.06164E+01-2.75844E-02-2.83647E-01 6.88435E-01 9.28471E-03 4.85035E+00
 -1       414 2.06125E+01-2.58571E-02-2.71617E-01 6.36835E-12-4.24959E-13 3.68052E+00
 -1       415 1.41487E+01-1.53216E-02-2.91529E-01 7.31628E-01-9.86212E-03 5.11505E+00
 -1       416 1.38315E+01-7.90751E-02-3.44303E-01 6.56488E-12-1.96884E-13 3.94319E+00
 -1       417 7.33255E+00-5.97534E-02-2.02282E-02 5.88009E-01-4.97682E-02 5.31535E+00
 -1       418 6.86501E+00-1.51847E-01-1.05284E-01 5.10213E-12 1.34581E-12 4.15114E+00
 -1       419 3.93744E+00 3.88545E-01 8.88660E-01 4.31130E-01 7.04866E-02 5.39494E+00
 -1       420 3.49313E+00 2.69962E-01 7.19792E-01 3.74267E-12 6.69678E-12 4.21724E+00
 -1       421 7.47622E+01-6.11760E-02-2.90967E-01-2.59611E-02-1.69466E-02 1.35812E-01
 -1       422 7.45747E+01-6.11760E-02-2.90967E-01-3.89416E-02-1.69466E-02 2.84605E-01
 -1       423 7.40122E+01-6.11760E-02-2.90967E-01-7.78832E-02-1.69466E-02 5.69210E-01
 -1       424 7.30748E+01-6.11760E-02-2.90967E-01-1.16825E-01-1.69466E-02 8.53815E-01
 -1       425 7.17623E+01-6.11760E-02-2.90967E-01-1.55766E-01-1.69466E-02 1.13842E+00
 -1       426 7.00748E+01-6.11759E-02-2.90967E-01-1.94708E-01-1.69466E-02 1.42303E+00
 -1       427 6.80124E+01-6.11758E-02-2.90967E-01-2.33650E-01-1.69466E-02 1.70763E+00
 -1       428 6.55749E+01-6.11757E-02-2.90967E-01-2.72592E-01-1.69466E-02 1.99224E+00
 -1       429 6.27625E+01-6.11759E-02-2.90967E-01-3.11533E-01-1.69466E-02 2.27684E+00
 -1       430 5.95751E+01-6.11776E-02-2.90965E-01-3.50473E-01-1.69466E-02 2.56144E+00
 -1       431 5.60126E+01-6.11855E-02-2.90960E-01-3.89407E-01-1.69469E-02 2.84604E+00
 -1       432 5.20752E+01-6.12031E-02-2.90940E-01-4.28325E-01-1.69481E-02 3.13063E+00
 -1       433 4.77628E+01-6.12398E-02-2.90951E-01-4.67229E-01-1.69528E-02 3.41521E+00
 -1       434 4.30753E+01-6.11902E-02-2.90965E-01-5.06198E-01-1.69653E-02 3.69986E+00
 -1       435 3.80128E+01-6.08364E-02-2.91692E-01-5.45640E-01-1.69716E-02 3.98497E+00
 -1       436 3.25762E+01-5.83934E-02-2.92276E-01-5.86939E-01-1.68000E-02 4.27151E+00
 -1       437 2.67700E+01-5.18084E-02-2.97873E-01-6.33409E-01-1.54796E-02 4.56085E+00
 -1       438 2.06164E+01-2.75844E-02-2.83647E-01-6.88435E-01-9.28471E-03 4.85035E+00
 -1       439 1.41487E+01-1.53216E-02-2.91529E-01-7.31628E-01 9.86212E-03 5.11505E+00
 -1       440 7.33255E+00-5.97534E-02-2.02282E-02-5.88009E-01 4.97682E-02 5.31535E+00
 -1       441 3.93744E+00 3.88545E-01 8.88660E-01-4.31130E-01-7.04866E-02 5.39494E+00
 -1       442-7.86783E+01-1.96527E+00-1.06959E+00-2.86956E-01 4.27797E-01 3.99853E-01
 -1       443 7.87519E-03 8.22036E-05-4.99964E-01 2.60363E-05 4.27887E-01 3.99577E-01
 -1       444 7.90061E-03 8.31284E-05-4.99964E-01 5.11258E-05 4.27008E-01 6.95779E-01
 -1       445-7.84837E+01-1.96123E+00-1.06888E+00-6.41959E-01 4.26916E-01 6.96333E-01
 -1       446-7.81742E+01-3.98493E+00-9.27163E-01-2.70007E-01 4.68156E-01 1.41073E-01
 -1       447 5.36819E-03 1.78368E-04-4.99972E-01 3.18889E-05 4.68274E-01 1.40993E-01
 -1       448 5.37124E-03 1.79753E-04-4.99972E-01 6.25519E-05 4.67179E-01 1.96080E-01
 -1       449-7.79807E+01-3.97655E+00-9.26743E-01-6.65246E-01 4.67060E-01 1.96241E-01
 -1       450 7.97772E-03 8.59374E-05-4.99964E-01 1.03438E-04 4.24355E-01 1.38980E+00
 -1       451-7.78999E+01-1.94908E+00-1.06675E+00-1.28160E+00 4.24262E-01 1.39092E+00
 -1       452 5.38002E-03 1.83914E-04-4.99973E-01 1.25612E-04 4.63877E-01 3.92138E-01
 -1       453-7.74001E+01-3.95137E+00-9.25486E-01-1.32786E+00 4.63755E-01 3.92463E-01
 -1       454 8.10914E-03 9.07348E-05-4.99964E-01 1.58173E-04 4.19893E-01 2.08030E+00
 -1       455-7.69273E+01-1.92873E+00-1.06319E+00-1.91662E+00 4.19796E-01 2.08199E+00
 -1       456 5.39334E-03 1.90859E-04-4.99973E-01 1.89631E-04 4.58315E-01 5.88147E-01
 -1       457-7.64330E+01-3.90919E+00-9.23396E-01-1.98521E+00 4.58189E-01 5.88643E-01
 -1       458 8.29946E-03 9.76922E-05-4.99963E-01 2.16665E-04 4.13549E-01 2.76544E+00
 -1       459-7.55666E+01-1.90004E+00-1.05820E+00-2.54467E+00 4.13448E-01 2.76773E+00
 -1       460 5.40901E-03 2.00563E-04-4.99974E-01 2.54931E-04 4.50401E-01 7.84066E-01
 -1       461-7.50797E+01-3.84970E+00-9.20485E-01-2.63468E+00 4.50267E-01 7.84745E-01
 -1       462 8.55561E-03 1.07042E-04-4.99963E-01 2.80396E-04 4.05218E-01 3.44332E+00
 -1       463-7.38190E+01-1.86279E+00-1.05177E+00-3.16342E+00 4.05109E-01 3.44625E+00
 -1       464 5.42342E-03 2.12911E-04-4.99975E-01 3.21592E-04 4.39991E-01 9.79835E-01
 -1       465-7.33414E+01-3.77242E+00-9.16773E-01-3.27371E+00 4.39846E-01 9.80713E-01
 -1       466 8.88741E-03 1.19055E-04-4.99963E-01 3.51047E-04 3.94736E-01 4.11192E+00
 -1       467-7.16858E+01-1.81669E+00-1.04392E+00-3.77053E+00 3.94617E-01 4.11555E+00
 -1       468 5.43099E-03 2.27569E-04-4.99977E-01 3.89281E-04 4.26873E-01 1.17536E+00
 -1       469-7.12192E+01-3.67674E+00-9.12295E-01-3.89980E+00 4.26712E-01 1.17647E+00
 -1       470 9.30839E-03 1.33984E-04-4.99963E-01 4.30537E-04 3.81863E-01 4.76903E+00
 -1       471-6.91696E+01-1.76136E+00-1.03467E+00-4.36367E+00 3.81727E-01 4.77344E+00
 -1       472 5.42310E-03 2.43780E-04-4.99980E-01 4.56953E-04 4.10744E-01 1.37052E+00
 -1       473-6.87150E+01-3.56182E+00-9.07110E-01-4.51057E+00 4.10561E-01 1.37188E+00
 -1       474 9.83682E-03 1.51902E-04-4.99965E-01 5.21043E-04 3.66236E-01 5.41217E+00
 -1       475-6.62738E+01-1.69636E+00-1.02411E+00-4.94057E+00 3.66073E-01 5.41748E+00
 -1       476 5.38649E-03 2.59954E-04-4.99984E-01 5.22365E-04 3.91172E-01 1.56513E+00
 -1       477-6.58315E+01-3.42659E+00-9.01312E-01-5.10389E+00 3.90954E-01 1.56680E+00
 -1       478 1.04966E-02 1.72335E-04-4.99967E-01 6.24938E-04 3.47296E-01 6.03837E+00
 -1       479-6.30036E+01-1.62114E+00-1.01246E+00-5.49913E+00 3.47086E-01 6.04482E+00
 -1       480 5.30031E-03 2.72909E-04-4.99989E-01 5.81241E-04 3.67539E-01 1.75902E+00
 -1       481-6.25719E+01-3.26968E+00-8.95036E-01-5.67805E+00 3.67266E-01 1.76103E+00
 -1       482 1.13177E-02 1.93387E-04-4.99971E-01 7.44405E-04 3.24165E-01 6.64394E+00
 -1       483-5.93674E+01-1.53514E+00-1.00021E+00-6.03752E+00 3.23868E-01 6.65191E+00
 -1       484 5.13050E-03 2.76251E-04-4.99996E-01 6.25859E-04 3.38974E-01 1.95203E+00
 -1       485-5.89407E+01-3.08927E+00-8.88437E-01-6.23202E+00 3.38615E-01 1.95443E+00
 -1       486 1.23353E-02 2.10107E-04-4.99977E-01 8.79693E-04 2.95447E-01 7.22383E+00
 -1       487-5.53787E+01-1.43800E+00-9.88477E-01-6.55461E+00 2.94983E-01 7.23409E+00
 -1       488 4.81893E-03 2.56869E-04-5.00001E-01 6.42759E-04 3.04292E-01 2.14434E+00
 -1       489-5.49433E+01-2.88292E+00-8.81619E-01-6.76586E+00 3.03792E-01 2.14705E+00
 -1       490 1.35961E-02 2.12199E-04-4.99988E-01 1.02232E-03 2.58961E-01 7.77073E+00
 -1       491-5.10604E+01-1.32999E+00-9.79606E-01-7.05041E+00 2.58161E-01 7.78477E+00
 -1       492 4.26815E-03 1.87694E-04-5.00003E-01 6.09352E-04 2.62032E-01 2.33699E+00
 -1       493-5.05849E+01-2.64716E+00-8.74249E-01-7.28115E+00 2.61301E-01 2.33967E+00
 -1       494 1.52155E-02 1.85267E-04-5.00047E-01 1.13188E-03 2.11521E-01 8.27348E+00
 -1       495-4.64522E+01-1.21338E+00-9.78883E-01-7.52689E+00 2.10050E-01 8.29424E+00
 -1       496 3.35260E-03 1.65340E-05-5.00020E-01 4.89801E-04 2.10876E-01 2.53325E+00
 -1       497-4.58671E+01-2.37675E+00-8.65051E-01-7.78107E+00 2.09771E-01 2.53478E+00
 -1       498 1.76565E-02 1.28114E-04-5.00359E-01 1.06932E-03 1.49421E-01 8.71515E+00
 -1       499-4.16222E+01-1.09460E+00-9.96077E-01-7.98838E+00 1.46670E-01 8.74814E+00
 -1       500 2.12038E-03-3.33730E-04-5.00189E-01 2.30905E-04 1.51277E-01 2.74122E+00
 -1       501-4.07799E+01-2.06298E+00-8.49071E-01-8.26857E+00 1.49613E-01 2.73867E+00
 -1       502 2.26988E-02 1.31158E-04-5.01697E-01 4.50439E-04 7.18963E-02 9.07312E+00
 -1       503-3.66821E+01-9.89633E-01-1.05277E+00-8.43887E+00 6.69831E-02 9.12754E+00
 -1       504 1.75347E-03-8.76113E-04-5.01106E-01-2.47519E-04 9.06196E-02 2.97789E+00
 -1       505-3.52852E+01-1.69243E+00-8.18115E-01-8.73798E+00 8.82455E-02 2.96460E+00
 -1       506 3.58768E-02 5.71823E-04-5.06232E-01-1.51300E-03-5.11171E-03 9.33088E+00
 -1       507-3.17820E+01-9.22368E-01-1.17014E+00-8.86611E+00-1.23513E-02 9.41750E+00
 -1       508 7.55889E-03-1.16071E-03-5.04531E-01-1.10585E-03 5.77548E-02 3.27226E+00
 -1       509-2.92893E+01-1.24036E+00-7.44562E-01-9.14637E+00 5.50813E-02 3.23583E+00
 -1       510 6.96863E-02 2.49933E-03-5.17527E-01-5.52538E-03-3.89525E-03 9.53379E+00
 -1       511-2.70119E+01-9.27574E-01-1.39837E+00-9.17632E+00-9.71850E-03 9.65219E+00
 -1       512 3.42823E-02 6.51037E-04-5.13427E-01-2.78650E-03 1.43940E-01 3.65433E+00
 -1       513-2.26330E+01-6.87710E-01-6.29545E-01-9.33030E+00 1.42793E-01 3.58057E+00
 -1       514 1.34827E-01 7.35840E-03-5.30278E-01-9.33870E-03 3.53821E-01 1.00036E+01
 -1       515-2.18303E+01-8.60269E-01-1.51305E+00-8.98742E+00 3.79975E-01 1.00627E+01
 -1       516 9.96914E-02 7.64406E-03-5.22928E-01-6.08744E-03 5.98075E-01 4.07174E+00
 -1       517-1.51899E+01 1.20423E-03-3.87670E-01-8.76371E+00 6.09232E-01 4.00536E+00
 -1       518 1.47313E-01 4.81702E-03-4.69192E-01-9.93379E-03 1.88577E+00 1.18874E+01
 -1       519-1.34370E+01-3.96768E-01-1.44235E+00-6.75566E+00 1.95542E+00 1.17339E+01
 -1       520 1.22363E-01 1.23307E-02-4.62364E-01-7.70050E-03 2.17585E+00 4.16767E+00
 -1       521-7.43883E+00 6.77304E-01-5.09830E-01-6.10275E+00 2.21773E+00 4.25697E+00
 -1       522 1.21468E-01 8.60789E-02 2.60763E-02-9.06101E-03 7.07631E+00 1.34096E+01
 -1       523-8.34468E+00-1.27786E+00-2.14359E+00-4.81339E+00 6.95992E+00 1.31155E+01
 -1       524 9.80683E-02 1.21420E-01 2.65231E-02-6.95627E-03 6.90500E+00 4.06927E+00
 -1       525-3.66461E+00 6.27072E-01-3.65201E-01-4.00251E+00 6.83488E+00 4.28509E+00
 -1       526-7.63872E+01-7.82864E+00-6.34932E-01-2.34572E-01 4.59482E-01 8.82635E-02
 -1       527 2.68922E-03 3.28841E-04-4.99996E-01 1.91472E-05 4.59622E-01 8.82800E-02
 -1       528 2.67406E-03 3.29180E-04-4.99997E-01 3.66812E-05 4.58362E-01 2.13480E-01
 -1       529-7.61971E+01-7.81140E+00-6.35094E-01-6.27040E-01 4.58221E-01 2.13446E-01
 -1       530 2.62777E-03 3.29989E-04-4.99998E-01 7.12898E-05 4.54563E-01 4.27034E-01
 -1       531-7.56266E+01-7.75955E+00-6.35584E-01-1.25144E+00 4.54419E-01 4.26964E-01
 -1       532 2.54785E-03 3.30604E-04-5.00000E-01 1.01499E-04 4.48172E-01 6.40740E-01
 -1       533-7.46760E+01-7.67275E+00-6.36416E-01-1.87059E+00 4.48022E-01 6.40631E-01
 -1       534 2.43004E-03 3.29772E-04-5.00003E-01 1.24444E-04 4.39089E-01 8.54696E-01
 -1       535-7.33456E+01-7.55038E+00-6.37615E-01-2.48193E+00 4.38932E-01 8.54539E-01
 -1       536 2.26808E-03 3.25399E-04-5.00007E-01 1.36371E-04 4.27173E-01 1.06902E+00
 -1       537-7.16359E+01-7.39157E+00-6.39213E-01-3.08301E+00 4.27004E-01 1.06881E+00
 -1       538 2.05350E-03 3.14123E-04-5.00012E-01 1.32180E-04 4.12222E-01 1.28390E+00
 -1       539-6.95474E+01-7.19513E+00-6.41247E-01-3.67155E+00 4.12038E-01 1.28360E+00
 -1       540 1.77539E-03 2.90630E-04-5.00019E-01 1.04811E-04 3.93970E-01 1.49957E+00
 -1       541-6.70805E+01-6.95955E+00-6.43754E-01-4.24548E+00 3.93764E-01 1.49915E+00
 -1       542 1.42021E-03 2.46527E-04-5.00027E-01 4.44089E-05 3.72074E-01 1.71644E+00
 -1       543-6.42356E+01-6.68289E+00-6.46743E-01-4.80313E+00 3.71840E-01 1.71582E+00
 -1       544 9.71605E-04 1.68510E-04-5.00035E-01-6.28148E-05 3.46118E-01 1.93514E+00
 -1       545-6.10125E+01-6.36274E+00-6.50163E-01-5.34334E+00 3.45849E-01 1.93420E+00
 -1       546 4.10195E-04 3.52357E-05-5.00043E-01-2.36109E-04 3.15653E-01 2.15663E+00
 -1       547-5.74099E+01-5.99614E+00-6.53811E-01-5.86559E+00 3.15340E-01 2.15517E+00
 -1       548-2.86289E-04-1.88069E-04-5.00045E-01-5.02229E-04 2.80329E-01 2.38245E+00
 -1       549-5.34243E+01-5.57950E+00-6.57230E-01-6.37012E+00 2.79969E-01 2.38013E+00
 -1       550-1.13542E-03-5.58396E-04-5.00036E-01-8.98131E-04 2.40277E-01 2.61481E+00
 -1       551-4.90483E+01-5.10857E+00-6.59447E-01-6.85752E+00 2.39883E-01 2.61112E+00
 -1       552-2.09354E-03-1.16489E-03-5.00032E-01-1.47416E-03 1.97080E-01 2.85655E+00
 -1       553-4.42684E+01-4.57873E+00-6.59130E-01-7.32721E+00 1.96694E-01 2.85084E+00
 -1       554-2.77771E-03-2.11759E-03-5.00185E-01-2.29544E-03 1.56124E-01 3.11044E+00
 -1       555-3.90638E+01-3.98534E+00-6.53950E-01-7.77277E+00 1.55867E-01 3.10197E+00
 -1       556-1.42575E-03-3.41720E-03-5.01159E-01-3.42923E-03 1.32201E-01 3.37675E+00
 -1       557-3.34094E+01-3.32646E+00-6.45844E-01-8.16980E+00 1.32278E-01 3.36489E+00
 -1       558 8.01618E-03-4.41631E-03-5.04943E-01-4.87193E-03 1.62581E-01 3.64796E+00
 -1       559-2.72919E+01-2.60077E+00-6.33793E-01-8.44701E+00 1.63356E-01 3.63197E+00
 -1       560 4.06342E-02-2.39373E-03-5.14923E-01-6.28591E-03 3.36394E-01 3.90100E+00
 -1       561-2.07590E+01-1.81918E+00-6.67502E-01-8.41979E+00 3.38004E-01 3.87809E+00
 -1       562 1.12427E-01 8.68564E-03-5.26118E-01-6.42639E-03 8.70450E-01 4.09861E+00
 -1       563-1.39686E+01-9.15526E-01-6.89540E-01-7.66221E+00 8.69809E-01 4.05940E+00
 -1       564 1.32670E-01 2.59911E-02-4.66326E-01-4.05130E-03 2.19417E+00 4.20642E+00
 -1       565-7.15239E+00 2.22739E-01-1.01858E+00-5.12628E+00 2.19968E+00 4.24055E+00
 -1       566 1.06960E-01 1.69119E-01 4.06961E-02-2.11345E-03 5.52352E+00 4.22076E+00
 -1       567-3.59615E+00 1.68322E+00-2.54991E-01-3.21952E+00 5.51483E+00 4.34008E+00
 -1       568-7.53605E+01-1.13312E+01-6.63316E-01-1.73243E-01 3.57532E-01 9.70233E-02
 -1       569 4.73488E-04 3.07587E-04-5.00003E-01-2.56085E-05 3.57655E-01 9.70577E-02
 -1       570 4.54199E-04 3.02940E-04-5.00003E-01-5.28646E-05 3.56559E-01 2.20513E-01
 -1       571-7.51722E+01-1.13051E+01-6.63482E-01-4.62376E-01 3.56436E-01 2.20443E-01
 -1       572 3.96058E-04 2.88424E-04-5.00004E-01-1.10544E-04 3.53265E-01 4.41192E-01
 -1       573-7.46072E+01-1.12269E+01-6.63981E-01-9.22777E-01 3.53141E-01 4.41047E-01
 -1       574 2.98298E-04 2.62249E-04-5.00005E-01-1.78109E-04 3.47748E-01 6.62213E-01
 -1       575-7.36656E+01-1.10961E+01-6.64815E-01-1.37926E+00 3.47621E-01 6.61985E-01
 -1       576 1.59806E-04 2.21197E-04-5.00006E-01-2.61149E-04 3.39969E-01 8.83775E-01
 -1       577-7.23472E+01-1.09119E+01-6.65982E-01-1.82995E+00 3.39838E-01 8.83449E-01
 -1       578-2.05859E-05 1.60238E-04-5.00007E-01-3.66036E-04 3.29876E-01 1.10611E+00
 -1       579-7.06519E+01-1.06734E+01-6.67474E-01-2.27309E+00 3.29741E-01 1.10567E+00
 -1       580-2.43595E-04 7.19318E-05-5.00008E-01-5.00190E-04 3.17410E-01 1.32951E+00
 -1       581-6.85791E+01-1.03793E+01-6.69270E-01-2.70706E+00 3.17271E-01 1.32891E+00
 -1       582-5.08686E-04-5.44655E-05-5.00008E-01-6.72312E-04 3.02516E-01 1.55433E+00
 -1       583-6.61281E+01-1.00280E+01-6.71319E-01-3.13043E+00 3.02373E-01 1.55353E+00
 -1       584-8.12868E-04-2.34301E-04-5.00006E-01-8.92512E-04 2.85164E-01 1.78100E+00
 -1       585-6.32976E+01-9.61753E+00-6.73526E-01-3.54199E+00 2.85019E-01 1.77995E+00
 -1       586-1.14918E-03-4.89444E-04-5.00001E-01-1.17220E-03 2.65390E-01 2.01008E+00
 -1       587-6.00854E+01-9.14583E+00-6.75731E-01-3.94078E+00 2.65249E-01 2.00869E+00
 -1       588-1.50533E-03-8.51228E-04-4.99990E-01-1.52342E-03 2.43382E-01 2.24219E+00
 -1       589-5.64879E+01-8.61057E+00-6.77684E-01-4.32589E+00 2.43253E-01 2.24039E+00
 -1       590-1.86330E-03-1.36508E-03-4.99968E-01-1.95709E-03 2.19635E-01 2.47800E+00
 -1       591-5.25003E+01-8.00942E+00-6.79070E-01-4.69623E+00 2.19535E-01 2.47572E+00
 -1       592-2.19627E-03-2.09704E-03-4.99930E-01-2.47871E-03 1.95286E-01 2.71803E+00
 -1       593-4.81158E+01-7.34029E+00-6.79513E-01-5.04966E+00 1.95240E-01 2.71527E+00
 -1       594-2.42861E-03-3.13676E-03-4.99897E-01-3.07910E-03 1.72789E-01 2.96243E+00
 -1       595-4.33263E+01-6.60167E+00-6.79062E-01-5.38119E+00 1.72826E-01 2.95931E+00
 -1       596-2.19893E-03-4.56326E-03-5.00035E-01-3.71517E-03 1.57386E-01 3.21053E+00
 -1       597-3.81245E+01-5.79247E+00-6.77834E-01-5.67923E+00 1.57548E-01 3.20717E+00
 -1       598 1.00722E-04-6.24550E-03-5.01031E-01-4.27475E-03 1.60463E-01 3.46028E+00
 -1       599-3.25093E+01-4.91237E+00-6.80392E-01-5.91775E+00 1.60719E-01 3.45632E+00
 -1       600 1.01316E-02-7.13384E-03-5.04898E-01-4.53188E-03 2.06994E-01 3.70779E+00
 -1       601-2.64947E+01-3.95419E+00-6.85212E-01-6.03996E+00 2.07464E-01 3.70043E+00
 -1       602 4.22570E-02-3.61085E-03-5.15033E-01-4.16640E-03 3.54896E-01 3.94446E+00
 -1       603-2.01341E+01-2.90813E+00-7.28511E-01-5.92385E+00 3.55040E-01 3.92819E+00
 -1       604 1.12146E-01 1.15435E-02-5.26266E-01-3.12358E-03 7.30866E-01 4.15244E+00
 -1       605-1.35065E+01-1.66961E+00-7.06701E-01-5.28923E+00 7.33443E-01 4.11850E+00
 -1       606 1.32762E-01 3.47765E-02-4.64711E-01-1.80688E-03 1.68932E+00 4.25437E+00
 -1       607-6.83323E+00-1.73310E-01-9.53178E-01-3.53440E+00 1.68084E+00 4.27549E+00
 -1       608 1.07548E-01 1.77242E-01 4.34626E-02-1.17244E-03 3.88758E+00 4.25454E+00
 -1       609-3.34259E+00 1.59598E+00-1.73726E-01-2.28446E+00 3.90050E+00 4.34233E+00
 -1       610-7.46218E+01-1.39823E+01-6.80082E-01-1.27187E-01 2.77135E-01 1.03143E-01
 -1       611-1.01349E-03 2.09060E-05-4.99998E-01-7.08675E-05 2.77232E-01 1.03185E-01
 -1       612-1.02649E-03 9.05726E-06-4.99997E-01-1.42962E-04 2.76376E-01 2.26456E-01
 -1       613-7.44346E+01-1.39492E+01-6.80217E-01-3.39471E-01 2.76279E-01 2.26371E-01
 -1       614-1.06515E-03-2.72760E-05-4.99997E-01-2.90890E-04 2.73811E-01 4.53094E-01
 -1       615-7.38731E+01-1.38500E+01-6.80619E-01-6.77517E-01 2.73714E-01 4.52920E-01
 -1       616-1.12845E-03-9.05084E-05-4.99996E-01-4.48769E-04 2.69542E-01 6.80101E-01
 -1       617-7.29369E+01-1.36843E+01-6.81278E-01-1.01273E+00 2.69446E-01 6.79833E-01
 -1       618-1.21446E-03-1.84845E-04-4.99995E-01-6.21600E-04 2.63585E-01 9.07673E-01
 -1       619-7.16258E+01-1.34514E+01-6.82175E-01-1.34375E+00 2.63490E-01 9.07303E-01
 -1       620-1.32003E-03-3.16559E-04-4.99993E-01-8.14320E-04 2.55965E-01 1.13602E+00
 -1       621-6.99393E+01-1.31507E+01-6.83281E-01-1.66925E+00 2.55872E-01 1.13554E+00
 -1       622-1.44040E-03-4.94376E-04-4.99989E-01-1.03162E-03 2.46729E-01 1.36536E+00
 -1       623-6.78764E+01-1.27810E+01-6.84554E-01-1.98796E+00 2.46640E-01 1.36475E+00
 -1       624-1.56854E-03-7.29979E-04-4.99984E-01-1.27758E-03 2.35955E-01 1.59594E+00
 -1       625-6.54361E+01-1.23413E+01-6.85933E-01-2.29866E+00 2.35873E-01 1.59520E+00
 -1       626-1.69461E-03-1.03860E-03-4.99977E-01-1.55495E-03 2.23771E-01 1.82799E+00
 -1       627-6.26168E+01-1.18302E+01-6.87343E-01-2.60013E+00 2.23699E-01 1.82710E+00
 -1       628-1.80574E-03-1.43968E-03-4.99967E-01-1.86405E-03 2.10381E-01 2.06174E+00
 -1       629-5.94165E+01-1.12464E+01-6.88704E-01-2.89104E+00 2.10324E-01 2.06071E+00
 -1       630-1.88721E-03-1.95756E-03-4.99952E-01-2.20084E-03 1.96112E-01 2.29737E+00
 -1       631-5.58329E+01-1.05886E+01-6.89942E-01-3.16980E+00 1.96076E-01 2.29622E+00
 -1       632-1.92661E-03-2.62213E-03-4.99929E-01-2.55398E-03 1.81495E-01 2.53498E+00
 -1       633-5.18629E+01-9.85565E+00-6.91057E-01-3.43423E+00 1.81485E-01 2.53377E+00
 -1       634-1.91819E-03-3.46805E-03-4.99899E-01-2.90051E-03 1.67433E-01 2.77455E+00
 -1       635-4.75040E+01-9.04636E+00-6.92128E-01-3.68098E+00 1.67457E-01 2.77336E+00
 -1       636-1.83338E-03-4.52516E-03-4.99890E-01-3.20030E-03 1.55584E-01 3.01583E+00
 -1       637-4.27541E+01-8.15963E+00-6.93672E-01-3.90448E+00 1.55641E-01 3.01474E+00
 -1       638-1.39385E-03-5.76597E-03-5.00076E-01-3.39149E-03 1.49232E-01 3.25822E+00
 -1       639-3.76131E+01-7.19351E+00-6.96046E-01-4.09497E+00 1.49340E-01 3.25718E+00
 -1       640 8.96496E-04-6.89380E-03-5.01157E-01-3.39544E-03 1.55493E-01 3.50037E+00
 -1       641-3.20867E+01-6.14505E+00-7.02851E-01-4.23420E+00 1.55588E-01 3.49861E+00
 -1       642 1.06322E-02-6.68085E-03-5.05145E-01-3.14964E-03 1.90366E-01 3.73901E+00
 -1       643-2.61918E+01-5.00463E+00-7.11123E-01-4.28571E+00 1.90720E-01 3.73372E+00
 -1       644 4.24633E-02-1.52789E-03-5.15339E-01-2.68513E-03 2.91959E-01 3.96635E+00
 -1       645-1.99732E+01-3.76376E+00-7.49431E-01-4.16951E+00 2.91478E-01 3.95069E+00
 -1       646 1.12947E-01 1.50589E-02-5.26360E-01-2.08962E-03 5.52327E-01 4.16339E+00
 -1       647-1.35094E+01-2.35623E+00-7.37345E-01-3.70849E+00 5.55334E-01 4.13628E+00
 -1       648 1.33738E-01 3.82901E-02-4.64776E-01-1.22718E-03 1.18814E+00 4.29910E+00
 -1       649-6.85190E+00-7.09661E-01-8.81623E-01-2.45633E+00 1.17825E+00 4.31525E+00
 -1       650 1.08124E-01 1.83000E-01 4.51495E-02-6.81036E-04 2.70865E+00 4.35433E+00
 -1       651-3.40432E+00 7.00600E-01-3.57407E-01-1.56053E+00 2.72400E+00 4.41769E+00
 -1       652-7.41007E+01-1.59766E+01-6.92976E-01-9.21497E-02 2.12209E-01 1.07729E-01
 -1       653-1.82309E-03-4.78506E-04-4.99987E-01-9.68614E-05 2.12279E-01 1.07767E-01
 -1       654-1.82697E-03-4.96363E-04-4.99986E-01-1.94212E-04 2.11661E-01 2.30872E-01
 -1       655-7.39143E+01-1.59383E+01-6.93070E-01-2.45928E-01 2.11591E-01 2.30797E-01
 -1       656-1.83815E-03-5.50610E-04-4.99985E-01-3.91418E-04 2.09813E-01 4.61892E-01
 -1       657-7.33551E+01-1.58235E+01-6.93347E-01-4.90797E-01 2.09744E-01 4.61742E-01
 -1       658-1.85509E-03-6.43293E-04-4.99984E-01-5.94415E-04 2.06754E-01 6.93208E-01
 -1       659-7.24228E+01-1.56317E+01-6.93800E-01-7.33549E-01 2.06687E-01 6.92982E-01
 -1       660-1.87521E-03-7.77858E-04-4.99982E-01-8.05581E-04 2.02516E-01 9.24967E-01
 -1       661-7.11171E+01-1.53628E+01-6.94412E-01-9.73123E-01 2.02452E-01 9.24664E-01
 -1       662-1.89478E-03-9.59187E-04-4.99979E-01-1.02659E-03 1.97150E-01 1.15731E+00
 -1       663-6.94374E+01-1.50160E+01-6.95164E-01-1.20845E+00 1.97090E-01 1.15693E+00
 -1       664-1.90882E-03-1.19361E-03-4.99975E-01-1.25800E-03 1.90725E-01 1.39038E+00
 -1       665-6.73831E+01-1.45908E+01-6.96033E-01-1.43843E+00 1.90670E-01 1.38993E+00
 -1       666-1.91112E-03-1.48883E-03-4.99970E-01-1.49877E-03 1.83335E-01 1.62430E+00
 -1       667-6.49533E+01-1.40863E+01-6.96995E-01-1.66192E+00 1.83286E-01 1.62379E+00
 -1       668-1.89447E-03-1.85368E-03-4.99964E-01-1.74553E-03 1.75106E-01 1.85919E+00
 -1       669-6.21471E+01-1.35018E+01-6.98037E-01-1.87765E+00 1.75066E-01 1.85861E+00
 -1       670-1.85158E-03-2.29764E-03-4.99957E-01-1.99170E-03 1.66204E-01 2.09512E+00
 -1       671-5.89632E+01-1.28363E+01-6.99160E-01-2.08419E+00 1.66174E-01 2.09451E+00
 -1       672-1.77765E-03-2.82997E-03-4.99949E-01-2.22646E-03 1.56858E-01 2.33216E+00
 -1       673-5.54007E+01-1.20888E+01-7.00397E-01-2.27983E+00 1.56840E-01 2.33152E+00
 -1       674-1.67584E-03-3.45855E-03-4.99938E-01-2.43377E-03 1.47397E-01 2.57029E+00
 -1       675-5.14584E+01-1.12583E+01-7.01842E-01-2.46240E+00 1.47391E-01 2.56967E+00
 -1       676-1.56189E-03-4.18773E-03-4.99925E-01-2.59197E-03 1.38354E-01 2.80945E+00
 -1       677-4.71357E+01-1.03436E+01-7.03610E-01-2.62904E+00 1.38362E-01 2.80888E+00
 -1       678-1.43123E-03-5.00997E-03-4.99938E-01-2.67511E-03 1.30714E-01 3.04942E+00
 -1       679-4.24329E+01-9.34284E+00-7.06073E-01-2.77564E+00 1.30731E-01 3.04891E+00
 -1       680-1.01976E-03-5.86318E-03-5.00147E-01-2.65781E-03 1.26494E-01 3.28971E+00
 -1       681-3.73516E+01-8.25352E+00-7.09259E-01-2.89575E+00 1.26536E-01 3.28915E+00
 -1       682 1.19250E-03-6.44688E-03-5.01233E-01-2.52485E-03 1.30277E-01 3.52929E+00
 -1       683-3.18974E+01-7.07245E+00-7.15734E-01-2.97778E+00 1.30275E-01 3.52786E+00
 -1       684 1.09030E-02-5.60962E-03-5.05180E-01-2.27956E-03 1.52505E-01 3.76594E+00
 -1       685-2.60842E+01-5.79249E+00-7.22466E-01-2.99802E+00 1.52683E-01 3.76088E+00
 -1       686 4.28679E-02 6.23170E-05-5.15304E-01-1.92090E-03 2.19635E-01 3.99538E+00
 -1       687-1.99475E+01-4.41077E+00-7.53260E-01-2.90418E+00 2.19130E-01 3.97954E+00
 -1       688 1.13283E-01 1.70162E-02-5.26400E-01-1.41307E-03 3.89795E-01 4.20689E+00
 -1       689-1.35355E+01-2.87485E+00-7.34146E-01-2.56983E+00 3.91422E-01 4.17692E+00
 -1       690 1.33894E-01 4.12259E-02-4.64656E-01-7.91068E-04 8.27001E-01 4.37841E+00
 -1       691-6.89298E+00-1.15487E+00-8.51181E-01-1.69965E+00 8.20926E-01 4.39365E+00
 -1       692 1.08258E-01 1.86222E-01 4.60904E-02-4.68547E-04 1.86219E+00 4.45037E+00
 -1       693-3.45375E+00 1.82003E-01-4.55427E-01-1.08402E+00 1.87276E+00 4.51702E+00
 -1       694-7.37405E+01-1.74521E+01-7.02261E-01-6.52147E-02 1.58696E-01 1.11009E-01
 -1       695-2.15061E-03-1.06583E-03-4.99977E-01-9.98735E-05 1.58744E-01 1.11037E-01
 -1       696-2.14725E-03-1.08660E-03-4.99976E-01-1.99586E-04 1.58318E-01 2.33951E-01
 -1       697-7.35547E+01-1.74101E+01-7.02330E-01-1.74017E-01 1.58270E-01 2.33895E-01
 -1       698-2.13683E-03-1.14925E-03-4.99976E-01-3.99859E-04 1.57046E-01 4.68010E-01
 -1       699-7.29975E+01-1.72839E+01-7.02533E-01-3.47213E-01 1.56999E-01 4.67898E-01
 -1       700-2.11830E-03-1.25487E-03-4.99975E-01-6.01260E-04 1.54945E-01 7.02281E-01
 -1       701-7.20686E+01-1.70734E+01-7.02869E-01-5.18757E-01 1.54899E-01 7.02114E-01
 -1       702-2.08997E-03-1.40514E-03-4.99973E-01-8.03718E-04 1.52042E-01 9.36867E-01
 -1       703-7.07678E+01-1.67783E+01-7.03333E-01-6.87799E-01 1.51998E-01 9.36648E-01
 -1       704-2.04956E-03-1.60229E-03-4.99971E-01-1.00637E-03 1.48377E-01 1.17186E+00
 -1       705-6.90947E+01-1.63982E+01-7.03921E-01-8.53457E-01 1.48337E-01 1.17160E+00
 -1       706-1.99435E-03-1.84884E-03-4.99969E-01-1.20727E-03 1.44004E-01 1.40736E+00
 -1       707-6.70490E+01-1.59326E+01-7.04632E-01-1.01480E+00 1.43968E-01 1.40705E+00
 -1       708-1.92144E-03-2.14729E-03-4.99966E-01-1.40304E-03 1.38988E-01 1.64343E+00
 -1       709-6.46301E+01-1.53809E+01-7.05469E-01-1.17082E+00 1.38956E-01 1.64308E+00
 -1       710-1.82816E-03-2.49962E-03-4.99964E-01-1.58860E-03 1.33409E-01 1.88015E+00
 -1       711-6.18377E+01-1.47424E+01-7.06447E-01-1.32043E+00 1.33382E-01 1.87977E+00
 -1       712-1.71317E-03-2.90662E-03-4.99962E-01-1.75691E-03 1.27368E-01 2.11756E+00
 -1       713-5.86712E+01-1.40163E+01-7.07591E-01-1.46240E+00 1.27346E-01 2.11716E+00
 -1       714-1.57868E-03-3.36722E-03-4.99959E-01-1.89894E-03 1.20992E-01 2.35568E+00
 -1       715-5.51303E+01-1.32016E+01-7.08939E-01-1.59533E+00 1.20975E-01 2.35528E+00
 -1       716-1.43501E-03-3.87823E-03-4.99955E-01-2.00407E-03 1.14465E-01 2.59452E+00
 -1       717-5.12147E+01-1.22972E+01-7.10556E-01-1.71761E+00 1.14453E-01 2.59413E+00
 -1       718-1.30296E-03-4.43467E-03-4.99947E-01-2.06103E-03 1.08087E-01 2.83402E+00
 -1       719-4.69246E+01-1.13016E+01-7.12481E-01-1.82722E+00 1.08081E-01 2.83366E+00
 -1       720-1.17731E-03-5.02631E-03-4.99961E-01-2.05958E-03 1.02443E-01 3.07404E+00
 -1       721-4.22607E+01-1.02132E+01-7.14926E-01-1.92154E+00 1.02437E-01 3.07372E+00
 -1       722-7.83684E-04-5.60202E-03-5.00162E-01-1.99223E-03 9.87881E-02 3.31431E+00
 -1       723-3.72245E+01-9.02951E+00-7.17776E-01-1.99648E+00 9.87938E-02 3.31388E+00
 -1       724 1.41502E-03-5.89012E-03-5.01234E-01-1.85415E-03 1.00097E-01 3.55426E+00
 -1       725-3.18206E+01-7.74817E+00-7.23194E-01-2.04464E+00 1.00063E-01 3.55284E+00
 -1       726 1.11141E-02-4.76878E-03-5.05176E-01-1.63823E-03 1.13424E-01 3.79259E+00
 -1       727-2.60605E+01-6.36414E+00-7.28780E-01-2.05060E+00 1.13502E-01 3.78727E+00
 -1       728 4.30121E-02 1.20703E-03-5.15337E-01-1.33910E-03 1.56179E-01 4.02633E+00
 -1       729-1.99736E+01-4.87725E+00-7.55516E-01-1.97874E+00 1.55821E-01 4.00997E+00
 -1       730 1.13481E-01 1.86118E-02-5.26417E-01-9.82461E-04 2.70774E-01 4.24771E+00
 -1       731-1.36029E+01-3.24911E+00-7.41009E-01-1.74685E+00 2.71914E-01 4.21677E+00
 -1       732 1.34170E-01 4.29672E-02-4.64592E-01-5.53464E-04 5.62476E-01 4.43849E+00
 -1       733-6.94844E+00-1.44485E+00-8.30027E-01-1.15269E+00 5.58329E-01 4.45403E+00
 -1       734 1.08473E-01 1.88502E-01 4.67868E-02-3.10515E-04 1.26330E+00 4.52472E+00
 -1       735-3.50103E+00-1.94531E-01-5.30822E-01-7.32544E-01 1.27078E+00 4.59332E+00
 -1       736-7.35001E+01-1.85094E+01-7.08894E-01-4.41445E-02 1.13107E-01 1.13295E-01
 -1       737-2.20298E-03-1.61998E-03-4.99970E-01-8.53681E-05 1.13139E-01 1.13316E-01
 -1       738-2.19537E-03-1.64085E-03-4.99970E-01-1.70240E-04 1.12856E-01 2.36024E-01
 -1       739-7.33149E+01-1.84647E+01-7.08954E-01-1.17777E-01 1.12824E-01 2.35982E-01
 -1       740-2.17241E-03-1.70347E-03-4.99970E-01-3.39715E-04 1.12013E-01 4.72126E-01
 -1       741-7.27595E+01-1.83305E+01-7.09132E-01-2.34928E-01 1.11981E-01 4.72043E-01
 -1       742-2.13373E-03-1.80793E-03-4.99969E-01-5.07476E-04 1.10618E-01 7.08384E-01
 -1       743-7.18337E+01-1.81066E+01-7.09430E-01-3.50817E-01 1.10588E-01 7.08262E-01
 -1       744-2.07879E-03-1.95430E-03-4.99969E-01-6.72203E-04 1.08691E-01 9.44872E-01
 -1       745-7.05373E+01-1.77929E+01-7.09850E-01-4.64790E-01 1.08662E-01 9.44712E-01
 -1       746-2.00699E-03-2.14245E-03-4.99968E-01-8.32041E-04 1.06256E-01 1.18166E+00
 -1       747-6.88703E+01-1.73890E+01-7.10395E-01-5.76164E-01 1.06229E-01 1.18147E+00
 -1       748-1.91775E-03-2.37189E-03-4.99968E-01-9.84450E-04 1.03344E-01 1.41882E+00
 -1       749-6.68324E+01-1.68943E+01-7.11073E-01-6.84220E-01 1.03319E-01 1.41859E+00
 -1       750-1.81081E-03-2.64146E-03-4.99967E-01-1.12610E-03 9.99930E-02 1.65639E+00
 -1       751-6.44235E+01-1.63085E+01-7.11893E-01-7.88192E-01 9.99702E-02 1.65614E+00
 -1       752-1.68648E-03-2.94903E-03-4.99967E-01-1.25284E-03 9.62477E-02 1.89445E+00
 -1       753-6.16433E+01-1.56306E+01-7.12868E-01-8.87256E-01 9.62274E-02 1.89417E+00
 -1       754-1.54639E-03-3.29121E-03-4.99968E-01-1.35980E-03 9.21616E-02 2.13302E+00
 -1       755-5.84917E+01-1.48601E+01-7.14019E-01-9.80524E-01 9.21438E-02 2.13273E+00
 -1       756-1.39531E-03-3.66331E-03-4.99967E-01-1.44159E-03 8.78023E-02 2.37213E+00
 -1       757-5.49686E+01-1.39958E+01-7.15363E-01-1.06703E+00 8.77869E-02 2.37183E+00
 -1       758-1.24497E-03-4.06014E-03-4.99964E-01-1.49269E-03 8.32680E-02 2.61179E+00
 -1       759-5.10742E+01-1.30368E+01-7.16928E-01-1.14569E+00 8.32546E-02 2.61149E+00
 -1       760-1.11586E-03-4.47758E-03-4.99956E-01-1.50795E-03 7.87292E-02 2.85200E+00
 -1       761-4.68086E+01-1.19815E+01-7.18714E-01-1.21527E+00 7.87178E-02 2.85171E+00
 -1       762-1.00093E-03-4.90982E-03-4.99968E-01-1.48278E-03 7.45397E-02 3.09269E+00
 -1       763-4.21725E+01-1.08285E+01-7.20869E-01-1.27413E+00 7.45270E-02 3.09240E+00
 -1       764-6.24879E-04-5.31234E-03-5.00167E-01-1.41314E-03 7.14992E-02 3.33372E+00
 -1       765-3.71671E+01-9.57577E+00-7.23272E-01-1.31978E+00 7.14924E-02 3.33326E+00
 -1       766 1.54618E-03-5.41579E-03-5.01240E-01-1.29508E-03 7.15567E-02 3.57471E+00
 -1       767-3.17963E+01-8.22140E+00-7.27927E-01-1.34763E+00 7.15263E-02 3.57321E+00
 -1       768 1.12056E-02-4.09141E-03-5.05189E-01-1.12774E-03 7.92985E-02 3.81470E+00
 -1       769-2.60695E+01-6.76176E+00-7.32751E-01-1.34783E+00 7.93457E-02 3.80923E+00
 -1       770 4.31127E-02 2.11007E-03-5.15343E-01-9.18255E-04 1.06519E-01 4.05148E+00
 -1       771-2.00129E+01-5.19916E+00-7.57242E-01-1.29794E+00 1.06287E-01 4.03504E+00
 -1       772 1.13615E-01 1.96522E-02-5.26437E-01-6.65083E-04 1.79610E-01 4.27901E+00
 -1       773-1.36581E+01-3.50093E+00-7.41935E-01-1.14364E+00 1.80370E-01 4.24813E+00
 -1       774 1.34268E-01 4.42561E-02-4.64559E-01-3.69553E-04 3.69739E-01 4.48524E+00
 -1       775-6.98816E+00-1.64677E+00-8.13468E-01-7.53888E-01 3.66945E-01 4.50105E+00
 -1       776 1.08541E-01 1.89978E-01 4.72152E-02-2.13500E-04 8.25441E-01 4.58171E+00
 -1       777-3.53375E+00-4.45008E-01-5.80015E-01-4.79351E-01 8.30582E-01 4.65078E+00
 -1       778-7.33494E+01-1.92187E+01-7.13380E-01-2.72102E-02 7.27648E-02 1.14813E-01
 -1       779-2.14039E-03-2.05742E-03-4.99967E-01-6.06411E-05 7.27844E-02 1.14830E-01
 -1       780-2.13082E-03-2.07695E-03-4.99967E-01-1.20774E-04 7.26114E-02 2.37356E-01
 -1       781-7.31647E+01-1.91721E+01-7.13438E-01-7.25899E-02 7.25918E-02 2.37323E-01
 -1       782-2.10216E-03-2.13536E-03-4.99967E-01-2.40404E-04 7.20941E-02 4.74774E-01
 -1       783-7.26108E+01-1.90325E+01-7.13613E-01-1.44752E-01 7.20749E-02 4.74708E-01
 -1       784-2.05455E-03-2.23210E-03-4.99967E-01-3.57648E-04 7.12386E-02 7.12316E-01
 -1       785-7.16874E+01-1.87997E+01-7.13906E-01-2.16052E-01 7.12200E-02 7.12219E-01
 -1       786-1.98824E-03-2.36617E-03-4.99967E-01-4.71073E-04 7.00544E-02 9.50043E-01
 -1       787-7.03947E+01-1.84733E+01-7.14321E-01-2.86045E-01 7.00364E-02 9.49916E-01
 -1       788-1.90369E-03-2.53606E-03-4.99967E-01-5.78982E-04 6.85545E-02 1.18801E+00
 -1       789-6.87325E+01-1.80531E+01-7.14861E-01-3.54270E-01 6.85375E-02 1.18786E+00
 -1       790-1.80164E-03-2.73963E-03-4.99968E-01-6.79371E-04 6.67554E-02 1.42628E+00
 -1       791-6.67007E+01-1.75387E+01-7.15533E-01-4.20247E-01 6.67394E-02 1.42609E+00
 -1       792-1.68318E-03-2.97397E-03-4.99969E-01-7.69918E-04 6.46765E-02 1.66489E+00
 -1       793-6.42993E+01-1.69294E+01-7.16343E-01-4.83470E-01 6.46616E-02 1.66468E+00
 -1       794-1.54995E-03-3.23532E-03-4.99970E-01-8.48023E-04 6.23402E-02 1.90389E+00
 -1       795-6.15282E+01-1.62246E+01-7.17299E-01-5.43409E-01 6.23265E-02 1.90367E+00
 -1       796-1.40467E-03-3.51903E-03-4.99971E-01-9.10899E-04 5.97732E-02 2.14333E+00
 -1       797-5.83875E+01-1.54235E+01-7.18410E-01-5.99508E-01 5.97606E-02 2.14308E+00
 -1       798-1.25283E-03-3.81987E-03-4.99972E-01-9.55691E-04 5.70096E-02 2.38323E+00
 -1       799-5.48772E+01-1.45252E+01-7.19679E-01-6.51177E-01 5.69981E-02 2.38297E+00
 -1       800-1.10642E-03-4.13305E-03-4.99968E-01-9.79617E-04 5.41015E-02 2.62362E+00
 -1       801-5.09973E+01-1.35287E+01-7.21118E-01-6.97786E-01 5.40907E-02 2.62336E+00
 -1       802-9.85964E-04-4.45567E-03-4.99960E-01-9.80051E-04 5.11449E-02 2.86451E+00
 -1       803-4.67481E+01-1.24326E+01-7.22710E-01-7.38617E-01 5.11351E-02 2.86425E+00
 -1       804-8.84668E-04-4.78347E-03-4.99971E-01-9.54593E-04 4.83486E-02 3.10588E+00
 -1       805-4.21300E+01-1.12356E+01-7.24579E-01-7.72753E-01 4.83381E-02 3.10560E+00
 -1       806-5.27172E-04-5.07279E-03-5.00170E-01-9.01287E-04 4.61935E-02 3.34761E+00
 -1       807-3.71441E+01-9.93600E+00-7.26604E-01-7.98783E-01 4.61870E-02 3.34715E+00
 -1       808 1.62302E-03-5.05618E-03-5.01243E-01-8.19518E-04 4.58475E-02 3.58945E+00
 -1       809-3.17934E+01-8.53239E+00-7.30656E-01-8.14040E-01 4.58271E-02 3.58794E+00
 -1       810 1.12743E-02-3.61000E-03-5.05188E-01-7.10232E-04 5.01034E-02 3.83066E+00
 -1       811-2.60864E+01-7.02221E+00-7.34903E-01-8.12783E-01 5.01311E-02 3.82519E+00
 -1       812 4.31769E-02 2.69183E-03-5.15350E-01-5.73023E-04 6.58360E-02 4.06954E+00
 -1       813-2.00461E+01-5.40908E+00-7.57379E-01-7.81430E-01 6.56887E-02 4.05311E+00
 -1       814 1.13696E-01 2.03762E-02-5.26446E-01-4.13945E-04 1.09441E-01 4.30173E+00
 -1       815-1.37005E+01-3.66671E+00-7.42875E-01-6.87745E-01 1.09892E-01 4.27063E+00
 -1       816 1.34365E-01 4.50597E-02-4.64534E-01-2.30140E-04 2.22884E-01 4.51737E+00
 -1       817-7.01846E+00-1.77648E+00-8.03425E-01-4.52963E-01 2.21202E-01 4.53333E+00
 -1       818 1.08620E-01 1.90964E-01 4.75121E-02-1.29557E-04 4.96134E-01 4.62007E+00
 -1       819-3.55752E+00-6.07771E-01-6.12666E-01-2.87723E-01 4.99307E-01 4.68989E+00
 -1       820-7.32673E+01-1.96265E+01-7.15998E-01-1.29469E-02 3.56224E-02 1.15687E-01
 -1       821-2.06622E-03-2.33268E-03-4.99965E-01-3.11561E-05 3.56317E-02 1.15702E-01
 -1       822-2.05597E-03-2.35084E-03-4.99966E-01-6.20089E-05 3.55492E-02 2.38105E-01
 -1       823-7.30830E+01-1.95789E+01-7.16057E-01-3.45373E-02 3.55399E-02 2.38076E-01
 -1       824-2.02532E-03-2.40503E-03-4.99966E-01-1.23264E-04 3.53025E-02 4.76264E-01
 -1       825-7.25300E+01-1.94361E+01-7.16232E-01-6.88571E-02 3.52933E-02 4.76207E-01
 -1       826-1.97468E-03-2.49437E-03-4.99966E-01-1.82975E-04 3.48941E-02 7.14533E-01
 -1       827-7.16082E+01-1.91980E+01-7.16527E-01-1.02740E-01 3.48851E-02 7.14449E-01
 -1       828-1.90469E-03-2.61740E-03-4.99967E-01-2.40282E-04 3.43280E-02 9.52965E-01
 -1       829-7.03178E+01-1.88643E+01-7.16942E-01-1.35960E-01 3.43194E-02 9.52854E-01
 -1       830-1.81634E-03-2.77198E-03-4.99968E-01-2.94231E-04 3.36099E-02 1.19161E+00
 -1       831-6.86586E+01-1.84346E+01-7.17481E-01-1.68287E-01 3.36016E-02 1.19147E+00
 -1       832-1.71090E-03-2.95533E-03-4.99969E-01-3.43770E-04 3.27466E-02 1.43052E+00
 -1       833-6.66306E+01-1.79085E+01-7.18147E-01-1.99482E-01 3.27387E-02 1.43036E+00
 -1       834-1.59005E-03-3.16392E-03-4.99970E-01-3.87752E-04 3.17461E-02 1.66974E+00
 -1       835-6.42339E+01-1.72856E+01-7.18943E-01-2.29297E-01 3.17387E-02 1.66956E+00
 -1       836-1.45592E-03-3.39352E-03-4.99972E-01-4.24957E-04 3.06177E-02 1.90932E+00
 -1       837-6.14684E+01-1.65650E+01-7.19871E-01-2.57476E-01 3.06108E-02 1.90911E+00
 -1       838-1.31165E-03-3.63925E-03-4.99973E-01-4.54128E-04 2.93725E-02 2.14929E+00
 -1       839-5.83342E+01-1.57461E+01-7.20935E-01-2.83754E-01 2.93660E-02 2.14907E+00
 -1       840-1.16300E-03-3.89591E-03-4.99974E-01-4.74003E-04 2.80250E-02 2.38970E+00
 -1       841-5.48312E+01-1.48279E+01-7.22133E-01-3.07855E-01 2.80190E-02 2.38946E+00
 -1       842-1.02213E-03-4.15899E-03-4.99970E-01-4.83361E-04 2.65984E-02 2.63056E+00
 -1       843-5.09597E+01-1.38095E+01-7.23468E-01-3.29491E-01 2.65927E-02 2.63031E+00
 -1       844-9.09628E-04-4.42611E-03-4.99961E-01-4.81086E-04 2.51368E-02 2.87191E+00
 -1       845-4.67198E+01-1.26897E+01-7.24915E-01-3.48338E-01 2.51315E-02 2.87165E+00
 -1       846-8.18375E-04-4.69373E-03-4.99973E-01-4.66286E-04 2.37371E-02 3.11372E+00
 -1       847-4.21118E+01-1.14673E+01-7.26586E-01-3.63985E-01 2.37315E-02 3.11345E+00
 -1       848-4.72113E-04-4.91979E-03-5.00171E-01-4.38446E-04 2.26233E-02 3.35593E+00
 -1       849-3.71364E+01-1.01406E+01-7.28360E-01-3.75793E-01 2.26195E-02 3.35547E+00
 -1       850 1.66860E-03-4.83888E-03-5.01242E-01-3.97251E-04 2.23439E-02 3.59831E+00
 -1       851-3.17965E+01-8.70878E+00-7.32054E-01-3.82543E-01 2.23333E-02 3.59680E+00
 -1       852 1.13083E-02-3.33266E-03-5.05190E-01-3.42473E-04 2.41860E-02 3.84029E+00
 -1       853-2.60998E+01-7.16970E+00-7.35936E-01-3.81538E-01 2.41976E-02 3.83480E+00
 -1       854 4.32088E-02 3.04186E-03-5.15353E-01-2.75945E-04 3.14591E-02 4.08049E+00
 -1       855-2.00682E+01-5.52806E+00-7.57576E-01-3.66515E-01 3.13893E-02 4.06403E+00
 -1       856 1.13742E-01 2.07751E-02-5.26452E-01-1.98534E-04 5.16674E-02 4.31511E+00
 -1       857-1.37263E+01-3.75969E+00-7.43255E-01-3.22337E-01 5.18860E-02 4.28399E+00
 -1       858 1.34405E-01 4.55307E-02-4.64522E-01-1.09870E-04 1.04723E-01 4.53617E+00
 -1       859-7.03607E+00-1.84959E+00-7.97525E-01-2.12199E-01 1.03918E-01 4.55226E+00
 -1       860 1.08648E-01 1.91505E-01 4.76704E-02-6.28978E-05 2.32434E-01 4.64253E+00
 -1       861-3.57093E+00-6.98637E-01-6.30774E-01-1.34805E-01 2.33960E-01 4.71262E+00
 -1       862-7.32414E+01-1.97595E+01-7.16860E-01-2.73065E-13-6.61731E-13 1.15974E-01
 -1       863-2.03579E-03-2.42615E-03-4.99965E-01 1.12152E-13-4.65409E-13 1.15987E-01
 -1       864-2.02538E-03-2.44375E-03-4.99965E-01 1.31498E-13-2.77533E-13 2.38347E-01
 -1       865-7.30572E+01-1.97116E+01-7.16919E-01-6.22547E-13-5.64104E-13 2.38320E-01
 -1       866-1.99431E-03-2.49626E-03-4.99966E-01 4.74581E-14-3.89737E-13 4.76747E-01
 -1       867-7.25045E+01-1.95678E+01-7.17095E-01-1.08998E-12-3.53096E-13 4.76692E-01
 -1       868-1.94304E-03-2.58270E-03-4.99966E-01-3.67796E-14-4.95610E-13 7.15252E-01
 -1       869-7.15833E+01-1.93279E+01-7.17390E-01-1.39797E-12-2.47345E-13 7.15171E-01
 -1       870-1.87235E-03-2.70147E-03-4.99967E-01-2.42133E-14-3.37607E-13 9.53913E-01
 -1       871-7.02936E+01-1.89917E+01-7.17805E-01-1.70411E-12-2.80861E-13 9.53806E-01
 -1       872-1.78333E-03-2.85030E-03-4.99968E-01 1.75420E-14-3.85082E-13 1.19278E+00
 -1       873-6.86354E+01-1.85589E+01-7.18343E-01-2.20306E-12-2.12846E-13 1.19265E+00
 -1       874-1.67743E-03-3.02624E-03-4.99969E-01 1.45873E-14-3.07037E-13 1.43190E+00
 -1       875-6.66088E+01-1.80291E+01-7.19005E-01-2.65196E-12-3.24302E-13 1.43175E+00
 -1       876-1.55646E-03-3.22562E-03-4.99970E-01 5.16479E-14-2.21212E-13 1.67133E+00
 -1       877-6.42136E+01-1.74016E+01-7.19794E-01-3.06349E-12-3.07089E-13 1.67115E+00
 -1       878-1.42270E-03-3.44413E-03-4.99972E-01-1.38344E-15-3.80002E-13 1.91110E+00
 -1       879-6.14500E+01-1.66758E+01-7.20711E-01-3.32916E-12-3.95859E-13 1.91090E+00
 -1       880-1.27939E-03-3.67685E-03-4.99974E-01 3.93383E-14-5.96258E-13 2.15125E+00
 -1       881-5.83179E+01-1.58510E+01-7.21756E-01-3.81868E-12-3.10545E-13 2.15103E+00
 -1       882-1.13238E-03-3.91862E-03-4.99974E-01-1.31666E-15-5.12814E-13 2.39182E+00
 -1       883-5.48174E+01-1.49263E+01-7.22926E-01-4.40971E-12-5.70635E-13 2.39159E+00
 -1       884-9.93875E-04-4.16500E-03-4.99971E-01 8.17393E-14-6.21809E-13 2.63285E+00
 -1       885-5.09486E+01-1.39008E+01-7.24221E-01-4.77979E-12-4.77307E-13 2.63260E+00
 -1       886-8.84374E-04-4.41380E-03-4.99962E-01 3.16743E-14-5.85494E-13 2.87435E+00
 -1       887-4.67116E+01-1.27732E+01-7.25615E-01-5.07516E-12-6.30142E-13 2.87410E+00
 -1       888-7.96514E-04-4.66197E-03-4.99973E-01-2.22001E-14-6.25892E-13 3.11632E+00
 -1       889-4.21068E+01-1.15424E+01-7.27217E-01-5.46952E-12-4.06559E-13 3.11605E+00
 -1       890-4.53541E-04-4.86802E-03-5.00171E-01 1.32897E-14-2.05808E-13 3.35869E+00
 -1       891-3.71348E+01-1.02070E+01-7.28908E-01-5.75962E-12-2.71523E-13 3.35823E+00
 -1       892 1.68223E-03-4.76758E-03-5.01243E-01-2.89109E-14-2.43311E-13 3.60127E+00
 -1       893-3.17983E+01-8.76593E+00-7.32483E-01-5.77112E-12-2.03818E-13 3.59976E+00
 -1       894 1.13199E-02-3.23740E-03-5.05190E-01-2.67633E-14 3.12068E-14 3.84351E+00
 -1       895-2.61048E+01-7.21749E+00-7.36291E-01-5.64915E-12 5.42361E-15 3.83802E+00
 -1       896 4.32210E-02 3.15068E-03-5.15354E-01 1.89128E-14 2.07933E-13 4.08410E+00
 -1       897-2.00757E+01-5.56643E+00-7.57582E-01-5.39047E-12 2.39016E-13 4.06765E+00
 -1       898 1.13757E-01 2.09114E-02-5.26454E-01 4.95146E-14 4.60173E-13 4.31956E+00
 -1       899-1.37350E+01-3.78986E+00-7.43367E-01-4.83305E-12 4.93865E-13 4.28841E+00
 -1       900 1.34424E-01 4.56767E-02-4.64517E-01 7.85886E-14 1.46289E-12 4.54235E+00
 -1       901-7.04202E+00-1.87313E+00-7.95669E-01-3.27142E-12 1.52971E-12 4.55846E+00
 -1       902 1.08664E-01 1.91687E-01 4.77256E-02 1.31925E-13 3.39668E-12 4.64984E+00
 -1       903-3.57548E+00-7.28033E-01-6.36700E-01-2.17543E-12 3.17689E-12 4.72005E+00
 -1       904-7.32673E+01-1.96265E+01-7.15998E-01 1.29469E-02-3.56224E-02 1.15687E-01
 -1       905-2.06622E-03-2.33268E-03-4.99965E-01 3.11561E-05-3.56317E-02 1.15702E-01
 -1       906-2.05597E-03-2.35084E-03-4.99966E-01 6.20089E-05-3.55492E-02 2.38105E-01
 -1       907-7.30830E+01-1.95789E+01-7.16057E-01 3.45373E-02-3.55399E-02 2.38076E-01
 -1       908-2.02532E-03-2.40503E-03-4.99966E-01 1.23264E-04-3.53025E-02 4.76264E-01
 -1       909-7.25300E+01-1.94361E+01-7.16232E-01 6.88571E-02-3.52933E-02 4.76207E-01
 -1       910-1.97468E-03-2.49437E-03-4.99966E-01 1.82975E-04-3.48941E-02 7.14533E-01
 -1       911-7.16082E+01-1.91980E+01-7.16527E-01 1.02740E-01-3.48851E-02 7.14449E-01
 -1       912-1.90469E-03-2.61740E-03-4.99967E-01 2.40282E-04-3.43280E-02 9.52965E-01
 -1       913-7.03178E+01-1.88643E+01-7.16942E-01 1.35960E-01-3.43194E-02 9.52854E-01
 -1       914-1.81634E-03-2.77198E-03-4.99968E-01 2.94231E-04-3.36099E-02 1.19161E+00
 -1       915-6.86586E+01-1.84346E+01-7.17481E-01 1.68287E-01-3.36016E-02 1.19147E+00
 -1       916-1.71090E-03-2.95533E-03-4.99969E-01 3.43770E-04-3.27466E-02 1.43052E+00
 -1       917-6.66306E+01-1.79085E+01-7.18147E-01 1.99482E-01-3.27387E-02 1.43036E+00
 -1       918-1.59005E-03-3.16392E-03-4.99970E-01 3.87752E-04-3.17461E-02 1.66974E+00
 -1       919-6.42339E+01-1.72856E+01-7.18943E-01 2.29297E-01-3.17387E-02 1.66956E+00
 -1       920-1.45592E-03-3.39352E-03-4.99972E-01 4.24957E-04-3.06177E-02 1.90932E+00
 -1       921-6.14684E+01-1.65650E+01-7.19871E-01 2.57476E-01-3.06108E-02 1.90911E+00
 -1       922-1.31165E-03-3.63925E-03-4.99973E-01 4.54128E-04-2.93725E-02 2.14929E+00
 -1       923-5.83342E+01-1.57461E+01-7.20935E-01 2.83754E-01-2.93660E-02 2.14907E+00
 -1       924-1.16300E-03-3.89591E-03-4.99974E-01 4.74003E-04-2.80250E-02 2.38970E+00
 -1       925-5.48312E+01-1.48279E+01-7.22133E-01 3.07855E-01-2.80190E-02 2.38946E+00
 -1       926-1.02213E-03-4.15899E-03-4.99970E-01 4.83361E-04-2.65984E-02 2.63056E+00
 -1       927-5.09597E+01-1.38095E+01-7.23468E-01 3.29491E-01-2.65927E-02 2.63031E+00
 -1       928-9.09628E-04-4.42611E-03-4.99961E-01 4.81086E-04-2.51368E-02 2.87191E+00
 -1       929-4.67198E+01-1.26897E+01-7.24915E-01 3.48338E-01-2.51315E-02 2.87165E+00
 -1       930-8.18375E-04-4.69373E-03-4.99973E-01 4.66286E-04-2.37371E-02 3.11372E+00
 -1       931-4.21118E+01-1.14673E+01-7.26586E-01 3.63985E-01-2.37315E-02 3.11345E+00
 -1       932-4.72113E-04-4.91979E-03-5.00171E-01 4.38446E-04-2.26233E-02 3.35593E+00
 -1       933-3.71364E+01-1.01406E+01-7.28360E-01 3.75793E-01-2.26195E-02 3.35547E+00
 -1       934 1.66860E-03-4.83888E-03-5.01242E-01 3.97251E-04-2.23439E-02 3.59831E+00
 -1       935-3.17965E+01-8.70878E+00-7.32054E-01 3.82543E-01-2.23333E-02 3.59680E+00
 -1       936 1.13083E-02-3.33266E-03-5.05190E-01 3.42473E-04-2.41860E-02 3.84029E+00
 -1       937-2.60998E+01-7.16970E+00-7.35936E-01 3.81538E-01-2.41976E-02 3.83480E+00
 -1       938 4.32088E-02 3.04186E-03-5.15353E-01 2.75945E-04-3.14591E-02 4.08049E+00
 -1       939-2.00682E+01-5.52806E+00-7.57576E-01 3.66515E-01-3.13893E-02 4.06403E+00
 -1       940 1.13742E-01 2.07751E-02-5.26452E-01 1.98534E-04-5.16674E-02 4.31511E+00
 -1       941-1.37263E+01-3.75969E+00-7.43255E-01 3.22337E-01-5.18860E-02 4.28399E+00
 -1       942 1.34405E-01 4.55307E-02-4.64522E-01 1.09870E-04-1.04723E-01 4.53617E+00
 -1       943-7.03607E+00-1.84959E+00-7.97525E-01 2.12199E-01-1.03918E-01 4.55226E+00
 -1       944 1.08648E-01 1.91505E-01 4.76704E-02 6.28978E-05-2.32434E-01 4.64253E+00
 -1       945-3.57093E+00-6.98637E-01-6.30774E-01 1.34805E-01-2.33960E-01 4.71262E+00
 -1       946-7.33494E+01-1.92187E+01-7.13380E-01 2.72102E-02-7.27648E-02 1.14813E-01
 -1       947-2.14039E-03-2.05742E-03-4.99967E-01 6.06411E-05-7.27844E-02 1.14830E-01
 -1       948-2.13082E-03-2.07695E-03-4.99967E-01 1.20774E-04-7.26114E-02 2.37356E-01
 -1       949-7.31647E+01-1.91721E+01-7.13438E-01 7.25899E-02-7.25918E-02 2.37323E-01
 -1       950-2.10216E-03-2.13536E-03-4.99967E-01 2.40404E-04-7.20941E-02 4.74774E-01
 -1       951-7.26108E+01-1.90325E+01-7.13613E-01 1.44752E-01-7.20749E-02 4.74708E-01
 -1       952-2.05455E-03-2.23210E-03-4.99967E-01 3.57648E-04-7.12386E-02 7.12316E-01
 -1       953-7.16874E+01-1.87997E+01-7.13906E-01 2.16052E-01-7.12200E-02 7.12219E-01
 -1       954-1.98824E-03-2.36617E-03-4.99967E-01 4.71073E-04-7.00544E-02 9.50043E-01
 -1       955-7.03947E+01-1.84733E+01-7.14321E-01 2.86045E-01-7.00364E-02 9.49916E-01
 -1       956-1.90369E-03-2.53606E-03-4.99967E-01 5.78982E-04-6.85545E-02 1.18801E+00
 -1       957-6.87325E+01-1.80531E+01-7.14861E-01 3.54270E-01-6.85375E-02 1.18786E+00
 -1       958-1.80164E-03-2.73963E-03-4.99968E-01 6.79371E-04-6.67554E-02 1.42628E+00
 -1       959-6.67007E+01-1.75387E+01-7.15533E-01 4.20247E-01-6.67394E-02 1.42609E+00
 -1       960-1.68318E-03-2.97397E-03-4.99969E-01 7.69918E-04-6.46765E-02 1.66489E+00
 -1       961-6.42993E+01-1.69294E+01-7.16343E-01 4.83470E-01-6.46616E-02 1.66468E+00
 -1       962-1.54995E-03-3.23532E-03-4.99970E-01 8.48023E-04-6.23402E-02 1.90389E+00
 -1       963-6.15282E+01-1.62246E+01-7.17299E-01 5.43409E-01-6.23265E-02 1.90367E+00
 -1       964-1.40467E-03-3.51903E-03-4.99971E-01 9.10899E-04-5.97732E-02 2.14333E+00
 -1       965-5.83875E+01-1.54235E+01-7.18410E-01 5.99508E-01-5.97606E-02 2.14308E+00
 -1       966-1.25283E-03-3.81987E-03-4.99972E-01 9.55691E-04-5.70096E-02 2.38323E+00
 -1       967-5.48772E+01-1.45252E+01-7.19679E-01 6.51177E-01-5.69981E-02 2.38297E+00
 -1       968-1.10642E-03-4.13305E-03-4.99968E-01 9.79617E-04-5.41015E-02 2.62362E+00
 -1       969-5.09973E+01-1.35287E+01-7.21118E-01 6.97786E-01-5.40907E-02 2.62336E+00
 -1       970-9.85964E-04-4.45567E-03-4.99960E-01 9.80051E-04-5.11449E-02 2.86451E+00
 -1       971-4.67481E+01-1.24326E+01-7.22710E-01 7.38617E-01-5.11351E-02 2.86425E+00
 -1       972-8.84668E-04-4.78347E-03-4.99971E-01 9.54593E-04-4.83486E-02 3.10588E+00
 -1       973-4.21300E+01-1.12356E+01-7.24579E-01 7.72753E-01-4.83381E-02 3.10560E+00
 -1       974-5.27172E-04-5.07279E-03-5.00170E-01 9.01287E-04-4.61935E-02 3.34761E+00
 -1       975-3.71441E+01-9.93600E+00-7.26604E-01 7.98783E-01-4.61870E-02 3.34715E+00
 -1       976 1.62302E-03-5.05618E-03-5.01243E-01 8.19518E-04-4.58475E-02 3.58945E+00
 -1       977-3.17934E+01-8.53239E+00-7.30656E-01 8.14040E-01-4.58271E-02 3.58794E+00
 -1       978 1.12743E-02-3.61000E-03-5.05188E-01 7.10232E-04-5.01034E-02 3.83066E+00
 -1       979-2.60864E+01-7.02221E+00-7.34903E-01 8.12783E-01-5.01311E-02 3.82519E+00
 -1       980 4.31769E-02 2.69183E-03-5.15350E-01 5.73023E-04-6.58360E-02 4.06954E+00
 -1       981-2.00461E+01-5.40908E+00-7.57379E-01 7.81430E-01-6.56887E-02 4.05311E+00
 -1       982 1.13696E-01 2.03762E-02-5.26446E-01 4.13945E-04-1.09441E-01 4.30173E+00
 -1       983-1.37005E+01-3.66671E+00-7.42875E-01 6.87745E-01-1.09892E-01 4.27063E+00
 -1       984 1.34365E-01 4.50597E-02-4.64534E-01 2.30140E-04-2.22884E-01 4.51737E+00
 -1       985-7.01846E+00-1.77648E+00-8.03425E-01 4.52963E-01-2.21202E-01 4.53333E+00
 -1       986 1.08620E-01 1.90964E-01 4.75121E-02 1.29557E-04-4.96134E-01 4.62007E+00
 -1       987-3.55752E+00-6.07771E-01-6.12666E-01 2.87723E-01-4.99307E-01 4.68989E+00
 -1       988-7.35001E+01-1.85094E+01-7.08894E-01 4.41445E-02-1.13107E-01 1.13295E-01
 -1       989-2.20298E-03-1.61998E-03-4.99970E-01 8.53681E-05-1.13139E-01 1.13316E-01
 -1       990-2.19537E-03-1.64085E-03-4.99970E-01 1.70240E-04-1.12856E-01 2.36024E-01
 -1       991-7.33149E+01-1.84647E+01-7.08954E-01 1.17777E-01-1.12824E-01 2.35982E-01
 -1       992-2.17241E-03-1.70347E-03-4.99970E-01 3.39715E-04-1.12013E-01 4.72126E-01
 -1       993-7.27595E+01-1.83305E+01-7.09132E-01 2.34928E-01-1.11981E-01 4.72043E-01
 -1       994-2.13373E-03-1.80793E-03-4.99969E-01 5.07476E-04-1.10618E-01 7.08384E-01
 -1       995-7.18337E+01-1.81066E+01-7.09430E-01 3.50817E-01-1.10588E-01 7.08262E-01
 -1       996-2.07879E-03-1.95430E-03-4.99969E-01 6.72203E-04-1.08691E-01 9.44872E-01
 -1       997-7.05373E+01-1.77929E+01-7.09850E-01 4.64790E-01-1.08662E-01 9.44712E-01
 -1       998-2.00699E-03-2.14245E-03-4.99968E-01 8.32041E-04-1.06256E-01 1.18166E+00
 -1       999-6.88703E+01-1.73890E+01-7.10395E-01 5.76164E-01-1.06229E-01 1.18147E+00
 -1      1000-1.91775E-03-2.37189E-03-4.99968E-01 9.84450E-04-1.03344E-01 1.41882E+00
 -1      1001-6.68324E+01-1.68943E+01-7.11073E-01 6.84220E-01-1.03319E-01 1.41859E+00
 -1      1002-1.81081E-03-2.64146E-03-4.99967E-01 1.12610E-03-9.99930E-02 1.65639E+00
 -1      1003-6.44235E+01-1.63085E+01-7.11893E-01 7.88192E-01-9.99702E-02 1.65614E+00
 -1      1004-1.68648E-03-2.94903E-03-4.99967E-01 1.25284E-03-9.62477E-02 1.89445E+00
 -1      1005-6.16433E+01-1.56306E+01-7.12868E-01 8.87256E-01-9.62274E-02 1.89417E+00
 -1      1006-1.54639E-03-3.29121E-03-4.99968E-01 1.35980E-03-9.21616E-02 2.13302E+00
 -1      1007-5.84917E+01-1.48601E+01-7.14019E-01 9.80524E-01-9.21438E-02 2.13273E+00
 -1      1008-1.39531E-03-3.66331E-03-4.99967E-01 1.44159E-03-8.78023E-02 2.37213E+00
 -1      1009-5.49686E+01-1.39958E+01-7.15363E-01 1.06703E+00-8.77869E-02 2.37183E+00
 -1      1010-1.24497E-03-4.06014E-03-4.99964E-01 1.49269E-03-8.32680E-02 2.61179E+00
 -1      1011-5.10742E+01-1.30368E+01-7.16928E-01 1.14569E+00-8.32546E-02 2.61149E+00
 -1      1012-1.11586E-03-4.47758E-03-4.99956E-01 1.50795E-03-7.87292E-02 2.85200E+00
 -1      1013-4.68086E+01-1.19815E+01-7.18714E-01 1.21527E+00-7.87178E-02 2.85171E+00
 -1      1014-1.00093E-03-4.90982E-03-4.99968E-01 1.48278E-03-7.45397E-02 3.09269E+00
 -1      1015-4.21725E+01-1.08285E+01-7.20869E-01 1.27413E+00-7.45270E-02 3.09240E+00
 -1      1016-6.24879E-04-5.31234E-03-5.00167E-01 1.41314E-03-7.14992E-02 3.33372E+00
 -1      1017-3.71671E+01-9.57577E+00-7.23272E-01 1.31978E+00-7.14924E-02 3.33326E+00
 -1      1018 1.54618E-03-5.41579E-03-5.01240E-01 1.29508E-03-7.15567E-02 3.57471E+00
 -1      1019-3.17963E+01-8.22140E+00-7.27927E-01 1.34763E+00-7.15263E-02 3.57321E+00
 -1      1020 1.12056E-02-4.09141E-03-5.05189E-01 1.12774E-03-7.92985E-02 3.81470E+00
 -1      1021-2.60695E+01-6.76176E+00-7.32751E-01 1.34783E+00-7.93457E-02 3.80923E+00
 -1      1022 4.31127E-02 2.11007E-03-5.15343E-01 9.18255E-04-1.06519E-01 4.05148E+00
 -1      1023-2.00129E+01-5.19916E+00-7.57242E-01 1.29794E+00-1.06287E-01 4.03504E+00
 -1      1024 1.13615E-01 1.96522E-02-5.26437E-01 6.65083E-04-1.79610E-01 4.27901E+00
 -1      1025-1.36581E+01-3.50093E+00-7.41935E-01 1.14364E+00-1.80370E-01 4.24813E+00
 -1      1026 1.34268E-01 4.42561E-02-4.64559E-01 3.69553E-04-3.69739E-01 4.48524E+00
 -1      1027-6.98816E+00-1.64677E+00-8.13468E-01 7.53888E-01-3.66945E-01 4.50105E+00
 -1      1028 1.08541E-01 1.89978E-01 4.72152E-02 2.13500E-04-8.25441E-01 4.58171E+00
 -1      1029-3.53375E+00-4.45008E-01-5.80015E-01 4.79351E-01-8.30582E-01 4.65078E+00
 -1      1030-7.37405E+01-1.74521E+01-7.02261E-01 6.52147E-02-1.58696E-01 1.11009E-01
 -1      1031-2.15061E-03-1.06583E-03-4.99977E-01 9.98735E-05-1.58744E-01 1.11037E-01
 -1      1032-2.14725E-03-1.08660E-03-4.99976E-01 1.99586E-04-1.58318E-01 2.33951E-01
 -1      1033-7.35547E+01-1.74101E+01-7.02330E-01 1.74017E-01-1.58270E-01 2.33895E-01
 -1      1034-2.13683E-03-1.14925E-03-4.99976E-01 3.99859E-04-1.57046E-01 4.68010E-01
 -1      1035-7.29975E+01-1.72839E+01-7.02533E-01 3.47213E-01-1.56999E-01 4.67898E-01
 -1      1036-2.11830E-03-1.25487E-03-4.99975E-01 6.01260E-04-1.54945E-01 7.02281E-01
 -1      1037-7.20686E+01-1.70734E+01-7.02869E-01 5.18757E-01-1.54899E-01 7.02114E-01
 -1      1038-2.08997E-03-1.40514E-03-4.99973E-01 8.03718E-04-1.52042E-01 9.36867E-01
 -1      1039-7.07678E+01-1.67783E+01-7.03333E-01 6.87799E-01-1.51998E-01 9.36648E-01
 -1      1040-2.04956E-03-1.60229E-03-4.99971E-01 1.00637E-03-1.48377E-01 1.17186E+00
 -1      1041-6.90947E+01-1.63982E+01-7.03921E-01 8.53457E-01-1.48337E-01 1.17160E+00
 -1      1042-1.99435E-03-1.84884E-03-4.99969E-01 1.20727E-03-1.44004E-01 1.40736E+00
 -1      1043-6.70490E+01-1.59326E+01-7.04632E-01 1.01480E+00-1.43968E-01 1.40705E+00
 -1      1044-1.92144E-03-2.14729E-03-4.99966E-01 1.40304E-03-1.38988E-01 1.64343E+00
 -1      1045-6.46301E+01-1.53809E+01-7.05469E-01 1.17082E+00-1.38956E-01 1.64308E+00
 -1      1046-1.82816E-03-2.49962E-03-4.99964E-01 1.58860E-03-1.33409E-01 1.88015E+00
 -1      1047-6.18377E+01-1.47424E+01-7.06447E-01 1.32043E+00-1.33382E-01 1.87977E+00
 -1      1048-1.71317E-03-2.90662E-03-4.99962E-01 1.75691E-03-1.27368E-01 2.11756E+00
 -1      1049-5.86712E+01-1.40163E+01-7.07591E-01 1.46240E+00-1.27346E-01 2.11716E+00
 -1      1050-1.57868E-03-3.36722E-03-4.99959E-01 1.89894E-03-1.20992E-01 2.35568E+00
 -1      1051-5.51303E+01-1.32016E+01-7.08939E-01 1.59533E+00-1.20975E-01 2.35528E+00
 -1      1052-1.43501E-03-3.87823E-03-4.99955E-01 2.00407E-03-1.14465E-01 2.59452E+00
 -1      1053-5.12147E+01-1.22972E+01-7.10556E-01 1.71761E+00-1.14453E-01 2.59413E+00
 -1      1054-1.30296E-03-4.43467E-03-4.99947E-01 2.06103E-03-1.08087E-01 2.83402E+00
 -1      1055-4.69246E+01-1.13016E+01-7.12481E-01 1.82722E+00-1.08081E-01 2.83366E+00
 -1      1056-1.17731E-03-5.02631E-03-4.99961E-01 2.05958E-03-1.02443E-01 3.07404E+00
 -1      1057-4.22607E+01-1.02132E+01-7.14926E-01 1.92154E+00-1.02437E-01 3.07372E+00
 -1      1058-7.83684E-04-5.60202E-03-5.00162E-01 1.99223E-03-9.87881E-02 3.31431E+00
 -1      1059-3.72245E+01-9.02951E+00-7.17776E-01 1.99648E+00-9.87938E-02 3.31388E+00
 -1      1060 1.41502E-03-5.89012E-03-5.01234E-01 1.85415E-03-1.00097E-01 3.55426E+00
 -1      1061-3.18206E+01-7.74817E+00-7.23194E-01 2.04464E+00-1.00063E-01 3.55284E+00
 -1      1062 1.11141E-02-4.76878E-03-5.05176E-01 1.63823E-03-1.13424E-01 3.79259E+00
 -1      1063-2.60605E+01-6.36414E+00-7.28780E-01 2.05060E+00-1.13502E-01 3.78727E+00
 -1      1064 4.30121E-02 1.20703E-03-5.15337E-01 1.33910E-03-1.56179E-01 4.02633E+00
 -1      1065-1.99736E+01-4.87725E+00-7.55516E-01 1.97874E+00-1.55821E-01 4.00997E+00
 -1      1066 1.13481E-01 1.86118E-02-5.26417E-01 9.82461E-04-2.70774E-01 4.24771E+00
 -1      1067-1.36029E+01-3.24911E+00-7.41009E-01 1.74685E+00-2.71914E-01 4.21677E+00
 -1      1068 1.34170E-01 4.29672E-02-4.64592E-01 5.53464E-04-5.62476E-01 4.43849E+00
 -1      1069-6.94844E+00-1.44485E+00-8.30027E-01 1.15269E+00-5.58329E-01 4.45403E+00
 -1      1070 1.08473E-01 1.88502E-01 4.67868E-02 3.10515E-04-1.26330E+00 4.52472E+00
 -1      1071-3.50103E+00-1.94531E-01-5.30822E-01 7.32544E-01-1.27078E+00 4.59332E+00
 -1      1072-7.41007E+01-1.59766E+01-6.92976E-01 9.21497E-02-2.12209E-01 1.07729E-01
 -1      1073-1.82309E-03-4.78506E-04-4.99987E-01 9.68614E-05-2.12279E-01 1.07767E-01
 -1      1074-1.82697E-03-4.96363E-04-4.99986E-01 1.94212E-04-2.11661E-01 2.30872E-01
 -1      1075-7.39143E+01-1.59383E+01-6.93070E-01 2.45928E-01-2.11591E-01 2.30797E-01
 -1      1076-1.83815E-03-5.50610E-04-4.99985E-01 3.91418E-04-2.09813E-01 4.61892E-01
 -1      1077-7.33551E+01-1.58235E+01-6.93347E-01 4.90797E-01-2.09744E-01 4.61742E-01
 -1      1078-1.85509E-03-6.43293E-04-4.99984E-01 5.94415E-04-2.06754E-01 6.93208E-01
 -1      1079-7.24228E+01-1.56317E+01-6.93800E-01 7.33549E-01-2.06687E-01 6.92982E-01
 -1      1080-1.87521E-03-7.77858E-04-4.99982E-01 8.05581E-04-2.02516E-01 9.24967E-01
 -1      1081-7.11171E+01-1.53628E+01-6.94412E-01 9.73123E-01-2.02452E-01 9.24664E-01
 -1      1082-1.89478E-03-9.59187E-04-4.99979E-01 1.02659E-03-1.97150E-01 1.15731E+00
 -1      1083-6.94374E+01-1.50160E+01-6.95164E-01 1.20845E+00-1.97090E-01 1.15693E+00
 -1      1084-1.90882E-03-1.19361E-03-4.99975E-01 1.25800E-03-1.90725E-01 1.39038E+00
 -1      1085-6.73831E+01-1.45908E+01-6.96033E-01 1.43843E+00-1.90670E-01 1.38993E+00
 -1      1086-1.91112E-03-1.48883E-03-4.99970E-01 1.49877E-03-1.83335E-01 1.62430E+00
 -1      1087-6.49533E+01-1.40863E+01-6.96995E-01 1.66192E+00-1.83286E-01 1.62379E+00
 -1      1088-1.89447E-03-1.85368E-03-4.99964E-01 1.74553E-03-1.75106E-01 1.85919E+00
 -1      1089-6.21471E+01-1.35018E+01-6.98037E-01 1.87765E+00-1.75066E-01 1.85861E+00
 -1      1090-1.85158E-03-2.29764E-03-4.99957E-01 1.99170E-03-1.66204E-01 2.09512E+00
 -1      1091-5.89632E+01-1.28363E+01-6.99160E-01 2.08419E+00-1.66174E-01 2.09451E+00
 -1      1092-1.77765E-03-2.82997E-03-4.99949E-01 2.22646E-03-1.56858E-01 2.33216E+00
 -1      1093-5.54007E+01-1.20888E+01-7.00397E-01 2.27983E+00-1.56840E-01 2.33152E+00
 -1      1094-1.67584E-03-3.45855E-03-4.99938E-01 2.43377E-03-1.47397E-01 2.57029E+00
 -1      1095-5.14584E+01-1.12583E+01-7.01842E-01 2.46240E+00-1.47391E-01 2.56967E+00
 -1      1096-1.56189E-03-4.18773E-03-4.99925E-01 2.59197E-03-1.38354E-01 2.80945E+00
 -1      1097-4.71357E+01-1.03436E+01-7.03610E-01 2.62904E+00-1.38362E-01 2.80888E+00
 -1      1098-1.43123E-03-5.00997E-03-4.99938E-01 2.67511E-03-1.30714E-01 3.04942E+00
 -1      1099-4.24329E+01-9.34284E+00-7.06073E-01 2.77564E+00-1.30731E-01 3.04891E+00
 -1      1100-1.01976E-03-5.86318E-03-5.00147E-01 2.65781E-03-1.26494E-01 3.28971E+00
 -1      1101-3.73516E+01-8.25352E+00-7.09259E-01 2.89575E+00-1.26536E-01 3.28915E+00
 -1      1102 1.19250E-03-6.44688E-03-5.01233E-01 2.52485E-03-1.30277E-01 3.52929E+00
 -1      1103-3.18974E+01-7.07245E+00-7.15734E-01 2.97778E+00-1.30275E-01 3.52786E+00
 -1      1104 1.09030E-02-5.60962E-03-5.05180E-01 2.27956E-03-1.52505E-01 3.76594E+00
 -1      1105-2.60842E+01-5.79249E+00-7.22466E-01 2.99802E+00-1.52683E-01 3.76088E+00
 -1      1106 4.28679E-02 6.23170E-05-5.15304E-01 1.92090E-03-2.19635E-01 3.99538E+00
 -1      1107-1.99475E+01-4.41077E+00-7.53260E-01 2.90418E+00-2.19130E-01 3.97954E+00
 -1      1108 1.13283E-01 1.70162E-02-5.26400E-01 1.41307E-03-3.89795E-01 4.20689E+00
 -1      1109-1.35355E+01-2.87485E+00-7.34146E-01 2.56983E+00-3.91422E-01 4.17692E+00
 -1      1110 1.33894E-01 4.12259E-02-4.64656E-01 7.91068E-04-8.27001E-01 4.37841E+00
 -1      1111-6.89298E+00-1.15487E+00-8.51181E-01 1.69965E+00-8.20926E-01 4.39365E+00
 -1      1112 1.08258E-01 1.86222E-01 4.60904E-02 4.68547E-04-1.86219E+00 4.45037E+00
 -1      1113-3.45375E+00 1.82003E-01-4.55427E-01 1.08402E+00-1.87276E+00 4.51702E+00
 -1      1114-7.46218E+01-1.39823E+01-6.80082E-01 1.27187E-01-2.77135E-01 1.03143E-01
 -1      1115-1.01349E-03 2.09060E-05-4.99998E-01 7.08675E-05-2.77232E-01 1.03185E-01
 -1      1116-1.02649E-03 9.05726E-06-4.99997E-01 1.42962E-04-2.76376E-01 2.26456E-01
 -1      1117-7.44346E+01-1.39492E+01-6.80217E-01 3.39471E-01-2.76279E-01 2.26371E-01
 -1      1118-1.06515E-03-2.72760E-05-4.99997E-01 2.90890E-04-2.73811E-01 4.53094E-01
 -1      1119-7.38731E+01-1.38500E+01-6.80619E-01 6.77517E-01-2.73714E-01 4.52920E-01
 -1      1120-1.12845E-03-9.05084E-05-4.99996E-01 4.48769E-04-2.69542E-01 6.80101E-01
 -1      1121-7.29369E+01-1.36843E+01-6.81278E-01 1.01273E+00-2.69446E-01 6.79833E-01
 -1      1122-1.21446E-03-1.84845E-04-4.99995E-01 6.21600E-04-2.63585E-01 9.07673E-01
 -1      1123-7.16258E+01-1.34514E+01-6.82175E-01 1.34375E+00-2.63490E-01 9.07303E-01
 -1      1124-1.32003E-03-3.16559E-04-4.99993E-01 8.14320E-04-2.55965E-01 1.13602E+00
 -1      1125-6.99393E+01-1.31507E+01-6.83281E-01 1.66925E+00-2.55872E-01 1.13554E+00
 -1      1126-1.44040E-03-4.94376E-04-4.99989E-01 1.03162E-03-2.46729E-01 1.36536E+00
 -1      1127-6.78764E+01-1.27810E+01-6.84554E-01 1.98796E+00-2.46640E-01 1.36475E+00
 -1      1128-1.56854E-03-7.29979E-04-4.99984E-01 1.27758E-03-2.35955E-01 1.59594E+00
 -1      1129-6.54361E+01-1.23413E+01-6.85933E-01 2.29866E+00-2.35873E-01 1.59520E+00
 -1      1130-1.69461E-03-1.03860E-03-4.99977E-01 1.55495E-03-2.23771E-01 1.82799E+00
 -1      1131-6.26168E+01-1.18302E+01-6.87343E-01 2.60013E+00-2.23699E-01 1.82710E+00
 -1      1132-1.80574E-03-1.43968E-03-4.99967E-01 1.86405E-03-2.10381E-01 2.06174E+00
 -1      1133-5.94165E+01-1.12464E+01-6.88704E-01 2.89104E+00-2.10324E-01 2.06071E+00
 -1      1134-1.88721E-03-1.95756E-03-4.99952E-01 2.20084E-03-1.96112E-01 2.29737E+00
 -1      1135-5.58329E+01-1.05886E+01-6.89942E-01 3.16980E+00-1.96076E-01 2.29622E+00
 -1      1136-1.92661E-03-2.62213E-03-4.99929E-01 2.55398E-03-1.81495E-01 2.53498E+00
 -1      1137-5.18629E+01-9.85565E+00-6.91057E-01 3.43423E+00-1.81485E-01 2.53377E+00
 -1      1138-1.91819E-03-3.46805E-03-4.99899E-01 2.90051E-03-1.67433E-01 2.77455E+00
 -1      1139-4.75040E+01-9.04636E+00-6.92128E-01 3.68098E+00-1.67457E-01 2.77336E+00
 -1      1140-1.83338E-03-4.52516E-03-4.99890E-01 3.20030E-03-1.55584E-01 3.01583E+00
 -1      1141-4.27541E+01-8.15963E+00-6.93672E-01 3.90448E+00-1.55641E-01 3.01474E+00
 -1      1142-1.39385E-03-5.76597E-03-5.00076E-01 3.39149E-03-1.49232E-01 3.25822E+00
 -1      1143-3.76131E+01-7.19351E+00-6.96046E-01 4.09497E+00-1.49340E-01 3.25718E+00
 -1      1144 8.96496E-04-6.89380E-03-5.01157E-01 3.39544E-03-1.55493E-01 3.50037E+00
 -1      1145-3.20867E+01-6.14505E+00-7.02851E-01 4.23420E+00-1.55588E-01 3.49861E+00
 -1      1146 1.06322E-02-6.68085E-03-5.05145E-01 3.14964E-03-1.90366E-01 3.73901E+00
 -1      1147-2.61918E+01-5.00463E+00-7.11123E-01 4.28571E+00-1.90720E-01 3.73372E+00
 -1      1148 4.24633E-02-1.52789E-03-5.15339E-01 2.68513E-03-2.91959E-01 3.96635E+00
 -1      1149-1.99732E+01-3.76376E+00-7.49431E-01 4.16951E+00-2.91478E-01 3.95069E+00
 -1      1150 1.12947E-01 1.50589E-02-5.26360E-01 2.08962E-03-5.52327E-01 4.16339E+00
 -1      1151-1.35094E+01-2.35623E+00-7.37345E-01 3.70849E+00-5.55334E-01 4.13628E+00
 -1      1152 1.33738E-01 3.82901E-02-4.64776E-01 1.22718E-03-1.18814E+00 4.29910E+00
 -1      1153-6.85190E+00-7.09661E-01-8.81623E-01 2.45633E+00-1.17825E+00 4.31525E+00
 -1      1154 1.08124E-01 1.83000E-01 4.51495E-02 6.81036E-04-2.70865E+00 4.35433E+00
 -1      1155-3.40432E+00 7.00600E-01-3.57407E-01 1.56053E+00-2.72400E+00 4.41769E+00
 -1      1156-7.53605E+01-1.13312E+01-6.63316E-01 1.73243E-01-3.57532E-01 9.70233E-02
 -1      1157 4.73488E-04 3.07587E-04-5.00003E-01 2.56085E-05-3.57655E-01 9.70577E-02
 -1      1158 4.54199E-04 3.02940E-04-5.00003E-01 5.28646E-05-3.56559E-01 2.20513E-01
 -1      1159-7.51722E+01-1.13051E+01-6.63482E-01 4.62376E-01-3.56436E-01 2.20443E-01
 -1      1160 3.96058E-04 2.88424E-04-5.00004E-01 1.10544E-04-3.53265E-01 4.41192E-01
 -1      1161-7.46072E+01-1.12269E+01-6.63981E-01 9.22777E-01-3.53141E-01 4.41047E-01
 -1      1162 2.98298E-04 2.62249E-04-5.00005E-01 1.78109E-04-3.47748E-01 6.62213E-01
 -1      1163-7.36656E+01-1.10961E+01-6.64815E-01 1.37926E+00-3.47621E-01 6.61985E-01
 -1      1164 1.59806E-04 2.21197E-04-5.00006E-01 2.61149E-04-3.39969E-01 8.83775E-01
 -1      1165-7.23472E+01-1.09119E+01-6.65982E-01 1.82995E+00-3.39838E-01 8.83449E-01
 -1      1166-2.05859E-05 1.60238E-04-5.00007E-01 3.66036E-04-3.29876E-01 1.10611E+00
 -1      1167-7.06519E+01-1.06734E+01-6.67474E-01 2.27309E+00-3.29741E-01 1.10567E+00
 -1      1168-2.43595E-04 7.19318E-05-5.00008E-01 5.00190E-04-3.17410E-01 1.32951E+00
 -1      1169-6.85791E+01-1.03793E+01-6.69270E-01 2.70706E+00-3.17271E-01 1.32891E+00
 -1      1170-5.08686E-04-5.44655E-05-5.00008E-01 6.72312E-04-3.02516E-01 1.55433E+00
 -1      1171-6.61281E+01-1.00280E+01-6.71319E-01 3.13043E+00-3.02373E-01 1.55353E+00
 -1      1172-8.12868E-04-2.34301E-04-5.00006E-01 8.92512E-04-2.85164E-01 1.78100E+00
 -1      1173-6.32976E+01-9.61753E+00-6.73526E-01 3.54199E+00-2.85019E-01 1.77995E+00
 -1      1174-1.14918E-03-4.89444E-04-5.00001E-01 1.17220E-03-2.65390E-01 2.01008E+00
 -1      1175-6.00854E+01-9.14583E+00-6.75731E-01 3.94078E+00-2.65249E-01 2.00869E+00
 -1      1176-1.50533E-03-8.51228E-04-4.99990E-01 1.52342E-03-2.43382E-01 2.24219E+00
 -1      1177-5.64879E+01-8.61057E+00-6.77684E-01 4.32589E+00-2.43253E-01 2.24039E+00
 -1      1178-1.86330E-03-1.36508E-03-4.99968E-01 1.95709E-03-2.19635E-01 2.47800E+00
 -1      1179-5.25003E+01-8.00942E+00-6.79070E-01 4.69623E+00-2.19535E-01 2.47572E+00
 -1      1180-2.19627E-03-2.09704E-03-4.99930E-01 2.47871E-03-1.95286E-01 2.71803E+00
 -1      1181-4.81158E+01-7.34029E+00-6.79513E-01 5.04966E+00-1.95240E-01 2.71527E+00
 -1      1182-2.42861E-03-3.13676E-03-4.99897E-01 3.07910E-03-1.72789E-01 2.96243E+00
 -1      1183-4.33263E+01-6.60167E+00-6.79062E-01 5.38119E+00-1.72826E-01 2.95931E+00
 -1      1184-2.19893E-03-4.56326E-03-5.00035E-01 3.71517E-03-1.57386E-01 3.21053E+00
 -1      1185-3.81245E+01-5.79247E+00-6.77834E-01 5.67923E+00-1.57548E-01 3.20717E+00
 -1      1186 1.00722E-04-6.24550E-03-5.01031E-01 4.27475E-03-1.60463E-01 3.46028E+00
 -1      1187-3.25093E+01-4.91237E+00-6.80392E-01 5.91775E+00-1.60719E-01 3.45632E+00
 -1      1188 1.01316E-02-7.13384E-03-5.04898E-01 4.53188E-03-2.06994E-01 3.70779E+00
 -1      1189-2.64947E+01-3.95419E+00-6.85212E-01 6.03996E+00-2.07464E-01 3.70043E+00
 -1      1190 4.22570E-02-3.61085E-03-5.15033E-01 4.16640E-03-3.54896E-01 3.94446E+00
 -1      1191-2.01341E+01-2.90813E+00-7.28511E-01 5.92385E+00-3.55040E-01 3.92819E+00
 -1      1192 1.12146E-01 1.15435E-02-5.26266E-01 3.12358E-03-7.30866E-01 4.15244E+00
 -1      1193-1.35065E+01-1.66961E+00-7.06701E-01 5.28923E+00-7.33443E-01 4.11850E+00
 -1      1194 1.32762E-01 3.47765E-02-4.64711E-01 1.80688E-03-1.68932E+00 4.25437E+00
 -1      1195-6.83323E+00-1.73310E-01-9.53178E-01 3.53440E+00-1.68084E+00 4.27549E+00
 -1      1196 1.07548E-01 1.77242E-01 4.34626E-02 1.17244E-03-3.88758E+00 4.25454E+00
 -1      1197-3.34259E+00 1.59598E+00-1.73726E-01 2.28446E+00-3.90050E+00 4.34233E+00
 -1      1198-7.63872E+01-7.82864E+00-6.34932E-01 2.34572E-01-4.59482E-01 8.82635E-02
 -1      1199 2.68922E-03 3.28841E-04-4.99996E-01-1.91472E-05-4.59622E-01 8.82800E-02
 -1      1200 2.67406E-03 3.29180E-04-4.99997E-01-3.66812E-05-4.58362E-01 2.13480E-01
 -1      1201-7.61971E+01-7.81140E+00-6.35094E-01 6.27040E-01-4.58221E-01 2.13446E-01
 -1      1202 2.62777E-03 3.29989E-04-4.99998E-01-7.12898E-05-4.54563E-01 4.27034E-01
 -1      1203-7.56266E+01-7.75955E+00-6.35584E-01 1.25144E+00-4.54419E-01 4.26964E-01
 -1      1204 2.54785E-03 3.30604E-04-5.00000E-01-1.01499E-04-4.48172E-01 6.40740E-01
 -1      1205-7.46760E+01-7.67275E+00-6.36416E-01 1.87059E+00-4.48022E-01 6.40631E-01
 -1      1206 2.43004E-03 3.29772E-04-5.00003E-01-1.24444E-04-4.39089E-01 8.54696E-01
 -1      1207-7.33456E+01-7.55038E+00-6.37615E-01 2.48193E+00-4.38932E-01 8.54539E-01
 -1      1208 2.26808E-03 3.25399E-04-5.00007E-01-1.36371E-04-4.27173E-01 1.06902E+00
 -1      1209-7.16359E+01-7.39157E+00-6.39213E-01 3.08301E+00-4.27004E-01 1.06881E+00
 -1      1210 2.05350E-03 3.14123E-04-5.00012E-01-1.32180E-04-4.12222E-01 1.28390E+00
 -1      1211-6.95474E+01-7.19513E+00-6.41247E-01 3.67155E+00-4.12038E-01 1.28360E+00
 -1      1212 1.77539E-03 2.90630E-04-5.00019E-01-1.04811E-04-3.93970E-01 1.49957E+00
 -1      1213-6.70805E+01-6.95955E+00-6.43754E-01 4.24548E+00-3.93764E-01 1.49915E+00
 -1      1214 1.42021E-03 2.46527E-04-5.00027E-01-4.44089E-05-3.72074E-01 1.71644E+00
 -1      1215-6.42356E+01-6.68289E+00-6.46743E-01 4.80313E+00-3.71840E-01 1.71582E+00
 -1      1216 9.71605E-04 1.68510E-04-5.00035E-01 6.28148E-05-3.46118E-01 1.93514E+00
 -1      1217-6.10125E+01-6.36274E+00-6.50163E-01 5.34334E+00-3.45849E-01 1.93420E+00
 -1      1218 4.10195E-04 3.52357E-05-5.00043E-01 2.36109E-04-3.15653E-01 2.15663E+00
 -1      1219-5.74099E+01-5.99614E+00-6.53811E-01 5.86559E+00-3.15340E-01 2.15517E+00
 -1      1220-2.86289E-04-1.88069E-04-5.00045E-01 5.02229E-04-2.80329E-01 2.38245E+00
 -1      1221-5.34243E+01-5.57950E+00-6.57230E-01 6.37012E+00-2.79969E-01 2.38013E+00
 -1      1222-1.13542E-03-5.58396E-04-5.00036E-01 8.98131E-04-2.40277E-01 2.61481E+00
 -1      1223-4.90483E+01-5.10857E+00-6.59447E-01 6.85752E+00-2.39883E-01 2.61112E+00
 -1      1224-2.09354E-03-1.16489E-03-5.00032E-01 1.47416E-03-1.97080E-01 2.85655E+00
 -1      1225-4.42684E+01-4.57873E+00-6.59130E-01 7.32721E+00-1.96694E-01 2.85084E+00
 -1      1226-2.77771E-03-2.11759E-03-5.00185E-01 2.29544E-03-1.56124E-01 3.11044E+00
 -1      1227-3.90638E+01-3.98534E+00-6.53950E-01 7.77277E+00-1.55867E-01 3.10197E+00
 -1      1228-1.42575E-03-3.41720E-03-5.01159E-01 3.42923E-03-1.32201E-01 3.37675E+00
 -1      1229-3.34094E+01-3.32646E+00-6.45844E-01 8.16980E+00-1.32278E-01 3.36489E+00
 -1      1230 8.01618E-03-4.41631E-03-5.04943E-01 4.87193E-03-1.62581E-01 3.64796E+00
 -1      1231-2.72919E+01-2.60077E+00-6.33793E-01 8.44701E+00-1.63356E-01 3.63197E+00
 -1      1232 4.06342E-02-2.39373E-03-5.14923E-01 6.28591E-03-3.36394E-01 3.90100E+00
 -1      1233-2.07590E+01-1.81918E+00-6.67502E-01 8.41979E+00-3.38004E-01 3.87809E+00
 -1      1234 1.12427E-01 8.68564E-03-5.26118E-01 6.42639E-03-8.70450E-01 4.09861E+00
 -1      1235-1.39686E+01-9.15526E-01-6.89540E-01 7.66221E+00-8.69809E-01 4.05940E+00
 -1      1236 1.32670E-01 2.59911E-02-4.66326E-01 4.05130E-03-2.19417E+00 4.20642E+00
 -1      1237-7.15239E+00 2.22739E-01-1.01858E+00 5.12628E+00-2.19968E+00 4.24055E+00
 -1      1238 1.06960E-01 1.69119E-01 4.06961E-02 2.11345E-03-5.52352E+00 4.22076E+00
 -1      1239-3.59615E+00 1.68322E+00-2.54991E-01 3.21952E+00-5.51483E+00 4.34008E+00
 -1      1240-7.81742E+01-3.98493E+00-9.27163E-01 2.70007E-01-4.68156E-01 1.41073E-01
 -1      1241 5.36819E-03 1.78368E-04-4.99972E-01-3.18889E-05-4.68274E-01 1.40993E-01
 -1      1242 5.37124E-03 1.79753E-04-4.99972E-01-6.25519E-05-4.67179E-01 1.96080E-01
 -1      1243-7.79807E+01-3.97655E+00-9.26743E-01 6.65246E-01-4.67060E-01 1.96241E-01
 -1      1244 5.38002E-03 1.83914E-04-4.99973E-01-1.25612E-04-4.63877E-01 3.92138E-01
 -1      1245-7.74001E+01-3.95137E+00-9.25486E-01 1.32786E+00-4.63755E-01 3.92463E-01
 -1      1246 5.39334E-03 1.90859E-04-4.99973E-01-1.89631E-04-4.58315E-01 5.88147E-01
 -1      1247-7.64330E+01-3.90919E+00-9.23396E-01 1.98521E+00-4.58189E-01 5.88643E-01
 -1      1248 5.40901E-03 2.00563E-04-4.99974E-01-2.54931E-04-4.50401E-01 7.84066E-01
 -1      1249-7.50797E+01-3.84970E+00-9.20485E-01 2.63468E+00-4.50267E-01 7.84745E-01
 -1      1250 5.42342E-03 2.12911E-04-4.99975E-01-3.21592E-04-4.39991E-01 9.79835E-01
 -1      1251-7.33414E+01-3.77242E+00-9.16773E-01 3.27371E+00-4.39846E-01 9.80713E-01
 -1      1252 5.43099E-03 2.27569E-04-4.99977E-01-3.89281E-04-4.26873E-01 1.17536E+00
 -1      1253-7.12192E+01-3.67674E+00-9.12295E-01 3.89980E+00-4.26712E-01 1.17647E+00
 -1      1254 5.42310E-03 2.43780E-04-4.99980E-01-4.56953E-04-4.10744E-01 1.37052E+00
 -1      1255-6.87150E+01-3.56182E+00-9.07110E-01 4.51057E+00-4.10561E-01 1.37188E+00
 -1      1256 5.38649E-03 2.59954E-04-4.99984E-01-5.22365E-04-3.91172E-01 1.56513E+00
 -1      1257-6.58315E+01-3.42659E+00-9.01312E-01 5.10389E+00-3.90954E-01 1.56680E+00
 -1      1258 5.30031E-03 2.72909E-04-4.99989E-01-5.81241E-04-3.67539E-01 1.75902E+00
 -1      1259-6.25719E+01-3.26968E+00-8.95036E-01 5.67805E+00-3.67266E-01 1.76103E+00
 -1      1260 5.13050E-03 2.76251E-04-4.99996E-01-6.25859E-04-3.38974E-01 1.95203E+00
 -1      1261-5.89407E+01-3.08927E+00-8.88437E-01 6.23202E+00-3.38615E-01 1.95443E+00
 -1      1262 4.81893E-03 2.56869E-04-5.00001E-01-6.42759E-04-3.04292E-01 2.14434E+00
 -1      1263-5.49433E+01-2.88292E+00-8.81619E-01 6.76586E+00-3.03792E-01 2.14705E+00
 -1      1264 4.26815E-03 1.87694E-04-5.00003E-01-6.09352E-04-2.62032E-01 2.33699E+00
 -1      1265-5.05849E+01-2.64716E+00-8.74249E-01 7.28115E+00-2.61301E-01 2.33967E+00
 -1      1266 3.35260E-03 1.65340E-05-5.00020E-01-4.89801E-04-2.10876E-01 2.53325E+00
 -1      1267-4.58671E+01-2.37675E+00-8.65051E-01 7.78107E+00-2.09771E-01 2.53478E+00
 -1      1268 2.12038E-03-3.33730E-04-5.00189E-01-2.30905E-04-1.51277E-01 2.74122E+00
 -1      1269-4.07799E+01-2.06298E+00-8.49071E-01 8.26857E+00-1.49613E-01 2.73867E+00
 -1      1270 1.75347E-03-8.76113E-04-5.01106E-01 2.47519E-04-9.06196E-02 2.97789E+00
 -1      1271-3.52852E+01-1.69243E+00-8.18115E-01 8.73798E+00-8.82455E-02 2.96460E+00
 -1      1272 7.55889E-03-1.16071E-03-5.04531E-01 1.10585E-03-5.77548E-02 3.27226E+00
 -1      1273-2.92893E+01-1.24036E+00-7.44562E-01 9.14637E+00-5.50813E-02 3.23583E+00
 -1      1274 3.42823E-02 6.51037E-04-5.13427E-01 2.78650E-03-1.43940E-01 3.65433E+00
 -1      1275-2.26330E+01-6.87710E-01-6.29545E-01 9.33030E+00-1.42793E-01 3.58057E+00
 -1      1276 9.96914E-02 7.64406E-03-5.22928E-01 6.08744E-03-5.98075E-01 4.07174E+00
 -1      1277-1.51899E+01 1.20423E-03-3.87670E-01 8.76371E+00-6.09232E-01 4.00536E+00
 -1      1278 1.22363E-01 1.23307E-02-4.62364E-01 7.70050E-03-2.17585E+00 4.16767E+00
 -1      1279-7.43883E+00 6.77304E-01-5.09830E-01 6.10275E+00-2.21773E+00 4.25697E+00
 -1      1280 9.80683E-02 1.21420E-01 2.65231E-02 6.95627E-03-6.90500E+00 4.06927E+00
 -1      1281-3.66461E+00 6.27072E-01-3.65201E-01 4.00251E+00-6.83488E+00 4.28509E+00
 -1      1282-7.86783E+01-1.96527E+00-1.06959E+00 2.86956E-01-4.27797E-01 3.99853E-01
 -1      1283 7.87519E-03 8.22036E-05-4.99964E-01-2.60363E-05-4.27887E-01 3.99577E-01
 -1      1284 7.90061E-03 8.31284E-05-4.99964E-01-5.11259E-05-4.27008E-01 6.95779E-01
 -1      1285-7.84837E+01-1.96123E+00-1.06888E+00 6.41959E-01-4.26916E-01 6.96333E-01
 -1      1286 7.97772E-03 8.59374E-05-4.99964E-01-1.03438E-04-4.24355E-01 1.38980E+00
 -1      1287-7.78999E+01-1.94908E+00-1.06675E+00 1.28160E+00-4.24262E-01 1.39092E+00
 -1      1288 8.10914E-03 9.07348E-05-4.99964E-01-1.58173E-04-4.19893E-01 2.08030E+00
 -1      1289-7.69273E+01-1.92873E+00-1.06319E+00 1.91662E+00-4.19796E-01 2.08199E+00
 -1      1290 8.29946E-03 9.76922E-05-4.99963E-01-2.16665E-04-4.13549E-01 2.76544E+00
 -1      1291-7.55666E+01-1.90004E+00-1.05820E+00 2.54467E+00-4.13448E-01 2.76773E+00
 -1      1292 8.55561E-03 1.07042E-04-4.99963E-01-2.80396E-04-4.05218E-01 3.44332E+00
 -1      1293-7.38190E+01-1.86279E+00-1.05177E+00 3.16342E+00-4.05109E-01 3.44625E+00
 -1      1294 8.88741E-03 1.19055E-04-4.99963E-01-3.51047E-04-3.94736E-01 4.11192E+00
 -1      1295-7.16858E+01-1.81669E+00-1.04392E+00 3.77053E+00-3.94617E-01 4.11555E+00
 -1      1296 9.30839E-03 1.33984E-04-4.99963E-01-4.30537E-04-3.81863E-01 4.76903E+00
 -1      1297-6.91696E+01-1.76136E+00-1.03467E+00 4.36367E+00-3.81727E-01 4.77344E+00
 -1      1298 9.83682E-03 1.51902E-04-4.99965E-01-5.21043E-04-3.66236E-01 5.41217E+00
 -1      1299-6.62738E+01-1.69636E+00-1.02411E+00 4.94057E+00-3.66073E-01 5.41748E+00
 -1      1300 1.04966E-02 1.72335E-04-4.99967E-01-6.24938E-04-3.47296E-01 6.03837E+00
 -1      1301-6.30036E+01-1.62114E+00-1.01246E+00 5.49913E+00-3.47086E-01 6.04482E+00
 -1      1302 1.13177E-02 1.93387E-04-4.99971E-01-7.44405E-04-3.24165E-01 6.64394E+00
 -1      1303-5.93674E+01-1.53514E+00-1.00021E+00 6.03752E+00-3.23868E-01 6.65191E+00
 -1      1304 1.23353E-02 2.10107E-04-4.99977E-01-8.79693E-04-2.95447E-01 7.22383E+00
 -1      1305-5.53787E+01-1.43800E+00-9.88477E-01 6.55461E+00-2.94983E-01 7.23409E+00
 -1      1306 1.35961E-02 2.12199E-04-4.99988E-01-1.02232E-03-2.58961E-01 7.77073E+00
 -1      1307-5.10604E+01-1.32999E+00-9.79606E-01 7.05041E+00-2.58161E-01 7.78477E+00
 -1      1308 1.52155E-02 1.85267E-04-5.00047E-01-1.13188E-03-2.11521E-01 8.27348E+00
 -1      1309-4.64522E+01-1.21338E+00-9.78883E-01 7.52689E+00-2.10050E-01 8.29424E+00
 -1      1310 1.76565E-02 1.28114E-04-5.00359E-01-1.06932E-03-1.49421E-01 8.71515E+00
 -1      1311-4.16222E+01-1.09460E+00-9.96077E-01 7.98838E+00-1.46670E-01 8.74814E+00
 -1      1312 2.26988E-02 1.31158E-04-5.01697E-01-4.50439E-04-7.18963E-02 9.07312E+00
 -1      1313-3.66821E+01-9.89633E-01-1.05277E+00 8.43887E+00-6.69831E-02 9.12754E+00
 -1      1314 3.58768E-02 5.71823E-04-5.06232E-01 1.51300E-03 5.11171E-03 9.33088E+00
 -1      1315-3.17820E+01-9.22368E-01-1.17014E+00 8.86611E+00 1.23513E-02 9.41750E+00
 -1      1316 6.96863E-02 2.49933E-03-5.17527E-01 5.52538E-03 3.89525E-03 9.53379E+00
 -1      1317-2.70119E+01-9.27574E-01-1.39837E+00 9.17632E+00 9.71850E-03 9.65219E+00
 -1      1318 1.34827E-01 7.35840E-03-5.30278E-01 9.33870E-03-3.53821E-01 1.00036E+01
 -1      1319-2.18303E+01-8.60269E-01-1.51305E+00 8.98742E+00-3.79975E-01 1.00627E+01
 -1      1320 1.47313E-01 4.81702E-03-4.69192E-01 9.93379E-03-1.88577E+00 1.18874E+01
 -1      1321-1.34370E+01-3.96768E-01-1.44235E+00 6.75566E+00-1.95542E+00 1.17339E+01
 -1      1322 1.21468E-01 8.60789E-02 2.60763E-02 9.06101E-03-7.07631E+00 1.34096E+01
 -1      1323-8.34468E+00-1.27786E+00-2.14359E+00 4.81339E+00-6.95992E+00 1.31155E+01
 -1      1324 7.86941E+01 1.96544E+00 6.96726E-02 2.87012E-01 4.27793E-01 3.99858E-01
 -1      1325 7.84995E+01 1.96140E+00 6.89629E-02 6.42073E-01 4.26912E-01 6.96340E-01
 -1      1326 7.81850E+01 3.98528E+00-7.27813E-02 2.70074E-01 4.68154E-01 1.41073E-01
 -1      1327 7.79914E+01 3.97691E+00-7.32011E-02 6.65384E-01 4.67058E-01 1.96240E-01
 -1      1328 7.79159E+01 1.94926E+00 6.68322E-02 1.28184E+00 4.24258E-01 1.39093E+00
 -1      1329 7.74109E+01 3.95174E+00-7.44589E-02 1.32813E+00 4.63753E-01 3.92461E-01
 -1      1330 7.69436E+01 1.92892E+00 6.32761E-02 1.91697E+00 4.19792E-01 2.08201E+00
 -1      1331 7.64438E+01 3.90958E+00-7.65497E-02 1.98563E+00 4.58187E-01 5.88640E-01
 -1      1332 7.55833E+01 1.90025E+00 5.82893E-02 2.54516E+00 4.13444E-01 2.76776E+00
 -1      1333 7.50905E+01 3.85011E+00-7.94628E-02 2.63525E+00 4.50265E-01 7.84740E-01
 -1      1334 7.38362E+01 1.86302E+00 5.18688E-02 3.16405E+00 4.05104E-01 3.44630E+00
 -1      1335 7.33522E+01 3.77287E+00-8.31783E-02 3.27443E+00 4.39843E-01 9.80707E-01
 -1      1336 7.17037E+01 1.81696E+00 4.40214E-02 3.77133E+00 3.94611E-01 4.11561E+00
 -1      1337 7.12300E+01 3.67722E+00-8.76618E-02 3.90067E+00 4.26709E-01 1.17646E+00
 -1      1338 6.91884E+01 1.76168E+00 3.47791E-02 4.36467E+00 3.81720E-01 4.77352E+00
 -1      1339 6.87259E+01 3.56235E+00-9.28549E-02 4.51161E+00 4.10557E-01 1.37187E+00
 -1      1340 6.62936E+01 1.69674E+00 2.42311E-02 4.94180E+00 3.66064E-01 5.41758E+00
 -1      1341 6.58422E+01 3.42717E+00-9.86661E-02 5.10510E+00 3.90949E-01 1.56678E+00
 -1      1342 6.30248E+01 1.62161E+00 1.25958E-02 5.50063E+00 3.47076E-01 6.04496E+00
 -1      1343 6.25824E+01 3.27031E+00-1.04962E-01 5.67942E+00 3.67260E-01 1.76100E+00
 -1      1344 5.93904E+01 1.53573E+00 3.67440E-04 6.03936E+00 3.23857E-01 6.65209E+00
 -1      1345 5.89509E+01 3.08995E+00-1.11589E-01 6.23355E+00 3.38606E-01 1.95437E+00
 -1      1346 5.54039E+01 1.43875E+00-1.13343E-02 6.55686E+00 2.94971E-01 7.23433E+00
 -1      1347 5.49529E+01 2.88364E+00-1.18446E-01 6.76750E+00 3.03780E-01 2.14695E+00
 -1      1348 5.10885E+01 1.33099E+00-2.01633E-02 7.05319E+00 2.58150E-01 7.78511E+00
 -1      1349 5.05934E+01 2.64789E+00-1.25867E-01 7.28283E+00 2.61280E-01 2.33947E+00
 -1      1350 4.64840E+01 1.21476E+00-2.09541E-02 7.53043E+00 2.10047E-01 8.29480E+00
 -1      1351 4.58739E+01 2.37742E+00-1.35171E-01 7.78263E+00 2.09722E-01 2.53445E+00
 -1      1352 4.16582E+01 1.09635E+00-4.50258E-03 7.99311E+00 1.46692E-01 8.74952E+00
 -1      1353 4.07833E+01 2.06321E+00-1.51575E-01 8.26965E+00 1.49479E-01 2.73838E+00
 -1      1354 3.67194E+01 9.90901E-01 4.88280E-02 8.44558E+00 6.70153E-02 9.13188E+00
 -1      1355 3.52800E+01 1.69055E+00-1.84400E-01 8.73772E+00 8.78793E-02 2.96569E+00
 -1      1356 3.18056E+01 9.18849E-01 1.55426E-01 8.87553E+00-1.26044E-02 9.43101E+00
 -1      1357 2.92589E+01 1.23024E+00-2.64648E-01 9.14289E+00 5.41851E-02 3.24370E+00
 -1      1358 2.69758E+01 9.05708E-01 3.59257E-01 9.18601E+00-1.17097E-02 9.68725E+00
 -1      1359 2.25333E+01 6.51778E-01-3.96725E-01 9.32055E+00 1.41062E-01 3.60879E+00
 -1      1360 2.16535E+01 7.94429E-01 4.50900E-01 8.98281E+00 3.72391E-01 1.01230E+01
 -1      1361 1.49515E+01-9.22350E-02-6.54722E-01 8.74623E+00 6.07127E-01 4.06353E+00
 -1      1362 1.32057E+01 3.09772E-01 5.01262E-01 6.73169E+00 1.94612E+00 1.16953E+01
 -1      1363 7.16721E+00-7.80001E-01-4.11427E-01 6.08478E+00 2.21418E+00 4.22670E+00
 -1      1364 8.15832E+00 1.37408E+00 2.18896E+00 4.78270E+00 6.94751E+00 1.29682E+01
 -1      1365 3.44277E+00-4.85597E-01 4.19770E-01 3.98736E+00 6.82916E+00 4.15118E+00
 -1      1366 7.63926E+01 7.82932E+00-3.65064E-01 2.34612E-01 4.59481E-01 8.82625E-02
 -1      1367 7.62024E+01 7.81208E+00-3.64903E-01 6.27122E-01 4.58220E-01 2.13445E-01
 -1      1368 7.56318E+01 7.76024E+00-3.64416E-01 1.25160E+00 4.54419E-01 4.26962E-01
 -1      1369 7.46811E+01 7.67344E+00-3.63589E-01 1.87082E+00 4.48022E-01 6.40628E-01
 -1      1370 7.33505E+01 7.55107E+00-3.62398E-01 2.48222E+00 4.38931E-01 8.54534E-01
 -1      1371 7.16404E+01 7.39226E+00-3.60810E-01 3.08334E+00 4.27004E-01 1.06880E+00
 -1      1372 6.95514E+01 7.19582E+00-3.58788E-01 3.67187E+00 4.12037E-01 1.28359E+00
 -1      1373 6.70840E+01 6.96020E+00-3.56298E-01 4.24576E+00 3.93763E-01 1.49913E+00
 -1      1374 6.42383E+01 6.68348E+00-3.53329E-01 4.80330E+00 3.71838E-01 1.71581E+00
 -1      1375 6.10143E+01 6.36320E+00-3.49932E-01 5.34330E+00 3.45846E-01 1.93417E+00
 -1      1376 5.74105E+01 5.99639E+00-3.46306E-01 5.86521E+00 3.15335E-01 2.15514E+00
 -1      1377 5.34235E+01 5.57938E+00-3.42902E-01 6.36920E+00 2.79962E-01 2.38008E+00
 -1      1378 4.90458E+01 5.10784E+00-3.40685E-01 6.85577E+00 2.39871E-01 2.61105E+00
 -1      1379 4.42641E+01 4.57694E+00-3.41027E-01 7.32424E+00 1.96679E-01 2.85079E+00
 -1      1380 3.90570E+01 3.98149E+00-3.46564E-01 7.76803E+00 1.55854E-01 3.10233E+00
 -1      1381 3.33971E+01 3.31765E+00-3.56650E-01 8.16261E+00 1.32297E-01 3.36747E+00
 -1      1382 2.72609E+01 2.57849E+00-3.76138E-01 8.43681E+00 1.63476E-01 3.64272E+00
 -1      1383 2.06686E+01 1.76254E+00-3.61949E-01 8.40691E+00 3.38278E-01 3.91068E+00
 -1      1384 1.37446E+01 7.95411E-01-3.62415E-01 7.64935E+00 8.69925E-01 4.12146E+00
 -1      1385 6.88801E+00-3.33916E-01 8.61691E-02 5.11876E+00 2.19923E+00 4.20604E+00
 -1      1386 3.38296E+00-1.47637E+00 3.37372E-01 3.21617E+00 5.51659E+00 4.19474E+00
 -1      1387 7.53614E+01 1.13318E+01-3.36694E-01 1.73193E-01 3.57532E-01 9.70224E-02
 -1      1388 7.51730E+01 1.13058E+01-3.36528E-01 4.62274E-01 3.56436E-01 2.20442E-01
 -1      1389 7.46080E+01 1.12275E+01-3.36030E-01 9.22562E-01 3.53140E-01 4.41046E-01
 -1      1390 7.36662E+01 1.10966E+01-3.35198E-01 1.37891E+00 3.47620E-01 6.61982E-01
 -1      1391 7.23475E+01 1.09124E+01-3.34034E-01 1.82944E+00 3.39838E-01 8.83445E-01
 -1      1392 7.06518E+01 1.06738E+01-3.32544E-01 2.27237E+00 3.29741E-01 1.10566E+00
 -1      1393 6.85785E+01 1.03795E+01-3.30750E-01 2.70607E+00 3.17270E-01 1.32890E+00
 -1      1394 6.61270E+01 1.00279E+01-3.28701E-01 3.12909E+00 3.02372E-01 1.55352E+00
 -1      1395 6.32959E+01 9.61716E+00-3.26491E-01 3.54021E+00 2.85018E-01 1.77994E+00
 -1      1396 6.00829E+01 9.14498E+00-3.24276E-01 3.93843E+00 2.65248E-01 2.00868E+00
 -1      1397 5.64848E+01 8.60902E+00-3.22300E-01 4.32282E+00 2.43253E-01 2.24038E+00
 -1      1398 5.24965E+01 8.00688E+00-3.20864E-01 4.69227E+00 2.19537E-01 2.47569E+00
 -1      1399 4.81114E+01 7.33636E+00-3.20334E-01 5.04461E+00 1.95245E-01 2.71522E+00
 -1      1400 4.33218E+01 6.59577E+00-3.20691E-01 5.37489E+00 1.72837E-01 2.95925E+00
 -1      1401 3.81197E+01 5.78351E+00-3.22134E-01 5.67157E+00 1.57570E-01 3.20745E+00
 -1      1402 3.25014E+01 4.89770E+00-3.21472E-01 5.90889E+00 1.60756E-01 3.45862E+00
 -1      1403 2.64694E+01 3.92639E+00-3.24339E-01 6.03050E+00 2.07499E-01 3.71059E+00
 -1      1404 2.00466E+01 2.84932E+00-3.01527E-01 5.91509E+00 3.55015E-01 3.95994E+00
 -1      1405 1.32786E+01 1.55698E+00-3.46234E-01 5.28278E+00 7.33298E-01 4.17989E+00
 -1      1406 6.56411E+00 8.24498E-02 2.30721E-02 3.53097E+00 1.68058E+00 4.24146E+00
 -1      1407 3.12526E+00-1.37122E+00 2.59935E-01 2.28256E+00 3.90082E+00 4.19876E+00
 -1      1408 7.46197E+01 1.39824E+01-3.19915E-01 1.27045E-01 2.77135E-01 1.03143E-01
 -1      1409 7.44325E+01 1.39493E+01-3.19780E-01 3.39184E-01 2.76279E-01 2.26370E-01
 -1      1410 7.38709E+01 1.38500E+01-3.19377E-01 6.76934E-01 2.73714E-01 4.52919E-01
 -1      1411 7.29346E+01 1.36842E+01-3.18717E-01 1.01183E+00 2.69446E-01 6.79832E-01
 -1      1412 7.16234E+01 1.34511E+01-3.17817E-01 1.34250E+00 2.63490E-01 9.07301E-01
 -1      1413 6.99366E+01 1.31501E+01-3.16706E-01 1.66761E+00 2.55872E-01 1.13553E+00
 -1      1414 6.78734E+01 1.27801E+01-3.15426E-01 1.98588E+00 2.46640E-01 1.36475E+00
 -1      1415 6.54329E+01 1.23399E+01-3.14037E-01 2.29609E+00 2.35873E-01 1.59519E+00
 -1      1416 6.26133E+01 1.18282E+01-3.12611E-01 2.59699E+00 2.23699E-01 1.82710E+00
 -1      1417 5.94128E+01 1.12436E+01-3.11229E-01 2.88727E+00 2.10325E-01 2.06070E+00
 -1      1418 5.58290E+01 1.05848E+01-3.09958E-01 3.16534E+00 1.96077E-01 2.29621E+00
 -1      1419 5.18591E+01 9.85052E+00-3.08794E-01 3.42905E+00 1.81488E-01 2.53375E+00
 -1      1420 4.75004E+01 9.03960E+00-3.07657E-01 3.67507E+00 1.67461E-01 2.77331E+00
 -1      1421 4.27509E+01 8.15084E+00-3.06089E-01 3.89795E+00 1.55645E-01 3.01471E+00
 -1      1422 3.76100E+01 7.18200E+00-3.04088E-01 4.08802E+00 1.49343E-01 3.25749E+00
 -1      1423 3.20803E+01 6.12885E+00-2.99464E-01 4.22722E+00 1.55583E-01 3.50100E+00
 -1      1424 2.61669E+01 4.97743E+00-2.99208E-01 4.27922E+00 1.90699E-01 3.74407E+00
 -1      1425 1.98854E+01 3.70885E+00-2.81310E-01 4.16402E+00 2.91436E-01 3.98269E+00
 -1      1426 1.32821E+01 2.25033E+00-3.15405E-01 3.70434E+00 5.55259E-01 4.19788E+00
 -1      1427 6.58421E+00 6.25650E-01-4.78677E-02 2.45413E+00 1.17811E+00 4.28097E+00
 -1      1428 3.18807E+00-4.64465E-01 4.47779E-01 1.55951E+00 2.72425E+00 4.27333E+00
 -1      1429 7.40970E+01 1.59757E+01-3.06998E-01 9.19554E-02 2.12209E-01 1.07729E-01
 -1      1430 7.39106E+01 1.59374E+01-3.06904E-01 2.45537E-01 2.11591E-01 2.30797E-01
 -1      1431 7.33514E+01 1.58224E+01-3.06624E-01 4.90010E-01 2.09744E-01 4.61741E-01
 -1      1432 7.24190E+01 1.56305E+01-3.06168E-01 7.32352E-01 2.06687E-01 6.92981E-01
 -1      1433 7.11133E+01 1.53613E+01-3.05552E-01 9.71500E-01 2.02452E-01 9.24663E-01
 -1      1434 6.94335E+01 1.50141E+01-3.04793E-01 1.20638E+00 1.97090E-01 1.15693E+00
 -1      1435 6.73792E+01 1.45884E+01-3.03917E-01 1.43589E+00 1.90670E-01 1.38993E+00
 -1      1436 6.49495E+01 1.40834E+01-3.02944E-01 1.65889E+00 1.83287E-01 1.62378E+00
 -1      1437 6.21432E+01 1.34981E+01-3.01890E-01 1.87412E+00 1.75066E-01 1.85861E+00
 -1      1438 5.89595E+01 1.28317E+01-3.00752E-01 2.08016E+00 1.66175E-01 2.09451E+00
 -1      1439 5.53971E+01 1.20832E+01-2.99496E-01 2.27532E+00 1.56841E-01 2.33152E+00
 -1      1440 5.14551E+01 1.12515E+01-2.98028E-01 2.45747E+00 1.47392E-01 2.56966E+00
 -1      1441 4.71328E+01 1.03353E+01-2.96232E-01 2.62377E+00 1.38363E-01 2.80884E+00
 -1      1442 4.24305E+01 9.33302E+00-2.93795E-01 2.77020E+00 1.30732E-01 3.04888E+00
 -1      1443 3.73493E+01 8.24173E+00-2.91029E-01 2.89034E+00 1.26536E-01 3.28946E+00
 -1      1444 3.18915E+01 7.05707E+00-2.86730E-01 2.97264E+00 1.30275E-01 3.53023E+00
 -1      1445 2.60598E+01 5.76736E+00-2.87895E-01 2.99338E+00 1.52684E-01 3.77118E+00
 -1      1446 1.98603E+01 4.35890E+00-2.77355E-01 2.90028E+00 2.19127E-01 4.01151E+00
 -1      1447 1.33080E+01 2.77254E+00-3.18695E-01 2.56702E+00 3.91392E-01 4.23862E+00
 -1      1448 6.62440E+00 1.07629E+00-7.82009E-02 1.69820E+00 8.20836E-01 4.35936E+00
 -1      1449 3.23673E+00 6.02975E-02 5.47549E-01 1.08328E+00 1.87294E+00 4.37249E+00
 -1      1450 7.37362E+01 1.74500E+01-2.97692E-01 6.50142E-02 1.58696E-01 1.11009E-01
 -1      1451 7.35504E+01 1.74080E+01-2.97623E-01 1.73615E-01 1.58270E-01 2.33895E-01
 -1      1452 7.29932E+01 1.72817E+01-2.97418E-01 3.46408E-01 1.56999E-01 4.67898E-01
 -1      1453 7.20643E+01 1.70709E+01-2.97080E-01 5.17545E-01 1.54899E-01 7.02114E-01
 -1      1454 7.07636E+01 1.67756E+01-2.96612E-01 6.86179E-01 1.51999E-01 9.36648E-01
 -1      1455 6.90906E+01 1.63951E+01-2.96020E-01 8.51427E-01 1.48337E-01 1.17160E+00
 -1      1456 6.70450E+01 1.59290E+01-2.95305E-01 1.01236E+00 1.43968E-01 1.40705E+00
 -1      1457 6.46263E+01 1.53767E+01-2.94462E-01 1.16799E+00 1.38956E-01 1.64309E+00
 -1      1458 6.18340E+01 1.47375E+01-2.93479E-01 1.31722E+00 1.33382E-01 1.87977E+00
 -1      1459 5.86678E+01 1.40105E+01-2.92331E-01 1.45885E+00 1.27346E-01 2.11716E+00
 -1      1460 5.51271E+01 1.31949E+01-2.90977E-01 1.59149E+00 1.20976E-01 2.35528E+00
 -1      1461 5.12119E+01 1.22895E+01-2.89351E-01 1.71355E+00 1.14454E-01 2.59412E+00
 -1      1462 4.69223E+01 1.12928E+01-2.87410E-01 1.82305E+00 1.08081E-01 2.83362E+00
 -1      1463 4.22588E+01 1.02033E+01-2.84994E-01 1.91737E+00 1.02437E-01 3.07369E+00
 -1      1464 3.72226E+01 9.01822E+00-2.82549E-01 1.99244E+00 9.87938E-02 3.31419E+00
 -1      1465 3.18152E+01 7.73390E+00-2.79274E-01 2.04087E+00 1.00063E-01 3.55521E+00
 -1      1466 2.60365E+01 6.34069E+00-2.81574E-01 2.04726E+00 1.13500E-01 3.79759E+00
 -1      1467 1.98864E+01 4.82766E+00-2.75169E-01 1.97602E+00 1.55811E-01 4.04200E+00
 -1      1468 1.33753E+01 3.14991E+00-3.11852E-01 1.74490E+00 2.71885E-01 4.27854E+00
 -1      1469 6.67982E+00 1.36966E+00-9.91804E-02 1.15170E+00 5.58269E-01 4.41969E+00
 -1      1470 3.28398E+00 4.41290E-01 6.24377E-01 7.32073E-01 1.27090E+00 4.44863E+00
 -1      1471 7.34957E+01 1.85062E+01-2.91045E-01 4.39731E-02 1.13107E-01 1.13295E-01
 -1      1472 7.33105E+01 1.84614E+01-2.90986E-01 1.17434E-01 1.12825E-01 2.35982E-01
 -1      1473 7.27551E+01 1.83271E+01-2.90807E-01 2.34244E-01 1.11981E-01 4.72044E-01
 -1      1474 7.18294E+01 1.81031E+01-2.90508E-01 3.49794E-01 1.10588E-01 7.08262E-01
 -1      1475 7.05332E+01 1.77890E+01-2.90087E-01 4.63434E-01 1.08662E-01 9.44713E-01
 -1      1476 6.88663E+01 1.73847E+01-2.89540E-01 5.74486E-01 1.06229E-01 1.18147E+00
 -1      1477 6.68286E+01 1.68896E+01-2.88861E-01 6.82234E-01 1.03319E-01 1.41859E+00
 -1      1478 6.44198E+01 1.63032E+01-2.88041E-01 7.85920E-01 9.99704E-02 1.65614E+00
 -1      1479 6.16399E+01 1.56248E+01-2.87065E-01 8.84727E-01 9.62277E-02 1.89418E+00
 -1      1480 5.84886E+01 1.48535E+01-2.85915E-01 9.77777E-01 9.21440E-02 2.13273E+00
 -1      1481 5.49658E+01 1.39885E+01-2.84571E-01 1.06411E+00 8.77871E-02 2.37183E+00
 -1      1482 5.10718E+01 1.30287E+01-2.82999E-01 1.14267E+00 8.32547E-02 2.61148E+00
 -1      1483 4.68067E+01 1.19727E+01-2.81197E-01 1.21222E+00 7.87179E-02 2.85167E+00
 -1      1484 4.21710E+01 1.08189E+01-2.79066E-01 1.27112E+00 7.45271E-02 3.09237E+00
 -1      1485 3.71656E+01 9.56505E+00-2.77061E-01 1.31692E+00 7.14925E-02 3.33357E+00
 -1      1486 3.17911E+01 8.20807E+00-2.74553E-01 1.34501E+00 7.15262E-02 3.57557E+00
 -1      1487 2.60456E+01 6.73965E+00-2.77630E-01 1.34554E+00 7.93445E-02 3.81956E+00
 -1      1488 1.99258E+01 5.15132E+00-2.73452E-01 1.29608E+00 1.06282E-01 4.06709E+00
 -1      1489 1.34303E+01 3.40369E+00-3.10956E-01 1.14233E+00 1.80354E-01 4.30995E+00
 -1      1490 6.71930E+00 1.57402E+00-1.15671E-01 7.53220E-01 3.66905E-01 4.46669E+00
 -1      1491 3.31648E+00 6.94619E-01 6.74429E-01 4.79023E-01 8.30664E-01 4.50598E+00
 -1      1492 7.33451E+01 1.92146E+01-2.86553E-01 2.70884E-02 7.27649E-02 1.14813E-01
 -1      1493 7.31605E+01 1.91680E+01-2.86495E-01 7.23465E-02 7.25920E-02 2.37323E-01
 -1      1494 7.26065E+01 1.90283E+01-2.86320E-01 1.44267E-01 7.20751E-02 4.74709E-01
 -1      1495 7.16833E+01 1.87952E+01-2.86027E-01 2.15331E-01 7.12201E-02 7.12220E-01
 -1      1496 7.03907E+01 1.84686E+01-2.85613E-01 2.85095E-01 7.00366E-02 9.49917E-01
 -1      1497 6.87286E+01 1.80481E+01-2.85073E-01 3.53103E-01 6.85376E-02 1.18786E+00
 -1      1498 6.66971E+01 1.75332E+01-2.84402E-01 4.18876E-01 6.67395E-02 1.42610E+00
 -1      1499 6.42959E+01 1.69234E+01-2.83594E-01 4.81916E-01 6.46617E-02 1.66468E+00
 -1      1500 6.15251E+01 1.62181E+01-2.82640E-01 5.41698E-01 6.23266E-02 1.90367E+00
 -1      1501 5.83847E+01 1.54165E+01-2.81533E-01 5.97669E-01 5.97607E-02 2.14308E+00
 -1      1502 5.48747E+01 1.45176E+01-2.80264E-01 6.49248E-01 5.69982E-02 2.38297E+00
 -1      1503 5.09952E+01 1.35204E+01-2.78817E-01 6.95808E-01 5.40908E-02 2.62334E+00
 -1      1504 4.67464E+01 1.24238E+01-2.77209E-01 7.36636E-01 5.11351E-02 2.86420E+00
 -1      1505 4.21288E+01 1.12262E+01-2.75363E-01 7.70823E-01 4.83381E-02 3.10556E+00
 -1      1506 3.71428E+01 9.92576E+00-2.73737E-01 7.96959E-01 4.61870E-02 3.34746E+00
 -1      1507 3.17884E+01 8.51978E+00-2.71829E-01 8.12380E-01 4.58270E-02 3.59031E+00
 -1      1508 2.60627E+01 7.00106E+00-2.75474E-01 8.11344E-01 5.01304E-02 3.83551E+00
 -1      1509 1.99590E+01 5.36239E+00-2.73327E-01 7.80273E-01 6.56856E-02 4.08518E+00
 -1      1510 1.34726E+01 3.57086E+00-3.10031E-01 6.86931E-01 1.09881E-01 4.33248E+00
 -1      1511 6.74952E+00 1.70526E+00-1.25659E-01 4.52549E-01 2.21177E-01 4.49896E+00
 -1      1512 3.34018E+00 8.59293E-01 7.07678E-01 2.87525E-01 4.99357E-01 4.54502E+00
 -1      1513 7.32632E+01 1.96218E+01-2.83932E-01 1.28843E-02 3.56224E-02 1.15688E-01
 -1      1514 7.30789E+01 1.95742E+01-2.83874E-01 3.44123E-02 3.55399E-02 2.38076E-01
 -1      1515 7.25259E+01 1.94313E+01-2.83698E-01 6.86087E-02 3.52934E-02 4.76208E-01
 -1      1516 7.16043E+01 1.91930E+01-2.83405E-01 1.02371E-01 3.48852E-02 7.14449E-01
 -1      1517 7.03140E+01 1.88590E+01-2.82991E-01 1.35476E-01 3.43194E-02 9.52854E-01
 -1      1518 6.86550E+01 1.84291E+01-2.82454E-01 1.67694E-01 3.36017E-02 1.19148E+00
 -1      1519 6.66272E+01 1.79026E+01-2.81790E-01 1.98789E-01 3.27388E-02 1.43036E+00
 -1      1520 6.42307E+01 1.72792E+01-2.80997E-01 2.28515E-01 3.17387E-02 1.66956E+00
 -1      1521 6.14655E+01 1.65582E+01-2.80072E-01 2.56619E-01 3.06108E-02 1.90912E+00
 -1      1522 5.83316E+01 1.57388E+01-2.79011E-01 2.82837E-01 2.93660E-02 2.14907E+00
 -1      1523 5.48289E+01 1.48201E+01-2.77814E-01 3.06899E-01 2.80190E-02 2.38945E+00
 -1      1524 5.09578E+01 1.38012E+01-2.76472E-01 3.28515E-01 2.65927E-02 2.63029E+00
 -1      1525 4.67183E+01 1.26809E+01-2.75008E-01 3.47366E-01 2.51315E-02 2.87161E+00
 -1      1526 4.21107E+01 1.14580E+01-2.73360E-01 3.63043E-01 2.37315E-02 3.11341E+00
 -1      1527 3.71352E+01 1.01307E+01-2.71983E-01 3.74906E-01 2.26195E-02 3.35577E+00
 -1      1528 3.17916E+01 8.69660E+00-2.70431E-01 3.81739E-01 2.23333E-02 3.59917E+00
 -1      1529 2.60761E+01 7.14911E+00-2.74446E-01 3.80845E-01 2.41973E-02 3.84513E+00
 -1      1530 1.99811E+01 5.48205E+00-2.73136E-01 3.65959E-01 3.13878E-02 4.09610E+00
 -1      1531 1.34985E+01 3.66460E+00-3.09662E-01 3.21947E-01 5.18810E-02 4.34585E+00
 -1      1532 6.76704E+00 1.77927E+00-1.31532E-01 2.12002E-01 1.03906E-01 4.51787E+00
 -1      1533 3.35352E+00 9.51207E-01 7.26103E-01 1.34709E-01 2.33984E-01 4.56771E+00
 -1      1534 7.32373E+01 1.97547E+01-2.83069E-01 2.54587E-13-5.15350E-13 1.15974E-01
 -1      1535 7.30531E+01 1.97067E+01-2.83011E-01 5.52240E-13-3.68879E-13 2.38320E-01
 -1      1536 7.25005E+01 1.95628E+01-2.82835E-01 1.20632E-12-1.09213E-13 4.76693E-01
 -1      1537 7.15794E+01 1.93227E+01-2.82541E-01 1.64133E-12 4.39150E-14 7.15171E-01
 -1      1538 7.02899E+01 1.89863E+01-2.82127E-01 1.88376E-12-2.62282E-13 9.53807E-01
 -1      1539 6.86319E+01 1.85532E+01-2.81592E-01 2.26605E-12-2.47126E-13 1.19265E+00
 -1      1540 6.66054E+01 1.80230E+01-2.80932E-01 2.72903E-12-2.66059E-13 1.43175E+00
 -1      1541 6.42105E+01 1.73951E+01-2.80146E-01 3.05862E-12-2.02373E-13 1.67115E+00
 -1      1542 6.14471E+01 1.66689E+01-2.79233E-01 3.42999E-12-3.80924E-13 1.91090E+00
 -1      1543 5.83153E+01 1.58437E+01-2.78191E-01 3.88434E-12-4.41350E-13 2.15103E+00
 -1      1544 5.48151E+01 1.49185E+01-2.77022E-01 4.36041E-12-7.16517E-13 2.39158E+00
 -1      1545 5.09467E+01 1.38925E+01-2.75720E-01 4.65917E-12-6.11443E-13 2.63259E+00
 -1      1546 4.67101E+01 1.27645E+01-2.74309E-01 4.96900E-12-7.04030E-13 2.87406E+00
 -1      1547 4.21057E+01 1.15333E+01-2.72729E-01 5.42422E-12-3.33547E-13 3.11601E+00
 -1      1548 3.71336E+01 1.01971E+01-2.71435E-01 5.72452E-12-5.08947E-13 3.35854E+00
 -1      1549 3.17934E+01 8.75390E+00-2.70003E-01 5.85702E-12-7.00343E-14 3.60213E+00
 -1      1550 2.60811E+01 7.19709E+00-2.74090E-01 5.89145E-12-2.10010E-14 3.84835E+00
 -1      1551 1.99886E+01 5.52064E+00-2.73132E-01 5.59505E-12 1.76689E-13 4.09972E+00
 -1      1552 1.35071E+01 3.69503E+00-3.09553E-01 4.99704E-12 4.51882E-13 4.35029E+00
 -1      1553 6.77298E+00 1.80309E+00-1.33378E-01 3.21194E-12 1.37206E-12 4.52408E+00
 -1      1554 3.35805E+00 9.80954E-01 7.32141E-01 1.86452E-12 3.62664E-12 4.57513E+00
 -1      1555 7.32632E+01 1.96218E+01-2.83932E-01-1.28843E-02-3.56224E-02 1.15688E-01
 -1      1556 7.30789E+01 1.95742E+01-2.83874E-01-3.44123E-02-3.55399E-02 2.38076E-01
 -1      1557 7.25259E+01 1.94313E+01-2.83698E-01-6.86087E-02-3.52934E-02 4.76208E-01
 -1      1558 7.16043E+01 1.91930E+01-2.83405E-01-1.02371E-01-3.48852E-02 7.14449E-01
 -1      1559 7.03140E+01 1.88590E+01-2.82991E-01-1.35476E-01-3.43194E-02 9.52854E-01
 -1      1560 6.86550E+01 1.84291E+01-2.82454E-01-1.67694E-01-3.36017E-02 1.19148E+00
 -1      1561 6.66272E+01 1.79026E+01-2.81790E-01-1.98789E-01-3.27388E-02 1.43036E+00
 -1      1562 6.42307E+01 1.72792E+01-2.80997E-01-2.28515E-01-3.17387E-02 1.66956E+00
 -1      1563 6.14655E+01 1.65582E+01-2.80072E-01-2.56619E-01-3.06108E-02 1.90912E+00
 -1      1564 5.83316E+01 1.57388E+01-2.79011E-01-2.82837E-01-2.93660E-02 2.14907E+00
 -1      1565 5.48289E+01 1.48201E+01-2.77814E-01-3.06899E-01-2.80190E-02 2.38945E+00
 -1      1566 5.09578E+01 1.38012E+01-2.76472E-01-3.28515E-01-2.65927E-02 2.63029E+00
 -1      1567 4.67183E+01 1.26809E+01-2.75008E-01-3.47366E-01-2.51315E-02 2.87161E+00
 -1      1568 4.21107E+01 1.14580E+01-2.73360E-01-3.63043E-01-2.37315E-02 3.11341E+00
 -1      1569 3.71352E+01 1.01307E+01-2.71983E-01-3.74906E-01-2.26195E-02 3.35577E+00
 -1      1570 3.17916E+01 8.69660E+00-2.70431E-01-3.81739E-01-2.23333E-02 3.59917E+00
 -1      1571 2.60761E+01 7.14911E+00-2.74446E-01-3.80845E-01-2.41973E-02 3.84513E+00
 -1      1572 1.99811E+01 5.48205E+00-2.73136E-01-3.65959E-01-3.13878E-02 4.09610E+00
 -1      1573 1.34985E+01 3.66460E+00-3.09662E-01-3.21947E-01-5.18810E-02 4.34585E+00
 -1      1574 6.76704E+00 1.77927E+00-1.31532E-01-2.12002E-01-1.03906E-01 4.51787E+00
 -1      1575 3.35352E+00 9.51207E-01 7.26103E-01-1.34709E-01-2.33984E-01 4.56771E+00
 -1      1576 7.33451E+01 1.92146E+01-2.86553E-01-2.70884E-02-7.27649E-02 1.14813E-01
 -1      1577 7.31605E+01 1.91680E+01-2.86495E-01-7.23465E-02-7.25920E-02 2.37323E-01
 -1      1578 7.26065E+01 1.90283E+01-2.86320E-01-1.44267E-01-7.20751E-02 4.74709E-01
 -1      1579 7.16833E+01 1.87952E+01-2.86027E-01-2.15331E-01-7.12201E-02 7.12220E-01
 -1      1580 7.03907E+01 1.84686E+01-2.85613E-01-2.85095E-01-7.00366E-02 9.49917E-01
 -1      1581 6.87286E+01 1.80481E+01-2.85073E-01-3.53103E-01-6.85376E-02 1.18786E+00
 -1      1582 6.66971E+01 1.75332E+01-2.84402E-01-4.18876E-01-6.67395E-02 1.42610E+00
 -1      1583 6.42959E+01 1.69234E+01-2.83594E-01-4.81916E-01-6.46617E-02 1.66468E+00
 -1      1584 6.15251E+01 1.62181E+01-2.82640E-01-5.41698E-01-6.23266E-02 1.90367E+00
 -1      1585 5.83847E+01 1.54165E+01-2.81533E-01-5.97669E-01-5.97607E-02 2.14308E+00
 -1      1586 5.48747E+01 1.45176E+01-2.80264E-01-6.49248E-01-5.69982E-02 2.38297E+00
 -1      1587 5.09952E+01 1.35204E+01-2.78817E-01-6.95808E-01-5.40908E-02 2.62334E+00
 -1      1588 4.67464E+01 1.24238E+01-2.77209E-01-7.36636E-01-5.11351E-02 2.86420E+00
 -1      1589 4.21288E+01 1.12262E+01-2.75363E-01-7.70823E-01-4.83381E-02 3.10556E+00
 -1      1590 3.71428E+01 9.92576E+00-2.73737E-01-7.96959E-01-4.61870E-02 3.34746E+00
 -1      1591 3.17884E+01 8.51978E+00-2.71829E-01-8.12380E-01-4.58270E-02 3.59031E+00
 -1      1592 2.60627E+01 7.00106E+00-2.75474E-01-8.11344E-01-5.01304E-02 3.83551E+00
 -1      1593 1.99590E+01 5.36239E+00-2.73327E-01-7.80273E-01-6.56856E-02 4.08518E+00
 -1      1594 1.34726E+01 3.57086E+00-3.10031E-01-6.86931E-01-1.09881E-01 4.33248E+00
 -1      1595 6.74952E+00 1.70526E+00-1.25659E-01-4.52549E-01-2.21177E-01 4.49896E+00
 -1      1596 3.34018E+00 8.59293E-01 7.07678E-01-2.87525E-01-4.99357E-01 4.54502E+00
 -1      1597 7.34957E+01 1.85062E+01-2.91045E-01-4.39731E-02-1.13107E-01 1.13295E-01
 -1      1598 7.33105E+01 1.84614E+01-2.90986E-01-1.17434E-01-1.12825E-01 2.35982E-01
 -1      1599 7.27551E+01 1.83271E+01-2.90807E-01-2.34244E-01-1.11981E-01 4.72044E-01
 -1      1600 7.18294E+01 1.81031E+01-2.90508E-01-3.49794E-01-1.10588E-01 7.08262E-01
 -1      1601 7.05332E+01 1.77890E+01-2.90087E-01-4.63434E-01-1.08662E-01 9.44713E-01
 -1      1602 6.88663E+01 1.73847E+01-2.89540E-01-5.74486E-01-1.06229E-01 1.18147E+00
 -1      1603 6.68286E+01 1.68896E+01-2.88861E-01-6.82234E-01-1.03319E-01 1.41859E+00
 -1      1604 6.44198E+01 1.63032E+01-2.88041E-01-7.85920E-01-9.99704E-02 1.65614E+00
 -1      1605 6.16399E+01 1.56248E+01-2.87065E-01-8.84727E-01-9.62277E-02 1.89418E+00
 -1      1606 5.84886E+01 1.48535E+01-2.85915E-01-9.77777E-01-9.21440E-02 2.13273E+00
 -1      1607 5.49658E+01 1.39885E+01-2.84571E-01-1.06411E+00-8.77871E-02 2.37183E+00
 -1      1608 5.10718E+01 1.30287E+01-2.82999E-01-1.14267E+00-8.32547E-02 2.61148E+00
 -1      1609 4.68067E+01 1.19727E+01-2.81197E-01-1.21222E+00-7.87179E-02 2.85167E+00
 -1      1610 4.21710E+01 1.08189E+01-2.79066E-01-1.27112E+00-7.45271E-02 3.09237E+00
 -1      1611 3.71656E+01 9.56505E+00-2.77061E-01-1.31692E+00-7.14925E-02 3.33357E+00
 -1      1612 3.17911E+01 8.20807E+00-2.74553E-01-1.34501E+00-7.15262E-02 3.57557E+00
 -1      1613 2.60456E+01 6.73965E+00-2.77630E-01-1.34554E+00-7.93445E-02 3.81956E+00
 -1      1614 1.99258E+01 5.15132E+00-2.73452E-01-1.29608E+00-1.06282E-01 4.06709E+00
 -1      1615 1.34303E+01 3.40369E+00-3.10956E-01-1.14233E+00-1.80354E-01 4.30995E+00
 -1      1616 6.71930E+00 1.57402E+00-1.15671E-01-7.53220E-01-3.66905E-01 4.46669E+00
 -1      1617 3.31648E+00 6.94619E-01 6.74429E-01-4.79023E-01-8.30664E-01 4.50598E+00
 -1      1618 7.37362E+01 1.74500E+01-2.97692E-01-6.50142E-02-1.58696E-01 1.11009E-01
 -1      1619 7.35504E+01 1.74080E+01-2.97623E-01-1.73615E-01-1.58270E-01 2.33895E-01
 -1      1620 7.29932E+01 1.72817E+01-2.97418E-01-3.46408E-01-1.56999E-01 4.67898E-01
 -1      1621 7.20643E+01 1.70709E+01-2.97080E-01-5.17545E-01-1.54899E-01 7.02114E-01
 -1      1622 7.07636E+01 1.67756E+01-2.96612E-01-6.86179E-01-1.51999E-01 9.36648E-01
 -1      1623 6.90906E+01 1.63951E+01-2.96020E-01-8.51427E-01-1.48337E-01 1.17160E+00
 -1      1624 6.70450E+01 1.59290E+01-2.95305E-01-1.01236E+00-1.43968E-01 1.40705E+00
 -1      1625 6.46263E+01 1.53767E+01-2.94462E-01-1.16799E+00-1.38956E-01 1.64309E+00
 -1      1626 6.18340E+01 1.47375E+01-2.93479E-01-1.31722E+00-1.33382E-01 1.87977E+00
 -1      1627 5.86678E+01 1.40105E+01-2.92331E-01-1.45885E+00-1.27346E-01 2.11716E+00
 -1      1628 5.51271E+01 1.31949E+01-2.90977E-01-1.59149E+00-1.20976E-01 2.35528E+00
 -1      1629 5.12119E+01 1.22895E+01-2.89351E-01-1.71355E+00-1.14454E-01 2.59412E+00
 -1      1630 4.69223E+01 1.12928E+01-2.87410E-01-1.82305E+00-1.08081E-01 2.83362E+00
 -1      1631 4.22588E+01 1.02033E+01-2.84994E-01-1.91737E+00-1.02437E-01 3.07369E+00
 -1      1632 3.72226E+01 9.01822E+00-2.82549E-01-1.99244E+00-9.87938E-02 3.31419E+00
 -1      1633 3.18152E+01 7.73390E+00-2.79274E-01-2.04087E+00-1.00063E-01 3.55521E+00
 -1      1634 2.60365E+01 6.34069E+00-2.81574E-01-2.04726E+00-1.13500E-01 3.79759E+00
 -1      1635 1.98864E+01 4.82766E+00-2.75169E-01-1.97602E+00-1.55811E-01 4.04200E+00
 -1      1636 1.33753E+01 3.14991E+00-3.11852E-01-1.74490E+00-2.71885E-01 4.27854E+00
 -1      1637 6.67982E+00 1.36966E+00-9.91804E-02-1.15170E+00-5.58269E-01 4.41969E+00
 -1      1638 3.28398E+00 4.41290E-01 6.24377E-01-7.32073E-01-1.27090E+00 4.44863E+00
 -1      1639 7.40970E+01 1.59757E+01-3.06998E-01-9.19554E-02-2.12209E-01 1.07729E-01
 -1      1640 7.39106E+01 1.59374E+01-3.06904E-01-2.45537E-01-2.11591E-01 2.30797E-01
 -1      1641 7.33514E+01 1.58224E+01-3.06624E-01-4.90010E-01-2.09744E-01 4.61741E-01
 -1      1642 7.24190E+01 1.56305E+01-3.06168E-01-7.32352E-01-2.06687E-01 6.92981E-01
 -1      1643 7.11133E+01 1.53613E+01-3.05552E-01-9.71500E-01-2.02452E-01 9.24663E-01
 -1      1644 6.94335E+01 1.50141E+01-3.04793E-01-1.20638E+00-1.97090E-01 1.15693E+00
 -1      1645 6.73792E+01 1.45884E+01-3.03917E-01-1.43589E+00-1.90670E-01 1.38993E+00
 -1      1646 6.49495E+01 1.40834E+01-3.02944E-01-1.65889E+00-1.83287E-01 1.62378E+00
 -1      1647 6.21432E+01 1.34981E+01-3.01890E-01-1.87412E+00-1.75066E-01 1.85861E+00
 -1      1648 5.89595E+01 1.28317E+01-3.00752E-01-2.08016E+00-1.66175E-01 2.09451E+00
 -1      1649 5.53971E+01 1.20832E+01-2.99496E-01-2.27532E+00-1.56841E-01 2.33152E+00
 -1      1650 5.14551E+01 1.12515E+01-2.98028E-01-2.45747E+00-1.47392E-01 2.56966E+00
 -1      1651 4.71328E+01 1.03353E+01-2.96232E-01-2.62377E+00-1.38363E-01 2.80884E+00
 -1      1652 4.24305E+01 9.33302E+00-2.93795E-01-2.77020E+00-1.30732E-01 3.04888E+00
 -1      1653 3.73493E+01 8.24173E+00-2.91029E-01-2.89034E+00-1.26536E-01 3.28946E+00
 -1      1654 3.18915E+01 7.05707E+00-2.86730E-01-2.97264E+00-1.30275E-01 3.53023E+00
 -1      1655 2.60598E+01 5.76736E+00-2.87895E-01-2.99338E+00-1.52684E-01 3.77118E+00
 -1      1656 1.98603E+01 4.35890E+00-2.77355E-01-2.90028E+00-2.19127E-01 4.01151E+00
 -1      1657 1.33080E+01 2.77254E+00-3.18695E-01-2.56702E+00-3.91392E-01 4.23862E+00
 -1      1658 6.62440E+00 1.07629E+00-7.82009E-02-1.69820E+00-8.20836E-01 4.35936E+00
 -1      1659 3.23673E+00 6.02975E-02 5.47549E-01-1.08328E+00-1.87294E+00 4.37249E+00
 -1      1660 7.46197E+01 1.39824E+01-3.19915E-01-1.27045E-01-2.77135E-01 1.03143E-01
 -1      1661 7.44325E+01 1.39493E+01-3.19780E-01-3.39184E-01-2.76279E-01 2.26370E-01
 -1      1662 7.38709E+01 1.38500E+01-3.19377E-01-6.76934E-01-2.73714E-01 4.52919E-01
 -1      1663 7.29346E+01 1.36842E+01-3.18717E-01-1.01183E+00-2.69446E-01 6.79832E-01
 -1      1664 7.16234E+01 1.34511E+01-3.17817E-01-1.34250E+00-2.63490E-01 9.07301E-01
 -1      1665 6.99366E+01 1.31501E+01-3.16706E-01-1.66761E+00-2.55872E-01 1.13553E+00
 -1      1666 6.78734E+01 1.27801E+01-3.15426E-01-1.98588E+00-2.46640E-01 1.36475E+00
 -1      1667 6.54329E+01 1.23399E+01-3.14037E-01-2.29609E+00-2.35873E-01 1.59519E+00
 -1      1668 6.26133E+01 1.18282E+01-3.12611E-01-2.59699E+00-2.23699E-01 1.82710E+00
 -1      1669 5.94128E+01 1.12436E+01-3.11229E-01-2.88727E+00-2.10325E-01 2.06070E+00
 -1      1670 5.58290E+01 1.05848E+01-3.09958E-01-3.16534E+00-1.96077E-01 2.29621E+00
 -1      1671 5.18591E+01 9.85052E+00-3.08794E-01-3.42905E+00-1.81488E-01 2.53375E+00
 -1      1672 4.75004E+01 9.03960E+00-3.07657E-01-3.67507E+00-1.67461E-01 2.77331E+00
 -1      1673 4.27509E+01 8.15084E+00-3.06089E-01-3.89795E+00-1.55645E-01 3.01471E+00
 -1      1674 3.76100E+01 7.18200E+00-3.04088E-01-4.08802E+00-1.49343E-01 3.25749E+00
 -1      1675 3.20803E+01 6.12885E+00-2.99464E-01-4.22722E+00-1.55583E-01 3.50100E+00
 -1      1676 2.61669E+01 4.97743E+00-2.99208E-01-4.27922E+00-1.90699E-01 3.74407E+00
 -1      1677 1.98854E+01 3.70885E+00-2.81310E-01-4.16402E+00-2.91436E-01 3.98269E+00
 -1      1678 1.32821E+01 2.25033E+00-3.15405E-01-3.70434E+00-5.55259E-01 4.19788E+00
 -1      1679 6.58421E+00 6.25650E-01-4.78677E-02-2.45413E+00-1.17811E+00 4.28097E+00
 -1      1680 3.18807E+00-4.64465E-01 4.47779E-01-1.55951E+00-2.72425E+00 4.27333E+00
 -1      1681 7.53614E+01 1.13318E+01-3.36694E-01-1.73193E-01-3.57532E-01 9.70224E-02
 -1      1682 7.51730E+01 1.13058E+01-3.36528E-01-4.62274E-01-3.56436E-01 2.20442E-01
 -1      1683 7.46080E+01 1.12275E+01-3.36030E-01-9.22562E-01-3.53140E-01 4.41046E-01
 -1      1684 7.36662E+01 1.10966E+01-3.35198E-01-1.37891E+00-3.47620E-01 6.61982E-01
 -1      1685 7.23475E+01 1.09124E+01-3.34034E-01-1.82944E+00-3.39838E-01 8.83445E-01
 -1      1686 7.06518E+01 1.06738E+01-3.32544E-01-2.27237E+00-3.29741E-01 1.10566E+00
 -1      1687 6.85785E+01 1.03795E+01-3.30750E-01-2.70607E+00-3.17270E-01 1.32890E+00
 -1      1688 6.61270E+01 1.00279E+01-3.28701E-01-3.12909E+00-3.02372E-01 1.55352E+00
 -1      1689 6.32959E+01 9.61716E+00-3.26491E-01-3.54021E+00-2.85018E-01 1.77994E+00
 -1      1690 6.00829E+01 9.14498E+00-3.24276E-01-3.93843E+00-2.65248E-01 2.00868E+00
 -1      1691 5.64848E+01 8.60902E+00-3.22300E-01-4.32282E+00-2.43253E-01 2.24038E+00
 -1      1692 5.24965E+01 8.00688E+00-3.20864E-01-4.69227E+00-2.19537E-01 2.47569E+00
 -1      1693 4.81114E+01 7.33636E+00-3.20334E-01-5.04461E+00-1.95245E-01 2.71522E+00
 -1      1694 4.33218E+01 6.59577E+00-3.20691E-01-5.37489E+00-1.72837E-01 2.95925E+00
 -1      1695 3.81197E+01 5.78351E+00-3.22134E-01-5.67157E+00-1.57570E-01 3.20745E+00
 -1      1696 3.25014E+01 4.89770E+00-3.21472E-01-5.90889E+00-1.60756E-01 3.45862E+00
 -1      1697 2.64694E+01 3.92639E+00-3.24339E-01-6.03050E+00-2.07499E-01 3.71059E+00
 -1      1698 2.00466E+01 2.84932E+00-3.01527E-01-5.91509E+00-3.55015E-01 3.95994E+00
 -1      1699 1.32786E+01 1.55698E+00-3.46234E-01-5.28278E+00-7.33298E-01 4.17989E+00
 -1      1700 6.56411E+00 8.24498E-02 2.30721E-02-3.53097E+00-1.68058E+00 4.24146E+00
 -1      1701 3.12526E+00-1.37122E+00 2.59935E-01-2.28256E+00-3.90082E+00 4.19876E+00
 -1      1702 7.63926E+01 7.82932E+00-3.65064E-01-2.34612E-01-4.59481E-01 8.82625E-02
 -1      1703 7.62024E+01 7.81208E+00-3.64903E-01-6.27122E-01-4.58220E-01 2.13445E-01
 -1      1704 7.56318E+01 7.76024E+00-3.64416E-01-1.25160E+00-4.54419E-01 4.26962E-01
 -1      1705 7.46811E+01 7.67344E+00-3.63589E-01-1.87082E+00-4.48022E-01 6.40628E-01
 -1      1706 7.33505E+01 7.55107E+00-3.62398E-01-2.48222E+00-4.38931E-01 8.54534E-01
 -1      1707 7.16404E+01 7.39226E+00-3.60810E-01-3.08334E+00-4.27004E-01 1.06880E+00
 -1      1708 6.95514E+01 7.19582E+00-3.58788E-01-3.67187E+00-4.12037E-01 1.28359E+00
 -1      1709 6.70840E+01 6.96020E+00-3.56298E-01-4.24576E+00-3.93763E-01 1.49913E+00
 -1      1710 6.42383E+01 6.68348E+00-3.53329E-01-4.80330E+00-3.71838E-01 1.71581E+00
 -1      1711 6.10143E+01 6.36320E+00-3.49932E-01-5.34330E+00-3.45846E-01 1.93417E+00
 -1      1712 5.74105E+01 5.99639E+00-3.46306E-01-5.86521E+00-3.15335E-01 2.15514E+00
 -1      1713 5.34235E+01 5.57938E+00-3.42902E-01-6.36920E+00-2.79962E-01 2.38008E+00
 -1      1714 4.90458E+01 5.10784E+00-3.40685E-01-6.85577E+00-2.39871E-01 2.61105E+00
 -1      1715 4.42641E+01 4.57694E+00-3.41027E-01-7.32424E+00-1.96679E-01 2.85079E+00
 -1      1716 3.90570E+01 3.98149E+00-3.46564E-01-7.76803E+00-1.55854E-01 3.10233E+00
 -1      1717 3.33971E+01 3.31765E+00-3.56650E-01-8.16261E+00-1.32297E-01 3.36747E+00
 -1      1718 2.72609E+01 2.57849E+00-3.76138E-01-8.43681E+00-1.63476E-01 3.64272E+00
 -1      1719 2.06686E+01 1.76254E+00-3.61949E-01-8.40691E+00-3.38278E-01 3.91068E+00
 -1      1720 1.37446E+01 7.95411E-01-3.62415E-01-7.64935E+00-8.69925E-01 4.12146E+00
 -1      1721 6.88801E+00-3.33916E-01 8.61691E-02-5.11876E+00-2.19923E+00 4.20604E+00
 -1      1722 3.38296E+00-1.47637E+00 3.37372E-01-3.21617E+00-5.51659E+00 4.19474E+00
 -1      1723 7.81850E+01 3.98528E+00-7.27813E-02-2.70074E-01-4.68154E-01 1.41073E-01
 -1      1724 7.79914E+01 3.97691E+00-7.32011E-02-6.65384E-01-4.67058E-01 1.96240E-01
 -1      1725 7.74109E+01 3.95174E+00-7.44589E-02-1.32813E+00-4.63753E-01 3.92461E-01
 -1      1726 7.64438E+01 3.90958E+00-7.65497E-02-1.98563E+00-4.58187E-01 5.88640E-01
 -1      1727 7.50905E+01 3.85011E+00-7.94628E-02-2.63525E+00-4.50265E-01 7.84740E-01
 -1      1728 7.33522E+01 3.77287E+00-8.31783E-02-3.27443E+00-4.39843E-01 9.80707E-01
 -1      1729 7.12300E+01 3.67722E+00-8.76618E-02-3.90067E+00-4.26709E-01 1.17646E+00
 -1      1730 6.87259E+01 3.56235E+00-9.28549E-02-4.51161E+00-4.10557E-01 1.37187E+00
 -1      1731 6.58422E+01 3.42717E+00-9.86661E-02-5.10510E+00-3.90949E-01 1.56678E+00
 -1      1732 6.25824E+01 3.27031E+00-1.04962E-01-5.67942E+00-3.67260E-01 1.76100E+00
 -1      1733 5.89509E+01 3.08995E+00-1.11589E-01-6.23355E+00-3.38606E-01 1.95437E+00
 -1      1734 5.49529E+01 2.88364E+00-1.18446E-01-6.76750E+00-3.03780E-01 2.14695E+00
 -1      1735 5.05934E+01 2.64789E+00-1.25867E-01-7.28283E+00-2.61280E-01 2.33947E+00
 -1      1736 4.58739E+01 2.37742E+00-1.35171E-01-7.78263E+00-2.09722E-01 2.53445E+00
 -1      1737 4.07833E+01 2.06321E+00-1.51575E-01-8.26965E+00-1.49479E-01 2.73838E+00
 -1      1738 3.52800E+01 1.69055E+00-1.84400E-01-8.73772E+00-8.78793E-02 2.96569E+00
 -1      1739 2.92589E+01 1.23024E+00-2.64648E-01-9.14289E+00-5.41851E-02 3.24370E+00
 -1      1740 2.25333E+01 6.51778E-01-3.96725E-01-9.32055E+00-1.41062E-01 3.60879E+00
 -1      1741 1.49515E+01-9.22350E-02-6.54722E-01-8.74623E+00-6.07127E-01 4.06353E+00
 -1      1742 7.16721E+00-7.80001E-01-4.11427E-01-6.08478E+00-2.21418E+00 4.22670E+00
 -1      1743 3.44277E+00-4.85597E-01 4.19770E-01-3.98736E+00-6.82916E+00 4.15118E+00
 -1      1744 7.86941E+01 1.96544E+00 6.96726E-02-2.87012E-01-4.27793E-01 3.99858E-01
 -1      1745 7.84995E+01 1.96140E+00 6.89629E-02-6.42073E-01-4.26912E-01 6.96340E-01
 -1      1746 7.79159E+01 1.94926E+00 6.68322E-02-1.28184E+00-4.24258E-01 1.39093E+00
 -1      1747 7.69436E+01 1.92892E+00 6.32761E-02-1.91697E+00-4.19792E-01 2.08201E+00
 -1      1748 7.55833E+01 1.90025E+00 5.82893E-02-2.54516E+00-4.13444E-01 2.76776E+00
 -1      1749 7.38362E+01 1.86302E+00 5.18688E-02-3.16405E+00-4.05104E-01 3.44630E+00
 -1      1750 7.17037E+01 1.81696E+00 4.40214E-02-3.77133E+00-3.94611E-01 4.11561E+00
 -1      1751 6.91884E+01 1.76168E+00 3.47791E-02-4.36467E+00-3.81720E-01 4.77352E+00
 -1      1752 6.62936E+01 1.69674E+00 2.42311E-02-4.94180E+00-3.66064E-01 5.41758E+00
 -1      1753 6.30248E+01 1.62161E+00 1.25958E-02-5.50063E+00-3.47076E-01 6.04496E+00
 -1      1754 5.93904E+01 1.53573E+00 3.67440E-04-6.03936E+00-3.23857E-01 6.65209E+00
 -1      1755 5.54039E+01 1.43875E+00-1.13343E-02-6.55686E+00-2.94971E-01 7.23433E+00
 -1      1756 5.10885E+01 1.33099E+00-2.01633E-02-7.05319E+00-2.58150E-01 7.78511E+00
 -1      1757 4.64840E+01 1.21476E+00-2.09541E-02-7.53043E+00-2.10047E-01 8.29480E+00
 -1      1758 4.16582E+01 1.09635E+00-4.50258E-03-7.99311E+00-1.46692E-01 8.74952E+00
 -1      1759 3.67194E+01 9.90901E-01 4.88280E-02-8.44558E+00-6.70153E-02 9.13188E+00
 -1      1760 3.18056E+01 9.18849E-01 1.55426E-01-8.87553E+00 1.26044E-02 9.43101E+00
 -1      1761 2.69758E+01 9.05708E-01 3.59257E-01-9.18601E+00 1.17097E-02 9.68725E+00
 -1      1762 2.16535E+01 7.94429E-01 4.50900E-01-8.98281E+00-3.72391E-01 1.01230E+01
 -1      1763 1.32057E+01 3.09772E-01 5.01262E-01-6.73169E+00-1.94612E+00 1.16953E+01
 -1      1764 8.15832E+00 1.37408E+00 2.18896E+00-4.78270E+00-6.94751E+00 1.29682E+01
 -3
    1PSTEP                         3           1           1          
  100CL  101 1.000000000        1764                     0    1           1
 -4  TOSTRAIN    6    1
 -5  EXX         1    4    1    1
 -5  EYY         1    4    2    2
 -5  EZZ         1    4    3    3
 -5  EXY         1    4    1    2
 -5  EYZ         1    4    2    3
 -5  EZX         1    4    3    1
 -1         1-3.22980E-04 6.07364E-18 1.35814E-04 3.10222E-20-1.00383E-17 7.73779E-07
 -1         2 9.28534E-07-3.17376E-20-2.16658E-06 7.49260E-20 1.50318E-17 7.73779E-07
 -1         3 9.28534E-07-2.35989E-20-2.16658E-06 1.99146E-19-1.57513E-17 1.54756E-06
 -1         4-3.22167E-04 5.15587E-18 1.35466E-04 6.46851E-20 1.56499E-17 1.54756E-06
 -1         5-3.22980E-04-6.07364E-18 1.35814E-04 6.61337E-20 1.02169E-18 7.73779E-07
 -1         6 9.28534E-07 3.17376E-20-2.16658E-06 1.15510E-19 5.72840E-18 7.73779E-07
 -1         7 9.28534E-07 2.35989E-20-2.16658E-06 2.33010E-19-8.70394E-18 1.54756E-06
 -1         8-3.22167E-04-5.15587E-18 1.35466E-04-3.52391E-20 3.58619E-18 1.54756E-06
 -1         9 9.28534E-07 1.71906E-19-2.16658E-06-2.41259E-19 1.27624E-17 3.09511E-06
 -1        10-3.19730E-04 2.62394E-18 1.34422E-04 1.27961E-18 3.71074E-18 3.09511E-06
 -1        11 9.28534E-07-1.71906E-19-2.16658E-06-2.38566E-19 2.04227E-17 3.09511E-06
 -1        12-3.19730E-04-2.62394E-18 1.34422E-04 1.51373E-18-9.92331E-19 3.09511E-06
 -1        13 9.28534E-07 2.40344E-20-2.16658E-06 2.84057E-19-1.13949E-17 4.64267E-06
 -1        14-3.15668E-04-1.10734E-18 1.32681E-04-1.88472E-18 1.59858E-17 4.64267E-06
 -1        15 9.28534E-07-2.40344E-20-2.16658E-06 2.73171E-19-1.11380E-17 4.64267E-06
 -1        16-3.15668E-04 1.10734E-18 1.32681E-04-1.80006E-18 1.24427E-17 4.64267E-06
 -1        17 9.28534E-07-2.24176E-19-2.16658E-06 5.70933E-21 8.48744E-19 6.19023E-06
 -1        18-3.09980E-04-3.47057E-18 1.30243E-04-3.35739E-19 1.16492E-17 6.19023E-06
 -1        19 9.28534E-07 2.24176E-19-2.16658E-06 1.73119E-19-3.47885E-18 6.19023E-06
 -1        20-3.09980E-04 3.47057E-18 1.30243E-04-6.77108E-19-6.72797E-19 6.19023E-06
 -1        21 9.28534E-07 2.68808E-19-2.16658E-06-4.68828E-19-3.14210E-18 7.73779E-06
 -1        22-3.02668E-04-2.48460E-18 1.27109E-04 6.34433E-19 1.42958E-17 7.73779E-06
 -1        23 9.28534E-07-2.68808E-19-2.16658E-06-3.91953E-19-8.17123E-18 7.73779E-06
 -1        24-3.02668E-04 2.48460E-18 1.27109E-04 6.04099E-19 1.27819E-17 7.73779E-06
 -1        25 9.28534E-07 2.05142E-19-2.16658E-06 1.07730E-18 1.51272E-17 9.28534E-06
 -1        26-2.93731E-04-8.66384E-19 1.23279E-04-1.91678E-18-8.60749E-18 9.28534E-06
 -1        27 9.28534E-07-2.05142E-19-2.16658E-06 1.31486E-18 1.31602E-18 9.28534E-06
 -1        28-2.93731E-04 8.66384E-19 1.23279E-04-2.29586E-18-6.70468E-18 9.28534E-06
 -1        29 9.28535E-07 4.01309E-20-2.16658E-06-8.19787E-19 1.33854E-18 1.08329E-05
 -1        30-2.83168E-04-1.12218E-19 1.18752E-04 2.91802E-19-1.00275E-17 1.08329E-05
 -1        31 9.28535E-07-4.01309E-20-2.16658E-06-7.20736E-19 3.49074E-18 1.08329E-05
 -1        32-2.83168E-04 1.12218E-19 1.18752E-04 1.20321E-18-5.43713E-18 1.08329E-05
 -1        33 9.28535E-07 3.16616E-19-2.16658E-06 1.31409E-18 8.92591E-18 1.23805E-05
 -1        34-2.70981E-04-2.15136E-19 1.13529E-04-2.12971E-18-9.04227E-18 1.23805E-05
 -1        35 9.28535E-07-3.16616E-19-2.16658E-06 1.28393E-18-1.26922E-17 1.23805E-05
 -1        36-2.70981E-04 2.15136E-19 1.13529E-04-2.42664E-18 7.51462E-18 1.23805E-05
 -1        37 9.28531E-07 7.52813E-19-2.16658E-06-1.75860E-18-4.31662E-18 1.39280E-05
 -1        38-2.57169E-04 3.85387E-19 1.07610E-04 3.19649E-18 1.25488E-17 1.39280E-05
 -1        39 9.28531E-07-7.52813E-19-2.16658E-06-2.10636E-18-1.90644E-18 1.39280E-05
 -1        40-2.57169E-04-3.85387E-19 1.07610E-04 3.08885E-18-6.80065E-18 1.39280E-05
 -1        41 9.28510E-07 7.07263E-19-2.16656E-06 9.92228E-19 1.19374E-17 1.54756E-05
 -1        42-2.41732E-04 1.73780E-18 1.00994E-04 7.78320E-19-7.02878E-18 1.54756E-05
 -1        43 9.28510E-07-7.07263E-19-2.16656E-06 7.43833E-19 4.82842E-18 1.54756E-05
 -1        44-2.41732E-04-1.73780E-18 1.00994E-04 5.62208E-19-6.82142E-18 1.54756E-05
 -1        45 9.28433E-07 1.71895E-19-2.16651E-06-4.90767E-19-4.15324E-18 1.70231E-05
 -1        46-2.24670E-04 1.81446E-18 9.36814E-05-1.68264E-18-3.42831E-18 1.70232E-05
 -1        47 9.28433E-07-1.71895E-19-2.16651E-06-6.93334E-19-3.04567E-18 1.70231E-05
 -1        48-2.24670E-04-1.81446E-18 9.36814E-05-9.80702E-19-1.12592E-17 1.70232E-05
 -1        49 9.28231E-07-3.26585E-20-2.16638E-06 1.03539E-18-4.41924E-18 1.85707E-05
 -1        50-2.05982E-04 1.57241E-18 8.56727E-05-1.73560E-18 1.24263E-17 1.85708E-05
 -1        51 9.28231E-07 3.26585E-20-2.16638E-06 1.02479E-18-5.17731E-18 1.85707E-05
 -1        52-2.05982E-04-1.57241E-18 8.56727E-05-2.37011E-18 1.60614E-17 1.85708E-05
 -1        53 9.27990E-07-1.93816E-19-2.16631E-06-1.23834E-19 3.62605E-18 2.01182E-05
 -1        54-1.85670E-04 1.08594E-18 7.69672E-05-9.61934E-19 6.55723E-19 2.01184E-05
 -1        55 9.27990E-07 1.93816E-19-2.16631E-06-3.06824E-19 6.37664E-18 2.01182E-05
 -1        56-1.85670E-04-1.08594E-18 7.69672E-05-5.52623E-19-6.70193E-18 2.01184E-05
 -1        57 9.29104E-07 1.32944E-19-2.16742E-06-1.33068E-19-3.63949E-18 2.16658E-05
 -1        58-1.63734E-04 9.76646E-19 6.75658E-05 3.08665E-18 1.05342E-17 2.16649E-05
 -1        59 9.29104E-07-1.32944E-19-2.16742E-06-6.73749E-19-2.20797E-18 2.16658E-05
 -1        60-1.63734E-04-9.76646E-19 6.75658E-05 2.71113E-18 8.75793E-18 2.16649E-05
 -1        61 9.38839E-07 1.03537E-19-2.17504E-06 8.96855E-19-3.05049E-18 2.32134E-05
 -1        62-1.40177E-04 5.27052E-19 5.74649E-05-3.17664E-18-7.60989E-18 2.32067E-05
 -1        63 9.38839E-07-1.03537E-19-2.17504E-06 8.78467E-19-2.22626E-18 2.32134E-05
 -1        64-1.40177E-04-5.27052E-19 5.74649E-05-1.87342E-18-1.16347E-17 2.32067E-05
 -1        65 9.83185E-07 3.11864E-20-2.20678E-06-6.83563E-19-3.71536E-18 2.47609E-05
 -1        66-1.15024E-04 5.55142E-20 4.66787E-05 1.88842E-18 2.15286E-18 2.47317E-05
 -1        67 9.83185E-07-3.11864E-20-2.20678E-06-6.04431E-19-1.42823E-18 2.47609E-05
 -1        68-1.15024E-04-5.55142E-20 4.66787E-05 1.20400E-18-1.56586E-18 2.47317E-05
 -1        69 1.12622E-06-8.86589E-21-2.30089E-06 9.01455E-19 5.21691E-18 2.63085E-05
 -1        70-8.83113E-05-1.06160E-19 3.51742E-05-3.00612E-18 7.67100E-19 2.62178E-05
 -1        71 1.12622E-06 8.86589E-21-2.30089E-06 8.79601E-19 3.28710E-19 2.63085E-05
 -1        72-8.83113E-05 1.06160E-19 3.51742E-05-1.83240E-18-1.90150E-18 2.62178E-05
 -1        73 1.42376E-06-1.12898E-19-2.46425E-06-1.62595E-18 3.09604E-20 2.78560E-05
 -1        74-6.01675E-05-5.01884E-19 2.31609E-05 2.37014E-18 4.32626E-18 2.76812E-05
 -1        75 1.42376E-06 1.12898E-19-2.46425E-06-1.34482E-18-5.82981E-19 2.78560E-05
 -1        76-6.01675E-05 5.01884E-19 2.31609E-05 1.58127E-18 3.39920E-18 2.76812E-05
 -1        77 1.40032E-06 2.08821E-20-2.25419E-06 6.67482E-19 5.12335E-19 2.94036E-05
 -1        78-3.01733E-05-2.20485E-19 1.02043E-05-2.02095E-20 8.14432E-19 2.95007E-05
 -1        79 1.40032E-06-2.08821E-20-2.25419E-06 8.85790E-19 6.91925E-19 2.94036E-05
 -1        80-3.01733E-05 2.20485E-19 1.02043E-05-9.07625E-19 1.26721E-18 2.95007E-05
 -1        81 4.29924E-07-4.72761E-20-1.84225E-07-2.25095E-19 1.33244E-18 3.01774E-05
 -1        82-1.46519E-05-2.24944E-20 3.48129E-06-1.49991E-18-6.75786E-18 3.05868E-05
 -1        83 4.29924E-07 4.72761E-20-1.84225E-07-1.38948E-18 1.12558E-18 3.01774E-05
 -1        84-1.46519E-05 2.24944E-20 3.48129E-06 8.36109E-20-7.33050E-18 3.05868E-05
 -1        85 3.24837E-04-6.13711E-18-1.40148E-04 1.42137E-19-7.83267E-19 7.73779E-07
 -1        86 3.24025E-04-5.20307E-18-1.39799E-04-1.70580E-19-3.13049E-18 1.54756E-06
 -1        87 3.24837E-04 6.13711E-18-1.40148E-04 1.74336E-19-5.05861E-18 7.73779E-07
 -1        88 3.24025E-04 5.20307E-18-1.39799E-04-1.16248E-19-9.78918E-18 1.54756E-06
 -1        89 3.21587E-04-2.28013E-18-1.38755E-04-6.28952E-19 5.49665E-18 3.09511E-06
 -1        90 3.21587E-04 2.28013E-18-1.38755E-04-7.02556E-19 6.34504E-18 3.09511E-06
 -1        91 3.17525E-04 1.15541E-18-1.37014E-04 5.03157E-19-2.14841E-19 4.64267E-06
 -1        92 3.17525E-04-1.15541E-18-1.37014E-04 7.69781E-19 9.93908E-18 4.64267E-06
 -1        93 3.11837E-04 3.02222E-18-1.34576E-04 8.49493E-19-5.45117E-18 6.19023E-06
 -1        94 3.11837E-04-3.02222E-18-1.34576E-04 8.48554E-19-1.26688E-17 6.19023E-06
 -1        95 3.04525E-04 3.02221E-18-1.31442E-04-1.19248E-19 7.20887E-18 7.73779E-06
 -1        96 3.04525E-04-3.02221E-18-1.31442E-04 5.73304E-20 3.39239E-18 7.73779E-06
 -1        97 2.95588E-04 1.27667E-18-1.27612E-04-2.94085E-19 1.11093E-17 9.28534E-06
 -1        98 2.95588E-04-1.27667E-18-1.27612E-04 5.49565E-20 4.59010E-18 9.28534E-06
 -1        99 2.85025E-04 1.92480E-19-1.23085E-04 1.06413E-18 4.44619E-18 1.08329E-05
 -1       100 2.85025E-04-1.92480E-19-1.23085E-04 9.48896E-19-2.70166E-19 1.08329E-05
 -1       101 2.72838E-04 8.48367E-19-1.17862E-04-1.67850E-18-7.23328E-18 1.23805E-05
 -1       102 2.72838E-04-8.48367E-19-1.17862E-04-1.77881E-18 7.01543E-18 1.23805E-05
 -1       103 2.59026E-04 1.12024E-18-1.11943E-04 7.33818E-19 1.74859E-17 1.39280E-05
 -1       104 2.59026E-04-1.12024E-18-1.11943E-04 1.87920E-18 1.16201E-18 1.39280E-05
 -1       105 2.43589E-04-3.23276E-19-1.05327E-04-1.12072E-18 6.40197E-19 1.54756E-05
 -1       106 2.43589E-04 3.23276E-19-1.05327E-04-2.61745E-19-1.07228E-18 1.54756E-05
 -1       107 2.26527E-04-1.47067E-18-9.80146E-05 2.25212E-18-9.60019E-19 1.70231E-05
 -1       108 2.26527E-04 1.47067E-18-9.80146E-05 2.25464E-18-2.92514E-18 1.70231E-05
 -1       109 2.07840E-04-1.63772E-18-9.00059E-05-9.83306E-19-3.64899E-18 1.85706E-05
 -1       110 2.07840E-04 1.63772E-18-9.00059E-05-1.39857E-18-7.19732E-18 1.85706E-05
 -1       111 1.87528E-04-1.47358E-18-8.13008E-05 1.28595E-18 5.17741E-18 2.01181E-05
 -1       112 1.87528E-04 1.47358E-18-8.13008E-05 7.21317E-19 4.12031E-18 2.01181E-05
 -1       113 1.65591E-04-7.10757E-19-7.19002E-05-1.70254E-18 2.64813E-18 2.16667E-05
 -1       114 1.65591E-04 7.10757E-19-7.19002E-05-9.72657E-19 7.01964E-18 2.16667E-05
 -1       115 1.42022E-04-3.19979E-19-6.18009E-05-8.01218E-20 1.78681E-18 2.32200E-05
 -1       116 1.42022E-04 3.19979E-19-6.18009E-05-2.85508E-18-5.99057E-19 2.32200E-05
 -1       117 1.16807E-04 6.85863E-21-5.10137E-05 2.71086E-19 1.49869E-18 2.47901E-05
 -1       118 1.16807E-04-6.85863E-21-5.10137E-05 7.15750E-19-7.92516E-19 2.47901E-05
 -1       119 8.98771E-05 8.84286E-20-3.94817E-05-2.22959E-18-1.94943E-18 2.63991E-05
 -1       120 8.98771E-05-8.84286E-20-3.94817E-05-6.06048E-19 1.39778E-18 2.63991E-05
 -1       121 6.12135E-05 2.76087E-19-2.73173E-05 1.54402E-18 6.29244E-19 2.80308E-05
 -1       122 6.12135E-05-2.76087E-19-2.73173E-05 2.98096E-18 3.49935E-19 2.80308E-05
 -1       123 3.08462E-05 2.62249E-19-1.38008E-05-5.23076E-19-4.30077E-19 2.93064E-05
 -1       124 3.08462E-05-2.62249E-19-1.38008E-05-1.71659E-18-4.62566E-19 2.93064E-05
 -1       125 1.37920E-05-7.20578E-20-3.11270E-06 2.46322E-18 7.12021E-18 2.97679E-05
 -1       126 1.37920E-05 7.20578E-20-3.11270E-06-3.43401E-19 6.91400E-18 2.97679E-05
 -1       127-3.55462E-04 1.08341E-04 1.03332E-04-1.33927E-08 6.69634E-09 7.73779E-07
 -1       128 7.14257E-07 7.14257E-07-2.38086E-06 1.16796E-16 6.69634E-09 7.73779E-07
 -1       129 7.14257E-07 7.14257E-07-2.38086E-06-1.36423E-18 6.69634E-09 1.54756E-06
 -1       130-3.54569E-04 1.08073E-04 1.03064E-04-2.67854E-08 6.69634E-09 1.54756E-06
 -1       131-3.55462E-04 1.08341E-04 1.03332E-04 1.33927E-08-6.69634E-09 7.73779E-07
 -1       132 7.14257E-07 7.14257E-07-2.38086E-06 1.05784E-16-6.69634E-09 7.73779E-07
 -1       133 7.14257E-07 7.14257E-07-2.38086E-06-5.37103E-17-6.69634E-09 1.54756E-06
 -1       134-3.54569E-04 1.08073E-04 1.03064E-04 2.67854E-08-6.69634E-09 1.54756E-06
 -1       135 7.14257E-07 7.14257E-07-2.38086E-06 8.45557E-17 6.69634E-09 3.09511E-06
 -1       136-3.51891E-04 1.07270E-04 1.02261E-04-5.35707E-08 6.69634E-09 3.09511E-06
 -1       137 7.14257E-07 7.14257E-07-2.38086E-06-1.01968E-16-6.69634E-09 3.09511E-06
 -1       138-3.51891E-04 1.07270E-04 1.02261E-04 5.35707E-08-6.69634E-09 3.09511E-06
 -1       139 7.14257E-07 7.14257E-07-2.38086E-06 1.81362E-16 6.69634E-09 4.64267E-06
 -1       140-3.47427E-04 1.05930E-04 1.00922E-04-8.03561E-08 6.69634E-09 4.64267E-06
 -1       141 7.14257E-07 7.14257E-07-2.38086E-06-1.97090E-16-6.69634E-09 4.64267E-06
 -1       142-3.47427E-04 1.05930E-04 1.00922E-04 8.03561E-08-6.69634E-09 4.64267E-06
 -1       143 7.14257E-07 7.14257E-07-2.38086E-06-3.90141E-17 6.69634E-09 6.19023E-06
 -1       144-3.41177E-04 1.04055E-04 9.90466E-05-1.07141E-07 6.69634E-09 6.19023E-06
 -1       145 7.14257E-07 7.14257E-07-2.38086E-06 2.36128E-17-6.69634E-09 6.19023E-06
 -1       146-3.41177E-04 1.04055E-04 9.90466E-05 1.07141E-07-6.69634E-09 6.19023E-06
 -1       147 7.14257E-07 7.14257E-07-2.38086E-06-2.33722E-15 6.69634E-09 7.73779E-06
 -1       148-3.33141E-04 1.01645E-04 9.66359E-05-1.33927E-07 6.69634E-09 7.73779E-06
 -1       149 7.14257E-07 7.14257E-07-2.38086E-06 2.31681E-15-6.69634E-09 7.73779E-06
 -1       150-3.33141E-04 1.01645E-04 9.66359E-05 1.33927E-07-6.69634E-09 7.73779E-06
 -1       151 7.14257E-07 7.14257E-07-2.38086E-06-1.22183E-14 6.69634E-09 9.28534E-06
 -1       152-3.23320E-04 9.86983E-05 9.36896E-05-1.60712E-07 6.69634E-09 9.28534E-06
 -1       153 7.14257E-07 7.14257E-07-2.38086E-06 1.21985E-14-6.69634E-09 9.28534E-06
 -1       154-3.23320E-04 9.86983E-05 9.36896E-05 1.60712E-07-6.69634E-09 9.28534E-06
 -1       155 7.14258E-07 7.14257E-07-2.38086E-06-3.95830E-14 6.69634E-09 1.08329E-05
 -1       156-3.11713E-04 9.52163E-05 9.02075E-05-1.87497E-07 6.69633E-09 1.08329E-05
 -1       157 7.14258E-07 7.14257E-07-2.38086E-06 3.95650E-14-6.69634E-09 1.08329E-05
 -1       158-3.11713E-04 9.52163E-05 9.02075E-05 1.87497E-07-6.69633E-09 1.08329E-05
 -1       159 7.14260E-07 7.14257E-07-2.38086E-06-7.45327E-14 6.69635E-09 1.23805E-05
 -1       160-2.98321E-04 9.11985E-05 8.61897E-05-2.14283E-07 6.69634E-09 1.23805E-05
 -1       161 7.14260E-07 7.14257E-07-2.38086E-06 7.45263E-14-6.69635E-09 1.23805E-05
 -1       162-2.98321E-04 9.11985E-05 8.61897E-05 2.14283E-07-6.69634E-09 1.23805E-05
 -1       163 7.14262E-07 7.14255E-07-2.38086E-06 4.55636E-14 6.69629E-09 1.39280E-05
 -1       164-2.83142E-04 8.66451E-05 8.16363E-05-2.41068E-07 6.69636E-09 1.39280E-05
 -1       165 7.14262E-07 7.14255E-07-2.38086E-06-4.55672E-14-6.69629E-09 1.39280E-05
 -1       166-2.83142E-04 8.66451E-05 8.16363E-05 2.41068E-07-6.69636E-09 1.39280E-05
 -1       167 7.14245E-07 7.14254E-07-2.38084E-06 1.10651E-12 6.69655E-09 1.54756E-05
 -1       168-2.66179E-04 8.15559E-05 7.65471E-05-2.67855E-07 6.69701E-09 1.54756E-05
 -1       169 7.14245E-07 7.14254E-07-2.38084E-06-1.10651E-12-6.69654E-09 1.54756E-05
 -1       170-2.66179E-04 8.15559E-05 7.65471E-05 2.67855E-07-6.69701E-09 1.54756E-05
 -1       171 7.14141E-07 7.14261E-07-2.38078E-06 5.40009E-12 6.69550E-09 1.70231E-05
 -1       172-2.47429E-04 7.59310E-05 7.09222E-05-2.94643E-07 6.69718E-09 1.70232E-05
 -1       173 7.14141E-07 7.14261E-07-2.38078E-06-5.40010E-12-6.69550E-09 1.70231E-05
 -1       174-2.47429E-04 7.59310E-05 7.09222E-05 2.94643E-07-6.69718E-09 1.70232E-05
 -1       175 7.13768E-07 7.14313E-07-2.38056E-06 1.69330E-11 6.69978E-09 1.85707E-05
 -1       176-2.26893E-04 6.97703E-05 6.47618E-05-3.21445E-07 6.70386E-09 1.85709E-05
 -1       177 7.13768E-07 7.14313E-07-2.38056E-06-1.69330E-11-6.69978E-09 1.85707E-05
 -1       178-2.26893E-04 6.97703E-05 6.47618E-05 3.21445E-07-6.70386E-09 1.85709E-05
 -1       179 7.12937E-07 7.14522E-07-2.38018E-06 2.82105E-11 6.68227E-09 2.01182E-05
 -1       180-2.04572E-04 6.30735E-05 5.80651E-05-3.48221E-07 6.68382E-09 2.01187E-05
 -1       181 7.12937E-07 7.14522E-07-2.38018E-06-2.82105E-11-6.68227E-09 2.01182E-05
 -1       182-2.04572E-04 6.30735E-05 5.80651E-05 3.48221E-07-6.68382E-09 2.01187E-05
 -1       183 7.12684E-07 7.15013E-07-2.38058E-06-3.03318E-11 6.75391E-09 2.16658E-05
 -1       184-1.80465E-04 5.58423E-05 5.08333E-05-3.75035E-07 6.72308E-09 2.16657E-05
 -1       185 7.12684E-07 7.15013E-07-2.38058E-06 3.03318E-11-6.75391E-09 2.16658E-05
 -1       186-1.80465E-04 5.58423E-05 5.08333E-05 3.75035E-07-6.72308E-09 2.16657E-05
 -1       187 7.20840E-07 7.15531E-07-2.38703E-06-5.39175E-10 6.46086E-09 2.32134E-05
 -1       188-1.54576E-04 4.80733E-05 4.30594E-05-4.00955E-07 6.23726E-09 2.32078E-05
 -1       189 7.20840E-07 7.15531E-07-2.38703E-06 5.39175E-10-6.46086E-09 2.32134E-05
 -1       190-1.54576E-04 4.80733E-05 4.30594E-05 4.00955E-07-6.23726E-09 2.32078E-05
 -1       191 7.67445E-07 7.11406E-07-2.41764E-06-2.27686E-09 7.65959E-09 2.47609E-05
 -1       192-1.26939E-04 3.98007E-05 3.47593E-05-4.27458E-07 7.01435E-09 2.47316E-05
 -1       193 7.67445E-07 7.11406E-07-2.41764E-06 2.27686E-09-7.65959E-09 2.47609E-05
 -1       194-1.26939E-04 3.98007E-05 3.47593E-05 4.27458E-07-7.01435E-09 2.47316E-05
 -1       195 9.28521E-07 6.90466E-07-2.50798E-06-7.75355E-09 2.75609E-09 2.63085E-05
 -1       196-9.75884E-05 3.09501E-05 2.58736E-05-4.42813E-07 6.62989E-10 2.62128E-05
 -1       197 9.28521E-07 6.90466E-07-2.50798E-06 7.75355E-09-2.75609E-09 2.63085E-05
 -1       198-9.75884E-05 3.09501E-05 2.58736E-05 4.42813E-07-6.62989E-10 2.62128E-05
 -1       199 1.25780E-06 5.84929E-07-2.65687E-06-7.40792E-09 2.28142E-08 2.78560E-05
 -1       200-6.67079E-05 2.19618E-05 1.66920E-05-4.94299E-07 2.50801E-08 2.76730E-05
 -1       201 1.25780E-06 5.84929E-07-2.65687E-06 7.40792E-09-2.28142E-08 2.78560E-05
 -1       202-6.67079E-05 2.19618E-05 1.66920E-05 4.94299E-07-2.50801E-08 2.76730E-05
 -1       203 1.26237E-06 4.65772E-07-2.38413E-06 1.75069E-09-5.92346E-08 2.94036E-05
 -1       204-3.36093E-05 1.09536E-05 6.62906E-06-4.30617E-07-5.69212E-08 2.95043E-05
 -1       205 1.26237E-06 4.65772E-07-2.38413E-06-1.75069E-09 5.92346E-08 2.94036E-05
 -1       206-3.36093E-05 1.09536E-05 6.62906E-06 4.30617E-07 5.69212E-08 2.95043E-05
 -1       207 4.94296E-07-1.30181E-07-1.42356E-07 6.37749E-09-1.55199E-07 3.01774E-05
 -1       208-1.66513E-05 4.02218E-06 2.42043E-06-3.16775E-07-1.58387E-07 3.06018E-05
 -1       209 4.94296E-07-1.30181E-07-1.42356E-07-6.37749E-09 1.55199E-07 3.01774E-05
 -1       210-1.66513E-05 4.02218E-06 2.42043E-06 3.16775E-07 1.58387E-07 3.06018E-05
 -1       211 3.56891E-04-1.06912E-04-1.08094E-04 1.33927E-08 6.69634E-09 7.73779E-07
 -1       212 3.55998E-04-1.06645E-04-1.07826E-04 2.67854E-08 6.69634E-09 1.54756E-06
 -1       213 3.56891E-04-1.06912E-04-1.08094E-04-1.33927E-08-6.69634E-09 7.73779E-07
 -1       214 3.55998E-04-1.06645E-04-1.07826E-04-2.67854E-08-6.69634E-09 1.54756E-06
 -1       215 3.53319E-04-1.05841E-04-1.07023E-04 5.35707E-08 6.69634E-09 3.09511E-06
 -1       216 3.53319E-04-1.05841E-04-1.07023E-04-5.35707E-08-6.69634E-09 3.09511E-06
 -1       217 3.48855E-04-1.04502E-04-1.05683E-04 8.03561E-08 6.69634E-09 4.64267E-06
 -1       218 3.48855E-04-1.04502E-04-1.05683E-04-8.03561E-08-6.69634E-09 4.64267E-06
 -1       219 3.42605E-04-1.02627E-04-1.03808E-04 1.07141E-07 6.69634E-09 6.19023E-06
 -1       220 3.42605E-04-1.02627E-04-1.03808E-04-1.07141E-07-6.69634E-09 6.19023E-06
 -1       221 3.34570E-04-1.00216E-04-1.01398E-04 1.33927E-07 6.69634E-09 7.73779E-06
 -1       222 3.34570E-04-1.00216E-04-1.01398E-04-1.33927E-07-6.69634E-09 7.73779E-06
 -1       223 3.24749E-04-9.72698E-05-9.84513E-05 1.60712E-07 6.69634E-09 9.28534E-06
 -1       224 3.24749E-04-9.72698E-05-9.84513E-05-1.60712E-07-6.69634E-09 9.28534E-06
 -1       225 3.13142E-04-9.37878E-05-9.49692E-05 1.87498E-07 6.69635E-09 1.08329E-05
 -1       226 3.13142E-04-9.37878E-05-9.49692E-05-1.87498E-07-6.69635E-09 1.08329E-05
 -1       227 2.99749E-04-8.97700E-05-9.09514E-05 2.14283E-07 6.69636E-09 1.23805E-05
 -1       228 2.99749E-04-8.97700E-05-9.09514E-05-2.14283E-07-6.69636E-09 1.23805E-05
 -1       229 2.84571E-04-8.52165E-05-8.63980E-05 2.41068E-07 6.69622E-09 1.39280E-05
 -1       230 2.84571E-04-8.52165E-05-8.63980E-05-2.41068E-07-6.69622E-09 1.39280E-05
 -1       231 2.67607E-04-8.01274E-05-8.13088E-05 2.67853E-07 6.69608E-09 1.54756E-05
 -1       232 2.67607E-04-8.01274E-05-8.13088E-05-2.67853E-07-6.69608E-09 1.54756E-05
 -1       233 2.48858E-04-7.45025E-05-7.56839E-05 2.94633E-07 6.69381E-09 1.70231E-05
 -1       234 2.48858E-04-7.45025E-05-7.56839E-05-2.94633E-07-6.69381E-09 1.70231E-05
 -1       235 2.28323E-04-6.83421E-05-6.95234E-05 3.21412E-07 6.69570E-09 1.85705E-05
 -1       236 2.28323E-04-6.83421E-05-6.95234E-05-3.21412E-07-6.69570E-09 1.85705E-05
 -1       237 2.06002E-04-6.16459E-05-6.28270E-05 3.48164E-07 6.68071E-09 2.01178E-05
 -1       238 2.06002E-04-6.16459E-05-6.28270E-05-3.48164E-07-6.68071E-09 2.01178E-05
 -1       239 1.81897E-04-5.44150E-05-5.55966E-05 3.75095E-07 6.78473E-09 2.16658E-05
 -1       240 1.81897E-04-5.44150E-05-5.55966E-05-3.75095E-07-6.78473E-09 2.16658E-05
 -1       241 1.55998E-04-4.66413E-05-4.78290E-05 4.02034E-07 6.68445E-09 2.32189E-05
 -1       242 1.55998E-04-4.66413E-05-4.78290E-05-4.02034E-07-6.68445E-09 2.32189E-05
 -1       243 1.28290E-04-3.83374E-05-3.95442E-05 4.32012E-07 8.30484E-09 2.47903E-05
 -1       244 1.28290E-04-3.83374E-05-3.95442E-05-4.32012E-07-8.30484E-09 2.47903E-05
 -1       245 9.86763E-05-2.93860E-05-3.06743E-05 4.58320E-07 4.84919E-09 2.64041E-05
 -1       246 9.86763E-05-2.93860E-05-3.06743E-05-4.58320E-07-4.84919E-09 2.64041E-05
 -1       247 6.71927E-05-2.01313E-05-2.13798E-05 5.09115E-07 2.05483E-08 2.80391E-05
 -1       248 6.71927E-05-2.01313E-05-2.13798E-05-5.09115E-07-2.05483E-08 2.80391E-05
 -1       249 3.37234E-05-9.24627E-06-1.06570E-05 4.27116E-07-6.15480E-08 2.93029E-05
 -1       250 3.37234E-05-9.24627E-06-1.06570E-05-4.27116E-07 6.15480E-08 2.93029E-05
 -1       251 1.56627E-05-3.76186E-06-2.13557E-06 3.04020E-07-1.52010E-07 2.97529E-05
 -1       252 1.56627E-05-3.76186E-06-2.13557E-06-3.04020E-07 1.52010E-07 2.97529E-05
 -1       253-3.55085E-04 1.08107E-04 1.03340E-04-1.60712E-07 1.04907E-07 8.40743E-07
 -1       254 7.14257E-07 7.14257E-07-2.38086E-06 2.53901E-17 1.04907E-07 8.40743E-07
 -1       255 7.14257E-07 7.14257E-07-2.38086E-06-7.52723E-16 1.04907E-07 1.76184E-06
 -1       256-3.54192E-04 1.07839E-04 1.03072E-04-2.41067E-07 1.04907E-07 1.76184E-06
 -1       257-3.55728E-04 1.08204E-04 1.03436E-04-2.57321E-18-4.78124E-18 7.06814E-07
 -1       258 7.14257E-07 7.14257E-07-2.38086E-06 1.47703E-18-3.77330E-19 7.06814E-07
 -1       259 7.14257E-07 7.14257E-07-2.38086E-06 6.15518E-19-1.78903E-18 1.33327E-06
 -1       260-3.54835E-04 1.07936E-04 1.03168E-04-4.37990E-18 2.15351E-19 1.33327E-06
 -1       261 7.14257E-07 7.14257E-07-2.38086E-06-5.71492E-15 1.04907E-07 3.52368E-06
 -1       262-3.51514E-04 1.07036E-04 1.02268E-04-4.82134E-07 1.04907E-07 3.52368E-06
 -1       263 7.14257E-07 7.14257E-07-2.38086E-06 5.03892E-19-3.97682E-18 2.66655E-06
 -1       264-3.52157E-04 1.07132E-04 1.02365E-04-8.49746E-18-2.99514E-18 2.66655E-06
 -1       265 7.14257E-07 7.14257E-07-2.38086E-06-2.21397E-14 1.04907E-07 5.28552E-06
 -1       266-3.47050E-04 1.05697E-04 1.00929E-04-7.23202E-07 1.04907E-07 5.28552E-06
 -1       267 7.14257E-07 7.14257E-07-2.38086E-06 7.41008E-19-2.59210E-18 3.99982E-06
 -1       268-3.47692E-04 1.05793E-04 1.01025E-04-1.37220E-17-8.90834E-19 3.99982E-06
 -1       269 7.14257E-07 7.14257E-07-2.38086E-06-5.60205E-14 1.04907E-07 7.04737E-06
 -1       270-3.40800E-04 1.03822E-04 9.90540E-05-9.64269E-07 1.04907E-07 7.04737E-06
 -1       271 7.14257E-07 7.14257E-07-2.38086E-06 2.61971E-19-2.11840E-18 5.33309E-06
 -1       272-3.41443E-04 1.03918E-04 9.91504E-05-1.68270E-17-2.98320E-18 5.33309E-06
 -1       273 7.14257E-07 7.14257E-07-2.38086E-06-7.65068E-14 1.04907E-07 8.80921E-06
 -1       274-3.32764E-04 1.01411E-04 9.66433E-05-1.20534E-06 1.04907E-07 8.80921E-06
 -1       275 7.14257E-07 7.14257E-07-2.38086E-06 7.67227E-19 6.77626E-20 6.66636E-06
 -1       276-3.33407E-04 1.01507E-04 9.67398E-05-1.85175E-17 8.62107E-19 6.66636E-06
 -1       277 7.14259E-07 7.14257E-07-2.38086E-06 1.08752E-13 1.04907E-07 1.05710E-05
 -1       278-3.22943E-04 9.84647E-05 9.36970E-05-1.44640E-06 1.04907E-07 1.05710E-05
 -1       279 7.14257E-07 7.14258E-07-2.38086E-06 7.71276E-19 1.63589E-18 7.99964E-06
 -1       280-3.23586E-04 9.85611E-05 9.37934E-05-1.75131E-17-2.29911E-18 7.99964E-06
 -1       281 7.14264E-07 7.14257E-07-2.38086E-06 1.13634E-12 1.04907E-07 1.23329E-05
 -1       282-3.11336E-04 9.49826E-05 9.02149E-05-1.68747E-06 1.04907E-07 1.23329E-05
 -1       283 7.14257E-07 7.14259E-07-2.38086E-06 1.91324E-19-2.21446E-18 9.33291E-06
 -1       284-3.11979E-04 9.50791E-05 9.03113E-05-1.58744E-17-2.37847E-18 9.33291E-06
 -1       285 7.14274E-07 7.14255E-07-2.38086E-06 4.37456E-12 1.04907E-07 1.40947E-05
 -1       286-2.97944E-04 9.09649E-05 8.61971E-05-1.92854E-06 1.04907E-07 1.40947E-05
 -1       287 7.14257E-07 7.14261E-07-2.38086E-06 1.53525E-21-2.30975E-18 1.06662E-05
 -1       288-2.98586E-04 9.10613E-05 8.62936E-05-1.82535E-17-2.26245E-18 1.06662E-05
 -1       289 7.14279E-07 7.14250E-07-2.38086E-06 1.09582E-11 1.04907E-07 1.58566E-05
 -1       290-2.82765E-04 8.64114E-05 8.16437E-05-2.16961E-06 1.04908E-07 1.58566E-05
 -1       291 7.14256E-07 7.14264E-07-2.38086E-06 9.06325E-19-1.33903E-18 1.19995E-05
 -1       292-2.83408E-04 8.65078E-05 8.17401E-05-2.27544E-17-2.15991E-18 1.19994E-05
 -1       293 7.14223E-07 7.14242E-07-2.38081E-06 1.50415E-11 1.04908E-07 1.76184E-05
 -1       294-2.65801E-04 8.13222E-05 7.65546E-05-2.41072E-06 1.04909E-07 1.76185E-05
 -1       295 7.14251E-07 7.14252E-07-2.38085E-06 6.55815E-19-1.91615E-18 1.33327E-05
 -1       296-2.66444E-04 8.14186E-05 7.66510E-05-2.55280E-17 2.75974E-19 1.33327E-05
 -1       297 7.13918E-07 7.14248E-07-2.38063E-06-1.95806E-11 1.04913E-07 1.93803E-05
 -1       298-2.47052E-04 7.56972E-05 7.09298E-05-2.65191E-06 1.04916E-07 1.93805E-05
 -1       299 7.14226E-07 7.14180E-07-2.38076E-06-2.56069E-19-1.67968E-18 1.46660E-05
 -1       300-2.47694E-04 7.57936E-05 7.10261E-05-2.71751E-17-2.59340E-18 1.46660E-05
 -1       301 7.12985E-07 7.14340E-07-2.38015E-06-2.14936E-10 1.04938E-07 2.11422E-05
 -1       302-2.26516E-04 6.95365E-05 6.47694E-05-2.89318E-06 1.04937E-07 2.11426E-05
 -1       303 7.14146E-07 7.13944E-07-2.38049E-06-4.47604E-19-2.45025E-18 1.59992E-05
 -1       304-2.27158E-04 6.96326E-05 6.48655E-05-3.00688E-17-4.55016E-20 1.59995E-05
 -1       305 7.11237E-07 7.14718E-07-2.37954E-06-8.62634E-10 1.05035E-07 2.29041E-05
 -1       306-2.04195E-04 6.28403E-05 5.80725E-05-3.13432E-06 1.04977E-07 2.29044E-05
 -1       307 7.14004E-07 7.13418E-07-2.37996E-06 2.73989E-19-1.44128E-19 1.73324E-05
 -1       308-2.04835E-04 6.29356E-05 5.81687E-05-3.23578E-17-1.06948E-18 1.73333E-05
 -1       309 7.11031E-07 7.15677E-07-2.38077E-06-2.44768E-09 1.05298E-07 2.46657E-05
 -1       310-1.80090E-04 5.56099E-05 5.08397E-05-3.37458E-06 1.04907E-07 2.46640E-05
 -1       311 7.14397E-07 7.12727E-07-2.37983E-06 3.46225E-19-9.02686E-19 1.86659E-05
 -1       312-1.80727E-04 5.57035E-05 5.09369E-05-3.45653E-17-2.95667E-20 1.86672E-05
 -1       313 7.24961E-07 7.16895E-07-2.39211E-06-5.39313E-09 1.05501E-07 2.64238E-05
 -1       314-1.54210E-04 4.78482E-05 4.30626E-05-3.61360E-06 1.03704E-07 2.64142E-05
 -1       315 7.19601E-07 7.12877E-07-2.38426E-06-6.85567E-20-1.02737E-18 2.00029E-05
 -1       316-1.54833E-04 4.79392E-05 4.31641E-05-3.59220E-17-1.48220E-18 1.99993E-05
 -1       317 7.92120E-07 7.14378E-07-2.43661E-06-9.40802E-09 1.02338E-07 2.81639E-05
 -1       318-1.26611E-04 3.95607E-05 3.47655E-05-3.85839E-06 9.64260E-08 2.81348E-05
 -1       319 7.48965E-07 7.15324E-07-2.40766E-06 1.36319E-19-1.27193E-18 2.13579E-05
 -1       320-1.27159E-04 3.96445E-05 3.48721E-05-3.77784E-17-4.04988E-20 2.13240E-05
 -1       321 9.90519E-07 6.92734E-07-2.55384E-06-1.26731E-08 7.63049E-08 2.98401E-05
 -1       322-9.74307E-05 3.07579E-05 2.58998E-05-4.13909E-06 6.61292E-08 2.97778E-05
 -1       323 8.62011E-07 7.13518E-07-2.48137E-06-2.12817E-19-1.40647E-18 2.27768E-05
 -1       324-9.76267E-05 3.08028E-05 2.59843E-05-3.91921E-17-2.06433E-18 2.26459E-05
 -1       325 1.36261E-06 6.16077E-07-2.72842E-06-8.60576E-09-5.10093E-08 3.13950E-05
 -1       326-6.70918E-05 2.14956E-05 1.68238E-05-4.44409E-06-2.02994E-08 3.12658E-05
 -1       327 1.13637E-06 6.62921E-07-2.60500E-06-2.52416E-19-1.65251E-18 2.43170E-05
 -1       328-6.61775E-05 2.13642E-05 1.67777E-05-4.05665E-17-8.59421E-19 2.40836E-05
 -1       329 1.38452E-06 4.25717E-07-2.45380E-06-1.44874E-08-3.35203E-07 3.30737E-05
 -1       330-3.46179E-05 1.20184E-05 6.40692E-06-3.71459E-06-2.70446E-07 3.31580E-05
 -1       331 1.17949E-06 4.69780E-07-2.32789E-06 7.47771E-20 8.52642E-18 2.57335E-05
 -1       332-3.30211E-05 1.17556E-05 6.26431E-06-3.13968E-17 9.23292E-18 2.58542E-05
 -1       333 4.77399E-07 5.91365E-08-1.61662E-07-2.55338E-08 5.58798E-07 3.40109E-05
 -1       334-1.78938E-05 5.51901E-06 2.27173E-06-2.83523E-06 5.46988E-07 3.43561E-05
 -1       335 3.35399E-07 8.91667E-08-1.61662E-07-2.03129E-19 4.09095E-17 2.63438E-05
 -1       336-1.64368E-05 5.26778E-06 2.27173E-06-2.32012E-17 3.85502E-17 2.68494E-05
 -1       337-3.55085E-04 1.08107E-04 1.03340E-04 1.60712E-07-1.04907E-07 8.40743E-07
 -1       338 7.14257E-07 7.14257E-07-2.38086E-06-3.11400E-17-1.04907E-07 8.40743E-07
 -1       339 7.14257E-07 7.14257E-07-2.38086E-06 7.49239E-16-1.04907E-07 1.76184E-06
 -1       340-3.54192E-04 1.07839E-04 1.03072E-04 2.41067E-07-1.04907E-07 1.76184E-06
 -1       341 7.14257E-07 7.14257E-07-2.38086E-06 5.71469E-15-1.04907E-07 3.52368E-06
 -1       342-3.51514E-04 1.07036E-04 1.02268E-04 4.82134E-07-1.04907E-07 3.52368E-06
 -1       343 7.14257E-07 7.14257E-07-2.38086E-06 2.21405E-14-1.04907E-07 5.28552E-06
 -1       344-3.47050E-04 1.05697E-04 1.00929E-04 7.23202E-07-1.04907E-07 5.28552E-06
 -1       345 7.14257E-07 7.14257E-07-2.38086E-06 5.60239E-14-1.04907E-07 7.04737E-06
 -1       346-3.40800E-04 1.03822E-04 9.90540E-05 9.64269E-07-1.04907E-07 7.04737E-06
 -1       347 7.14257E-07 7.14257E-07-2.38086E-06 7.65093E-14-1.04907E-07 8.80921E-06
 -1       348-3.32764E-04 1.01411E-04 9.66433E-05 1.20534E-06-1.04907E-07 8.80921E-06
 -1       349 7.14259E-07 7.14257E-07-2.38086E-06-1.08753E-13-1.04907E-07 1.05710E-05
 -1       350-3.22943E-04 9.84647E-05 9.36970E-05 1.44640E-06-1.04907E-07 1.05710E-05
 -1       351 7.14264E-07 7.14257E-07-2.38086E-06-1.13634E-12-1.04907E-07 1.23329E-05
 -1       352-3.11336E-04 9.49826E-05 9.02149E-05 1.68747E-06-1.04907E-07 1.23329E-05
 -1       353 7.14274E-07 7.14255E-07-2.38086E-06-4.37456E-12-1.04907E-07 1.40947E-05
 -1       354-2.97944E-04 9.09649E-05 8.61971E-05 1.92854E-06-1.04907E-07 1.40947E-05
 -1       355 7.14279E-07 7.14250E-07-2.38086E-06-1.09582E-11-1.04907E-07 1.58566E-05
 -1       356-2.82765E-04 8.64114E-05 8.16437E-05 2.16961E-06-1.04908E-07 1.58566E-05
 -1       357 7.14223E-07 7.14242E-07-2.38081E-06-1.50415E-11-1.04908E-07 1.76184E-05
 -1       358-2.65801E-04 8.13222E-05 7.65546E-05 2.41072E-06-1.04909E-07 1.76185E-05
 -1       359 7.13918E-07 7.14248E-07-2.38063E-06 1.95806E-11-1.04913E-07 1.93803E-05
 -1       360-2.47052E-04 7.56972E-05 7.09298E-05 2.65191E-06-1.04916E-07 1.93805E-05
 -1       361 7.12985E-07 7.14340E-07-2.38015E-06 2.14936E-10-1.04938E-07 2.11422E-05
 -1       362-2.26516E-04 6.95365E-05 6.47694E-05 2.89318E-06-1.04937E-07 2.11426E-05
 -1       363 7.11237E-07 7.14718E-07-2.37954E-06 8.62634E-10-1.05035E-07 2.29041E-05
 -1       364-2.04195E-04 6.28403E-05 5.80725E-05 3.13432E-06-1.04977E-07 2.29044E-05
 -1       365 7.11031E-07 7.15677E-07-2.38077E-06 2.44768E-09-1.05298E-07 2.46657E-05
 -1       366-1.80090E-04 5.56099E-05 5.08397E-05 3.37458E-06-1.04907E-07 2.46640E-05
 -1       367 7.24961E-07 7.16895E-07-2.39211E-06 5.39313E-09-1.05501E-07 2.64238E-05
 -1       368-1.54210E-04 4.78482E-05 4.30626E-05 3.61360E-06-1.03704E-07 2.64142E-05
 -1       369 7.92120E-07 7.14378E-07-2.43661E-06 9.40802E-09-1.02338E-07 2.81639E-05
 -1       370-1.26611E-04 3.95607E-05 3.47655E-05 3.85839E-06-9.64260E-08 2.81348E-05
 -1       371 9.90519E-07 6.92734E-07-2.55384E-06 1.26731E-08-7.63049E-08 2.98401E-05
 -1       372-9.74307E-05 3.07579E-05 2.58998E-05 4.13909E-06-6.61292E-08 2.97778E-05
 -1       373 1.36261E-06 6.16077E-07-2.72842E-06 8.60576E-09 5.10093E-08 3.13950E-05
 -1       374-6.70918E-05 2.14956E-05 1.68238E-05 4.44409E-06 2.02994E-08 3.12658E-05
 -1       375 1.38452E-06 4.25717E-07-2.45380E-06 1.44874E-08 3.35203E-07 3.30737E-05
 -1       376-3.46179E-05 1.20184E-05 6.40692E-06 3.71459E-06 2.70446E-07 3.31580E-05
 -1       377 4.77399E-07 5.91365E-08-1.61662E-07 2.55338E-08-5.58798E-07 3.40109E-05
 -1       378-1.78938E-05 5.51901E-06 2.27173E-06 2.83523E-06-5.46988E-07 3.43561E-05
 -1       379 3.56514E-04-1.06679E-04-1.08101E-04 1.60712E-07 1.04907E-07 8.40743E-07
 -1       380 3.55621E-04-1.06411E-04-1.07833E-04 2.41067E-07 1.04907E-07 1.76184E-06
 -1       381 3.57156E-04-1.06775E-04-1.08198E-04 3.58967E-18-1.12856E-18 7.06814E-07
 -1       382 3.56264E-04-1.06507E-04-1.07930E-04 5.36731E-18-1.38129E-18 1.33327E-06
 -1       383 3.52942E-04-1.05607E-04-1.07030E-04 4.82134E-07 1.04907E-07 3.52368E-06
 -1       384 3.53585E-04-1.05704E-04-1.07126E-04 9.35864E-18-5.04195E-18 2.66655E-06
 -1       385 3.48478E-04-1.04268E-04-1.05691E-04 7.23201E-07 1.04907E-07 5.28552E-06
 -1       386 3.49121E-04-1.04365E-04-1.05787E-04 1.44223E-17 1.14416E-20 3.99982E-06
 -1       387 3.42228E-04-1.02393E-04-1.03816E-04 9.64269E-07 1.04907E-07 7.04737E-06
 -1       388 3.42871E-04-1.02490E-04-1.03912E-04 1.70679E-17-2.79987E-18 5.33309E-06
 -1       389 3.34193E-04-9.99825E-05-1.01405E-04 1.20534E-06 1.04907E-07 8.80921E-06
 -1       390 3.34836E-04-1.00079E-04-1.01501E-04 1.80863E-17 2.58976E-18 6.66636E-06
 -1       391 3.24372E-04-9.70362E-05-9.84587E-05 1.44640E-06 1.04907E-07 1.05710E-05
 -1       392 3.25014E-04-9.71326E-05-9.85551E-05 1.90971E-17-2.06791E-18 7.99964E-06
 -1       393 3.12765E-04-9.35541E-05-9.49766E-05 1.68747E-06 1.04907E-07 1.23329E-05
 -1       394 3.13407E-04-9.36505E-05-9.50731E-05 1.97457E-17 1.00577E-18 9.33291E-06
 -1       395 2.99372E-04-8.95364E-05-9.09589E-05 1.92854E-06 1.04907E-07 1.40947E-05
 -1       396 3.00015E-04-8.96328E-05-9.10553E-05 2.20159E-17-1.55311E-18 1.06662E-05
 -1       397 2.84194E-04-8.49829E-05-8.64054E-05 2.16960E-06 1.04908E-07 1.58566E-05
 -1       398 2.84837E-04-8.50793E-05-8.65018E-05 2.27019E-17-4.39944E-18 1.19995E-05
 -1       399 2.67230E-04-7.98938E-05-8.13162E-05 2.41061E-06 1.04909E-07 1.76184E-05
 -1       400 2.67873E-04-7.99902E-05-8.14127E-05 2.43398E-17-8.84435E-19 1.33327E-05
 -1       401 2.48480E-04-7.42690E-05-7.56912E-05 2.65154E-06 1.04917E-07 1.93801E-05
 -1       402 2.49124E-04-7.43655E-05-7.57878E-05 2.73610E-17-1.61937E-18 1.46660E-05
 -1       403 2.27945E-04-6.81085E-05-6.95306E-05 2.89237E-06 1.04946E-07 2.11418E-05
 -1       404 2.28590E-04-6.82054E-05-6.96274E-05 3.00865E-17-1.41372E-18 1.59989E-05
 -1       405 2.05624E-04-6.14119E-05-6.28343E-05 3.13360E-06 1.05023E-07 2.29039E-05
 -1       406 2.06271E-04-6.15098E-05-6.29313E-05 3.16708E-17-1.92351E-18 1.73314E-05
 -1       407 1.81517E-04-5.41770E-05-5.56061E-05 3.37777E-06 1.05062E-07 2.46689E-05
 -1       408 1.82165E-04-5.42765E-05-5.57015E-05 3.36076E-17-1.17920E-18 1.86631E-05
 -1       409 1.55626E-04-4.63979E-05-4.78458E-05 3.63343E-06 1.04000E-07 2.64427E-05
 -1       410 1.56251E-04-4.64969E-05-4.79315E-05 3.61755E-17-1.64102E-18 1.99972E-05
 -1       411 1.27976E-04-3.80641E-05-3.95873E-05 3.92111E-06 9.58260E-08 2.82338E-05
 -1       412 1.28463E-04-3.81460E-05-3.96361E-05 3.70285E-17-6.59945E-19 2.13510E-05
 -1       413 9.86179E-05-2.91781E-05-3.07633E-05 4.26174E-06 5.74768E-08 3.00260E-05
 -1       414 9.85796E-05-2.91815E-05-3.07029E-05 3.94230E-17-2.63067E-18 2.27842E-05
 -1       415 6.78132E-05-1.98689E-05-2.15788E-05 4.52912E-06-6.10512E-08 3.16646E-05
 -1       416 6.64689E-05-1.96439E-05-2.12858E-05 4.06400E-17-1.21867E-18 2.44102E-05
 -1       417 3.50311E-05-1.07307E-05-1.04860E-05 3.64006E-06-3.08089E-07 3.29046E-05
 -1       418 3.30579E-05-1.03798E-05-1.00916E-05 3.15846E-17 8.33115E-18 2.56976E-05
 -1       419 1.69251E-05-5.04421E-06-1.94826E-06 2.66890E-06 4.36346E-07 3.33972E-05
 -1       420 1.52200E-05-4.73292E-06-1.94826E-06 2.31689E-17 4.14563E-17 2.61067E-05
 -1       421 3.56514E-04-1.06679E-04-1.08101E-04-1.60712E-07-1.04907E-07 8.40743E-07
 -1       422 3.55621E-04-1.06411E-04-1.07833E-04-2.41067E-07-1.04907E-07 1.76184E-06
 -1       423 3.52942E-04-1.05607E-04-1.07030E-04-4.82134E-07-1.04907E-07 3.52368E-06
 -1       424 3.48478E-04-1.04268E-04-1.05691E-04-7.23201E-07-1.04907E-07 5.28552E-06
 -1       425 3.42228E-04-1.02393E-04-1.03816E-04-9.64269E-07-1.04907E-07 7.04737E-06
 -1       426 3.34193E-04-9.99825E-05-1.01405E-04-1.20534E-06-1.04907E-07 8.80921E-06
 -1       427 3.24372E-04-9.70362E-05-9.84587E-05-1.44640E-06-1.04907E-07 1.05710E-05
 -1       428 3.12765E-04-9.35541E-05-9.49766E-05-1.68747E-06-1.04907E-07 1.23329E-05
 -1       429 2.99372E-04-8.95364E-05-9.09589E-05-1.92854E-06-1.04907E-07 1.40947E-05
 -1       430 2.84194E-04-8.49829E-05-8.64054E-05-2.16960E-06-1.04908E-07 1.58566E-05
 -1       431 2.67230E-04-7.98938E-05-8.13162E-05-2.41061E-06-1.04909E-07 1.76184E-05
 -1       432 2.48480E-04-7.42690E-05-7.56912E-05-2.65154E-06-1.04917E-07 1.93801E-05
 -1       433 2.27945E-04-6.81085E-05-6.95306E-05-2.89237E-06-1.04946E-07 2.11418E-05
 -1       434 2.05624E-04-6.14119E-05-6.28343E-05-3.13360E-06-1.05023E-07 2.29039E-05
 -1       435 1.81517E-04-5.41770E-05-5.56061E-05-3.37777E-06-1.05062E-07 2.46689E-05
 -1       436 1.55626E-04-4.63979E-05-4.78458E-05-3.63343E-06-1.04000E-07 2.64427E-05
 -1       437 1.27976E-04-3.80641E-05-3.95873E-05-3.92111E-06-9.58260E-08 2.82338E-05
 -1       438 9.86179E-05-2.91781E-05-3.07633E-05-4.26174E-06-5.74768E-08 3.00260E-05
 -1       439 6.78132E-05-1.98689E-05-2.15788E-05-4.52912E-06 6.10512E-08 3.16646E-05
 -1       440 3.50311E-05-1.07307E-05-1.04860E-05-3.64006E-06 3.08089E-07 3.29046E-05
 -1       441 1.69251E-05-5.04421E-06-1.94826E-06-2.66890E-06-4.36346E-07 3.33972E-05
 -1       442-3.70323E-04 1.04567E-04 1.10112E-04-1.77640E-06 2.64826E-06 2.47528E-06
 -1       443 7.51618E-07 7.03376E-07-2.39215E-06 1.61177E-10 2.64883E-06 2.47357E-06
 -1       444 7.51738E-07 7.03344E-07-2.39219E-06 3.16493E-10 2.64338E-06 4.30720E-06
 -1       445-3.69403E-04 1.04307E-04 1.09831E-04-3.97403E-06 2.64281E-06 4.31064E-06
 -1       446-3.65241E-04 9.40262E-05 1.12955E-04-1.67147E-06 2.89811E-06 8.73308E-07
 -1       447 7.39554E-07 7.07427E-07-2.38874E-06 1.97407E-10 2.89884E-06 8.72814E-07
 -1       448 7.39567E-07 7.07429E-07-2.38875E-06 3.87226E-10 2.89206E-06 1.21383E-06
 -1       449-3.64332E-04 9.37889E-05 1.12669E-04-4.11819E-06 2.89132E-06 1.21482E-06
 -1       450 7.52101E-07 7.03247E-07-2.39230E-06 6.40333E-10 2.62696E-06 8.60355E-06
 -1       451-3.66643E-04 1.03528E-04 1.08990E-04-7.93374E-06 2.62639E-06 8.61046E-06
 -1       452 7.39603E-07 7.07437E-07-2.38877E-06 7.77597E-10 2.87162E-06 2.42752E-06
 -1       453-3.61605E-04 9.30777E-05 1.11809E-04-8.22007E-06 2.87086E-06 2.42953E-06
 -1       454 7.52719E-07 7.03082E-07-2.39249E-06 9.79169E-10 2.59933E-06 1.28780E-05
 -1       455-3.62046E-04 1.02231E-04 1.07589E-04-1.18648E-05 2.59874E-06 1.28885E-05
 -1       456 7.39657E-07 7.07452E-07-2.38880E-06 1.17391E-09 2.83719E-06 3.64091E-06
 -1       457-3.57063E-04 9.18939E-05 1.10377E-04-1.22894E-05 2.83641E-06 3.64398E-06
 -1       458 7.53615E-07 7.02842E-07-2.39277E-06 1.34126E-09 2.56007E-06 1.71194E-05
 -1       459-3.55615E-04 1.00416E-04 1.05628E-04-1.57527E-05 2.55944E-06 1.71336E-05
 -1       460 7.39719E-07 7.07476E-07-2.38884E-06 1.57814E-09 2.78820E-06 4.85374E-06
 -1       461-3.50708E-04 9.02398E-05 1.08373E-04-1.63099E-05 2.78737E-06 4.85795E-06
 -1       462 7.54821E-07 7.02521E-07-2.39315E-06 1.73579E-09 2.50849E-06 2.13158E-05
 -1       463-3.47355E-04 9.80878E-05 1.03108E-04-1.95831E-05 2.50782E-06 2.13339E-05
 -1       464 7.39772E-07 7.07516E-07-2.38889E-06 1.99081E-09 2.72375E-06 6.06564E-06
 -1       465-3.42546E-04 8.81191E-05 1.05797E-04-2.02658E-05 2.72285E-06 6.07108E-06
 -1       466 7.56384E-07 7.02104E-07-2.39364E-06 2.17315E-09 2.44361E-06 2.54547E-05
 -1       467-3.37275E-04 9.52488E-05 1.00033E-04-2.33414E-05 2.44287E-06 2.54772E-05
 -1       468 7.39790E-07 7.07578E-07-2.38893E-06 2.40983E-09 2.64254E-06 7.27605E-06
 -1       469-3.32583E-04 8.55367E-05 1.02650E-04-2.41416E-05 2.64155E-06 7.28288E-06
 -1       470 7.58368E-07 7.01574E-07-2.39427E-06 2.66523E-09 2.36392E-06 2.95226E-05
 -1       471-3.25385E-04 9.19044E-05 9.64030E-05-2.70132E-05 2.36307E-06 2.95499E-05
 -1       472 7.39733E-07 7.07670E-07-2.38895E-06 2.82876E-09 2.54270E-06 8.48416E-06
 -1       473-3.20830E-04 8.24992E-05 9.89331E-05-2.79226E-05 2.54157E-06 8.49260E-06
 -1       474 7.60860E-07 7.00906E-07-2.39505E-06 3.22550E-09 2.26718E-06 3.35039E-05
 -1       475-3.11703E-04 8.80620E-05 9.22235E-05-3.05845E-05 2.26616E-06 3.35368E-05
 -1       476 7.39541E-07 7.07806E-07-2.38894E-06 3.23369E-09 2.42154E-06 9.68893E-06
 -1       477-3.07300E-04 7.90154E-05 9.46481E-05-3.15955E-05 2.42019E-06 9.69923E-06
 -1       478 7.63976E-07 7.00064E-07-2.39604E-06 3.86867E-09 2.14993E-06 3.73804E-05
 -1       479-2.96255E-04 8.37318E-05 8.74998E-05-3.40422E-05 2.14863E-06 3.74203E-05
 -1       480 7.39120E-07 7.07998E-07-2.38886E-06 3.59816E-09 2.27524E-06 1.08892E-05
 -1       481-2.92012E-04 7.50971E-05 8.97973E-05-3.51498E-05 2.27355E-06 1.09016E-05
 -1       482 7.67862E-07 6.98997E-07-2.39726E-06 4.60822E-09 2.00673E-06 4.11291E-05
 -1       483-2.79080E-04 7.89292E-05 8.22407E-05-3.73751E-05 2.00490E-06 4.11785E-05
 -1       484 7.38316E-07 7.08266E-07-2.38866E-06 3.87437E-09 2.09841E-06 1.20840E-05
 -1       485-2.74988E-04 7.07594E-05 8.43836E-05-3.85792E-05 2.09619E-06 1.20988E-05
 -1       486 7.72692E-07 6.97631E-07-2.39876E-06 5.44572E-09 1.82896E-06 4.47189E-05
 -1       487-2.60242E-04 7.36769E-05 7.64597E-05-4.05762E-05 1.82609E-06 4.47825E-05
 -1       488 7.36868E-07 7.08627E-07-2.38821E-06 3.97898E-09 1.88371E-06 1.32745E-05
 -1       489-2.56257E-04 6.60217E-05 7.84108E-05-4.18839E-05 1.88062E-06 1.32913E-05
 -1       490 7.78709E-07 6.95857E-07-2.40062E-06 6.32866E-09 1.60309E-06 4.81045E-05
 -1       491-2.39845E-04 6.80096E-05 7.01786E-05-4.36454E-05 1.59814E-06 4.81915E-05
 -1       492 7.34347E-07 7.09087E-07-2.38733E-06 3.77218E-09 1.62211E-06 1.44671E-05
 -1       493-2.35850E-04 6.09075E-05 7.18827E-05-4.50738E-05 1.61758E-06 1.44836E-05
 -1       494 7.86543E-07 6.93499E-07-2.40318E-06 7.00685E-09 1.30941E-06 5.12168E-05
 -1       495-2.18069E-04 6.19807E-05 6.34323E-05-4.65950E-05 1.30031E-06 5.13453E-05
 -1       496 7.30255E-07 7.09603E-07-2.38586E-06 3.03210E-09 1.30542E-06 1.56821E-05
 -1       497-2.13784E-04 5.54423E-05 6.48005E-05-4.81685E-05 1.29858E-06 1.56915E-05
 -1       498 7.98694E-07 6.90185E-07-2.40807E-06 6.61958E-09 9.24985E-07 5.39509E-05
 -1       499-1.95214E-04 5.56709E-05 5.62808E-05-4.94519E-05 9.07955E-07 5.41552E-05
 -1       500 7.25130E-07 7.09938E-07-2.38441E-06 1.42941E-09 9.36474E-07 1.69695E-05
 -1       501-1.90030E-04 4.96463E-05 5.71610E-05-5.11864E-05 9.26175E-07 1.69537E-05
 -1       502 8.24612E-07 6.84908E-07-2.42165E-06 2.78843E-09 4.45072E-07 5.61669E-05
 -1       503-1.71759E-04 4.91944E-05 4.88035E-05-5.22406E-05 4.14657E-07 5.65038E-05
 -1       504 7.25468E-07 7.09189E-07-2.38747E-06-1.53226E-09 5.60979E-07 1.84346E-05
 -1       505-1.64438E-04 4.35170E-05 4.89294E-05-5.40923E-05 5.46281E-07 1.83523E-05
 -1       506 8.93214E-07 6.74659E-07-2.46270E-06-9.36619E-09-3.16439E-08 5.77626E-05
 -1       507-1.48354E-04 4.26823E-05 4.11485E-05-5.48854E-05-7.64606E-08 5.82988E-05
 -1       508 7.58411E-07 7.04433E-07-2.41167E-06-6.84575E-09 3.57530E-07 2.02569E-05
 -1       509-1.36637E-04 3.69990E-05 4.00683E-05-5.66204E-05 3.40979E-07 2.00313E-05
 -1       510 1.06759E-06 6.51673E-07-2.56753E-06-3.42047E-08-2.41135E-08 5.90187E-05
 -1       511-1.25305E-04 3.61691E-05 3.32547E-05-5.68058E-05-6.01621E-08 5.97517E-05
 -1       512 8.95786E-07 6.87593E-07-2.49480E-06-1.72498E-08 8.91060E-07 2.26220E-05
 -1       513-1.05895E-04 2.99574E-05 3.03175E-05-5.77590E-05 8.83959E-07 2.21655E-05
 -1       514 1.38906E-06 5.99971E-07-2.72826E-06-5.78110E-08 2.19032E-06 6.19268E-05
 -1       515-1.00563E-04 2.92511E-05 2.52101E-05-5.56364E-05 2.35223E-06 6.22930E-05
 -1       516 1.21084E-06 6.41024E-07-2.64347E-06-3.76842E-08 3.70237E-06 2.52060E-05
 -1       517-7.17810E-05 2.22595E-05 1.98521E-05-5.42516E-05 3.77144E-06 2.47951E-05
 -1       518 1.36489E-06 4.82765E-07-2.45158E-06-6.14949E-08 1.16738E-05 7.35886E-05
 -1       519-6.13585E-05 1.93669E-05 1.28942E-05-4.18207E-05 1.21050E-05 7.26385E-05
 -1       520 1.22559E-06 5.44433E-07-2.39415E-06-4.76698E-08 1.34695E-05 2.57998E-05
 -1       521-3.56623E-05 1.45805E-05 7.23157E-06-3.77789E-05 1.37288E-05 2.63527E-05
 -1       522 4.18196E-07 1.99123E-07-1.72322E-07-5.60920E-08 4.38057E-05 8.30121E-05
 -1       523-3.48488E-05 8.89821E-06 3.53891E-06-2.97972E-05 4.30852E-05 8.11915E-05
 -1       524 2.55645E-07 4.00204E-07-1.87255E-07-4.30626E-08 4.27452E-05 2.51907E-05
 -1       525-1.78246E-05 8.74293E-06 2.60029E-06-2.47775E-05 4.23112E-05 2.65268E-05
 -1       526-3.51658E-04 7.27524E-05 1.17285E-04-1.45211E-06 2.84441E-06 5.46393E-07
 -1       527 7.26617E-07 7.12005E-07-2.38525E-06 1.18530E-10 2.84528E-06 5.46495E-07
 -1       528 7.26544E-07 7.12029E-07-2.38523E-06 2.27074E-10 2.83748E-06 1.32154E-06
 -1       529-3.50777E-04 7.25631E-05 1.16988E-04-3.88167E-06 2.83660E-06 1.32133E-06
 -1       530 7.26325E-07 7.12100E-07-2.38517E-06 4.41318E-10 2.81396E-06 2.64354E-06
 -1       531-3.48134E-04 7.19957E-05 1.16096E-04-7.74701E-06 2.81307E-06 2.64311E-06
 -1       532 7.25946E-07 7.12220E-07-2.38506E-06 6.28329E-10 2.77440E-06 3.96649E-06
 -1       533-3.43730E-04 7.10523E-05 1.14611E-04-1.15798E-05 2.77347E-06 3.96581E-06
 -1       534 7.25391E-07 7.12389E-07-2.38491E-06 7.70370E-10 2.71817E-06 5.29097E-06
 -1       535-3.37568E-04 6.97362E-05 1.12529E-04-1.53643E-05 2.71720E-06 5.29000E-06
 -1       536 7.24631E-07 7.12605E-07-2.38469E-06 8.44203E-10 2.64441E-06 6.61777E-06
 -1       537-3.29651E-04 6.80523E-05 1.09853E-04-1.90853E-05 2.64336E-06 6.61642E-06
 -1       538 7.23633E-07 7.12866E-07-2.38439E-06 8.18258E-10 2.55185E-06 7.94794E-06
 -1       539-3.19983E-04 6.60070E-05 1.06579E-04-2.27286E-05 2.55071E-06 7.94607E-06
 -1       540 7.22352E-07 7.13160E-07-2.38399E-06 6.48832E-10 2.43886E-06 9.28307E-06
 -1       541-3.08569E-04 6.36082E-05 1.02706E-04-2.62815E-05 2.43759E-06 9.28043E-06
 -1       542 7.20735E-07 7.13469E-07-2.38346E-06 2.74912E-10 2.30331E-06 1.06256E-05
 -1       543-2.95413E-04 6.08658E-05 9.82324E-05-2.97337E-05 2.30187E-06 1.06218E-05
 -1       544 7.18722E-07 7.13750E-07-2.38275E-06-3.88853E-10 2.14264E-06 1.19794E-05
 -1       545-2.80517E-04 5.77908E-05 9.31544E-05-3.30778E-05 2.14097E-06 1.19736E-05
 -1       546 7.16250E-07 7.13928E-07-2.38179E-06-1.46163E-09 1.95404E-06 1.33506E-05
 -1       547-2.63881E-04 5.43951E-05 8.74667E-05-3.63108E-05 1.95210E-06 1.33415E-05
 -1       548 7.13255E-07 7.13863E-07-2.38049E-06-3.10904E-09 1.73537E-06 1.47485E-05
 -1       549-2.45492E-04 5.06903E-05 8.11615E-05-3.94341E-05 1.73314E-06 1.47341E-05
 -1       550 7.09728E-07 7.13300E-07-2.37870E-06-5.55986E-09 1.48743E-06 1.61869E-05
 -1       551-2.25323E-04 4.66845E-05 7.42267E-05-4.24513E-05 1.48499E-06 1.61641E-05
 -1       552 7.06026E-07 7.11775E-07-2.37645E-06-9.12576E-09 1.22002E-06 1.76834E-05
 -1       553-2.03319E-04 4.23787E-05 6.66429E-05-4.53589E-05 1.21763E-06 1.76480E-05
 -1       554 7.04348E-07 7.08435E-07-2.37484E-06-1.42099E-08 9.66481E-07 1.92551E-05
 -1       555-1.79390E-04 3.77618E-05 5.83847E-05-4.81171E-05 9.64890E-07 1.92027E-05
 -1       556 7.14034E-07 7.01706E-07-2.37955E-06-2.12285E-08 8.18386E-07 2.09037E-05
 -1       557-1.53418E-04 3.28101E-05 4.94044E-05-5.05749E-05 8.18867E-07 2.08303E-05
 -1       558 7.65829E-07 6.88866E-07-2.40964E-06-3.01595E-08 1.00646E-06 2.25826E-05
 -1       559-1.25341E-04 2.75092E-05 3.96857E-05-5.22910E-05 1.01125E-06 2.24836E-05
 -1       560 9.32520E-07 6.66157E-07-2.50664E-06-3.89128E-08 2.08244E-06 2.41491E-05
 -1       561-9.53000E-05 2.19465E-05 2.90760E-05-5.21225E-05 2.09240E-06 2.40072E-05
 -1       562 1.27455E-06 6.32348E-07-2.67834E-06-3.97824E-08 5.38850E-06 2.53724E-05
 -1       563-6.42242E-05 1.65806E-05 1.79795E-05-4.74327E-05 5.38453E-06 2.51296E-05
 -1       564 1.26081E-06 6.00418E-07-2.44726E-06-2.50795E-08 1.35830E-05 2.60397E-05
 -1       565-3.29221E-05 1.27335E-05 5.04911E-06-3.17341E-05 1.36171E-05 2.62510E-05
 -1       566 2.09598E-07 5.94393E-07-2.00608E-07-1.30832E-08 3.41932E-05 2.61285E-05
 -1       567-1.91649E-05 1.35170E-05 1.51852E-06-1.99304E-05 3.41394E-05 2.68672E-05
 -1       568-3.41725E-04 5.46475E-05 1.20687E-04-1.07246E-06 2.21329E-06 6.00621E-07
 -1       569 7.16106E-07 7.15079E-07-2.38208E-06-1.58529E-10 2.21405E-06 6.00833E-07
 -1       570 7.16021E-07 7.15084E-07-2.38205E-06-3.27257E-10 2.20727E-06 1.36508E-06
 -1       571-3.40865E-04 5.45027E-05 1.20380E-04-2.86233E-06 2.20651E-06 1.36465E-06
 -1       572 7.15765E-07 7.15099E-07-2.38195E-06-6.84320E-10 2.18688E-06 2.73119E-06
 -1       573-3.38286E-04 5.40688E-05 1.19458E-04-5.71243E-06 2.18611E-06 2.73029E-06
 -1       574 7.15338E-07 7.15115E-07-2.38178E-06-1.10258E-09 2.15273E-06 4.09942E-06
 -1       575-3.33987E-04 5.33479E-05 1.17922E-04-8.53828E-06 2.15194E-06 4.09800E-06
 -1       576 7.14739E-07 7.15119E-07-2.38152E-06-1.61664E-09 2.10457E-06 5.47099E-06
 -1       577-3.27971E-04 5.23432E-05 1.15770E-04-1.13283E-05 2.10376E-06 5.46897E-06
 -1       578 7.13969E-07 7.15088E-07-2.38118E-06-2.26593E-09 2.04209E-06 6.84736E-06
 -1       579-3.20236E-04 5.10590E-05 1.13001E-04-1.40715E-05 2.04126E-06 6.84460E-06
 -1       580 7.13034E-07 7.14987E-07-2.38074E-06-3.09641E-09 1.96492E-06 8.23031E-06
 -1       581-3.10783E-04 4.95010E-05 1.09611E-04-1.67580E-05 1.96406E-06 8.22659E-06
 -1       582 7.11952E-07 7.14764E-07-2.38018E-06-4.16193E-09 1.87272E-06 9.62202E-06
 -1       583-2.99611E-04 4.76756E-05 1.05598E-04-1.93788E-05 1.87183E-06 9.61708E-06
 -1       584 7.10758E-07 7.14340E-07-2.37948E-06-5.52507E-09 1.76530E-06 1.10253E-05
 -1       585-2.86716E-04 4.55896E-05 1.00957E-04-2.19266E-05 1.76440E-06 1.10187E-05
 -1       586 7.09514E-07 7.13598E-07-2.37862E-06-7.25646E-09 1.64289E-06 1.24434E-05
 -1       587-2.72090E-04 4.32500E-05 9.56839E-05-2.43953E-05 1.64202E-06 1.24348E-05
 -1       588 7.08319E-07 7.12369E-07-2.37754E-06-9.43072E-09 1.50665E-06 1.38802E-05
 -1       589-2.55721E-04 4.06624E-05 8.97708E-05-2.67793E-05 1.50585E-06 1.38691E-05
 -1       590 7.07317E-07 7.10401E-07-2.37619E-06-1.21153E-08 1.35965E-06 1.53400E-05
 -1       591-2.37589E-04 3.78304E-05 8.32088E-05-2.90719E-05 1.35903E-06 1.53259E-05
 -1       592 7.06723E-07 7.07337E-07-2.37449E-06-1.53444E-08 1.20891E-06 1.68259E-05
 -1       593-2.17666E-04 3.47538E-05 7.59871E-05-3.12598E-05 1.20863E-06 1.68088E-05
 -1       594 7.07056E-07 7.02672E-07-2.37251E-06-1.90611E-08 1.06965E-06 1.83389E-05
 -1       595-1.95915E-04 3.14283E-05 6.80920E-05-3.33121E-05 1.06988E-06 1.83195E-05
 -1       596 7.10384E-07 6.95748E-07-2.37146E-06-2.29986E-08 9.74292E-07 1.98747E-05
 -1       597-1.72302E-04 2.78487E-05 5.95107E-05-3.51571E-05 9.75297E-07 1.98539E-05
 -1       598 7.25160E-07 6.85874E-07-2.37708E-06-2.64627E-08 9.93341E-07 2.14208E-05
 -1       599-1.46816E-04 2.40216E-05 5.02195E-05-3.66337E-05 9.94928E-07 2.13963E-05
 -1       600 7.79720E-07 6.72838E-07-2.40856E-06-2.80545E-08 1.28139E-06 2.29530E-05
 -1       601-1.19538E-04 1.99990E-05 4.02355E-05-3.73902E-05 1.28430E-06 2.29074E-05
 -1       602 9.42143E-07 6.58199E-07-2.50775E-06-2.57920E-08 2.19697E-06 2.44181E-05
 -1       603-9.06812E-05 1.59554E-05 2.94483E-05-3.66714E-05 2.19786E-06 2.43174E-05
 -1       604 1.26935E-06 6.46569E-07-2.68273E-06-1.93365E-08 4.52441E-06 2.57056E-05
 -1       605-6.09221E-05 1.23541E-05 1.83150E-05-3.27429E-05 4.54036E-06 2.54955E-05
 -1       606 1.24639E-06 6.39815E-07-2.45225E-06-1.11855E-08 1.04577E-05 2.63366E-05
 -1       607-3.09299E-05 1.02982E-05 5.47041E-06-2.18796E-05 1.04052E-05 2.64673E-05
 -1       608 1.96842E-07 6.28280E-07-1.99878E-07-7.25796E-09 2.40660E-05 2.63376E-05
 -1       609-1.79489E-05 1.26232E-05 1.66789E-06-1.41419E-05 2.41460E-05 2.68811E-05
 -1       610-3.34396E-04 4.09919E-05 1.23339E-04-7.87347E-07 1.71560E-06 6.38505E-07
 -1       611 7.09426E-07 7.15830E-07-2.37952E-06-4.38703E-10 1.71620E-06 6.38767E-07
 -1       612 7.09381E-07 7.15792E-07-2.37949E-06-8.85003E-10 1.71090E-06 1.40187E-06
 -1       613-3.33551E-04 4.08820E-05 1.23024E-04-2.10149E-06 1.71030E-06 1.40134E-06
 -1       614 7.09248E-07 7.15673E-07-2.37938E-06-1.80075E-09 1.69502E-06 2.80487E-06
 -1       615-3.31018E-04 4.05528E-05 1.22078E-04-4.19415E-06 1.69442E-06 2.80379E-06
 -1       616 7.09036E-07 7.15461E-07-2.37919E-06-2.77810E-09 1.66859E-06 4.21015E-06
 -1       617-3.26796E-04 4.00056E-05 1.20500E-04-6.26930E-06 1.66800E-06 4.20849E-06
 -1       618 7.08759E-07 7.15133E-07-2.37893E-06-3.84800E-09 1.63172E-06 5.61893E-06
 -1       619-3.20885E-04 3.92427E-05 1.18291E-04-8.31844E-06 1.63113E-06 5.61664E-06
 -1       620 7.08442E-07 7.14654E-07-2.37858E-06-5.04103E-09 1.58455E-06 7.03250E-06
 -1       621-3.13281E-04 3.82671E-05 1.15446E-04-1.03334E-05 1.58397E-06 7.02951E-06
 -1       622 7.08118E-07 7.13974E-07-2.37814E-06-6.38624E-09 1.52737E-06 8.45225E-06
 -1       623-3.03984E-04 3.70823E-05 1.11965E-04-1.23064E-05 1.52682E-06 8.44848E-06
 -1       624 7.07837E-07 7.13028E-07-2.37759E-06-7.90882E-09 1.46067E-06 9.87963E-06
 -1       625-2.92990E-04 3.56921E-05 1.07844E-04-1.42298E-05 1.46016E-06 9.87502E-06
 -1       626 7.07667E-07 7.11728E-07-2.37694E-06-9.62590E-09 1.38525E-06 1.13161E-05
 -1       627-2.80293E-04 3.41003E-05 1.03080E-04-1.60960E-05 1.38480E-06 1.13106E-05
 -1       628 7.07696E-07 7.09963E-07-2.37616E-06-1.15394E-08 1.30236E-06 1.27631E-05
 -1       629-2.65886E-04 3.23104E-05 9.76675E-05-1.78969E-05 1.30200E-06 1.27568E-05
 -1       630 7.08027E-07 7.07591E-07-2.37523E-06-1.36242E-08 1.21403E-06 1.42218E-05
 -1       631-2.49758E-04 3.03248E-05 9.16024E-05-1.96226E-05 1.21380E-06 1.42147E-05
 -1       632 7.08756E-07 7.04451E-07-2.37412E-06-1.58103E-08 1.12354E-06 1.56927E-05
 -1       633-2.31900E-04 2.81455E-05 8.48787E-05-2.12595E-05 1.12348E-06 1.56852E-05
 -1       634 7.09962E-07 7.00367E-07-2.37278E-06-1.79555E-08 1.03649E-06 1.71758E-05
 -1       635-2.12298E-04 2.57738E-05 7.74904E-05-2.27870E-05 1.03664E-06 1.71684E-05
 -1       636 7.11862E-07 6.95199E-07-2.37134E-06-1.98114E-08 9.63137E-07 1.86694E-05
 -1       637-1.90943E-04 2.32128E-05 6.94307E-05-2.41706E-05 9.63490E-07 1.86627E-05
 -1       638 7.15994E-07 6.88929E-07-2.37109E-06-2.09950E-08 9.23815E-07 2.01699E-05
 -1       639-1.67839E-04 2.04725E-05 6.06949E-05-2.53498E-05 9.24487E-07 2.01635E-05
 -1       640 7.30056E-07 6.81831E-07-2.37790E-06-2.10194E-08 9.62577E-07 2.16689E-05
 -1       641-1.43011E-04 1.75801E-05 5.12699E-05-2.62117E-05 9.63164E-07 2.16581E-05
 -1       642 7.81809E-07 6.74633E-07-2.41110E-06-1.94978E-08 1.17845E-06 2.31462E-05
 -1       643-1.16557E-04 1.46012E-05 4.11800E-05-2.65306E-05 1.18065E-06 2.31135E-05
 -1       644 9.40587E-07 6.68261E-07-2.51247E-06-1.66223E-08 1.80736E-06 2.45536E-05
 -1       645-8.86632E-05 1.16811E-05 3.03413E-05-2.58113E-05 1.80439E-06 2.44566E-05
 -1       646 1.26827E-06 6.62300E-07-2.68934E-06-1.29357E-08 3.41916E-06 2.57734E-05
 -1       647-5.99112E-05 9.13239E-06 1.91541E-05-2.29573E-05 3.43778E-06 2.56056E-05
 -1       648 1.24611E-06 6.55245E-07-2.45897E-06-7.59685E-09 7.35517E-06 2.66135E-05
 -1       649-3.03548E-05 7.66855E-06 6.60402E-06-1.52059E-05 7.29391E-06 2.67135E-05
 -1       650 1.88950E-07 6.52464E-07-2.00893E-07-4.21593E-09 1.67678E-05 2.69554E-05
 -1       651-1.67013E-05 8.71009E-06 2.16052E-06-9.66041E-06 1.68629E-05 2.73476E-05
 -1       652-3.29047E-04 3.07691E-05 1.25382E-04-5.70451E-07 1.31367E-06 6.66896E-07
 -1       653 7.06269E-07 7.14592E-07-2.37760E-06-5.99618E-10 1.31411E-06 6.67128E-07
 -1       654 7.06275E-07 7.14512E-07-2.37757E-06-1.20227E-09 1.31028E-06 1.42921E-06
 -1       655-3.28214E-04 3.06852E-05 1.25061E-04-1.52241E-06 1.30985E-06 1.42874E-06
 -1       656 7.06298E-07 7.14269E-07-2.37747E-06-2.42306E-09 1.29884E-06 2.85933E-06
 -1       657-3.25714E-04 3.04337E-05 1.24096E-04-3.03827E-06 1.29842E-06 2.85840E-06
 -1       658 7.06348E-07 7.13850E-07-2.37731E-06-3.67971E-09 1.27991E-06 4.29129E-06
 -1       659-3.21548E-04 3.00154E-05 1.22488E-04-4.54102E-06 1.27949E-06 4.28989E-06
 -1       660 7.06441E-07 7.13234E-07-2.37708E-06-4.98693E-09 1.25367E-06 5.72599E-06
 -1       661-3.15714E-04 2.94317E-05 1.20236E-04-6.02409E-06 1.25327E-06 5.72411E-06
 -1       662 7.06603E-07 7.12395E-07-2.37677E-06-6.35506E-09 1.22045E-06 7.16431E-06
 -1       663-3.08210E-04 2.86845E-05 1.17337E-04-7.48087E-06 1.22008E-06 7.16197E-06
 -1       664 7.06865E-07 7.11293E-07-2.37640E-06-7.78762E-09 1.18068E-06 8.60713E-06
 -1       665-2.99034E-04 2.77760E-05 1.13791E-04-8.90457E-06 1.18034E-06 8.60433E-06
 -1       666 7.07269E-07 7.09883E-07-2.37595E-06-9.27813E-09 1.13493E-06 1.00552E-05
 -1       667-2.88182E-04 2.67084E-05 1.09595E-04-1.02880E-05 1.13463E-06 1.00520E-05
 -1       668 7.07861E-07 7.08114E-07-2.37543E-06-1.08057E-08 1.08399E-06 1.15093E-05
 -1       669-2.75653E-04 2.54845E-05 1.04746E-04-1.16235E-05 1.08374E-06 1.15057E-05
 -1       670 7.08690E-07 7.05929E-07-2.37482E-06-1.23296E-08 1.02888E-06 1.29698E-05
 -1       671-2.61441E-04 2.41068E-05 9.92414E-05-1.29021E-05 1.02870E-06 1.29660E-05
 -1       672 7.09791E-07 7.03277E-07-2.37413E-06-1.37828E-08 9.71026E-07 1.44372E-05
 -1       673-2.45542E-04 2.25785E-05 9.30783E-05-1.41132E-05 9.70912E-07 1.44332E-05
 -1       674 7.11158E-07 7.00122E-07-2.37332E-06-1.50662E-08 9.12458E-07 1.59113E-05
 -1       675-2.27954E-04 2.09034E-05 8.62532E-05-1.52435E-05 9.12419E-07 1.59075E-05
 -1       676 7.12724E-07 6.96469E-07-2.37238E-06-1.60455E-08 8.56479E-07 1.73918E-05
 -1       677-2.08674E-04 1.90867E-05 7.87628E-05-1.62750E-05 8.56525E-07 1.73883E-05
 -1       678 7.14539E-07 6.92385E-07-2.37146E-06-1.65602E-08 8.09184E-07 1.88773E-05
 -1       679-1.87706E-04 1.71373E-05 7.06030E-05-1.71825E-05 8.09287E-07 1.88742E-05
 -1       680 7.18015E-07 6.88032E-07-2.37182E-06-1.64531E-08 7.83060E-07 2.03648E-05
 -1       681-1.65061E-04 1.50701E-05 6.17727E-05-1.79261E-05 7.83319E-07 2.03614E-05
 -1       682 7.30936E-07 6.83644E-07-2.37932E-06-1.56300E-08 8.06476E-07 2.18480E-05
 -1       683-1.40766E-04 1.29118E-05 5.22629E-05-1.84339E-05 8.06464E-07 2.18391E-05
 -1       684 7.81619E-07 6.79398E-07-2.41318E-06-1.41116E-08 9.44076E-07 2.33130E-05
 -1       685-1.14903E-04 1.07119E-05 4.20978E-05-1.85592E-05 9.45181E-07 2.32816E-05
 -1       686 9.40192E-07 6.75206E-07-2.51516E-06-1.18913E-08 1.35964E-06 2.47333E-05
 -1       687-8.76111E-05 8.56892E-06 3.12106E-05-1.79783E-05 1.35652E-06 2.46352E-05
 -1       688 1.26714E-06 6.71196E-07-2.69281E-06-8.74756E-09 2.41302E-06 2.60427E-05
 -1       689-5.92989E-05 6.69539E-06 1.99474E-05-1.59085E-05 2.42309E-06 2.58571E-05
 -1       690 1.24249E-06 6.68831E-07-2.46282E-06-4.89709E-09 5.11953E-06 2.71045E-05
 -1       691-2.99579E-05 5.56371E-06 7.44369E-06-1.05217E-05 5.08192E-06 2.71988E-05
 -1       692 1.83641E-07 6.66271E-07-2.01207E-07-2.90053E-09 1.15278E-05 2.75499E-05
 -1       693-1.60558E-05 6.45123E-06 2.50523E-06-6.71058E-06 1.15933E-05 2.79625E-05
 -1       694-3.25210E-04 2.32414E-05 1.26931E-04-4.03710E-07 9.82401E-07 6.87198E-07
 -1       695 7.05534E-07 7.12249E-07-2.37625E-06-6.18265E-10 9.82702E-07 6.87374E-07
 -1       696 7.05579E-07 7.12145E-07-2.37622E-06-1.23553E-09 9.80065E-07 1.44827E-06
 -1       697-3.24386E-04 2.31763E-05 1.26605E-04-1.07725E-06 9.79767E-07 1.44792E-06
 -1       698 7.05717E-07 7.11831E-07-2.37614E-06-2.47532E-09 9.72191E-07 2.89721E-06
 -1       699-3.21912E-04 2.29814E-05 1.25628E-04-2.14942E-06 9.71898E-07 2.89651E-06
 -1       700 7.05955E-07 7.11300E-07-2.37601E-06-3.72208E-09 9.59181E-07 4.34745E-06
 -1       701-3.17789E-04 2.26572E-05 1.23999E-04-3.21135E-06 9.58899E-07 4.34642E-06
 -1       702 7.06302E-07 7.10542E-07-2.37583E-06-4.97539E-09 9.41210E-07 5.79965E-06
 -1       703-3.12016E-04 2.22047E-05 1.21717E-04-4.25780E-06 9.40942E-07 5.79829E-06
 -1       704 7.06773E-07 7.09542E-07-2.37560E-06-6.22993E-09 9.18527E-07 7.25439E-06
 -1       705-3.04591E-04 2.16255E-05 1.18781E-04-5.28330E-06 9.18277E-07 7.25273E-06
 -1       706 7.07385E-07 7.08286E-07-2.37531E-06-7.47358E-09 8.91455E-07 8.71222E-06
 -1       707-2.95513E-04 2.09211E-05 1.15190E-04-6.28209E-06 8.91228E-07 8.71030E-06
 -1       708 7.08155E-07 7.06757E-07-2.37498E-06-8.68551E-09 8.60402E-07 1.01736E-05
 -1       709-2.84782E-04 2.00940E-05 1.10942E-04-7.24795E-06 8.60201E-07 1.01715E-05
 -1       710 7.09100E-07 7.04943E-07-2.37460E-06-9.83420E-09 8.25867E-07 1.16390E-05
 -1       711-2.72395E-04 1.91467E-05 1.06036E-04-8.17411E-06 8.25696E-07 1.16367E-05
 -1       712 7.10226E-07 7.02838E-07-2.37417E-06-1.08761E-08 7.88468E-07 1.31087E-05
 -1       713-2.58353E-04 1.80825E-05 1.00470E-04-9.05296E-06 7.88329E-07 1.31062E-05
 -1       714 7.11520E-07 7.00449E-07-2.37369E-06-1.17553E-08 7.48999E-07 1.45828E-05
 -1       715-2.42653E-04 1.69055E-05 9.42410E-05-9.87588E-06 7.48894E-07 1.45803E-05
 -1       716 7.12928E-07 6.97803E-07-2.37315E-06-1.24062E-08 7.08593E-07 1.60613E-05
 -1       717-2.25297E-04 1.56210E-05 8.73477E-05-1.06328E-05 7.08520E-07 1.60589E-05
 -1       718 7.14340E-07 6.94954E-07-2.37250E-06-1.27588E-08 6.69111E-07 1.75439E-05
 -1       719-2.06288E-04 1.42358E-05 7.97876E-05-1.13114E-05 6.69074E-07 1.75417E-05
 -1       720 7.15804E-07 6.91977E-07-2.37190E-06-1.27498E-08 6.34168E-07 1.90298E-05
 -1       721-1.85630E-04 1.27594E-05 7.15582E-05-1.18953E-05 6.34136E-07 1.90278E-05
 -1       722 7.18789E-07 6.88961E-07-2.37260E-06-1.23328E-08 6.11546E-07 2.05171E-05
 -1       723-1.63335E-04 1.12055E-05 6.26591E-05-1.23592E-05 6.11580E-07 2.05145E-05
 -1       724 7.31201E-07 6.85979E-07-2.38044E-06-1.14781E-08 6.19646E-07 2.20026E-05
 -1       725-1.39425E-04 9.59511E-06 5.30831E-05-1.26573E-05 6.19440E-07 2.19938E-05
 -1       726 7.81417E-07 6.83094E-07-2.41466E-06-1.01415E-08 7.02145E-07 2.34779E-05
 -1       727-1.13965E-04 7.96506E-06 4.28506E-05-1.26942E-05 7.02632E-07 2.34450E-05
 -1       728 9.39291E-07 6.80498E-07-2.51716E-06-8.28966E-09 9.66825E-07 2.49249E-05
 -1       729-8.70656E-05 6.38801E-06 3.19035E-05-1.22493E-05 9.64604E-07 2.48236E-05
 -1       730 1.26582E-06 6.78536E-07-2.69545E-06-6.08190E-09 1.67622E-06 2.62953E-05
 -1       731-5.90756E-05 5.01934E-06 2.05457E-05-1.08138E-05 1.68328E-06 2.61038E-05
 -1       732 1.24123E-06 6.76637E-07-2.46540E-06-3.42621E-09 3.48199E-06 2.74764E-05
 -1       733-2.98380E-05 4.23185E-06 8.03790E-06-7.13572E-06 3.45633E-06 2.75726E-05
 -1       734 1.80410E-07 6.75831E-07-2.01456E-07-1.92224E-09 7.82041E-06 2.80102E-05
 -1       735-1.56354E-05 4.83345E-06 2.75165E-06-4.53479E-06 7.86674E-06 2.84348E-05
 -1       736-3.22546E-04 1.78728E-05 1.28066E-04-2.73275E-07 7.00184E-07 7.01350E-07
 -1       737 7.06067E-07 7.09676E-07-2.37535E-06-5.28469E-10 7.00383E-07 7.01480E-07
 -1       738 7.06133E-07 7.09566E-07-2.37533E-06-1.05387E-09 6.98634E-07 1.46110E-06
 -1       739-3.21728E-04 1.78214E-05 1.27738E-04-7.29098E-07 6.98437E-07 1.46084E-06
 -1       740 7.06331E-07 7.09234E-07-2.37527E-06-2.10300E-09 6.93411E-07 2.92268E-06
 -1       741-3.19274E-04 1.76672E-05 1.26752E-04-1.45432E-06 6.93217E-07 2.92217E-06
 -1       742 7.06664E-07 7.08681E-07-2.37517E-06-3.14152E-09 6.84779E-07 4.38523E-06
 -1       743-3.15185E-04 1.74109E-05 1.25108E-04-2.17172E-06 6.84592E-07 4.38448E-06
 -1       744 7.07134E-07 7.07904E-07-2.37504E-06-4.16126E-09 6.72850E-07 5.84921E-06
 -1       745-3.09460E-04 1.70535E-05 1.22806E-04-2.87727E-06 6.72671E-07 5.84822E-06
 -1       746 7.07744E-07 7.06905E-07-2.37487E-06-5.15073E-09 6.57775E-07 7.31504E-06
 -1       747-3.02098E-04 1.65964E-05 1.19845E-04-3.56673E-06 6.57607E-07 7.31384E-06
 -1       748 7.08496E-07 7.05684E-07-2.37467E-06-6.09421E-09 6.39748E-07 8.78314E-06
 -1       749-2.93099E-04 1.60415E-05 1.16224E-04-4.23565E-06 6.39593E-07 8.78175E-06
 -1       750 7.09389E-07 7.04247E-07-2.37444E-06-6.97109E-09 6.19004E-07 1.02539E-05
 -1       751-2.82464E-04 1.53912E-05 1.11941E-04-4.87928E-06 6.18863E-07 1.02523E-05
 -1       752 7.10421E-07 7.02605E-07-2.37417E-06-7.75571E-09 5.95819E-07 1.17275E-05
 -1       753-2.70191E-04 1.46486E-05 1.06997E-04-5.49254E-06 5.95693E-07 1.17258E-05
 -1       754 7.11578E-07 7.00776E-07-2.37389E-06-8.41783E-09 5.70524E-07 1.32044E-05
 -1       755-2.56283E-04 1.38172E-05 1.01388E-04-6.06991E-06 5.70414E-07 1.32026E-05
 -1       756 7.12828E-07 6.98788E-07-2.37357E-06-8.92412E-09 5.43538E-07 1.46846E-05
 -1       757-2.40739E-04 1.29017E-05 9.51141E-05-6.60541E-06 5.43443E-07 1.46827E-05
 -1       758 7.14106E-07 6.96679E-07-2.37320E-06-9.24049E-09 5.15469E-07 1.61682E-05
 -1       759-2.23562E-04 1.19074E-05 8.81731E-05-7.09238E-06 5.15386E-07 1.61664E-05
 -1       760 7.15306E-07 6.94495E-07-2.37275E-06-9.33490E-09 4.87371E-07 1.76552E-05
 -1       761-2.04755E-04 1.08413E-05 8.05635E-05-7.52308E-06 4.87301E-07 1.76535E-05
 -1       762 7.16488E-07 6.92290E-07-2.37236E-06-9.17914E-09 4.61436E-07 1.91452E-05
 -1       763-1.84322E-04 9.71171E-06 7.22830E-05-7.88745E-06 4.61357E-07 1.91435E-05
 -1       764 7.19138E-07 6.90120E-07-2.37327E-06-8.74801E-09 4.42614E-07 2.06373E-05
 -1       765-1.62273E-04 8.53022E-06 6.33314E-05-8.17007E-06 4.42572E-07 2.06345E-05
 -1       766 7.31157E-07 6.88059E-07-2.38133E-06-8.01717E-09 4.42970E-07 2.21291E-05
 -1       767-1.38626E-04 7.31361E-06 5.37018E-05-8.34248E-06 4.42782E-07 2.21198E-05
 -1       768 7.80903E-07 6.86208E-07-2.41582E-06-6.98125E-09 4.90895E-07 2.36148E-05
 -1       769-1.13434E-04 6.09010E-06 4.34125E-05-8.34369E-06 4.91188E-07 2.35810E-05
 -1       770 9.38489E-07 6.84663E-07-2.51862E-06-5.68443E-09 6.59402E-07 2.50806E-05
 -1       771-8.67904E-05 4.91375E-06 3.24113E-05-8.03484E-06 6.57965E-07 2.49788E-05
 -1       772 1.26500E-06 6.83328E-07-2.69722E-06-4.11718E-09 1.11187E-06 2.64891E-05
 -1       773-5.89772E-05 3.90035E-06 2.09798E-05-7.07970E-06 1.11658E-06 2.62979E-05
 -1       774 1.23980E-06 6.82588E-07-2.46722E-06-2.28771E-09 2.28886E-06 2.77658E-05
 -1       775-2.97623E-05 3.30342E-06 8.46196E-06-4.66692E-06 2.27157E-06 2.78636E-05
 -1       776 1.78015E-07 6.82149E-07-2.01622E-07-1.32166E-09 5.10987E-06 2.83630E-05
 -1       777-1.53631E-05 3.75773E-06 2.92197E-06-2.96741E-06 5.14170E-06 2.87905E-05
 -1       778-3.20808E-04 1.42865E-05 1.28843E-04-1.68444E-07 4.50449E-07 7.10749E-07
 -1       779 7.06985E-07 7.07499E-07-2.37480E-06-3.75397E-10 4.50570E-07 7.10851E-07
 -1       780 7.07059E-07 7.07392E-07-2.37478E-06-7.47648E-10 4.49499E-07 1.46934E-06
 -1       781-3.19996E-04 1.42443E-05 1.28513E-04-4.49366E-07 4.49378E-07 1.46914E-06
 -1       782 7.07279E-07 7.07073E-07-2.37474E-06-1.48822E-09 4.46297E-07 2.93907E-06
 -1       783-3.17557E-04 1.41180E-05 1.27521E-04-8.96082E-07 4.46178E-07 2.93867E-06
 -1       784 7.07644E-07 7.06544E-07-2.37467E-06-2.21401E-09 4.41001E-07 4.40958E-06
 -1       785-3.13492E-04 1.39083E-05 1.25868E-04-1.33746E-06 4.40885E-07 4.40898E-06
 -1       786 7.08151E-07 7.05812E-07-2.37458E-06-2.91616E-09 4.33670E-07 5.88122E-06
 -1       787-3.07802E-04 1.36162E-05 1.23553E-04-1.77075E-06 4.33559E-07 5.88043E-06
 -1       788 7.08797E-07 7.04882E-07-2.37446E-06-3.58417E-09 4.24385E-07 7.35436E-06
 -1       789-3.00486E-04 1.32432E-05 1.20575E-04-2.19310E-06 4.24279E-07 7.35340E-06
 -1       790 7.09575E-07 7.03768E-07-2.37431E-06-4.20563E-09 4.13248E-07 8.82933E-06
 -1       791-2.91545E-04 1.27914E-05 1.16935E-04-2.60153E-06 4.13148E-07 8.82821E-06
 -1       792 7.10475E-07 7.02484E-07-2.37415E-06-4.76616E-09 4.00378E-07 1.03065E-05
 -1       793-2.80979E-04 1.22634E-05 1.12630E-04-2.99291E-06 4.00286E-07 1.03052E-05
 -1       794 7.11484E-07 7.01051E-07-2.37397E-06-5.24967E-09 3.85916E-07 1.17860E-05
 -1       795-2.68789E-04 1.16622E-05 1.07660E-04-3.36396E-06 3.85831E-07 1.17846E-05
 -1       796 7.12583E-07 6.99494E-07-2.37378E-06-5.63890E-09 3.70025E-07 1.32682E-05
 -1       797-2.54976E-04 1.09917E-05 1.02023E-04-3.71124E-06 3.69947E-07 1.32667E-05
 -1       798 7.13736E-07 6.97845E-07-2.37357E-06-5.91618E-09 3.52917E-07 1.47533E-05
 -1       799-2.39541E-04 1.02563E-05 9.57192E-05-4.03110E-06 3.52845E-07 1.47517E-05
 -1       800 7.14876E-07 6.96140E-07-2.37332E-06-6.06430E-09 3.34914E-07 1.62415E-05
 -1       801-2.22487E-04 9.46113E-06 8.87460E-05-4.31963E-06 3.34847E-07 1.62398E-05
 -1       802 7.15898E-07 6.94419E-07-2.37299E-06-6.06698E-09 3.16611E-07 1.77327E-05
 -1       803-2.03817E-04 8.61251E-06 8.11024E-05-4.57239E-06 3.16550E-07 1.77310E-05
 -1       804 7.16866E-07 6.92730E-07-2.37272E-06-5.90939E-09 2.99301E-07 1.92269E-05
 -1       805-1.83533E-04 7.71786E-06 7.27863E-05-4.78371E-06 2.99236E-07 1.92251E-05
 -1       806 7.19266E-07 6.91126E-07-2.37376E-06-5.57940E-09 2.85960E-07 2.07233E-05
 -1       807-1.61644E-04 6.78673E-06 6.37973E-05-4.94485E-06 2.85920E-07 2.07205E-05
 -1       808 7.31013E-07 6.89665E-07-2.38197E-06-5.07321E-09 2.83818E-07 2.22204E-05
 -1       809-1.38164E-04 5.83256E-06 5.41290E-05-5.03929E-06 2.83692E-07 2.22111E-05
 -1       810 7.80541E-07 6.88401E-07-2.41661E-06-4.39667E-09 3.10164E-07 2.37136E-05
 -1       811-1.13140E-04 4.87712E-06 4.37985E-05-5.03152E-06 3.10335E-07 2.36797E-05
 -1       812 9.37973E-07 6.87352E-07-2.51958E-06-3.54729E-09 4.07556E-07 2.51924E-05
 -1       813-8.66485E-05 3.96177E-06 3.27580E-05-4.83742E-06 4.06644E-07 2.50907E-05
 -1       814 1.26437E-06 6.86672E-07-2.69842E-06-2.56252E-09 6.77491E-07 2.66298E-05
 -1       815-5.89409E-05 3.17283E-06 2.12728E-05-4.25747E-06 6.80285E-07 2.64372E-05
 -1       816 1.23908E-06 6.86240E-07-2.46839E-06-1.42468E-09 1.37976E-06 2.79647E-05
 -1       817-2.97357E-05 2.71472E-06 8.73837E-06-2.80406E-06 1.36934E-06 2.80635E-05
 -1       818 1.76557E-07 6.86305E-07-2.01728E-07-8.02018E-10 3.07131E-06 2.86004E-05
 -1       819-1.51971E-05 3.06326E-06 3.03295E-06-1.78114E-06 3.09095E-06 2.90326E-05
 -1       820-3.19831E-04 1.22310E-05 1.29296E-04-8.01474E-08 2.20519E-07 7.16160E-07
 -1       821 7.07730E-07 7.06080E-07-2.37450E-06-1.92871E-10 2.20577E-07 7.16249E-07
 -1       822 7.07805E-07 7.05979E-07-2.37449E-06-3.83864E-10 2.20066E-07 1.47398E-06
 -1       823-3.19021E-04 1.21943E-05 1.28964E-04-2.13802E-07 2.20009E-07 1.47380E-06
 -1       824 7.08028E-07 7.05678E-07-2.37446E-06-7.63064E-10 2.18539E-07 2.94830E-06
 -1       825-3.16592E-04 1.20845E-05 1.27969E-04-4.26258E-07 2.18482E-07 2.94795E-06
 -1       826 7.08398E-07 7.05180E-07-2.37441E-06-1.13270E-09 2.16011E-07 4.42330E-06
 -1       827-3.12542E-04 1.19021E-05 1.26311E-04-6.36006E-07 2.15955E-07 4.42278E-06
 -1       828 7.08907E-07 7.04495E-07-2.37433E-06-1.48746E-09 2.12507E-07 5.89931E-06
 -1       829-3.06874E-04 1.16484E-05 1.23989E-04-8.41657E-07 2.12453E-07 5.89862E-06
 -1       830 7.09550E-07 7.03634E-07-2.37424E-06-1.82143E-09 2.08061E-07 7.37664E-06
 -1       831-2.99586E-04 1.13250E-05 1.21002E-04-1.04178E-06 2.08010E-07 7.37579E-06
 -1       832 7.10316E-07 7.02612E-07-2.37414E-06-2.12810E-09 2.02717E-07 8.85561E-06
 -1       833-2.90679E-04 1.09338E-05 1.17351E-04-1.23489E-06 2.02668E-07 8.85461E-06
 -1       834 7.11191E-07 7.01448E-07-2.37402E-06-2.40037E-09 1.96523E-07 1.03365E-05
 -1       835-2.80155E-04 1.04776E-05 1.13033E-04-1.41946E-06 1.96478E-07 1.03354E-05
 -1       836 7.12160E-07 7.00166E-07-2.37389E-06-2.63069E-09 1.89538E-07 1.18196E-05
 -1       837-2.68014E-04 9.95952E-06 1.08048E-04-1.59390E-06 1.89495E-07 1.18183E-05
 -1       838 7.13201E-07 6.98792E-07-2.37375E-06-2.81127E-09 1.81830E-07 1.33051E-05
 -1       839-2.54257E-04 9.38318E-06 1.02396E-04-1.75657E-06 1.81790E-07 1.33037E-05
 -1       840 7.14276E-07 6.97358E-07-2.37360E-06-2.93431E-09 1.73488E-07 1.47934E-05
 -1       841-2.38887E-04 8.75288E-06 9.60743E-05-1.90577E-06 1.73451E-07 1.47919E-05
 -1       842 7.15317E-07 6.95899E-07-2.37341E-06-2.99224E-09 1.64657E-07 1.62844E-05
 -1       843-2.21904E-04 8.07358E-06 8.90824E-05-2.03971E-06 1.64621E-07 1.62829E-05
 -1       844 7.16222E-07 6.94453E-07-2.37315E-06-2.97815E-09 1.55609E-07 1.77785E-05
 -1       845-2.03311E-04 7.35093E-06 8.14188E-05-2.15638E-06 1.55576E-07 1.77769E-05
 -1       846 7.17055E-07 6.93065E-07-2.37295E-06-2.88653E-09 1.46944E-07 1.92754E-05
 -1       847-1.83112E-04 6.59160E-06 7.30815E-05-2.25324E-06 1.46909E-07 1.92737E-05
 -1       848 7.19310E-07 6.91777E-07-2.37406E-06-2.71419E-09 1.40049E-07 2.07748E-05
 -1       849-1.61313E-04 5.80385E-06 6.40702E-05-2.32634E-06 1.40026E-07 2.07719E-05
 -1       850 7.30919E-07 6.90634E-07-2.38234E-06-2.45917E-09 1.38319E-07 2.22753E-05
 -1       851-1.37925E-04 4.99904E-06 5.43787E-05-2.36812E-06 1.38254E-07 2.22659E-05
 -1       852 7.80310E-07 6.89676E-07-2.41706E-06-2.12007E-09 1.49723E-07 2.37732E-05
 -1       853-1.12991E-04 4.19535E-06 4.40234E-05-2.36190E-06 1.49795E-07 2.37393E-05
 -1       854 9.37630E-07 6.88977E-07-2.52013E-06-1.70823E-09 1.94747E-07 2.52602E-05
 -1       855-8.65832E-05 3.42699E-06 3.29585E-05-2.26890E-06 1.94315E-07 2.51583E-05
 -1       856 1.26403E-06 6.88515E-07-2.69908E-06-1.22902E-09 3.19846E-07 2.67126E-05
 -1       857-5.89307E-05 2.76757E-06 2.14407E-05-1.99542E-06 3.21199E-07 2.65199E-05
 -1       858 1.23858E-06 6.88408E-07-2.46906E-06-6.80145E-10 6.48284E-07 2.80810E-05
 -1       859-2.97235E-05 2.38329E-06 8.89605E-06-1.31361E-06 6.43299E-07 2.81806E-05
 -1       860 1.75690E-07 6.88619E-07-2.01788E-07-3.89367E-10 1.43888E-06 2.87395E-05
 -1       861-1.51053E-05 2.67559E-06 3.09570E-06-8.34509E-07 1.44832E-06 2.91734E-05
 -1       862-3.19517E-04 1.15617E-05 1.29445E-04-1.69041E-18-4.09641E-18 7.17931E-07
 -1       863 7.08008E-07 7.05591E-07-2.37441E-06 6.94275E-19-2.88109E-18 7.18017E-07
 -1       864 7.08082E-07 7.05493E-07-2.37440E-06 8.14028E-19-1.71807E-18 1.47548E-06
 -1       865-3.18708E-04 1.15268E-05 1.29113E-04-3.85385E-18-3.49205E-18 1.47531E-06
 -1       866 7.08306E-07 7.05199E-07-2.37437E-06 2.93801E-19-2.41265E-18 2.95129E-06
 -1       867-3.16281E-04 1.14224E-05 1.28117E-04-6.74748E-18-2.18581E-18 2.95095E-06
 -1       868 7.08674E-07 7.04714E-07-2.37433E-06-2.27686E-19-3.06806E-18 4.42775E-06
 -1       869-3.12237E-04 1.12491E-05 1.26457E-04-8.65398E-18-1.53117E-18 4.42725E-06
 -1       870 7.09182E-07 7.04049E-07-2.37426E-06-1.49908E-19-2.08994E-18 5.90518E-06
 -1       871-3.06575E-04 1.10081E-05 1.24132E-04-1.05492E-17-1.73867E-18 5.90451E-06
 -1       872 7.09819E-07 7.03214E-07-2.37418E-06 1.08602E-19-2.38384E-18 7.38388E-06
 -1       873-2.99296E-04 1.07010E-05 1.21143E-04-1.36380E-17-1.31762E-18 7.38306E-06
 -1       874 7.10577E-07 7.02227E-07-2.37408E-06 9.02983E-20-1.90070E-18 8.86417E-06
 -1       875-2.90402E-04 1.03299E-05 1.17487E-04-1.64169E-17-2.00758E-18 8.86320E-06
 -1       876 7.11440E-07 7.01107E-07-2.37398E-06 3.19728E-19-1.36940E-18 1.03463E-05
 -1       877-2.79891E-04 9.89738E-06 1.13166E-04-1.89645E-17-1.90103E-18 1.03452E-05
 -1       878 7.12391E-07 6.99878E-07-2.37387E-06-8.58613E-21-2.35240E-18 1.18306E-05
 -1       879-2.67767E-04 9.40662E-06 1.08176E-04-2.06091E-17-2.45057E-18 1.18294E-05
 -1       880 7.13409E-07 6.98567E-07-2.37375E-06 2.43482E-19-3.69113E-18 1.33173E-05
 -1       881-2.54029E-04 8.86126E-06 1.02519E-04-2.36394E-17-1.92243E-18 1.33159E-05
 -1       882 7.14455E-07 6.97206E-07-2.37361E-06-8.15269E-21-3.17457E-18 1.48065E-05
 -1       883-2.38679E-04 8.26551E-06 9.61914E-05-2.72981E-17-3.53250E-18 1.48051E-05
 -1       884 7.15461E-07 6.95830E-07-2.37344E-06 5.05996E-19-3.84927E-18 1.62986E-05
 -1       885-2.21719E-04 7.62416E-06 8.91933E-05-2.95892E-17-2.95476E-18 1.62971E-05
 -1       886 7.16326E-07 6.94477E-07-2.37320E-06 1.96088E-19-3.62449E-18 1.77936E-05
 -1       887-2.03152E-04 6.94269E-06 8.15230E-05-3.14178E-17-3.90085E-18 1.77921E-05
 -1       888 7.17114E-07 6.93185E-07-2.37303E-06-1.37385E-19-3.87457E-18 1.92915E-05
 -1       889-1.82980E-04 6.22748E-06 7.31788E-05-3.38587E-17-2.51682E-18 1.92898E-05
 -1       890 7.19325E-07 6.91997E-07-2.37417E-06 8.22548E-20-1.27405E-18 2.07919E-05
 -1       891-1.61210E-04 5.48634E-06 6.41601E-05-3.56545E-17-1.68086E-18 2.07891E-05
 -1       892 7.30883E-07 6.90955E-07-2.38246E-06-1.78889E-19-1.50619E-18 2.22936E-05
 -1       893-1.37851E-04 4.72997E-06 5.44608E-05-3.57262E-17-1.26175E-18 2.22842E-05
 -1       894 7.80229E-07 6.90112E-07-2.41721E-06-1.65734E-19 1.93191E-19 2.37932E-05
 -1       895-1.12946E-04 3.97544E-06 4.40972E-05-3.49709E-17 3.35604E-20 2.37592E-05
 -1       896 9.37534E-07 6.89479E-07-2.52031E-06 1.17056E-19 1.28721E-18 2.52825E-05
 -1       897-8.65644E-05 3.25507E-06 3.30241E-05-3.33696E-17 1.47963E-18 2.51807E-05
 -1       898 1.26390E-06 6.89145E-07-2.69931E-06 3.06510E-19 2.84873E-18 2.67401E-05
 -1       899-5.89288E-05 2.63643E-06 2.14957E-05-2.99188E-17 3.05722E-18 2.65473E-05
 -1       900 1.23846E-06 6.89070E-07-2.46927E-06 4.86516E-19 9.05599E-18 2.81193E-05
 -1       901-2.97209E-05 2.27706E-06 8.94702E-06-2.02517E-17 9.46972E-18 2.82191E-05
 -1       902 1.75430E-07 6.89380E-07-2.01808E-07 8.16679E-19 2.10271E-17 2.87847E-05
 -1       903-1.50765E-05 2.55057E-06 3.11596E-06-1.34669E-17 1.96661E-17 2.92194E-05
 -1       904-3.19831E-04 1.22310E-05 1.29296E-04 8.01474E-08-2.20519E-07 7.16160E-07
 -1       905 7.07730E-07 7.06080E-07-2.37450E-06 1.92871E-10-2.20577E-07 7.16249E-07
 -1       906 7.07805E-07 7.05979E-07-2.37449E-06 3.83864E-10-2.20066E-07 1.47398E-06
 -1       907-3.19021E-04 1.21943E-05 1.28964E-04 2.13802E-07-2.20009E-07 1.47380E-06
 -1       908 7.08028E-07 7.05678E-07-2.37446E-06 7.63064E-10-2.18539E-07 2.94830E-06
 -1       909-3.16592E-04 1.20845E-05 1.27969E-04 4.26258E-07-2.18482E-07 2.94795E-06
 -1       910 7.08398E-07 7.05180E-07-2.37441E-06 1.13270E-09-2.16011E-07 4.42330E-06
 -1       911-3.12542E-04 1.19021E-05 1.26311E-04 6.36006E-07-2.15955E-07 4.42278E-06
 -1       912 7.08907E-07 7.04495E-07-2.37433E-06 1.48746E-09-2.12507E-07 5.89931E-06
 -1       913-3.06874E-04 1.16484E-05 1.23989E-04 8.41657E-07-2.12453E-07 5.89862E-06
 -1       914 7.09550E-07 7.03634E-07-2.37424E-06 1.82143E-09-2.08061E-07 7.37664E-06
 -1       915-2.99586E-04 1.13250E-05 1.21002E-04 1.04178E-06-2.08010E-07 7.37579E-06
 -1       916 7.10316E-07 7.02612E-07-2.37414E-06 2.12810E-09-2.02717E-07 8.85561E-06
 -1       917-2.90679E-04 1.09338E-05 1.17351E-04 1.23489E-06-2.02668E-07 8.85461E-06
 -1       918 7.11191E-07 7.01448E-07-2.37402E-06 2.40037E-09-1.96523E-07 1.03365E-05
 -1       919-2.80155E-04 1.04776E-05 1.13033E-04 1.41946E-06-1.96478E-07 1.03354E-05
 -1       920 7.12160E-07 7.00166E-07-2.37389E-06 2.63069E-09-1.89538E-07 1.18196E-05
 -1       921-2.68014E-04 9.95952E-06 1.08048E-04 1.59390E-06-1.89495E-07 1.18183E-05
 -1       922 7.13201E-07 6.98792E-07-2.37375E-06 2.81127E-09-1.81830E-07 1.33051E-05
 -1       923-2.54257E-04 9.38318E-06 1.02396E-04 1.75657E-06-1.81790E-07 1.33037E-05
 -1       924 7.14276E-07 6.97358E-07-2.37360E-06 2.93431E-09-1.73488E-07 1.47934E-05
 -1       925-2.38887E-04 8.75288E-06 9.60743E-05 1.90577E-06-1.73451E-07 1.47919E-05
 -1       926 7.15317E-07 6.95899E-07-2.37341E-06 2.99224E-09-1.64657E-07 1.62844E-05
 -1       927-2.21904E-04 8.07358E-06 8.90824E-05 2.03971E-06-1.64621E-07 1.62829E-05
 -1       928 7.16222E-07 6.94453E-07-2.37315E-06 2.97815E-09-1.55609E-07 1.77785E-05
 -1       929-2.03311E-04 7.35093E-06 8.14188E-05 2.15638E-06-1.55576E-07 1.77769E-05
 -1       930 7.17055E-07 6.93065E-07-2.37295E-06 2.88653E-09-1.46944E-07 1.92754E-05
 -1       931-1.83112E-04 6.59160E-06 7.30815E-05 2.25324E-06-1.46909E-07 1.92737E-05
 -1       932 7.19310E-07 6.91777E-07-2.37406E-06 2.71419E-09-1.40049E-07 2.07748E-05
 -1       933-1.61313E-04 5.80385E-06 6.40702E-05 2.32634E-06-1.40026E-07 2.07719E-05
 -1       934 7.30919E-07 6.90634E-07-2.38234E-06 2.45917E-09-1.38319E-07 2.22753E-05
 -1       935-1.37925E-04 4.99904E-06 5.43787E-05 2.36812E-06-1.38254E-07 2.22659E-05
 -1       936 7.80310E-07 6.89676E-07-2.41706E-06 2.12007E-09-1.49723E-07 2.37732E-05
 -1       937-1.12991E-04 4.19535E-06 4.40234E-05 2.36190E-06-1.49795E-07 2.37393E-05
 -1       938 9.37630E-07 6.88977E-07-2.52013E-06 1.70823E-09-1.94747E-07 2.52602E-05
 -1       939-8.65832E-05 3.42699E-06 3.29585E-05 2.26890E-06-1.94315E-07 2.51583E-05
 -1       940 1.26403E-06 6.88515E-07-2.69908E-06 1.22902E-09-3.19846E-07 2.67126E-05
 -1       941-5.89307E-05 2.76757E-06 2.14407E-05 1.99542E-06-3.21199E-07 2.65199E-05
 -1       942 1.23858E-06 6.88408E-07-2.46906E-06 6.80145E-10-6.48284E-07 2.80810E-05
 -1       943-2.97235E-05 2.38329E-06 8.89605E-06 1.31361E-06-6.43299E-07 2.81806E-05
 -1       944 1.75690E-07 6.88619E-07-2.01788E-07 3.89367E-10-1.43888E-06 2.87395E-05
 -1       945-1.51053E-05 2.67559E-06 3.09570E-06 8.34509E-07-1.44832E-06 2.91734E-05
 -1       946-3.20808E-04 1.42865E-05 1.28843E-04 1.68444E-07-4.50449E-07 7.10749E-07
 -1       947 7.06985E-07 7.07499E-07-2.37480E-06 3.75397E-10-4.50570E-07 7.10851E-07
 -1       948 7.07059E-07 7.07392E-07-2.37478E-06 7.47648E-10-4.49499E-07 1.46934E-06
 -1       949-3.19996E-04 1.42443E-05 1.28513E-04 4.49366E-07-4.49378E-07 1.46914E-06
 -1       950 7.07279E-07 7.07073E-07-2.37474E-06 1.48822E-09-4.46297E-07 2.93907E-06
 -1       951-3.17557E-04 1.41180E-05 1.27521E-04 8.96082E-07-4.46178E-07 2.93867E-06
 -1       952 7.07644E-07 7.06544E-07-2.37467E-06 2.21401E-09-4.41001E-07 4.40958E-06
 -1       953-3.13492E-04 1.39083E-05 1.25868E-04 1.33746E-06-4.40885E-07 4.40898E-06
 -1       954 7.08151E-07 7.05812E-07-2.37458E-06 2.91616E-09-4.33670E-07 5.88122E-06
 -1       955-3.07802E-04 1.36162E-05 1.23553E-04 1.77075E-06-4.33559E-07 5.88043E-06
 -1       956 7.08797E-07 7.04882E-07-2.37446E-06 3.58417E-09-4.24385E-07 7.35436E-06
 -1       957-3.00486E-04 1.32432E-05 1.20575E-04 2.19310E-06-4.24279E-07 7.35340E-06
 -1       958 7.09575E-07 7.03768E-07-2.37431E-06 4.20563E-09-4.13248E-07 8.82933E-06
 -1       959-2.91545E-04 1.27914E-05 1.16935E-04 2.60153E-06-4.13148E-07 8.82821E-06
 -1       960 7.10475E-07 7.02484E-07-2.37415E-06 4.76616E-09-4.00378E-07 1.03065E-05
 -1       961-2.80979E-04 1.22634E-05 1.12630E-04 2.99291E-06-4.00286E-07 1.03052E-05
 -1       962 7.11484E-07 7.01051E-07-2.37397E-06 5.24967E-09-3.85916E-07 1.17860E-05
 -1       963-2.68789E-04 1.16622E-05 1.07660E-04 3.36396E-06-3.85831E-07 1.17846E-05
 -1       964 7.12583E-07 6.99494E-07-2.37378E-06 5.63890E-09-3.70025E-07 1.32682E-05
 -1       965-2.54976E-04 1.09917E-05 1.02023E-04 3.71124E-06-3.69947E-07 1.32667E-05
 -1       966 7.13736E-07 6.97845E-07-2.37357E-06 5.91618E-09-3.52917E-07 1.47533E-05
 -1       967-2.39541E-04 1.02563E-05 9.57192E-05 4.03110E-06-3.52845E-07 1.47517E-05
 -1       968 7.14876E-07 6.96140E-07-2.37332E-06 6.06430E-09-3.34914E-07 1.62415E-05
 -1       969-2.22487E-04 9.46113E-06 8.87460E-05 4.31963E-06-3.34847E-07 1.62398E-05
 -1       970 7.15898E-07 6.94419E-07-2.37299E-06 6.06698E-09-3.16611E-07 1.77327E-05
 -1       971-2.03817E-04 8.61251E-06 8.11024E-05 4.57239E-06-3.16550E-07 1.77310E-05
 -1       972 7.16866E-07 6.92730E-07-2.37272E-06 5.90939E-09-2.99301E-07 1.92269E-05
 -1       973-1.83533E-04 7.71786E-06 7.27863E-05 4.78371E-06-2.99236E-07 1.92251E-05
 -1       974 7.19266E-07 6.91126E-07-2.37376E-06 5.57940E-09-2.85960E-07 2.07233E-05
 -1       975-1.61644E-04 6.78673E-06 6.37973E-05 4.94485E-06-2.85920E-07 2.07205E-05
 -1       976 7.31013E-07 6.89665E-07-2.38197E-06 5.07321E-09-2.83818E-07 2.22204E-05
 -1       977-1.38164E-04 5.83256E-06 5.41290E-05 5.03929E-06-2.83692E-07 2.22111E-05
 -1       978 7.80541E-07 6.88401E-07-2.41661E-06 4.39667E-09-3.10164E-07 2.37136E-05
 -1       979-1.13140E-04 4.87712E-06 4.37985E-05 5.03152E-06-3.10335E-07 2.36797E-05
 -1       980 9.37973E-07 6.87352E-07-2.51958E-06 3.54729E-09-4.07556E-07 2.51924E-05
 -1       981-8.66485E-05 3.96177E-06 3.27580E-05 4.83742E-06-4.06644E-07 2.50907E-05
 -1       982 1.26437E-06 6.86672E-07-2.69842E-06 2.56252E-09-6.77491E-07 2.66298E-05
 -1       983-5.89409E-05 3.17283E-06 2.12728E-05 4.25747E-06-6.80285E-07 2.64372E-05
 -1       984 1.23908E-06 6.86240E-07-2.46839E-06 1.42468E-09-1.37976E-06 2.79647E-05
 -1       985-2.97357E-05 2.71472E-06 8.73837E-06 2.80406E-06-1.36934E-06 2.80635E-05
 -1       986 1.76557E-07 6.86305E-07-2.01728E-07 8.02018E-10-3.07131E-06 2.86004E-05
 -1       987-1.51971E-05 3.06326E-06 3.03295E-06 1.78114E-06-3.09095E-06 2.90326E-05
 -1       988-3.22546E-04 1.78728E-05 1.28066E-04 2.73275E-07-7.00184E-07 7.01350E-07
 -1       989 7.06067E-07 7.09676E-07-2.37535E-06 5.28469E-10-7.00383E-07 7.01480E-07
 -1       990 7.06133E-07 7.09566E-07-2.37533E-06 1.05387E-09-6.98634E-07 1.46110E-06
 -1       991-3.21728E-04 1.78214E-05 1.27738E-04 7.29098E-07-6.98437E-07 1.46084E-06
 -1       992 7.06331E-07 7.09234E-07-2.37527E-06 2.10300E-09-6.93411E-07 2.92268E-06
 -1       993-3.19274E-04 1.76672E-05 1.26752E-04 1.45432E-06-6.93217E-07 2.92217E-06
 -1       994 7.06664E-07 7.08681E-07-2.37517E-06 3.14152E-09-6.84779E-07 4.38523E-06
 -1       995-3.15185E-04 1.74109E-05 1.25108E-04 2.17172E-06-6.84592E-07 4.38448E-06
 -1       996 7.07134E-07 7.07904E-07-2.37504E-06 4.16126E-09-6.72850E-07 5.84921E-06
 -1       997-3.09460E-04 1.70535E-05 1.22806E-04 2.87727E-06-6.72671E-07 5.84822E-06
 -1       998 7.07744E-07 7.06905E-07-2.37487E-06 5.15073E-09-6.57775E-07 7.31504E-06
 -1       999-3.02098E-04 1.65964E-05 1.19845E-04 3.56673E-06-6.57607E-07 7.31384E-06
 -1      1000 7.08496E-07 7.05684E-07-2.37467E-06 6.09421E-09-6.39748E-07 8.78314E-06
 -1      1001-2.93099E-04 1.60415E-05 1.16224E-04 4.23565E-06-6.39593E-07 8.78175E-06
 -1      1002 7.09389E-07 7.04247E-07-2.37444E-06 6.97109E-09-6.19004E-07 1.02539E-05
 -1      1003-2.82464E-04 1.53912E-05 1.11941E-04 4.87928E-06-6.18863E-07 1.02523E-05
 -1      1004 7.10421E-07 7.02605E-07-2.37417E-06 7.75571E-09-5.95819E-07 1.17275E-05
 -1      1005-2.70191E-04 1.46486E-05 1.06997E-04 5.49254E-06-5.95693E-07 1.17258E-05
 -1      1006 7.11578E-07 7.00776E-07-2.37389E-06 8.41783E-09-5.70524E-07 1.32044E-05
 -1      1007-2.56283E-04 1.38172E-05 1.01388E-04 6.06991E-06-5.70414E-07 1.32026E-05
 -1      1008 7.12828E-07 6.98788E-07-2.37357E-06 8.92412E-09-5.43538E-07 1.46846E-05
 -1      1009-2.40739E-04 1.29017E-05 9.51141E-05 6.60541E-06-5.43443E-07 1.46827E-05
 -1      1010 7.14106E-07 6.96679E-07-2.37320E-06 9.24049E-09-5.15469E-07 1.61682E-05
 -1      1011-2.23562E-04 1.19074E-05 8.81731E-05 7.09238E-06-5.15386E-07 1.61664E-05
 -1      1012 7.15306E-07 6.94495E-07-2.37275E-06 9.33490E-09-4.87371E-07 1.76552E-05
 -1      1013-2.04755E-04 1.08413E-05 8.05635E-05 7.52308E-06-4.87301E-07 1.76535E-05
 -1      1014 7.16488E-07 6.92290E-07-2.37236E-06 9.17914E-09-4.61436E-07 1.91452E-05
 -1      1015-1.84322E-04 9.71171E-06 7.22830E-05 7.88745E-06-4.61357E-07 1.91435E-05
 -1      1016 7.19138E-07 6.90120E-07-2.37327E-06 8.74801E-09-4.42614E-07 2.06373E-05
 -1      1017-1.62273E-04 8.53022E-06 6.33314E-05 8.17007E-06-4.42572E-07 2.06345E-05
 -1      1018 7.31157E-07 6.88059E-07-2.38133E-06 8.01717E-09-4.42970E-07 2.21291E-05
 -1      1019-1.38626E-04 7.31361E-06 5.37018E-05 8.34248E-06-4.42782E-07 2.21198E-05
 -1      1020 7.80903E-07 6.86208E-07-2.41582E-06 6.98125E-09-4.90895E-07 2.36148E-05
 -1      1021-1.13434E-04 6.09010E-06 4.34125E-05 8.34369E-06-4.91188E-07 2.35810E-05
 -1      1022 9.38489E-07 6.84663E-07-2.51862E-06 5.68443E-09-6.59402E-07 2.50806E-05
 -1      1023-8.67904E-05 4.91375E-06 3.24113E-05 8.03484E-06-6.57965E-07 2.49788E-05
 -1      1024 1.26500E-06 6.83328E-07-2.69722E-06 4.11718E-09-1.11187E-06 2.64891E-05
 -1      1025-5.89772E-05 3.90035E-06 2.09798E-05 7.07970E-06-1.11658E-06 2.62979E-05
 -1      1026 1.23980E-06 6.82588E-07-2.46722E-06 2.28771E-09-2.28886E-06 2.77658E-05
 -1      1027-2.97623E-05 3.30342E-06 8.46196E-06 4.66692E-06-2.27157E-06 2.78636E-05
 -1      1028 1.78015E-07 6.82149E-07-2.01622E-07 1.32166E-09-5.10987E-06 2.83630E-05
 -1      1029-1.53631E-05 3.75773E-06 2.92197E-06 2.96741E-06-5.14170E-06 2.87905E-05
 -1      1030-3.25210E-04 2.32414E-05 1.26931E-04 4.03710E-07-9.82401E-07 6.87198E-07
 -1      1031 7.05534E-07 7.12249E-07-2.37625E-06 6.18265E-10-9.82702E-07 6.87374E-07
 -1      1032 7.05579E-07 7.12145E-07-2.37622E-06 1.23553E-09-9.80065E-07 1.44827E-06
 -1      1033-3.24386E-04 2.31763E-05 1.26605E-04 1.07725E-06-9.79767E-07 1.44792E-06
 -1      1034 7.05717E-07 7.11831E-07-2.37614E-06 2.47532E-09-9.72191E-07 2.89721E-06
 -1      1035-3.21912E-04 2.29814E-05 1.25628E-04 2.14942E-06-9.71898E-07 2.89651E-06
 -1      1036 7.05955E-07 7.11300E-07-2.37601E-06 3.72208E-09-9.59181E-07 4.34745E-06
 -1      1037-3.17789E-04 2.26572E-05 1.23999E-04 3.21135E-06-9.58899E-07 4.34642E-06
 -1      1038 7.06302E-07 7.10542E-07-2.37583E-06 4.97539E-09-9.41210E-07 5.79965E-06
 -1      1039-3.12016E-04 2.22047E-05 1.21717E-04 4.25780E-06-9.40942E-07 5.79829E-06
 -1      1040 7.06773E-07 7.09542E-07-2.37560E-06 6.22993E-09-9.18527E-07 7.25439E-06
 -1      1041-3.04591E-04 2.16255E-05 1.18781E-04 5.28330E-06-9.18277E-07 7.25273E-06
 -1      1042 7.07385E-07 7.08286E-07-2.37531E-06 7.47358E-09-8.91455E-07 8.71222E-06
 -1      1043-2.95513E-04 2.09211E-05 1.15190E-04 6.28209E-06-8.91228E-07 8.71030E-06
 -1      1044 7.08155E-07 7.06757E-07-2.37498E-06 8.68551E-09-8.60402E-07 1.01736E-05
 -1      1045-2.84782E-04 2.00940E-05 1.10942E-04 7.24795E-06-8.60201E-07 1.01715E-05
 -1      1046 7.09100E-07 7.04943E-07-2.37460E-06 9.83420E-09-8.25867E-07 1.16390E-05
 -1      1047-2.72395E-04 1.91467E-05 1.06036E-04 8.17411E-06-8.25696E-07 1.16367E-05
 -1      1048 7.10226E-07 7.02838E-07-2.37417E-06 1.08761E-08-7.88468E-07 1.31087E-05
 -1      1049-2.58353E-04 1.80825E-05 1.00470E-04 9.05296E-06-7.88329E-07 1.31062E-05
 -1      1050 7.11520E-07 7.00449E-07-2.37369E-06 1.17553E-08-7.48999E-07 1.45828E-05
 -1      1051-2.42653E-04 1.69055E-05 9.42410E-05 9.87588E-06-7.48894E-07 1.45803E-05
 -1      1052 7.12928E-07 6.97803E-07-2.37315E-06 1.24062E-08-7.08593E-07 1.60613E-05
 -1      1053-2.25297E-04 1.56210E-05 8.73477E-05 1.06328E-05-7.08520E-07 1.60589E-05
 -1      1054 7.14340E-07 6.94954E-07-2.37250E-06 1.27588E-08-6.69111E-07 1.75439E-05
 -1      1055-2.06288E-04 1.42358E-05 7.97876E-05 1.13114E-05-6.69074E-07 1.75417E-05
 -1      1056 7.15804E-07 6.91977E-07-2.37190E-06 1.27498E-08-6.34168E-07 1.90298E-05
 -1      1057-1.85630E-04 1.27594E-05 7.15582E-05 1.18953E-05-6.34136E-07 1.90278E-05
 -1      1058 7.18789E-07 6.88961E-07-2.37260E-06 1.23328E-08-6.11546E-07 2.05171E-05
 -1      1059-1.63335E-04 1.12055E-05 6.26591E-05 1.23592E-05-6.11580E-07 2.05145E-05
 -1      1060 7.31201E-07 6.85979E-07-2.38044E-06 1.14781E-08-6.19646E-07 2.20026E-05
 -1      1061-1.39425E-04 9.59511E-06 5.30831E-05 1.26573E-05-6.19440E-07 2.19938E-05
 -1      1062 7.81417E-07 6.83094E-07-2.41466E-06 1.01415E-08-7.02145E-07 2.34779E-05
 -1      1063-1.13965E-04 7.96506E-06 4.28506E-05 1.26942E-05-7.02632E-07 2.34450E-05
 -1      1064 9.39291E-07 6.80498E-07-2.51716E-06 8.28966E-09-9.66825E-07 2.49249E-05
 -1      1065-8.70656E-05 6.38801E-06 3.19035E-05 1.22493E-05-9.64604E-07 2.48236E-05
 -1      1066 1.26582E-06 6.78536E-07-2.69545E-06 6.08190E-09-1.67622E-06 2.62953E-05
 -1      1067-5.90756E-05 5.01934E-06 2.05457E-05 1.08138E-05-1.68328E-06 2.61038E-05
 -1      1068 1.24123E-06 6.76637E-07-2.46540E-06 3.42621E-09-3.48199E-06 2.74764E-05
 -1      1069-2.98380E-05 4.23185E-06 8.03790E-06 7.13572E-06-3.45633E-06 2.75726E-05
 -1      1070 1.80410E-07 6.75831E-07-2.01456E-07 1.92224E-09-7.82041E-06 2.80102E-05
 -1      1071-1.56354E-05 4.83345E-06 2.75165E-06 4.53479E-06-7.86674E-06 2.84348E-05
 -1      1072-3.29047E-04 3.07691E-05 1.25382E-04 5.70451E-07-1.31367E-06 6.66896E-07
 -1      1073 7.06269E-07 7.14592E-07-2.37760E-06 5.99618E-10-1.31411E-06 6.67128E-07
 -1      1074 7.06275E-07 7.14512E-07-2.37757E-06 1.20227E-09-1.31028E-06 1.42921E-06
 -1      1075-3.28214E-04 3.06852E-05 1.25061E-04 1.52241E-06-1.30985E-06 1.42874E-06
 -1      1076 7.06298E-07 7.14269E-07-2.37747E-06 2.42306E-09-1.29884E-06 2.85933E-06
 -1      1077-3.25714E-04 3.04337E-05 1.24096E-04 3.03827E-06-1.29842E-06 2.85840E-06
 -1      1078 7.06348E-07 7.13850E-07-2.37731E-06 3.67971E-09-1.27991E-06 4.29129E-06
 -1      1079-3.21548E-04 3.00154E-05 1.22488E-04 4.54102E-06-1.27949E-06 4.28989E-06
 -1      1080 7.06441E-07 7.13234E-07-2.37708E-06 4.98693E-09-1.25367E-06 5.72599E-06
 -1      1081-3.15714E-04 2.94317E-05 1.20236E-04 6.02409E-06-1.25327E-06 5.72411E-06
 -1      1082 7.06603E-07 7.12395E-07-2.37677E-06 6.35506E-09-1.22045E-06 7.16431E-06
 -1      1083-3.08210E-04 2.86845E-05 1.17337E-04 7.48087E-06-1.22008E-06 7.16197E-06
 -1      1084 7.06865E-07 7.11293E-07-2.37640E-06 7.78762E-09-1.18068E-06 8.60713E-06
 -1      1085-2.99034E-04 2.77760E-05 1.13791E-04 8.90457E-06-1.18034E-06 8.60433E-06
 -1      1086 7.07269E-07 7.09883E-07-2.37595E-06 9.27813E-09-1.13493E-06 1.00552E-05
 -1      1087-2.88182E-04 2.67084E-05 1.09595E-04 1.02880E-05-1.13463E-06 1.00520E-05
 -1      1088 7.07861E-07 7.08114E-07-2.37543E-06 1.08057E-08-1.08399E-06 1.15093E-05
 -1      1089-2.75653E-04 2.54845E-05 1.04746E-04 1.16235E-05-1.08374E-06 1.15057E-05
 -1      1090 7.08690E-07 7.05929E-07-2.37482E-06 1.23296E-08-1.02888E-06 1.29698E-05
 -1      1091-2.61441E-04 2.41068E-05 9.92414E-05 1.29021E-05-1.02870E-06 1.29660E-05
 -1      1092 7.09791E-07 7.03277E-07-2.37413E-06 1.37828E-08-9.71026E-07 1.44372E-05
 -1      1093-2.45542E-04 2.25785E-05 9.30783E-05 1.41132E-05-9.70912E-07 1.44332E-05
 -1      1094 7.11158E-07 7.00122E-07-2.37332E-06 1.50662E-08-9.12458E-07 1.59113E-05
 -1      1095-2.27954E-04 2.09034E-05 8.62532E-05 1.52435E-05-9.12419E-07 1.59075E-05
 -1      1096 7.12724E-07 6.96469E-07-2.37238E-06 1.60455E-08-8.56479E-07 1.73918E-05
 -1      1097-2.08674E-04 1.90867E-05 7.87628E-05 1.62750E-05-8.56525E-07 1.73883E-05
 -1      1098 7.14539E-07 6.92385E-07-2.37146E-06 1.65602E-08-8.09184E-07 1.88773E-05
 -1      1099-1.87706E-04 1.71373E-05 7.06030E-05 1.71825E-05-8.09287E-07 1.88742E-05
 -1      1100 7.18015E-07 6.88032E-07-2.37182E-06 1.64531E-08-7.83060E-07 2.03648E-05
 -1      1101-1.65061E-04 1.50701E-05 6.17727E-05 1.79261E-05-7.83319E-07 2.03614E-05
 -1      1102 7.30936E-07 6.83644E-07-2.37932E-06 1.56300E-08-8.06476E-07 2.18480E-05
 -1      1103-1.40766E-04 1.29118E-05 5.22629E-05 1.84339E-05-8.06464E-07 2.18391E-05
 -1      1104 7.81619E-07 6.79398E-07-2.41318E-06 1.41116E-08-9.44076E-07 2.33130E-05
 -1      1105-1.14903E-04 1.07119E-05 4.20978E-05 1.85592E-05-9.45181E-07 2.32816E-05
 -1      1106 9.40192E-07 6.75206E-07-2.51516E-06 1.18913E-08-1.35964E-06 2.47333E-05
 -1      1107-8.76111E-05 8.56892E-06 3.12106E-05 1.79783E-05-1.35652E-06 2.46352E-05
 -1      1108 1.26714E-06 6.71196E-07-2.69281E-06 8.74756E-09-2.41302E-06 2.60427E-05
 -1      1109-5.92989E-05 6.69539E-06 1.99474E-05 1.59085E-05-2.42309E-06 2.58571E-05
 -1      1110 1.24249E-06 6.68831E-07-2.46282E-06 4.89709E-09-5.11953E-06 2.71045E-05
 -1      1111-2.99579E-05 5.56371E-06 7.44369E-06 1.05217E-05-5.08192E-06 2.71988E-05
 -1      1112 1.83641E-07 6.66271E-07-2.01207E-07 2.90053E-09-1.15278E-05 2.75499E-05
 -1      1113-1.60558E-05 6.45123E-06 2.50523E-06 6.71058E-06-1.15933E-05 2.79625E-05
 -1      1114-3.34396E-04 4.09919E-05 1.23339E-04 7.87347E-07-1.71560E-06 6.38505E-07
 -1      1115 7.09426E-07 7.15830E-07-2.37952E-06 4.38703E-10-1.71620E-06 6.38767E-07
 -1      1116 7.09381E-07 7.15792E-07-2.37949E-06 8.85003E-10-1.71090E-06 1.40187E-06
 -1      1117-3.33551E-04 4.08820E-05 1.23024E-04 2.10149E-06-1.71030E-06 1.40134E-06
 -1      1118 7.09248E-07 7.15673E-07-2.37938E-06 1.80075E-09-1.69502E-06 2.80487E-06
 -1      1119-3.31018E-04 4.05528E-05 1.22078E-04 4.19415E-06-1.69442E-06 2.80379E-06
 -1      1120 7.09036E-07 7.15461E-07-2.37919E-06 2.77810E-09-1.66859E-06 4.21015E-06
 -1      1121-3.26796E-04 4.00056E-05 1.20500E-04 6.26930E-06-1.66800E-06 4.20849E-06
 -1      1122 7.08759E-07 7.15133E-07-2.37893E-06 3.84800E-09-1.63172E-06 5.61893E-06
 -1      1123-3.20885E-04 3.92427E-05 1.18291E-04 8.31844E-06-1.63113E-06 5.61664E-06
 -1      1124 7.08442E-07 7.14654E-07-2.37858E-06 5.04103E-09-1.58455E-06 7.03250E-06
 -1      1125-3.13281E-04 3.82671E-05 1.15446E-04 1.03334E-05-1.58397E-06 7.02951E-06
 -1      1126 7.08118E-07 7.13974E-07-2.37814E-06 6.38624E-09-1.52737E-06 8.45225E-06
 -1      1127-3.03984E-04 3.70823E-05 1.11965E-04 1.23064E-05-1.52682E-06 8.44848E-06
 -1      1128 7.07837E-07 7.13028E-07-2.37759E-06 7.90882E-09-1.46067E-06 9.87963E-06
 -1      1129-2.92990E-04 3.56921E-05 1.07844E-04 1.42298E-05-1.46016E-06 9.87502E-06
 -1      1130 7.07667E-07 7.11728E-07-2.37694E-06 9.62590E-09-1.38525E-06 1.13161E-05
 -1      1131-2.80293E-04 3.41003E-05 1.03080E-04 1.60960E-05-1.38480E-06 1.13106E-05
 -1      1132 7.07696E-07 7.09963E-07-2.37616E-06 1.15394E-08-1.30236E-06 1.27631E-05
 -1      1133-2.65886E-04 3.23104E-05 9.76675E-05 1.78969E-05-1.30200E-06 1.27568E-05
 -1      1134 7.08027E-07 7.07591E-07-2.37523E-06 1.36242E-08-1.21403E-06 1.42218E-05
 -1      1135-2.49758E-04 3.03248E-05 9.16024E-05 1.96226E-05-1.21380E-06 1.42147E-05
 -1      1136 7.08756E-07 7.04451E-07-2.37412E-06 1.58103E-08-1.12354E-06 1.56927E-05
 -1      1137-2.31900E-04 2.81455E-05 8.48787E-05 2.12595E-05-1.12348E-06 1.56852E-05
 -1      1138 7.09962E-07 7.00367E-07-2.37278E-06 1.79555E-08-1.03649E-06 1.71758E-05
 -1      1139-2.12298E-04 2.57738E-05 7.74904E-05 2.27870E-05-1.03664E-06 1.71684E-05
 -1      1140 7.11862E-07 6.95199E-07-2.37134E-06 1.98114E-08-9.63137E-07 1.86694E-05
 -1      1141-1.90943E-04 2.32128E-05 6.94307E-05 2.41706E-05-9.63490E-07 1.86627E-05
 -1      1142 7.15994E-07 6.88929E-07-2.37109E-06 2.09950E-08-9.23815E-07 2.01699E-05
 -1      1143-1.67839E-04 2.04725E-05 6.06949E-05 2.53498E-05-9.24487E-07 2.01635E-05
 -1      1144 7.30056E-07 6.81831E-07-2.37790E-06 2.10194E-08-9.62577E-07 2.16689E-05
 -1      1145-1.43011E-04 1.75801E-05 5.12699E-05 2.62117E-05-9.63164E-07 2.16581E-05
 -1      1146 7.81809E-07 6.74633E-07-2.41110E-06 1.94978E-08-1.17845E-06 2.31462E-05
 -1      1147-1.16557E-04 1.46012E-05 4.11800E-05 2.65306E-05-1.18065E-06 2.31135E-05
 -1      1148 9.40587E-07 6.68261E-07-2.51247E-06 1.66223E-08-1.80736E-06 2.45536E-05
 -1      1149-8.86632E-05 1.16811E-05 3.03413E-05 2.58113E-05-1.80439E-06 2.44566E-05
 -1      1150 1.26827E-06 6.62300E-07-2.68934E-06 1.29357E-08-3.41916E-06 2.57734E-05
 -1      1151-5.99112E-05 9.13239E-06 1.91541E-05 2.29573E-05-3.43778E-06 2.56056E-05
 -1      1152 1.24611E-06 6.55245E-07-2.45897E-06 7.59685E-09-7.35517E-06 2.66135E-05
 -1      1153-3.03548E-05 7.66855E-06 6.60402E-06 1.52059E-05-7.29391E-06 2.67135E-05
 -1      1154 1.88950E-07 6.52464E-07-2.00893E-07 4.21593E-09-1.67678E-05 2.69554E-05
 -1      1155-1.67013E-05 8.71009E-06 2.16052E-06 9.66041E-06-1.68629E-05 2.73476E-05
 -1      1156-3.41725E-04 5.46475E-05 1.20687E-04 1.07246E-06-2.21329E-06 6.00621E-07
 -1      1157 7.16106E-07 7.15079E-07-2.38208E-06 1.58529E-10-2.21405E-06 6.00833E-07
 -1      1158 7.16021E-07 7.15084E-07-2.38205E-06 3.27257E-10-2.20727E-06 1.36508E-06
 -1      1159-3.40865E-04 5.45027E-05 1.20380E-04 2.86233E-06-2.20651E-06 1.36465E-06
 -1      1160 7.15765E-07 7.15099E-07-2.38195E-06 6.84320E-10-2.18688E-06 2.73119E-06
 -1      1161-3.38286E-04 5.40688E-05 1.19458E-04 5.71243E-06-2.18611E-06 2.73029E-06
 -1      1162 7.15338E-07 7.15115E-07-2.38178E-06 1.10258E-09-2.15273E-06 4.09942E-06
 -1      1163-3.33987E-04 5.33479E-05 1.17922E-04 8.53828E-06-2.15194E-06 4.09800E-06
 -1      1164 7.14739E-07 7.15119E-07-2.38152E-06 1.61664E-09-2.10457E-06 5.47099E-06
 -1      1165-3.27971E-04 5.23432E-05 1.15770E-04 1.13283E-05-2.10376E-06 5.46897E-06
 -1      1166 7.13969E-07 7.15088E-07-2.38118E-06 2.26593E-09-2.04209E-06 6.84736E-06
 -1      1167-3.20236E-04 5.10590E-05 1.13001E-04 1.40715E-05-2.04126E-06 6.84460E-06
 -1      1168 7.13034E-07 7.14987E-07-2.38074E-06 3.09641E-09-1.96492E-06 8.23031E-06
 -1      1169-3.10783E-04 4.95010E-05 1.09611E-04 1.67580E-05-1.96406E-06 8.22659E-06
 -1      1170 7.11952E-07 7.14764E-07-2.38018E-06 4.16193E-09-1.87272E-06 9.62202E-06
 -1      1171-2.99611E-04 4.76756E-05 1.05598E-04 1.93788E-05-1.87183E-06 9.61708E-06
 -1      1172 7.10758E-07 7.14340E-07-2.37948E-06 5.52507E-09-1.76530E-06 1.10253E-05
 -1      1173-2.86716E-04 4.55896E-05 1.00957E-04 2.19266E-05-1.76440E-06 1.10187E-05
 -1      1174 7.09514E-07 7.13598E-07-2.37862E-06 7.25646E-09-1.64289E-06 1.24434E-05
 -1      1175-2.72090E-04 4.32500E-05 9.56839E-05 2.43953E-05-1.64202E-06 1.24348E-05
 -1      1176 7.08319E-07 7.12369E-07-2.37754E-06 9.43072E-09-1.50665E-06 1.38802E-05
 -1      1177-2.55721E-04 4.06624E-05 8.97708E-05 2.67793E-05-1.50585E-06 1.38691E-05
 -1      1178 7.07317E-07 7.10401E-07-2.37619E-06 1.21153E-08-1.35965E-06 1.53400E-05
 -1      1179-2.37589E-04 3.78304E-05 8.32088E-05 2.90719E-05-1.35903E-06 1.53259E-05
 -1      1180 7.06723E-07 7.07337E-07-2.37449E-06 1.53444E-08-1.20891E-06 1.68259E-05
 -1      1181-2.17666E-04 3.47538E-05 7.59871E-05 3.12598E-05-1.20863E-06 1.68088E-05
 -1      1182 7.07056E-07 7.02672E-07-2.37251E-06 1.90611E-08-1.06965E-06 1.83389E-05
 -1      1183-1.95915E-04 3.14283E-05 6.80920E-05 3.33121E-05-1.06988E-06 1.83195E-05
 -1      1184 7.10384E-07 6.95748E-07-2.37146E-06 2.29986E-08-9.74292E-07 1.98747E-05
 -1      1185-1.72302E-04 2.78487E-05 5.95107E-05 3.51571E-05-9.75297E-07 1.98539E-05
 -1      1186 7.25160E-07 6.85874E-07-2.37708E-06 2.64627E-08-9.93341E-07 2.14208E-05
 -1      1187-1.46816E-04 2.40216E-05 5.02195E-05 3.66337E-05-9.94928E-07 2.13963E-05
 -1      1188 7.79720E-07 6.72838E-07-2.40856E-06 2.80545E-08-1.28139E-06 2.29530E-05
 -1      1189-1.19538E-04 1.99990E-05 4.02355E-05 3.73902E-05-1.28430E-06 2.29074E-05
 -1      1190 9.42143E-07 6.58199E-07-2.50775E-06 2.57920E-08-2.19697E-06 2.44181E-05
 -1      1191-9.06812E-05 1.59554E-05 2.94483E-05 3.66714E-05-2.19786E-06 2.43174E-05
 -1      1192 1.26935E-06 6.46569E-07-2.68273E-06 1.93365E-08-4.52441E-06 2.57056E-05
 -1      1193-6.09221E-05 1.23541E-05 1.83150E-05 3.27429E-05-4.54036E-06 2.54955E-05
 -1      1194 1.24639E-06 6.39815E-07-2.45225E-06 1.11855E-08-1.04577E-05 2.63366E-05
 -1      1195-3.09299E-05 1.02982E-05 5.47041E-06 2.18796E-05-1.04052E-05 2.64673E-05
 -1      1196 1.96842E-07 6.28280E-07-1.99878E-07 7.25796E-09-2.40660E-05 2.63376E-05
 -1      1197-1.79489E-05 1.26232E-05 1.66789E-06 1.41419E-05-2.41460E-05 2.68811E-05
 -1      1198-3.51658E-04 7.27524E-05 1.17285E-04 1.45211E-06-2.84441E-06 5.46393E-07
 -1      1199 7.26617E-07 7.12005E-07-2.38525E-06-1.18530E-10-2.84528E-06 5.46495E-07
 -1      1200 7.26544E-07 7.12029E-07-2.38523E-06-2.27074E-10-2.83748E-06 1.32154E-06
 -1      1201-3.50777E-04 7.25631E-05 1.16988E-04 3.88167E-06-2.83660E-06 1.32133E-06
 -1      1202 7.26325E-07 7.12100E-07-2.38517E-06-4.41318E-10-2.81396E-06 2.64354E-06
 -1      1203-3.48134E-04 7.19957E-05 1.16096E-04 7.74701E-06-2.81307E-06 2.64311E-06
 -1      1204 7.25946E-07 7.12220E-07-2.38506E-06-6.28329E-10-2.77440E-06 3.96649E-06
 -1      1205-3.43730E-04 7.10523E-05 1.14611E-04 1.15798E-05-2.77347E-06 3.96581E-06
 -1      1206 7.25391E-07 7.12389E-07-2.38491E-06-7.70370E-10-2.71817E-06 5.29097E-06
 -1      1207-3.37568E-04 6.97362E-05 1.12529E-04 1.53643E-05-2.71720E-06 5.29000E-06
 -1      1208 7.24631E-07 7.12605E-07-2.38469E-06-8.44203E-10-2.64441E-06 6.61777E-06
 -1      1209-3.29651E-04 6.80523E-05 1.09853E-04 1.90853E-05-2.64336E-06 6.61642E-06
 -1      1210 7.23633E-07 7.12866E-07-2.38439E-06-8.18258E-10-2.55185E-06 7.94794E-06
 -1      1211-3.19983E-04 6.60070E-05 1.06579E-04 2.27286E-05-2.55071E-06 7.94607E-06
 -1      1212 7.22352E-07 7.13160E-07-2.38399E-06-6.48832E-10-2.43886E-06 9.28307E-06
 -1      1213-3.08569E-04 6.36082E-05 1.02706E-04 2.62815E-05-2.43759E-06 9.28043E-06
 -1      1214 7.20735E-07 7.13469E-07-2.38346E-06-2.74912E-10-2.30331E-06 1.06256E-05
 -1      1215-2.95413E-04 6.08658E-05 9.82324E-05 2.97337E-05-2.30187E-06 1.06218E-05
 -1      1216 7.18722E-07 7.13750E-07-2.38275E-06 3.88853E-10-2.14264E-06 1.19794E-05
 -1      1217-2.80517E-04 5.77908E-05 9.31544E-05 3.30778E-05-2.14097E-06 1.19736E-05
 -1      1218 7.16250E-07 7.13928E-07-2.38179E-06 1.46163E-09-1.95404E-06 1.33506E-05
 -1      1219-2.63881E-04 5.43951E-05 8.74667E-05 3.63108E-05-1.95210E-06 1.33415E-05
 -1      1220 7.13255E-07 7.13863E-07-2.38049E-06 3.10904E-09-1.73537E-06 1.47485E-05
 -1      1221-2.45492E-04 5.06903E-05 8.11615E-05 3.94341E-05-1.73314E-06 1.47341E-05
 -1      1222 7.09728E-07 7.13300E-07-2.37870E-06 5.55986E-09-1.48743E-06 1.61869E-05
 -1      1223-2.25323E-04 4.66845E-05 7.42267E-05 4.24513E-05-1.48499E-06 1.61641E-05
 -1      1224 7.06026E-07 7.11775E-07-2.37645E-06 9.12576E-09-1.22002E-06 1.76834E-05
 -1      1225-2.03319E-04 4.23787E-05 6.66429E-05 4.53589E-05-1.21763E-06 1.76480E-05
 -1      1226 7.04348E-07 7.08435E-07-2.37484E-06 1.42099E-08-9.66481E-07 1.92551E-05
 -1      1227-1.79390E-04 3.77618E-05 5.83847E-05 4.81171E-05-9.64890E-07 1.92027E-05
 -1      1228 7.14034E-07 7.01706E-07-2.37955E-06 2.12285E-08-8.18386E-07 2.09037E-05
 -1      1229-1.53418E-04 3.28101E-05 4.94044E-05 5.05749E-05-8.18867E-07 2.08303E-05
 -1      1230 7.65829E-07 6.88866E-07-2.40964E-06 3.01595E-08-1.00646E-06 2.25826E-05
 -1      1231-1.25341E-04 2.75092E-05 3.96857E-05 5.22910E-05-1.01125E-06 2.24836E-05
 -1      1232 9.32520E-07 6.66157E-07-2.50664E-06 3.89128E-08-2.08244E-06 2.41491E-05
 -1      1233-9.53000E-05 2.19465E-05 2.90760E-05 5.21225E-05-2.09240E-06 2.40072E-05
 -1      1234 1.27455E-06 6.32348E-07-2.67834E-06 3.97824E-08-5.38850E-06 2.53724E-05
 -1      1235-6.42242E-05 1.65806E-05 1.79795E-05 4.74327E-05-5.38453E-06 2.51296E-05
 -1      1236 1.26081E-06 6.00418E-07-2.44726E-06 2.50795E-08-1.35830E-05 2.60397E-05
 -1      1237-3.29221E-05 1.27335E-05 5.04911E-06 3.17341E-05-1.36171E-05 2.62510E-05
 -1      1238 2.09598E-07 5.94393E-07-2.00608E-07 1.30832E-08-3.41932E-05 2.61285E-05
 -1      1239-1.91649E-05 1.35170E-05 1.51852E-06 1.99304E-05-3.41394E-05 2.68672E-05
 -1      1240-3.65241E-04 9.40262E-05 1.12955E-04 1.67147E-06-2.89811E-06 8.73308E-07
 -1      1241 7.39554E-07 7.07427E-07-2.38874E-06-1.97407E-10-2.89884E-06 8.72814E-07
 -1      1242 7.39567E-07 7.07429E-07-2.38875E-06-3.87226E-10-2.89206E-06 1.21383E-06
 -1      1243-3.64332E-04 9.37889E-05 1.12669E-04 4.11819E-06-2.89132E-06 1.21482E-06
 -1      1244 7.39603E-07 7.07437E-07-2.38877E-06-7.77597E-10-2.87162E-06 2.42752E-06
 -1      1245-3.61605E-04 9.30777E-05 1.11809E-04 8.22007E-06-2.87086E-06 2.42953E-06
 -1      1246 7.39657E-07 7.07452E-07-2.38880E-06-1.17391E-09-2.83719E-06 3.64091E-06
 -1      1247-3.57063E-04 9.18939E-05 1.10377E-04 1.22894E-05-2.83641E-06 3.64398E-06
 -1      1248 7.39719E-07 7.07476E-07-2.38884E-06-1.57814E-09-2.78820E-06 4.85374E-06
 -1      1249-3.50708E-04 9.02398E-05 1.08373E-04 1.63099E-05-2.78737E-06 4.85795E-06
 -1      1250 7.39772E-07 7.07516E-07-2.38889E-06-1.99081E-09-2.72375E-06 6.06564E-06
 -1      1251-3.42546E-04 8.81191E-05 1.05797E-04 2.02658E-05-2.72285E-06 6.07108E-06
 -1      1252 7.39790E-07 7.07578E-07-2.38893E-06-2.40983E-09-2.64254E-06 7.27605E-06
 -1      1253-3.32583E-04 8.55367E-05 1.02650E-04 2.41416E-05-2.64155E-06 7.28288E-06
 -1      1254 7.39733E-07 7.07670E-07-2.38895E-06-2.82876E-09-2.54270E-06 8.48416E-06
 -1      1255-3.20830E-04 8.24992E-05 9.89331E-05 2.79226E-05-2.54157E-06 8.49260E-06
 -1      1256 7.39541E-07 7.07806E-07-2.38894E-06-3.23369E-09-2.42154E-06 9.68893E-06
 -1      1257-3.07300E-04 7.90154E-05 9.46481E-05 3.15955E-05-2.42019E-06 9.69923E-06
 -1      1258 7.39120E-07 7.07998E-07-2.38886E-06-3.59816E-09-2.27524E-06 1.08892E-05
 -1      1259-2.92012E-04 7.50971E-05 8.97973E-05 3.51498E-05-2.27355E-06 1.09016E-05
 -1      1260 7.38316E-07 7.08266E-07-2.38866E-06-3.87437E-09-2.09841E-06 1.20840E-05
 -1      1261-2.74988E-04 7.07594E-05 8.43836E-05 3.85792E-05-2.09619E-06 1.20988E-05
 -1      1262 7.36868E-07 7.08627E-07-2.38821E-06-3.97898E-09-1.88371E-06 1.32745E-05
 -1      1263-2.56257E-04 6.60217E-05 7.84108E-05 4.18839E-05-1.88062E-06 1.32913E-05
 -1      1264 7.34347E-07 7.09087E-07-2.38733E-06-3.77218E-09-1.62211E-06 1.44671E-05
 -1      1265-2.35850E-04 6.09075E-05 7.18827E-05 4.50738E-05-1.61758E-06 1.44836E-05
 -1      1266 7.30255E-07 7.09603E-07-2.38586E-06-3.03210E-09-1.30542E-06 1.56821E-05
 -1      1267-2.13784E-04 5.54423E-05 6.48005E-05 4.81685E-05-1.29858E-06 1.56915E-05
 -1      1268 7.25130E-07 7.09938E-07-2.38441E-06-1.42941E-09-9.36474E-07 1.69695E-05
 -1      1269-1.90030E-04 4.96463E-05 5.71610E-05 5.11864E-05-9.26175E-07 1.69537E-05
 -1      1270 7.25468E-07 7.09189E-07-2.38747E-06 1.53226E-09-5.60979E-07 1.84346E-05
 -1      1271-1.64438E-04 4.35170E-05 4.89294E-05 5.40923E-05-5.46281E-07 1.83523E-05
 -1      1272 7.58411E-07 7.04433E-07-2.41167E-06 6.84575E-09-3.57530E-07 2.02569E-05
 -1      1273-1.36637E-04 3.69990E-05 4.00683E-05 5.66204E-05-3.40979E-07 2.00313E-05
 -1      1274 8.95786E-07 6.87593E-07-2.49480E-06 1.72498E-08-8.91060E-07 2.26220E-05
 -1      1275-1.05895E-04 2.99574E-05 3.03175E-05 5.77590E-05-8.83959E-07 2.21655E-05
 -1      1276 1.21084E-06 6.41024E-07-2.64347E-06 3.76842E-08-3.70237E-06 2.52060E-05
 -1      1277-7.17810E-05 2.22595E-05 1.98521E-05 5.42516E-05-3.77144E-06 2.47951E-05
 -1      1278 1.22559E-06 5.44433E-07-2.39415E-06 4.76698E-08-1.34695E-05 2.57998E-05
 -1      1279-3.56623E-05 1.45805E-05 7.23157E-06 3.77789E-05-1.37288E-05 2.63527E-05
 -1      1280 2.55645E-07 4.00204E-07-1.87255E-07 4.30626E-08-4.27452E-05 2.51907E-05
 -1      1281-1.78246E-05 8.74293E-06 2.60029E-06 2.47775E-05-4.23112E-05 2.65268E-05
 -1      1282-3.70323E-04 1.04567E-04 1.10112E-04 1.77640E-06-2.64826E-06 2.47528E-06
 -1      1283 7.51618E-07 7.03376E-07-2.39215E-06-1.61177E-10-2.64883E-06 2.47357E-06
 -1      1284 7.51738E-07 7.03344E-07-2.39219E-06-3.16493E-10-2.64338E-06 4.30720E-06
 -1      1285-3.69403E-04 1.04307E-04 1.09831E-04 3.97403E-06-2.64281E-06 4.31064E-06
 -1      1286 7.52101E-07 7.03247E-07-2.39230E-06-6.40333E-10-2.62696E-06 8.60355E-06
 -1      1287-3.66643E-04 1.03528E-04 1.08990E-04 7.93374E-06-2.62639E-06 8.61046E-06
 -1      1288 7.52719E-07 7.03082E-07-2.39249E-06-9.79169E-10-2.59933E-06 1.28780E-05
 -1      1289-3.62046E-04 1.02231E-04 1.07589E-04 1.18648E-05-2.59874E-06 1.28885E-05
 -1      1290 7.53615E-07 7.02842E-07-2.39277E-06-1.34126E-09-2.56007E-06 1.71194E-05
 -1      1291-3.55615E-04 1.00416E-04 1.05628E-04 1.57527E-05-2.55944E-06 1.71336E-05
 -1      1292 7.54821E-07 7.02521E-07-2.39315E-06-1.73579E-09-2.50849E-06 2.13158E-05
 -1      1293-3.47355E-04 9.80878E-05 1.03108E-04 1.95831E-05-2.50782E-06 2.13339E-05
 -1      1294 7.56384E-07 7.02104E-07-2.39364E-06-2.17315E-09-2.44361E-06 2.54547E-05
 -1      1295-3.37275E-04 9.52488E-05 1.00033E-04 2.33414E-05-2.44287E-06 2.54772E-05
 -1      1296 7.58368E-07 7.01574E-07-2.39427E-06-2.66523E-09-2.36392E-06 2.95226E-05
 -1      1297-3.25385E-04 9.19044E-05 9.64030E-05 2.70132E-05-2.36307E-06 2.95499E-05
 -1      1298 7.60860E-07 7.00906E-07-2.39505E-06-3.22550E-09-2.26718E-06 3.35039E-05
 -1      1299-3.11703E-04 8.80620E-05 9.22235E-05 3.05845E-05-2.26616E-06 3.35368E-05
 -1      1300 7.63976E-07 7.00064E-07-2.39604E-06-3.86867E-09-2.14993E-06 3.73804E-05
 -1      1301-2.96255E-04 8.37318E-05 8.74998E-05 3.40422E-05-2.14863E-06 3.74203E-05
 -1      1302 7.67862E-07 6.98997E-07-2.39726E-06-4.60822E-09-2.00673E-06 4.11291E-05
 -1      1303-2.79080E-04 7.89292E-05 8.22407E-05 3.73751E-05-2.00490E-06 4.11785E-05
 -1      1304 7.72692E-07 6.97631E-07-2.39876E-06-5.44572E-09-1.82896E-06 4.47189E-05
 -1      1305-2.60242E-04 7.36769E-05 7.64597E-05 4.05762E-05-1.82609E-06 4.47825E-05
 -1      1306 7.78709E-07 6.95857E-07-2.40062E-06-6.32866E-09-1.60309E-06 4.81045E-05
 -1      1307-2.39845E-04 6.80096E-05 7.01786E-05 4.36454E-05-1.59814E-06 4.81915E-05
 -1      1308 7.86543E-07 6.93499E-07-2.40318E-06-7.00685E-09-1.30941E-06 5.12168E-05
 -1      1309-2.18069E-04 6.19807E-05 6.34323E-05 4.65950E-05-1.30031E-06 5.13453E-05
 -1      1310 7.98694E-07 6.90185E-07-2.40807E-06-6.61958E-09-9.24985E-07 5.39509E-05
 -1      1311-1.95214E-04 5.56709E-05 5.62808E-05 4.94519E-05-9.07955E-07 5.41552E-05
 -1      1312 8.24612E-07 6.84908E-07-2.42165E-06-2.78843E-09-4.45072E-07 5.61669E-05
 -1      1313-1.71759E-04 4.91944E-05 4.88035E-05 5.22406E-05-4.14657E-07 5.65038E-05
 -1      1314 8.93214E-07 6.74659E-07-2.46270E-06 9.36619E-09 3.16439E-08 5.77626E-05
 -1      1315-1.48354E-04 4.26823E-05 4.11485E-05 5.48854E-05 7.64606E-08 5.82988E-05
 -1      1316 1.06759E-06 6.51673E-07-2.56753E-06 3.42047E-08 2.41135E-08 5.90187E-05
 -1      1317-1.25305E-04 3.61691E-05 3.32547E-05 5.68058E-05 6.01621E-08 5.97517E-05
 -1      1318 1.38906E-06 5.99971E-07-2.72826E-06 5.78110E-08-2.19032E-06 6.19268E-05
 -1      1319-1.00563E-04 2.92511E-05 2.52101E-05 5.56364E-05-2.35223E-06 6.22930E-05
 -1      1320 1.36489E-06 4.82765E-07-2.45158E-06 6.14949E-08-1.16738E-05 7.35886E-05
 -1      1321-6.13585E-05 1.93669E-05 1.28942E-05 4.18207E-05-1.21050E-05 7.26385E-05
 -1      1322 4.18196E-07 1.99123E-07-1.72322E-07 5.60920E-08-4.38057E-05 8.30121E-05
 -1      1323-3.48488E-05 8.89821E-06 3.53891E-06 2.97972E-05-4.30852E-05 8.11915E-05
 -1      1324 3.71827E-04-1.03160E-04-1.14896E-04 1.77674E-06 2.64824E-06 2.47531E-06
 -1      1325 3.70907E-04-1.02901E-04-1.14616E-04 3.97474E-06 2.64279E-06 4.31068E-06
 -1      1326 3.66720E-04-9.26113E-05-1.17733E-04 1.67189E-06 2.89810E-06 8.73307E-07
 -1      1327 3.65811E-04-9.23741E-05-1.17446E-04 4.11904E-06 2.89131E-06 1.21482E-06
 -1      1328 3.68148E-04-1.02122E-04-1.13775E-04 7.93517E-06 2.62636E-06 8.61055E-06
 -1      1329 3.63084E-04-9.16628E-05-1.16587E-04 8.22178E-06 2.87085E-06 2.42952E-06
 -1      1330 3.63552E-04-1.00824E-04-1.12374E-04 1.18670E-05 2.59871E-06 1.28887E-05
 -1      1331 3.58542E-04-9.04790E-05-1.15155E-04 1.22920E-05 2.83639E-06 3.64396E-06
 -1      1332 3.57123E-04-9.90106E-05-1.10413E-04 1.57557E-05 2.55941E-06 1.71338E-05
 -1      1333 3.52187E-04-8.88248E-05-1.13151E-04 1.63134E-05 2.78735E-06 4.85792E-06
 -1      1334 3.48865E-04-9.66828E-05-1.07895E-04 1.95870E-05 2.50779E-06 2.13342E-05
 -1      1335 3.44025E-04-8.67040E-05-1.10575E-04 2.02703E-05 2.72284E-06 6.07104E-06
 -1      1336 3.38788E-04-9.38446E-05-1.04820E-04 2.33463E-05 2.44283E-06 2.54776E-05
 -1      1337 3.34063E-04-8.41214E-05-1.07428E-04 2.41470E-05 2.64153E-06 7.28282E-06
 -1      1338 3.26902E-04-9.05013E-05-1.01192E-04 2.70194E-05 2.36303E-06 2.95503E-05
 -1      1339 3.22310E-04-8.10836E-05-1.03711E-04 2.79290E-05 2.54154E-06 8.49250E-06
 -1      1340 3.13225E-04-8.66601E-05-9.70137E-05 3.05921E-05 2.26611E-06 3.35374E-05
 -1      1341 3.08779E-04-7.75995E-05-9.94261E-05 3.16030E-05 2.42016E-06 9.69909E-06
 -1      1342 2.97784E-04-8.23315E-05-9.22921E-05 3.40515E-05 2.14857E-06 3.74212E-05
 -1      1343 2.93490E-04-7.36806E-05-9.45752E-05 3.51583E-05 2.27351E-06 1.09014E-05
 -1      1344 2.80617E-04-7.75309E-05-8.70355E-05 3.73865E-05 2.00483E-06 4.11796E-05
 -1      1345 2.76464E-04-6.93421E-05-8.91612E-05 3.85886E-05 2.09613E-06 1.20985E-05
 -1      1346 2.61789E-04-7.22810E-05-8.12577E-05 4.05901E-05 1.82601E-06 4.47840E-05
 -1      1347 2.57730E-04-6.46033E-05-8.31876E-05 4.18941E-05 1.88054E-06 1.32906E-05
 -1      1348 2.41406E-04-6.66167E-05-7.49810E-05 4.36626E-05 1.59807E-06 4.81935E-05
 -1      1349 2.37318E-04-5.94874E-05-7.66583E-05 4.50842E-05 1.61745E-06 1.44825E-05
 -1      1350 2.19647E-04-6.05913E-05-6.82409E-05 4.66169E-05 1.30029E-06 5.13487E-05
 -1      1351 2.15244E-04-5.40199E-05-6.95741E-05 4.81782E-05 1.29828E-06 1.56895E-05
 -1      1352 1.96813E-04-5.42846E-05-6.10994E-05 4.94812E-05 9.08094E-07 5.41637E-05
 -1      1353 1.91475E-04-4.82206E-05-6.19311E-05 5.11931E-05 9.25349E-07 1.69519E-05
 -1      1354 1.73369E-04-4.78075E-05-5.36394E-05 5.22822E-05 4.14857E-07 5.65307E-05
 -1      1355 1.65849E-04-4.20864E-05-5.36932E-05 5.40906E-05 5.44015E-07 1.83590E-05
 -1      1356 1.49921E-04-4.12831E-05-4.60091E-05 5.49438E-05-7.80275E-08 5.83825E-05
 -1      1357 1.37949E-04-3.55621E-05-4.48161E-05 5.65988E-05 3.35431E-07 2.00800E-05
 -1      1358 1.26649E-04-3.47371E-05-3.81199E-05 5.68658E-05-7.24884E-08 5.99687E-05
 -1      1359 1.06937E-04-2.85199E-05-3.50106E-05 5.76986E-05 8.73241E-07 2.23401E-05
 -1      1360 1.01333E-04-2.77947E-05-2.99213E-05 5.56079E-05 2.30528E-06 6.26662E-05
 -1      1361 7.22648E-05-2.08632E-05-2.43453E-05 5.41433E-05 3.75841E-06 2.51552E-05
 -1      1362 6.17257E-05-1.81063E-05-1.69209E-05 4.16723E-05 1.20474E-05 7.23994E-05
 -1      1363 3.58316E-05-1.33654E-05-1.10838E-05 3.76677E-05 1.37068E-05 2.61653E-05
 -1      1364 3.37591E-05-8.23858E-06-3.19412E-06 2.96072E-05 4.30084E-05 8.02791E-05
 -1      1365 1.64882E-05-7.83028E-06-2.22563E-06 2.46837E-05 4.22758E-05 2.56978E-05
 -1      1366 3.53111E-04-7.13283E-05-1.22055E-04 1.45236E-06 2.84441E-06 5.46387E-07
 -1      1367 3.52230E-04-7.11389E-05-1.21758E-04 3.88218E-06 2.83660E-06 1.32133E-06
 -1      1368 3.49586E-04-7.05713E-05-1.20867E-04 7.74800E-06 2.81307E-06 2.64310E-06
 -1      1369 3.45181E-04-6.96276E-05-1.19381E-04 1.15813E-05 2.77347E-06 3.96579E-06
 -1      1370 3.39018E-04-6.83112E-05-1.17299E-04 1.53661E-05 2.71720E-06 5.28997E-06
 -1      1371 3.31100E-04-6.66268E-05-1.14622E-04 1.90873E-05 2.64336E-06 6.61638E-06
 -1      1372 3.21430E-04-6.45808E-05-1.11347E-04 2.27306E-05 2.55070E-06 7.94601E-06
 -1      1373 3.10013E-04-6.21814E-05-1.07474E-04 2.62833E-05 2.43758E-06 9.28035E-06
 -1      1374 2.96854E-04-5.94382E-05-1.02999E-04 2.97347E-05 2.30186E-06 1.06217E-05
 -1      1375 2.81954E-04-5.63624E-05-9.79199E-05 3.30776E-05 2.14095E-06 1.19735E-05
 -1      1376 2.65312E-04-5.29661E-05-9.22304E-05 3.63085E-05 1.95208E-06 1.33413E-05
 -1      1377 2.46917E-04-4.92610E-05-8.59227E-05 3.94284E-05 1.73310E-06 1.47338E-05
 -1      1378 2.26741E-04-4.52557E-05-7.89847E-05 4.24405E-05 1.48492E-06 1.61636E-05
 -1      1379 2.04730E-04-4.09523E-05-7.13969E-05 4.53405E-05 1.21753E-06 1.76477E-05
 -1      1380 1.80793E-04-3.63412E-05-6.31339E-05 4.80878E-05 9.64809E-07 1.92049E-05
 -1      1381 1.54804E-04-3.14023E-05-5.41480E-05 5.05305E-05 8.18984E-07 2.08462E-05
 -1      1382 1.26667E-04-2.61282E-05-4.44188E-05 5.22279E-05 1.01200E-06 2.25501E-05
 -1      1383 9.64213E-05-2.06165E-05-3.37681E-05 5.20428E-05 2.09410E-06 2.42090E-05
 -1      1384 6.48319E-05-1.53297E-05-2.24972E-05 4.73531E-05 5.38525E-06 2.55138E-05
 -1      1385 3.31540E-05-1.15532E-05-8.95267E-06 3.16876E-05 1.36143E-05 2.60374E-05
 -1      1386 1.77365E-05-1.23451E-05-1.11716E-06 1.99096E-05 3.41503E-05 2.59674E-05
 -1      1387 3.43156E-04-5.32171E-05-1.25451E-04 1.07215E-06 2.21329E-06 6.00615E-07
 -1      1388 3.42297E-04-5.30722E-05-1.25144E-04 2.86169E-06 2.20651E-06 1.36464E-06
 -1      1389 3.39717E-04-5.26383E-05-1.24222E-04 5.71110E-06 2.18611E-06 2.73028E-06
 -1      1390 3.35418E-04-5.19174E-05-1.22686E-04 8.53613E-06 2.15194E-06 4.09799E-06
 -1      1391 3.29400E-04-5.09126E-05-1.20533E-04 1.13251E-05 2.10376E-06 5.46895E-06
 -1      1392 3.21664E-04-4.96285E-05-1.17763E-04 1.40671E-05 2.04125E-06 6.84457E-06
 -1      1393 3.12209E-04-4.80706E-05-1.14372E-04 1.67519E-05 1.96405E-06 8.22655E-06
 -1      1394 3.01035E-04-4.62455E-05-1.10358E-04 1.93706E-05 1.87183E-06 9.61703E-06
 -1      1395 2.88137E-04-4.41603E-05-1.05716E-04 2.19156E-05 1.76440E-06 1.10187E-05
 -1      1396 2.73508E-04-4.18220E-05-1.00441E-04 2.43807E-05 1.64201E-06 1.24347E-05
 -1      1397 2.57137E-04-3.92368E-05-9.45259E-05 2.67603E-05 1.50585E-06 1.38690E-05
 -1      1398 2.39003E-04-3.64086E-05-8.79613E-05 2.90474E-05 1.35904E-06 1.53257E-05
 -1      1399 2.19079E-04-3.33379E-05-8.07365E-05 3.12286E-05 1.20866E-06 1.68085E-05
 -1      1400 1.97330E-04-3.00217E-05-7.28378E-05 3.32731E-05 1.06995E-06 1.83192E-05
 -1      1401 1.73721E-04-2.64560E-05-6.42529E-05 3.51097E-05 9.75436E-07 1.98556E-05
 -1      1402 1.48231E-04-2.26489E-05-5.49581E-05 3.65788E-05 9.95156E-07 2.14105E-05
 -1      1403 1.20899E-04-1.86530E-05-4.49670E-05 3.73316E-05 1.28452E-06 2.29703E-05
 -1      1404 9.18203E-05-1.46390E-05-3.41443E-05 3.66172E-05 2.19771E-06 2.45139E-05
 -1      1405 6.15016E-05-1.10606E-05-2.28424E-05 3.27029E-05 4.53947E-06 2.58755E-05
 -1      1406 3.11069E-05-9.01764E-06-9.38522E-06 2.18584E-05 1.04036E-05 2.62566E-05
 -1      1407 1.64697E-05-1.13656E-05-1.26799E-06 1.41301E-05 2.41479E-05 2.59923E-05
 -1      1408 3.35814E-04-3.95600E-05-1.28098E-04 7.86468E-07 1.71559E-06 6.38501E-07
 -1      1409 3.34970E-04-3.94501E-05-1.27783E-04 2.09971E-06 1.71030E-06 1.40134E-06
 -1      1410 3.32437E-04-3.91211E-05-1.26836E-04 4.19054E-06 1.69442E-06 2.80379E-06
 -1      1411 3.28214E-04-3.85744E-05-1.25259E-04 6.26373E-06 1.66800E-06 4.20848E-06
 -1      1412 3.22302E-04-3.78121E-05-1.23048E-04 8.31072E-06 1.63113E-06 5.61663E-06
 -1      1413 3.14698E-04-3.68375E-05-1.20203E-04 1.03233E-05 1.58397E-06 7.02949E-06
 -1      1414 3.05400E-04-3.56540E-05-1.16721E-04 1.22936E-05 1.52682E-06 8.44847E-06
 -1      1415 2.94405E-04-3.42656E-05-1.12599E-04 1.42139E-05 1.46017E-06 9.87500E-06
 -1      1416 2.81708E-04-3.26764E-05-1.07834E-04 1.60766E-05 1.38481E-06 1.13106E-05
 -1      1417 2.67301E-04-3.08899E-05-1.02420E-04 1.78736E-05 1.30201E-06 1.27567E-05
 -1      1418 2.51174E-04-2.89091E-05-9.63529E-05 1.95950E-05 1.21381E-06 1.42147E-05
 -1      1419 2.33317E-04-2.67360E-05-8.96270E-05 2.12274E-05 1.12350E-06 1.56851E-05
 -1      1420 2.13718E-04-2.43725E-05-8.22365E-05 2.27505E-05 1.03666E-06 1.71681E-05
 -1      1421 1.92369E-04-2.18219E-05-7.41743E-05 2.41301E-05 9.63516E-07 1.86625E-05
 -1      1422 1.69270E-04-1.90942E-05-6.54366E-05 2.53068E-05 9.24502E-07 2.01654E-05
 -1      1423 1.44436E-04-1.62162E-05-5.60105E-05 2.61685E-05 9.63134E-07 2.16729E-05
 -1      1424 1.17921E-04-1.32518E-05-4.59167E-05 2.64904E-05 1.18052E-06 2.31776E-05
 -1      1425 8.97959E-05-1.03447E-05-3.50456E-05 2.57773E-05 1.80412E-06 2.46547E-05
 -1      1426 6.04840E-05-7.80803E-06-2.36911E-05 2.29316E-05 3.43732E-06 2.59869E-05
 -1      1427 3.05280E-05-6.35834E-06-1.05277E-05 1.51922E-05 7.29304E-06 2.65013E-05
 -1      1428 1.52051E-05-7.40581E-06-1.75858E-06 9.65412E-06 1.68644E-05 2.64540E-05
 -1      1429 3.30459E-04-2.93397E-05-1.30137E-04 5.69248E-07 1.31367E-06 6.66895E-07
 -1      1430 3.29626E-04-2.92559E-05-1.29816E-04 1.51999E-06 1.30985E-06 1.42874E-06
 -1      1431 3.27127E-04-2.90049E-05-1.28851E-04 3.03339E-06 1.29842E-06 2.85840E-06
 -1      1432 3.22961E-04-2.85874E-05-1.27243E-04 4.53361E-06 1.27949E-06 4.28988E-06
 -1      1433 3.17126E-04-2.80050E-05-1.24990E-04 6.01405E-06 1.25328E-06 5.72411E-06
 -1      1434 3.09623E-04-2.72595E-05-1.22091E-04 7.46807E-06 1.22008E-06 7.16197E-06
 -1      1435 3.00447E-04-2.63531E-05-1.18544E-04 8.88886E-06 1.18034E-06 8.60433E-06
 -1      1436 2.89597E-04-2.52883E-05-1.14347E-04 1.02693E-05 1.13463E-06 1.00520E-05
 -1      1437 2.77068E-04-2.40679E-05-1.09497E-04 1.16017E-05 1.08374E-06 1.15057E-05
 -1      1438 2.62858E-04-2.26947E-05-1.03991E-04 1.28772E-05 1.02870E-06 1.29660E-05
 -1      1439 2.46962E-04-2.11717E-05-9.78266E-05 1.40853E-05 9.70919E-07 1.44332E-05
 -1      1440 2.29376E-04-1.95029E-05-9.10000E-05 1.52129E-05 9.12427E-07 1.59074E-05
 -1      1441 2.10101E-04-1.76936E-05-8.35080E-05 1.62424E-05 8.56533E-07 1.73881E-05
 -1      1442 1.89137E-04-1.57524E-05-7.53470E-05 1.71488E-05 8.09291E-07 1.88740E-05
 -1      1443 1.66495E-04-1.36940E-05-6.65158E-05 1.78926E-05 7.83319E-07 2.03633E-05
 -1      1444 1.42193E-04-1.15446E-05-5.70062E-05 1.84020E-05 8.06463E-07 2.18538E-05
 -1      1445 1.16266E-04-9.35336E-06-4.68383E-05 1.85305E-05 9.45185E-07 2.33454E-05
 -1      1446 8.87419E-05-7.21893E-06-3.59195E-05 1.79541E-05 1.35650E-06 2.48332E-05
 -1      1447 5.98658E-05-5.35351E-06-2.44897E-05 1.58911E-05 2.42290E-06 2.62391E-05
 -1      1448 3.01189E-05-4.22652E-06-1.13734E-05 1.05127E-05 5.08137E-06 2.69865E-05
 -1      1449 1.45447E-05-5.11899E-06-2.10267E-06 6.70600E-06 1.15944E-05 2.70678E-05
 -1      1450 3.26621E-04-2.18167E-05-1.31684E-04 4.02469E-07 9.82402E-07 6.87198E-07
 -1      1451 3.25797E-04-2.17518E-05-1.31358E-04 1.07476E-06 9.79768E-07 1.44792E-06
 -1      1452 3.23323E-04-2.15575E-05-1.30380E-04 2.14443E-06 9.71899E-07 2.89651E-06
 -1      1453 3.19201E-04-2.12344E-05-1.28751E-04 3.20385E-06 9.58900E-07 4.34642E-06
 -1      1454 3.13428E-04-2.07835E-05-1.26468E-04 4.24777E-06 9.40944E-07 5.79830E-06
 -1      1455 3.06004E-04-2.02062E-05-1.23532E-04 5.27074E-06 9.18279E-07 7.25274E-06
 -1      1456 2.96928E-04-1.95044E-05-1.19940E-04 6.26701E-06 8.91230E-07 8.71030E-06
 -1      1457 2.86198E-04-1.86803E-05-1.15692E-04 7.23042E-06 8.60203E-07 1.01715E-05
 -1      1458 2.73813E-04-1.77366E-05-1.10785E-04 8.15424E-06 8.25699E-07 1.16367E-05
 -1      1459 2.59773E-04-1.66767E-05-1.05218E-04 9.03098E-06 7.88332E-07 1.31063E-05
 -1      1460 2.44076E-04-1.55045E-05-9.89885E-05 9.85210E-06 7.48897E-07 1.45803E-05
 -1      1461 2.26723E-04-1.42253E-05-9.20941E-05 1.06077E-05 7.08523E-07 1.60588E-05
 -1      1462 2.07717E-04-1.28458E-05-8.45331E-05 1.12855E-05 6.69076E-07 1.75415E-05
 -1      1463 1.87064E-04-1.13755E-05-7.63030E-05 1.18694E-05 6.34137E-07 1.90276E-05
 -1      1464 1.64771E-04-9.82764E-06-6.74038E-05 1.23342E-05 6.11581E-07 2.05164E-05
 -1      1465 1.40852E-04-8.22326E-06-5.78286E-05 1.26340E-05 6.19440E-07 2.20084E-05
 -1      1466 1.15328E-04-6.59902E-06-4.75940E-05 1.26735E-05 7.02621E-07 2.35089E-05
 -1      1467 8.81935E-05-5.02719E-06-3.66161E-05 1.22325E-05 9.64544E-07 2.50219E-05
 -1      1468 5.96373E-05-3.66245E-06-2.50924E-05 1.08018E-05 1.68309E-06 2.64862E-05
 -1      1469 2.99937E-05-2.87873E-06-1.19715E-05 7.12955E-06 3.45595E-06 2.73600E-05
 -1      1470 1.41156E-05-3.48199E-06-2.34859E-06 4.53188E-06 7.86747E-06 2.75391E-05
 -1      1471 3.23958E-04-1.64533E-05-1.32817E-04 2.72214E-07 7.00185E-07 7.01350E-07
 -1      1472 3.23140E-04-1.64021E-05-1.32488E-04 7.26974E-07 6.98438E-07 1.46084E-06
 -1      1473 3.20687E-04-1.62486E-05-1.31502E-04 1.45008E-06 6.93218E-07 2.92217E-06
 -1      1474 3.16598E-04-1.59934E-05-1.29858E-04 2.16539E-06 6.84593E-07 4.38448E-06
 -1      1475 3.10874E-04-1.56375E-05-1.27556E-04 2.86888E-06 6.72672E-07 5.84822E-06
 -1      1476 3.03513E-04-1.51824E-05-1.24594E-04 3.55634E-06 6.57608E-07 7.31384E-06
 -1      1477 2.94516E-04-1.46300E-05-1.20973E-04 4.22336E-06 6.39594E-07 8.78175E-06
 -1      1478 2.83882E-04-1.39826E-05-1.16690E-04 4.86522E-06 6.18864E-07 1.02523E-05
 -1      1479 2.71612E-04-1.32433E-05-1.11745E-04 5.47688E-06 5.95695E-07 1.17258E-05
 -1      1480 2.57706E-04-1.24156E-05-1.06136E-04 6.05291E-06 5.70415E-07 1.32026E-05
 -1      1481 2.42165E-04-1.15041E-05-9.98613E-05 6.58737E-06 5.43444E-07 1.46827E-05
 -1      1482 2.24991E-04-1.05141E-05-9.29197E-05 7.07370E-06 5.15386E-07 1.61663E-05
 -1      1483 2.06187E-04-9.45228E-06-8.53095E-05 7.50419E-06 4.87301E-07 1.76532E-05
 -1      1484 1.85757E-04-8.32717E-06-7.70287E-05 7.86887E-06 4.61358E-07 1.91432E-05
 -1      1485 1.63711E-04-7.15005E-06-6.80774E-05 8.15235E-06 4.42573E-07 2.06364E-05
 -1      1486 1.40053E-04-5.93760E-06-5.84491E-05 8.32622E-06 4.42781E-07 2.21345E-05
 -1      1487 1.14795E-04-4.71784E-06-4.81582E-05 8.32952E-06 4.91180E-07 2.36449E-05
 -1      1488 8.79161E-05-3.54461E-06-3.71265E-05 8.02337E-06 6.57934E-07 2.51772E-05
 -1      1489 5.95357E-05-2.53390E-06-2.55293E-05 7.07159E-06 1.11648E-06 2.66806E-05
 -1      1490 2.99133E-05-1.93842E-06-1.23984E-05 4.66279E-06 2.27131E-06 2.76510E-05
 -1      1491 1.38370E-05-2.39359E-06-2.51858E-06 2.96538E-06 5.14221E-06 2.78942E-05
 -1      1492 3.22222E-04-1.28713E-05-1.33593E-04 1.67690E-07 4.50449E-07 7.10750E-07
 -1      1493 3.21409E-04-1.28294E-05-1.33262E-04 4.47859E-07 4.49379E-07 1.46914E-06
 -1      1494 3.18971E-04-1.27038E-05-1.32270E-04 8.93082E-07 4.46179E-07 2.93867E-06
 -1      1495 3.14907E-04-1.24951E-05-1.30617E-04 1.33300E-06 4.40886E-07 4.40898E-06
 -1      1496 3.09218E-04-1.22044E-05-1.28302E-04 1.76487E-06 4.33560E-07 5.88044E-06
 -1      1497 3.01904E-04-1.18333E-05-1.25324E-04 2.18587E-06 4.24280E-07 7.35340E-06
 -1      1498 2.92964E-04-1.13838E-05-1.21683E-04 2.59304E-06 4.13149E-07 8.82821E-06
 -1      1499 2.82400E-04-1.08584E-05-1.17378E-04 2.98329E-06 4.00287E-07 1.03052E-05
 -1      1500 2.70212E-04-1.02601E-05-1.12408E-04 3.35337E-06 3.85831E-07 1.17846E-05
 -1      1501 2.56401E-04-9.59268E-06-1.06771E-04 3.69986E-06 3.69947E-07 1.32667E-05
 -1      1502 2.40969E-04-8.86055E-06-1.00466E-04 4.01915E-06 3.52846E-07 1.47517E-05
 -1      1503 2.23917E-04-8.06886E-06-9.34928E-05 4.30738E-06 3.34848E-07 1.62397E-05
 -1      1504 2.05250E-04-7.22370E-06-8.58489E-05 4.56013E-06 3.16551E-07 1.77308E-05
 -1      1505 1.84969E-04-6.33246E-06-7.75327E-05 4.77176E-06 2.99236E-07 1.92249E-05
 -1      1506 1.63082E-04-5.40457E-06-6.85443E-05 4.93355E-06 2.85920E-07 2.07224E-05
 -1      1507 1.39591E-04-4.45334E-06-5.88776E-05 5.02902E-06 2.83691E-07 2.22257E-05
 -1      1508 1.14500E-04-3.50046E-06-4.85457E-05 5.02261E-06 3.10331E-07 2.37436E-05
 -1      1509 8.77728E-05-2.58723E-06-3.74750E-05 4.83026E-06 4.06625E-07 2.52892E-05
 -1      1510 5.94971E-05-1.79965E-06-2.58242E-05 4.25243E-06 6.80217E-07 2.68201E-05
 -1      1511 2.98840E-05-1.34237E-06-1.26766E-05 2.80150E-06 1.36919E-06 2.78507E-05
 -1      1512 1.36671E-05-1.69078E-06-2.62935E-06 1.77992E-06 3.09126E-06 2.81358E-05
 -1      1513 3.21247E-04-1.08188E-05-1.34045E-04 7.97602E-08 2.20520E-07 7.16161E-07
 -1      1514 3.20437E-04-1.07823E-05-1.33713E-04 2.13029E-07 2.20009E-07 1.47381E-06
 -1      1515 3.18008E-04-1.06730E-05-1.32718E-04 4.24720E-07 2.18483E-07 2.94795E-06
 -1      1516 3.13959E-04-1.04917E-05-1.31060E-04 6.33724E-07 2.15956E-07 4.42278E-06
 -1      1517 3.08291E-04-1.02394E-05-1.28738E-04 8.38658E-07 2.12454E-07 5.89862E-06
 -1      1518 3.01005E-04-9.91763E-06-1.25751E-04 1.03811E-06 2.08011E-07 7.37580E-06
 -1      1519 2.92100E-04-9.52855E-06-1.22099E-04 1.23060E-06 2.02669E-07 8.85462E-06
 -1      1520 2.81577E-04-9.07470E-06-1.17781E-04 1.41462E-06 1.96478E-07 1.03354E-05
 -1      1521 2.69438E-04-8.55917E-06-1.12796E-04 1.58859E-06 1.89496E-07 1.18183E-05
 -1      1522 2.55684E-04-7.98558E-06-1.07143E-04 1.75090E-06 1.81790E-07 1.33038E-05
 -1      1523 2.40315E-04-7.35818E-06-1.00822E-04 1.89985E-06 1.73451E-07 1.47918E-05
 -1      1524 2.23335E-04-6.68181E-06-9.38294E-05 2.03367E-06 1.64622E-07 1.62828E-05
 -1      1525 2.04745E-04-5.96207E-06-8.61656E-05 2.15036E-06 1.55576E-07 1.77766E-05
 -1      1526 1.84549E-04-5.20554E-06-7.78284E-05 2.24741E-06 1.46909E-07 1.92735E-05
 -1      1527 1.62751E-04-4.42039E-06-6.88179E-05 2.32085E-06 1.40026E-07 2.07738E-05
 -1      1528 1.39351E-04-3.61788E-06-5.91281E-05 2.36314E-06 1.38254E-07 2.22806E-05
 -1      1529 1.14351E-04-2.81613E-06-4.87715E-05 2.35761E-06 1.49793E-07 2.38032E-05
 -1      1530 8.77066E-05-2.04918E-06-3.76765E-05 2.26546E-06 1.94305E-07 2.53568E-05
 -1      1531 5.94857E-05-1.39069E-06-2.59932E-05 1.99300E-06 3.21168E-07 2.69029E-05
 -1      1532 2.98701E-05-1.00659E-06-1.28354E-05 1.31239E-06 6.43226E-07 2.79678E-05
 -1      1533 1.35730E-05-1.29847E-06-2.69197E-06 8.33914E-07 1.44847E-06 2.82763E-05
 -1      1534 3.20932E-04-1.01504E-05-1.34194E-04 1.57601E-18-3.19028E-18 7.17933E-07
 -1      1535 3.20124E-04-1.01158E-05-1.33862E-04 3.41863E-18-2.28354E-18 1.47531E-06
 -1      1536 3.17697E-04-1.00119E-05-1.32866E-04 7.46766E-18-6.76094E-19 2.95095E-06
 -1      1537 3.13654E-04-9.83959E-06-1.31206E-04 1.01606E-17 2.71835E-19 4.42725E-06
 -1      1538 3.07993E-04-9.59992E-06-1.28881E-04 1.16613E-17-1.62363E-18 5.90452E-06
 -1      1539 3.00716E-04-9.29448E-06-1.25891E-04 1.40280E-17-1.52984E-18 7.38307E-06
 -1      1540 2.91823E-04-8.92536E-06-1.22236E-04 1.68940E-17-1.64701E-18 8.86321E-06
 -1      1541 2.81314E-04-8.49513E-06-1.17913E-04 1.89343E-17-1.25278E-18 1.03452E-05
 -1      1542 2.69191E-04-8.00685E-06-1.12924E-04 2.12332E-17-2.35811E-18 1.18294E-05
 -1      1543 2.55456E-04-7.46413E-06-1.07266E-04 2.40460E-17-2.73216E-18 1.33159E-05
 -1      1544 2.40108E-04-6.87111E-06-1.00939E-04 2.69929E-17-4.43560E-18 1.48050E-05
 -1      1545 2.23151E-04-6.23253E-06-9.39403E-05 2.88425E-17-3.78512E-18 1.62970E-05
 -1      1546 2.04586E-04-5.55379E-06-8.62699E-05 3.07604E-17-4.35831E-18 1.77918E-05
 -1      1547 1.84417E-04-4.84118E-06-7.79258E-05 3.35786E-17-2.06482E-18 1.92896E-05
 -1      1548 1.62647E-04-4.10244E-06-6.89079E-05 3.54376E-17-3.15062E-18 2.07910E-05
 -1      1549 1.39277E-04-3.34817E-06-5.92104E-05 3.62577E-17-4.33565E-19 2.22989E-05
 -1      1550 1.14306E-04-2.59534E-06-4.88455E-05 3.64709E-17-1.30003E-19 2.38231E-05
 -1      1551 8.76875E-05-1.87625E-06-3.77424E-05 3.46359E-17 1.09378E-18 2.53792E-05
 -1      1552 5.94832E-05-1.25828E-06-2.60486E-05 3.09339E-17 2.79736E-18 2.69303E-05
 -1      1553 2.98670E-05-8.99031E-07-1.28867E-05 1.98835E-17 8.49373E-18 2.80062E-05
 -1      1554 1.35435E-05-1.17192E-06-2.71220E-06 1.15424E-17 2.24507E-17 2.83222E-05
 -1      1555 3.21247E-04-1.08188E-05-1.34045E-04-7.97602E-08-2.20520E-07 7.16161E-07
 -1      1556 3.20437E-04-1.07823E-05-1.33713E-04-2.13029E-07-2.20009E-07 1.47381E-06
 -1      1557 3.18008E-04-1.06730E-05-1.32718E-04-4.24720E-07-2.18483E-07 2.94795E-06
 -1      1558 3.13959E-04-1.04917E-05-1.31060E-04-6.33724E-07-2.15956E-07 4.42278E-06
 -1      1559 3.08291E-04-1.02394E-05-1.28738E-04-8.38658E-07-2.12454E-07 5.89862E-06
 -1      1560 3.01005E-04-9.91763E-06-1.25751E-04-1.03811E-06-2.08011E-07 7.37580E-06
 -1      1561 2.92100E-04-9.52855E-06-1.22099E-04-1.23060E-06-2.02669E-07 8.85462E-06
 -1      1562 2.81577E-04-9.07470E-06-1.17781E-04-1.41462E-06-1.96478E-07 1.03354E-05
 -1      1563 2.69438E-04-8.55917E-06-1.12796E-04-1.58859E-06-1.89496E-07 1.18183E-05
 -1      1564 2.55684E-04-7.98558E-06-1.07143E-04-1.75090E-06-1.81790E-07 1.33038E-05
 -1      1565 2.40315E-04-7.35818E-06-1.00822E-04-1.89985E-06-1.73451E-07 1.47918E-05
 -1      1566 2.23335E-04-6.68181E-06-9.38294E-05-2.03367E-06-1.64622E-07 1.62828E-05
 -1      1567 2.04745E-04-5.96207E-06-8.61656E-05-2.15036E-06-1.55576E-07 1.77766E-05
 -1      1568 1.84549E-04-5.20554E-06-7.78284E-05-2.24741E-06-1.46909E-07 1.92735E-05
 -1      1569 1.62751E-04-4.42039E-06-6.88179E-05-2.32085E-06-1.40026E-07 2.07738E-05
 -1      1570 1.39351E-04-3.61788E-06-5.91281E-05-2.36314E-06-1.38254E-07 2.22806E-05
 -1      1571 1.14351E-04-2.81613E-06-4.87715E-05-2.35761E-06-1.49793E-07 2.38032E-05
 -1      1572 8.77066E-05-2.04918E-06-3.76765E-05-2.26546E-06-1.94305E-07 2.53568E-05
 -1      1573 5.94857E-05-1.39069E-06-2.59932E-05-1.99300E-06-3.21168E-07 2.69029E-05
 -1      1574 2.98701E-05-1.00659E-06-1.28354E-05-1.31239E-06-6.43226E-07 2.79678E-05
 -1      1575 1.35730E-05-1.29847E-06-2.69197E-06-8.33914E-07-1.44847E-06 2.82763E-05
 -1      1576 3.22222E-04-1.28713E-05-1.33593E-04-1.67690E-07-4.50449E-07 7.10750E-07
 -1      1577 3.21409E-04-1.28294E-05-1.33262E-04-4.47859E-07-4.49379E-07 1.46914E-06
 -1      1578 3.18971E-04-1.27038E-05-1.32270E-04-8.93082E-07-4.46179E-07 2.93867E-06
 -1      1579 3.14907E-04-1.24951E-05-1.30617E-04-1.33300E-06-4.40886E-07 4.40898E-06
 -1      1580 3.09218E-04-1.22044E-05-1.28302E-04-1.76487E-06-4.33560E-07 5.88044E-06
 -1      1581 3.01904E-04-1.18333E-05-1.25324E-04-2.18587E-06-4.24280E-07 7.35340E-06
 -1      1582 2.92964E-04-1.13838E-05-1.21683E-04-2.59304E-06-4.13149E-07 8.82821E-06
 -1      1583 2.82400E-04-1.08584E-05-1.17378E-04-2.98329E-06-4.00287E-07 1.03052E-05
 -1      1584 2.70212E-04-1.02601E-05-1.12408E-04-3.35337E-06-3.85831E-07 1.17846E-05
 -1      1585 2.56401E-04-9.59268E-06-1.06771E-04-3.69986E-06-3.69947E-07 1.32667E-05
 -1      1586 2.40969E-04-8.86055E-06-1.00466E-04-4.01915E-06-3.52846E-07 1.47517E-05
 -1      1587 2.23917E-04-8.06886E-06-9.34928E-05-4.30738E-06-3.34848E-07 1.62397E-05
 -1      1588 2.05250E-04-7.22370E-06-8.58489E-05-4.56013E-06-3.16551E-07 1.77308E-05
 -1      1589 1.84969E-04-6.33246E-06-7.75327E-05-4.77176E-06-2.99236E-07 1.92249E-05
 -1      1590 1.63082E-04-5.40457E-06-6.85443E-05-4.93355E-06-2.85920E-07 2.07224E-05
 -1      1591 1.39591E-04-4.45334E-06-5.88776E-05-5.02902E-06-2.83691E-07 2.22257E-05
 -1      1592 1.14500E-04-3.50046E-06-4.85457E-05-5.02261E-06-3.10331E-07 2.37436E-05
 -1      1593 8.77728E-05-2.58723E-06-3.74750E-05-4.83026E-06-4.06625E-07 2.52892E-05
 -1      1594 5.94971E-05-1.79965E-06-2.58242E-05-4.25243E-06-6.80217E-07 2.68201E-05
 -1      1595 2.98840E-05-1.34237E-06-1.26766E-05-2.80150E-06-1.36919E-06 2.78507E-05
 -1      1596 1.36671E-05-1.69078E-06-2.62935E-06-1.77992E-06-3.09126E-06 2.81358E-05
 -1      1597 3.23958E-04-1.64533E-05-1.32817E-04-2.72214E-07-7.00185E-07 7.01350E-07
 -1      1598 3.23140E-04-1.64021E-05-1.32488E-04-7.26974E-07-6.98438E-07 1.46084E-06
 -1      1599 3.20687E-04-1.62486E-05-1.31502E-04-1.45008E-06-6.93218E-07 2.92217E-06
 -1      1600 3.16598E-04-1.59934E-05-1.29858E-04-2.16539E-06-6.84593E-07 4.38448E-06
 -1      1601 3.10874E-04-1.56375E-05-1.27556E-04-2.86888E-06-6.72672E-07 5.84822E-06
 -1      1602 3.03513E-04-1.51824E-05-1.24594E-04-3.55634E-06-6.57608E-07 7.31384E-06
 -1      1603 2.94516E-04-1.46300E-05-1.20973E-04-4.22336E-06-6.39594E-07 8.78175E-06
 -1      1604 2.83882E-04-1.39826E-05-1.16690E-04-4.86522E-06-6.18864E-07 1.02523E-05
 -1      1605 2.71612E-04-1.32433E-05-1.11745E-04-5.47688E-06-5.95695E-07 1.17258E-05
 -1      1606 2.57706E-04-1.24156E-05-1.06136E-04-6.05291E-06-5.70415E-07 1.32026E-05
 -1      1607 2.42165E-04-1.15041E-05-9.98613E-05-6.58737E-06-5.43444E-07 1.46827E-05
 -1      1608 2.24991E-04-1.05141E-05-9.29197E-05-7.07370E-06-5.15386E-07 1.61663E-05
 -1      1609 2.06187E-04-9.45228E-06-8.53095E-05-7.50419E-06-4.87301E-07 1.76532E-05
 -1      1610 1.85757E-04-8.32717E-06-7.70287E-05-7.86887E-06-4.61358E-07 1.91432E-05
 -1      1611 1.63711E-04-7.15005E-06-6.80774E-05-8.15235E-06-4.42573E-07 2.06364E-05
 -1      1612 1.40053E-04-5.93760E-06-5.84491E-05-8.32622E-06-4.42781E-07 2.21345E-05
 -1      1613 1.14795E-04-4.71784E-06-4.81582E-05-8.32952E-06-4.91180E-07 2.36449E-05
 -1      1614 8.79161E-05-3.54461E-06-3.71265E-05-8.02337E-06-6.57934E-07 2.51772E-05
 -1      1615 5.95357E-05-2.53390E-06-2.55293E-05-7.07159E-06-1.11648E-06 2.66806E-05
 -1      1616 2.99133E-05-1.93842E-06-1.23984E-05-4.66279E-06-2.27131E-06 2.76510E-05
 -1      1617 1.38370E-05-2.39359E-06-2.51858E-06-2.96538E-06-5.14221E-06 2.78942E-05
 -1      1618 3.26621E-04-2.18167E-05-1.31684E-04-4.02469E-07-9.82402E-07 6.87198E-07
 -1      1619 3.25797E-04-2.17518E-05-1.31358E-04-1.07476E-06-9.79768E-07 1.44792E-06
 -1      1620 3.23323E-04-2.15575E-05-1.30380E-04-2.14443E-06-9.71899E-07 2.89651E-06
 -1      1621 3.19201E-04-2.12344E-05-1.28751E-04-3.20385E-06-9.58900E-07 4.34642E-06
 -1      1622 3.13428E-04-2.07835E-05-1.26468E-04-4.24777E-06-9.40944E-07 5.79830E-06
 -1      1623 3.06004E-04-2.02062E-05-1.23532E-04-5.27074E-06-9.18279E-07 7.25274E-06
 -1      1624 2.96928E-04-1.95044E-05-1.19940E-04-6.26701E-06-8.91230E-07 8.71030E-06
 -1      1625 2.86198E-04-1.86803E-05-1.15692E-04-7.23042E-06-8.60203E-07 1.01715E-05
 -1      1626 2.73813E-04-1.77366E-05-1.10785E-04-8.15424E-06-8.25699E-07 1.16367E-05
 -1      1627 2.59773E-04-1.66767E-05-1.05218E-04-9.03098E-06-7.88332E-07 1.31063E-05
 -1      1628 2.44076E-04-1.55045E-05-9.89885E-05-9.85210E-06-7.48897E-07 1.45803E-05
 -1      1629 2.26723E-04-1.42253E-05-9.20941E-05-1.06077E-05-7.08523E-07 1.60588E-05
 -1      1630 2.07717E-04-1.28458E-05-8.45331E-05-1.12855E-05-6.69076E-07 1.75415E-05
 -1      1631 1.87064E-04-1.13755E-05-7.63030E-05-1.18694E-05-6.34137E-07 1.90276E-05
 -1      1632 1.64771E-04-9.82764E-06-6.74038E-05-1.23342E-05-6.11581E-07 2.05164E-05
 -1      1633 1.40852E-04-8.22326E-06-5.78286E-05-1.26340E-05-6.19440E-07 2.20084E-05
 -1      1634 1.15328E-04-6.59902E-06-4.75940E-05-1.26735E-05-7.02621E-07 2.35089E-05
 -1      1635 8.81935E-05-5.02719E-06-3.66161E-05-1.22325E-05-9.64544E-07 2.50219E-05
 -1      1636 5.96373E-05-3.66245E-06-2.50924E-05-1.08018E-05-1.68309E-06 2.64862E-05
 -1      1637 2.99937E-05-2.87873E-06-1.19715E-05-7.12955E-06-3.45595E-06 2.73600E-05
 -1      1638 1.41156E-05-3.48199E-06-2.34859E-06-4.53188E-06-7.86747E-06 2.75391E-05
 -1      1639 3.30459E-04-2.93397E-05-1.30137E-04-5.69248E-07-1.31367E-06 6.66895E-07
 -1      1640 3.29626E-04-2.92559E-05-1.29816E-04-1.51999E-06-1.30985E-06 1.42874E-06
 -1      1641 3.27127E-04-2.90049E-05-1.28851E-04-3.03339E-06-1.29842E-06 2.85840E-06
 -1      1642 3.22961E-04-2.85874E-05-1.27243E-04-4.53361E-06-1.27949E-06 4.28988E-06
 -1      1643 3.17126E-04-2.80050E-05-1.24990E-04-6.01405E-06-1.25328E-06 5.72411E-06
 -1      1644 3.09623E-04-2.72595E-05-1.22091E-04-7.46807E-06-1.22008E-06 7.16197E-06
 -1      1645 3.00447E-04-2.63531E-05-1.18544E-04-8.88886E-06-1.18034E-06 8.60433E-06
 -1      1646 2.89597E-04-2.52883E-05-1.14347E-04-1.02693E-05-1.13463E-06 1.00520E-05
 -1      1647 2.77068E-04-2.40679E-05-1.09497E-04-1.16017E-05-1.08374E-06 1.15057E-05
 -1      1648 2.62858E-04-2.26947E-05-1.03991E-04-1.28772E-05-1.02870E-06 1.29660E-05
 -1      1649 2.46962E-04-2.11717E-05-9.78266E-05-1.40853E-05-9.70919E-07 1.44332E-05
 -1      1650 2.29376E-04-1.95029E-05-9.10000E-05-1.52129E-05-9.12427E-07 1.59074E-05
 -1      1651 2.10101E-04-1.76936E-05-8.35080E-05-1.62424E-05-8.56533E-07 1.73881E-05
 -1      1652 1.89137E-04-1.57524E-05-7.53470E-05-1.71488E-05-8.09291E-07 1.88740E-05
 -1      1653 1.66495E-04-1.36940E-05-6.65158E-05-1.78926E-05-7.83319E-07 2.03633E-05
 -1      1654 1.42193E-04-1.15446E-05-5.70062E-05-1.84020E-05-8.06463E-07 2.18538E-05
 -1      1655 1.16266E-04-9.35336E-06-4.68383E-05-1.85305E-05-9.45185E-07 2.33454E-05
 -1      1656 8.87419E-05-7.21893E-06-3.59195E-05-1.79541E-05-1.35650E-06 2.48332E-05
 -1      1657 5.98658E-05-5.35351E-06-2.44897E-05-1.58911E-05-2.42290E-06 2.62391E-05
 -1      1658 3.01189E-05-4.22652E-06-1.13734E-05-1.05127E-05-5.08137E-06 2.69865E-05
 -1      1659 1.45447E-05-5.11899E-06-2.10267E-06-6.70600E-06-1.15944E-05 2.70678E-05
 -1      1660 3.35814E-04-3.95600E-05-1.28098E-04-7.86468E-07-1.71559E-06 6.38501E-07
 -1      1661 3.34970E-04-3.94501E-05-1.27783E-04-2.09971E-06-1.71030E-06 1.40134E-06
 -1      1662 3.32437E-04-3.91211E-05-1.26836E-04-4.19054E-06-1.69442E-06 2.80379E-06
 -1      1663 3.28214E-04-3.85744E-05-1.25259E-04-6.26373E-06-1.66800E-06 4.20848E-06
 -1      1664 3.22302E-04-3.78121E-05-1.23048E-04-8.31072E-06-1.63113E-06 5.61663E-06
 -1      1665 3.14698E-04-3.68375E-05-1.20203E-04-1.03233E-05-1.58397E-06 7.02949E-06
 -1      1666 3.05400E-04-3.56540E-05-1.16721E-04-1.22936E-05-1.52682E-06 8.44847E-06
 -1      1667 2.94405E-04-3.42656E-05-1.12599E-04-1.42139E-05-1.46017E-06 9.87500E-06
 -1      1668 2.81708E-04-3.26764E-05-1.07834E-04-1.60766E-05-1.38481E-06 1.13106E-05
 -1      1669 2.67301E-04-3.08899E-05-1.02420E-04-1.78736E-05-1.30201E-06 1.27567E-05
 -1      1670 2.51174E-04-2.89091E-05-9.63529E-05-1.95950E-05-1.21381E-06 1.42147E-05
 -1      1671 2.33317E-04-2.67360E-05-8.96270E-05-2.12274E-05-1.12350E-06 1.56851E-05
 -1      1672 2.13718E-04-2.43725E-05-8.22365E-05-2.27505E-05-1.03666E-06 1.71681E-05
 -1      1673 1.92369E-04-2.18219E-05-7.41743E-05-2.41301E-05-9.63516E-07 1.86625E-05
 -1      1674 1.69270E-04-1.90942E-05-6.54366E-05-2.53068E-05-9.24502E-07 2.01654E-05
 -1      1675 1.44436E-04-1.62162E-05-5.60105E-05-2.61685E-05-9.63134E-07 2.16729E-05
 -1      1676 1.17921E-04-1.32518E-05-4.59167E-05-2.64904E-05-1.18052E-06 2.31776E-05
 -1      1677 8.97959E-05-1.03447E-05-3.50456E-05-2.57773E-05-1.80412E-06 2.46547E-05
 -1      1678 6.04840E-05-7.80803E-06-2.36911E-05-2.29316E-05-3.43732E-06 2.59869E-05
 -1      1679 3.05280E-05-6.35834E-06-1.05277E-05-1.51922E-05-7.29304E-06 2.65013E-05
 -1      1680 1.52051E-05-7.40581E-06-1.75858E-06-9.65412E-06-1.68644E-05 2.64540E-05
 -1      1681 3.43156E-04-5.32171E-05-1.25451E-04-1.07215E-06-2.21329E-06 6.00615E-07
 -1      1682 3.42297E-04-5.30722E-05-1.25144E-04-2.86169E-06-2.20651E-06 1.36464E-06
 -1      1683 3.39717E-04-5.26383E-05-1.24222E-04-5.71110E-06-2.18611E-06 2.73028E-06
 -1      1684 3.35418E-04-5.19174E-05-1.22686E-04-8.53613E-06-2.15194E-06 4.09799E-06
 -1      1685 3.29400E-04-5.09126E-05-1.20533E-04-1.13251E-05-2.10376E-06 5.46895E-06
 -1      1686 3.21664E-04-4.96285E-05-1.17763E-04-1.40671E-05-2.04125E-06 6.84457E-06
 -1      1687 3.12209E-04-4.80706E-05-1.14372E-04-1.67519E-05-1.96405E-06 8.22655E-06
 -1      1688 3.01035E-04-4.62455E-05-1.10358E-04-1.93706E-05-1.87183E-06 9.61703E-06
 -1      1689 2.88137E-04-4.41603E-05-1.05716E-04-2.19156E-05-1.76440E-06 1.10187E-05
 -1      1690 2.73508E-04-4.18220E-05-1.00441E-04-2.43807E-05-1.64201E-06 1.24347E-05
 -1      1691 2.57137E-04-3.92368E-05-9.45259E-05-2.67603E-05-1.50585E-06 1.38690E-05
 -1      1692 2.39003E-04-3.64086E-05-8.79613E-05-2.90474E-05-1.35904E-06 1.53257E-05
 -1      1693 2.19079E-04-3.33379E-05-8.07365E-05-3.12286E-05-1.20866E-06 1.68085E-05
 -1      1694 1.97330E-04-3.00217E-05-7.28378E-05-3.32731E-05-1.06995E-06 1.83192E-05
 -1      1695 1.73721E-04-2.64560E-05-6.42529E-05-3.51097E-05-9.75436E-07 1.98556E-05
 -1      1696 1.48231E-04-2.26489E-05-5.49581E-05-3.65788E-05-9.95156E-07 2.14105E-05
 -1      1697 1.20899E-04-1.86530E-05-4.49670E-05-3.73316E-05-1.28452E-06 2.29703E-05
 -1      1698 9.18203E-05-1.46390E-05-3.41443E-05-3.66172E-05-2.19771E-06 2.45139E-05
 -1      1699 6.15016E-05-1.10606E-05-2.28424E-05-3.27029E-05-4.53947E-06 2.58755E-05
 -1      1700 3.11069E-05-9.01764E-06-9.38522E-06-2.18584E-05-1.04036E-05 2.62566E-05
 -1      1701 1.64697E-05-1.13656E-05-1.26799E-06-1.41301E-05-2.41479E-05 2.59923E-05
 -1      1702 3.53111E-04-7.13283E-05-1.22055E-04-1.45236E-06-2.84441E-06 5.46387E-07
 -1      1703 3.52230E-04-7.11389E-05-1.21758E-04-3.88218E-06-2.83660E-06 1.32133E-06
 -1      1704 3.49586E-04-7.05713E-05-1.20867E-04-7.74800E-06-2.81307E-06 2.64310E-06
 -1      1705 3.45181E-04-6.96276E-05-1.19381E-04-1.15813E-05-2.77347E-06 3.96579E-06
 -1      1706 3.39018E-04-6.83112E-05-1.17299E-04-1.53661E-05-2.71720E-06 5.28997E-06
 -1      1707 3.31100E-04-6.66268E-05-1.14622E-04-1.90873E-05-2.64336E-06 6.61638E-06
 -1      1708 3.21430E-04-6.45808E-05-1.11347E-04-2.27306E-05-2.55070E-06 7.94601E-06
 -1      1709 3.10013E-04-6.21814E-05-1.07474E-04-2.62833E-05-2.43758E-06 9.28035E-06
 -1      1710 2.96854E-04-5.94382E-05-1.02999E-04-2.97347E-05-2.30186E-06 1.06217E-05
 -1      1711 2.81954E-04-5.63624E-05-9.79199E-05-3.30776E-05-2.14095E-06 1.19735E-05
 -1      1712 2.65312E-04-5.29661E-05-9.22304E-05-3.63085E-05-1.95208E-06 1.33413E-05
 -1      1713 2.46917E-04-4.92610E-05-8.59227E-05-3.94284E-05-1.73310E-06 1.47338E-05
 -1      1714 2.26741E-04-4.52557E-05-7.89847E-05-4.24405E-05-1.48492E-06 1.61636E-05
 -1      1715 2.04730E-04-4.09523E-05-7.13969E-05-4.53405E-05-1.21753E-06 1.76477E-05
 -1      1716 1.80793E-04-3.63412E-05-6.31339E-05-4.80878E-05-9.64809E-07 1.92049E-05
 -1      1717 1.54804E-04-3.14023E-05-5.41480E-05-5.05305E-05-8.18984E-07 2.08462E-05
 -1      1718 1.26667E-04-2.61282E-05-4.44188E-05-5.22279E-05-1.01200E-06 2.25501E-05
 -1      1719 9.64213E-05-2.06165E-05-3.37681E-05-5.20428E-05-2.09410E-06 2.42090E-05
 -1      1720 6.48319E-05-1.53297E-05-2.24972E-05-4.73531E-05-5.38525E-06 2.55138E-05
 -1      1721 3.31540E-05-1.15532E-05-8.95267E-06-3.16876E-05-1.36143E-05 2.60374E-05
 -1      1722 1.77365E-05-1.23451E-05-1.11716E-06-1.99096E-05-3.41503E-05 2.59674E-05
 -1      1723 3.66720E-04-9.26113E-05-1.17733E-04-1.67189E-06-2.89810E-06 8.73307E-07
 -1      1724 3.65811E-04-9.23741E-05-1.17446E-04-4.11904E-06-2.89131E-06 1.21482E-06
 -1      1725 3.63084E-04-9.16628E-05-1.16587E-04-8.22178E-06-2.87085E-06 2.42952E-06
 -1      1726 3.58542E-04-9.04790E-05-1.15155E-04-1.22920E-05-2.83639E-06 3.64396E-06
 -1      1727 3.52187E-04-8.88248E-05-1.13151E-04-1.63134E-05-2.78735E-06 4.85792E-06
 -1      1728 3.44025E-04-8.67040E-05-1.10575E-04-2.02703E-05-2.72284E-06 6.07104E-06
 -1      1729 3.34063E-04-8.41214E-05-1.07428E-04-2.41470E-05-2.64153E-06 7.28282E-06
 -1      1730 3.22310E-04-8.10836E-05-1.03711E-04-2.79290E-05-2.54154E-06 8.49250E-06
 -1      1731 3.08779E-04-7.75995E-05-9.94261E-05-3.16030E-05-2.42016E-06 9.69909E-06
 -1      1732 2.93490E-04-7.36806E-05-9.45752E-05-3.51583E-05-2.27351E-06 1.09014E-05
 -1      1733 2.76464E-04-6.93421E-05-8.91612E-05-3.85886E-05-2.09613E-06 1.20985E-05
 -1      1734 2.57730E-04-6.46033E-05-8.31876E-05-4.18941E-05-1.88054E-06 1.32906E-05
 -1      1735 2.37318E-04-5.94874E-05-7.66583E-05-4.50842E-05-1.61745E-06 1.44825E-05
 -1      1736 2.15244E-04-5.40199E-05-6.95741E-05-4.81782E-05-1.29828E-06 1.56895E-05
 -1      1737 1.91475E-04-4.82206E-05-6.19311E-05-5.11931E-05-9.25349E-07 1.69519E-05
 -1      1738 1.65849E-04-4.20864E-05-5.36932E-05-5.40906E-05-5.44015E-07 1.83590E-05
 -1      1739 1.37949E-04-3.55621E-05-4.48161E-05-5.65988E-05-3.35431E-07 2.00800E-05
 -1      1740 1.06937E-04-2.85199E-05-3.50106E-05-5.76986E-05-8.73241E-07 2.23401E-05
 -1      1741 7.22648E-05-2.08632E-05-2.43453E-05-5.41433E-05-3.75841E-06 2.51552E-05
 -1      1742 3.58316E-05-1.33654E-05-1.10838E-05-3.76677E-05-1.37068E-05 2.61653E-05
 -1      1743 1.64882E-05-7.83028E-06-2.22563E-06-2.46837E-05-4.22758E-05 2.56978E-05
 -1      1744 3.71827E-04-1.03160E-04-1.14896E-04-1.77674E-06-2.64824E-06 2.47531E-06
 -1      1745 3.70907E-04-1.02901E-04-1.14616E-04-3.97474E-06-2.64279E-06 4.31068E-06
 -1      1746 3.68148E-04-1.02122E-04-1.13775E-04-7.93517E-06-2.62636E-06 8.61055E-06
 -1      1747 3.63552E-04-1.00824E-04-1.12374E-04-1.18670E-05-2.59871E-06 1.28887E-05
 -1      1748 3.57123E-04-9.90106E-05-1.10413E-04-1.57557E-05-2.55941E-06 1.71338E-05
 -1      1749 3.48865E-04-9.66828E-05-1.07895E-04-1.95870E-05-2.50779E-06 2.13342E-05
 -1      1750 3.38788E-04-9.38446E-05-1.04820E-04-2.33463E-05-2.44283E-06 2.54776E-05
 -1      1751 3.26902E-04-9.05013E-05-1.01192E-04-2.70194E-05-2.36303E-06 2.95503E-05
 -1      1752 3.13225E-04-8.66601E-05-9.70137E-05-3.05921E-05-2.26611E-06 3.35374E-05
 -1      1753 2.97784E-04-8.23315E-05-9.22921E-05-3.40515E-05-2.14857E-06 3.74212E-05
 -1      1754 2.80617E-04-7.75309E-05-8.70355E-05-3.73865E-05-2.00483E-06 4.11796E-05
 -1      1755 2.61789E-04-7.22810E-05-8.12577E-05-4.05901E-05-1.82601E-06 4.47840E-05
 -1      1756 2.41406E-04-6.66167E-05-7.49810E-05-4.36626E-05-1.59807E-06 4.81935E-05
 -1      1757 2.19647E-04-6.05913E-05-6.82409E-05-4.66169E-05-1.30029E-06 5.13487E-05
 -1      1758 1.96813E-04-5.42846E-05-6.10994E-05-4.94812E-05-9.08094E-07 5.41637E-05
 -1      1759 1.73369E-04-4.78075E-05-5.36394E-05-5.22822E-05-4.14857E-07 5.65307E-05
 -1      1760 1.49921E-04-4.12831E-05-4.60091E-05-5.49438E-05 7.80275E-08 5.83825E-05
 -1      1761 1.26649E-04-3.47371E-05-3.81199E-05-5.68658E-05 7.24884E-08 5.99687E-05
 -1      1762 1.01333E-04-2.77947E-05-2.99213E-05-5.56079E-05-2.30528E-06 6.26662E-05
 -1      1763 6.17257E-05-1.81063E-05-1.69209E-05-4.16723E-05-1.20474E-05 7.23994E-05
 -1      1764 3.37591E-05-8.23858E-06-3.19412E-06-2.96072E-05-4.30084E-05 8.02791E-05
 -3
    1PSTEP                         4           1           1          
  100CL  101 1.000000000        1764                     0    1           1
 -4  ERROR       1    1
 -5  STR(%)      1    1    0    0
 -1         1 8.39312E+01
 -1         2 8.39313E+01
 -1         3 8.39313E+01
 -1         4 8.39312E+01
 -1         5 8.39312E+01
 -1         6 8.39313E+01
 -1         7 8.39313E+01
 -1         8 8.39312E+01
 -1         9 8.39133E+01
 -1        10 8.39119E+01
 -1        11 8.39133E+01
 -1        12 8.39119E+01
 -1        13 8.38763E+01
 -1        14 8.38724E+01
 -1        15 8.38763E+01
 -1        16 8.38724E+01
 -1        17 8.38183E+01
 -1        18 8.38105E+01
 -1        19 8.38183E+01
 -1        20 8.38105E+01
 -1        21 8.37360E+01
 -1        22 8.37224E+01
 -1        23 8.37360E+01
 -1        24 8.37224E+01
 -1        25 8.36244E+01
 -1        26 8.36027E+01
 -1        27 8.36244E+01
 -1        28 8.36027E+01
 -1        29 8.34762E+01
 -1        30 8.34433E+01
 -1        31 8.34762E+01
 -1        32 8.34433E+01
 -1        33 8.32810E+01
 -1        34 8.32327E+01
 -1        35 8.32810E+01
 -1        36 8.32327E+01
 -1        37 8.30237E+01
 -1        38 8.29538E+01
 -1        39 8.30237E+01
 -1        40 8.29538E+01
 -1        41 8.26818E+01
 -1        42 8.25819E+01
 -1        43 8.26818E+01
 -1        44 8.25819E+01
 -1        45 8.22224E+01
 -1        46 8.20797E+01
 -1        47 8.22224E+01
 -1        48 8.20797E+01
 -1        49 8.15942E+01
 -1        50 8.13895E+01
 -1        51 8.15942E+01
 -1        52 8.13895E+01
 -1        53 8.07166E+01
 -1        54 8.04203E+01
 -1        55 8.07166E+01
 -1        56 8.04203E+01
 -1        57 7.94568E+01
 -1        58 7.90226E+01
 -1        59 7.94568E+01
 -1        60 7.90226E+01
 -1        61 7.75841E+01
 -1        62 7.69417E+01
 -1        63 7.75841E+01
 -1        64 7.69417E+01
 -1        65 7.46722E+01
 -1        66 7.37292E+01
 -1        67 7.46722E+01
 -1        68 7.37292E+01
 -1        69 6.98488E+01
 -1        70 6.85453E+01
 -1        71 6.98488E+01
 -1        72 6.85453E+01
 -1        73 6.12341E+01
 -1        74 5.97655E+01
 -1        75 6.12341E+01
 -1        76 5.97655E+01
 -1        77 4.45842E+01
 -1        78 4.37848E+01
 -1        79 4.45842E+01
 -1        80 4.37848E+01
 -1        81 1.50091E+01
 -1        82 1.11629E+01
 -1        83 1.50091E+01
 -1        84 1.11629E+01
 -1        85 8.39313E+01
 -1        86 8.39313E+01
 -1        87 8.39313E+01
 -1        88 8.39313E+01
 -1        89 8.39133E+01
 -1        90 8.39133E+01
 -1        91 8.38763E+01
 -1        92 8.38763E+01
 -1        93 8.38183E+01
 -1        94 8.38183E+01
 -1        95 8.37360E+01
 -1        96 8.37360E+01
 -1        97 8.36244E+01
 -1        98 8.36244E+01
 -1        99 8.34762E+01
 -1       100 8.34762E+01
 -1       101 8.32810E+01
 -1       102 8.32810E+01
 -1       103 8.30237E+01
 -1       104 8.30237E+01
 -1       105 8.26818E+01
 -1       106 8.26818E+01
 -1       107 8.22224E+01
 -1       108 8.22224E+01
 -1       109 8.15942E+01
 -1       110 8.15942E+01
 -1       111 8.07166E+01
 -1       112 8.07166E+01
 -1       113 7.94568E+01
 -1       114 7.94568E+01
 -1       115 7.75841E+01
 -1       116 7.75841E+01
 -1       117 7.46722E+01
 -1       118 7.46722E+01
 -1       119 6.98488E+01
 -1       120 6.98488E+01
 -1       121 6.12341E+01
 -1       122 6.12341E+01
 -1       123 4.45842E+01
 -1       124 4.45842E+01
 -1       125 1.50091E+01
 -1       126 1.50091E+01
 -1       127 8.39393E+01
 -1       128 8.39394E+01
 -1       129 8.39394E+01
 -1       130 8.39393E+01
 -1       131 8.39393E+01
 -1       132 8.39394E+01
 -1       133 8.39394E+01
 -1       134 8.39393E+01
 -1       135 8.39376E+01
 -1       136 8.39363E+01
 -1       137 8.39376E+01
 -1       138 8.39363E+01
 -1       139 8.39170E+01
 -1       140 8.39131E+01
 -1       141 8.39170E+01
 -1       142 8.39131E+01
 -1       143 8.38756E+01
 -1       144 8.38676E+01
 -1       145 8.38756E+01
 -1       146 8.38676E+01
 -1       147 8.38101E+01
 -1       148 8.37962E+01
 -1       149 8.38101E+01
 -1       150 8.37962E+01
 -1       151 8.37155E+01
 -1       152 8.36931E+01
 -1       153 8.37155E+01
 -1       154 8.36931E+01
 -1       155 8.35845E+01
 -1       156 8.35502E+01
 -1       157 8.35845E+01
 -1       158 8.35502E+01
 -1       159 8.34063E+01
 -1       160 8.33555E+01
 -1       161 8.34063E+01
 -1       162 8.33555E+01
 -1       163 8.31653E+01
 -1       164 8.30913E+01
 -1       165 8.31653E+01
 -1       166 8.30913E+01
 -1       167 8.28382E+01
 -1       168 8.27315E+01
 -1       169 8.28382E+01
 -1       170 8.27315E+01
 -1       171 8.23901E+01
 -1       172 8.22362E+01
 -1       173 8.23901E+01
 -1       174 8.22362E+01
 -1       175 8.17668E+01
 -1       176 8.15439E+01
 -1       177 8.17668E+01
 -1       178 8.15439E+01
 -1       179 8.08820E+01
 -1       180 8.05560E+01
 -1       181 8.08820E+01
 -1       182 8.05560E+01
 -1       183 7.95934E+01
 -1       184 7.91098E+01
 -1       185 7.95934E+01
 -1       186 7.91098E+01
 -1       187 7.76524E+01
 -1       188 7.69266E+01
 -1       189 7.76524E+01
 -1       190 7.69266E+01
 -1       191 7.46030E+01
 -1       192 7.35162E+01
 -1       193 7.46030E+01
 -1       194 7.35162E+01
 -1       195 6.95001E+01
 -1       196 6.81500E+01
 -1       197 6.95001E+01
 -1       198 6.81500E+01
 -1       199 6.07328E+01
 -1       200 5.93278E+01
 -1       201 6.07328E+01
 -1       202 5.93278E+01
 -1       203 4.38693E+01
 -1       204 4.32051E+01
 -1       205 4.38693E+01
 -1       206 4.32051E+01
 -1       207 1.42531E+01
 -1       208 1.05505E+01
 -1       209 1.42531E+01
 -1       210 1.05505E+01
 -1       211 8.39394E+01
 -1       212 8.39394E+01
 -1       213 8.39394E+01
 -1       214 8.39394E+01
 -1       215 8.39376E+01
 -1       216 8.39376E+01
 -1       217 8.39170E+01
 -1       218 8.39170E+01
 -1       219 8.38756E+01
 -1       220 8.38756E+01
 -1       221 8.38101E+01
 -1       222 8.38101E+01
 -1       223 8.37155E+01
 -1       224 8.37155E+01
 -1       225 8.35845E+01
 -1       226 8.35845E+01
 -1       227 8.34063E+01
 -1       228 8.34063E+01
 -1       229 8.31653E+01
 -1       230 8.31653E+01
 -1       231 8.28382E+01
 -1       232 8.28382E+01
 -1       233 8.23901E+01
 -1       234 8.23901E+01
 -1       235 8.17668E+01
 -1       236 8.17668E+01
 -1       237 8.08820E+01
 -1       238 8.08820E+01
 -1       239 7.95934E+01
 -1       240 7.95934E+01
 -1       241 7.76524E+01
 -1       242 7.76524E+01
 -1       243 7.46030E+01
 -1       244 7.46030E+01
 -1       245 6.95001E+01
 -1       246 6.95001E+01
 -1       247 6.07328E+01
 -1       248 6.07328E+01
 -1       249 4.38693E+01
 -1       250 4.38693E+01
 -1       251 1.42531E+01
 -1       252 1.42531E+01
 -1       253 8.39710E+01
 -1       254 8.39712E+01
 -1       255 8.39712E+01
 -1       256 8.39710E+01
 -1       257 8.39710E+01
 -1       258 8.39712E+01
 -1       259 8.39712E+01
 -1       260 8.39710E+01
 -1       261 8.39661E+01
 -1       262 8.39645E+01
 -1       263 8.39661E+01
 -1       264 8.39645E+01
 -1       265 8.39388E+01
 -1       266 8.39343E+01
 -1       267 8.39388E+01
 -1       268 8.39343E+01
 -1       269 8.39049E+01
 -1       270 8.38983E+01
 -1       271 8.39049E+01
 -1       272 8.38983E+01
 -1       273 8.38519E+01
 -1       274 8.38401E+01
 -1       275 8.38519E+01
 -1       276 8.38401E+01
 -1       277 8.37742E+01
 -1       278 8.37552E+01
 -1       279 8.37742E+01
 -1       280 8.37552E+01
 -1       281 8.36655E+01
 -1       282 8.36365E+01
 -1       283 8.36655E+01
 -1       284 8.36365E+01
 -1       285 8.35167E+01
 -1       286 8.34735E+01
 -1       287 8.35167E+01
 -1       288 8.34735E+01
 -1       289 8.33142E+01
 -1       290 8.32511E+01
 -1       291 8.33142E+01
 -1       292 8.32511E+01
 -1       293 8.30379E+01
 -1       294 8.29464E+01
 -1       295 8.30379E+01
 -1       296 8.29464E+01
 -1       297 8.26572E+01
 -1       298 8.25244E+01
 -1       299 8.26572E+01
 -1       300 8.25244E+01
 -1       301 8.21243E+01
 -1       302 8.19314E+01
 -1       303 8.21243E+01
 -1       304 8.19314E+01
 -1       305 8.13833E+01
 -1       306 8.11001E+01
 -1       307 8.13833E+01
 -1       308 8.11001E+01
 -1       309 8.02998E+01
 -1       310 7.98759E+01
 -1       311 8.02998E+01
 -1       312 7.98759E+01
 -1       313 7.86579E+01
 -1       314 7.80140E+01
 -1       315 7.86579E+01
 -1       316 7.80140E+01
 -1       317 7.60675E+01
 -1       318 7.50861E+01
 -1       319 7.60675E+01
 -1       320 7.50861E+01
 -1       321 7.17045E+01
 -1       322 7.03813E+01
 -1       323 7.17045E+01
 -1       324 7.03813E+01
 -1       325 6.42987E+01
 -1       326 6.28394E+01
 -1       327 6.42987E+01
 -1       328 6.28394E+01
 -1       329 5.05946E+01
 -1       330 4.95957E+01
 -1       331 5.05946E+01
 -1       332 4.95957E+01
 -1       333 2.78493E+01
 -1       334 2.37101E+01
 -1       335 2.78493E+01
 -1       336 2.37101E+01
 -1       337 8.39710E+01
 -1       338 8.39712E+01
 -1       339 8.39712E+01
 -1       340 8.39710E+01
 -1       341 8.39661E+01
 -1       342 8.39645E+01
 -1       343 8.39388E+01
 -1       344 8.39343E+01
 -1       345 8.39049E+01
 -1       346 8.38983E+01
 -1       347 8.38519E+01
 -1       348 8.38401E+01
 -1       349 8.37742E+01
 -1       350 8.37552E+01
 -1       351 8.36655E+01
 -1       352 8.36365E+01
 -1       353 8.35167E+01
 -1       354 8.34735E+01
 -1       355 8.33142E+01
 -1       356 8.32511E+01
 -1       357 8.30379E+01
 -1       358 8.29464E+01
 -1       359 8.26572E+01
 -1       360 8.25244E+01
 -1       361 8.21243E+01
 -1       362 8.19314E+01
 -1       363 8.13833E+01
 -1       364 8.11001E+01
 -1       365 8.02998E+01
 -1       366 7.98759E+01
 -1       367 7.86579E+01
 -1       368 7.80140E+01
 -1       369 7.60675E+01
 -1       370 7.50861E+01
 -1       371 7.17045E+01
 -1       372 7.03813E+01
 -1       373 6.42987E+01
 -1       374 6.28394E+01
 -1       375 5.05946E+01
 -1       376 4.95957E+01
 -1       377 2.78493E+01
 -1       378 2.37101E+01
 -1       379 8.39712E+01
 -1       380 8.39712E+01
 -1       381 8.39712E+01
 -1       382 8.39712E+01
 -1       383 8.39661E+01
 -1       384 8.39661E+01
 -1       385 8.39388E+01
 -1       386 8.39388E+01
 -1       387 8.39049E+01
 -1       388 8.39049E+01
 -1       389 8.38519E+01
 -1       390 8.38519E+01
 -1       391 8.37742E+01
 -1       392 8.37742E+01
 -1       393 8.36655E+01
 -1       394 8.36655E+01
 -1       395 8.35167E+01
 -1       396 8.35167E+01
 -1       397 8.33142E+01
 -1       398 8.33142E+01
 -1       399 8.30379E+01
 -1       400 8.30379E+01
 -1       401 8.26572E+01
 -1       402 8.26572E+01
 -1       403 8.21243E+01
 -1       404 8.21243E+01
 -1       405 8.13833E+01
 -1       406 8.13833E+01
 -1       407 8.02998E+01
 -1       408 8.02998E+01
 -1       409 7.86579E+01
 -1       410 7.86579E+01
 -1       411 7.60675E+01
 -1       412 7.60675E+01
 -1       413 7.17045E+01
 -1       414 7.17045E+01
 -1       415 6.42987E+01
 -1       416 6.42987E+01
 -1       417 5.05946E+01
 -1       418 5.05946E+01
 -1       419 2.78493E+01
 -1       420 2.78493E+01
 -1       421 8.39712E+01
 -1       422 8.39712E+01
 -1       423 8.39661E+01
 -1       424 8.39388E+01
 -1       425 8.39049E+01
 -1       426 8.38519E+01
 -1       427 8.37742E+01
 -1       428 8.36655E+01
 -1       429 8.35167E+01
 -1       430 8.33142E+01
 -1       431 8.30379E+01
 -1       432 8.26572E+01
 -1       433 8.21243E+01
 -1       434 8.13833E+01
 -1       435 8.02998E+01
 -1       436 7.86579E+01
 -1       437 7.60675E+01
 -1       438 7.17045E+01
 -1       439 6.42987E+01
 -1       440 5.05946E+01
 -1       441 2.78493E+01
 -1       442 8.44034E+01
 -1       443 8.44034E+01
 -1       444 8.44034E+01
 -1       445 8.44034E+01
 -1       446 8.48250E+01
 -1       447 8.48250E+01
 -1       448 8.48250E+01
 -1       449 8.48250E+01
 -1       450 8.43960E+01
 -1       451 8.43960E+01
 -1       452 8.48218E+01
 -1       453 8.48218E+01
 -1       454 8.43666E+01
 -1       455 8.43666E+01
 -1       456 8.48038E+01
 -1       457 8.48038E+01
 -1       458 8.43131E+01
 -1       459 8.43131E+01
 -1       460 8.47694E+01
 -1       461 8.47694E+01
 -1       462 8.42322E+01
 -1       463 8.42322E+01
 -1       464 8.47180E+01
 -1       465 8.47160E+01
 -1       466 8.41271E+01
 -1       467 8.41188E+01
 -1       468 8.46480E+01
 -1       469 8.46398E+01
 -1       470 8.39873E+01
 -1       471 8.39659E+01
 -1       472 8.45520E+01
 -1       473 8.45350E+01
 -1       474 8.38031E+01
 -1       475 8.37639E+01
 -1       476 8.44229E+01
 -1       477 8.43939E+01
 -1       478 8.35627E+01
 -1       479 8.34996E+01
 -1       480 8.42509E+01
 -1       481 8.42053E+01
 -1       482 8.32507E+01
 -1       483 8.31550E+01
 -1       484 8.40219E+01
 -1       485 8.39529E+01
 -1       486 8.28462E+01
 -1       487 8.27062E+01
 -1       488 8.37155E+01
 -1       489 8.36133E+01
 -1       490 8.23216E+01
 -1       491 8.21208E+01
 -1       492 8.33014E+01
 -1       493 8.31513E+01
 -1       494 8.16407E+01
 -1       495 8.13559E+01
 -1       496 8.27328E+01
 -1       497 8.25122E+01
 -1       498 8.07562E+01
 -1       499 8.03543E+01
 -1       500 8.20143E+01
 -1       501 8.17555E+01
 -1       502 7.96271E+01
 -1       503 7.91300E+01
 -1       504 8.11749E+01
 -1       505 8.07740E+01
 -1       506 7.83080E+01
 -1       507 7.76336E+01
 -1       508 7.98061E+01
 -1       509 7.91896E+01
 -1       510 7.65350E+01
 -1       511 7.56933E+01
 -1       512 7.71572E+01
 -1       513 7.62486E+01
 -1       514 7.38458E+01
 -1       515 7.29966E+01
 -1       516 7.38458E+01
 -1       517 7.29966E+01
 -1       518 6.88245E+01
 -1       519 6.82370E+01
 -1       520 6.88245E+01
 -1       521 6.82370E+01
 -1       522 6.15217E+01
 -1       523 5.91587E+01
 -1       524 6.15217E+01
 -1       525 5.91587E+01
 -1       526 8.48250E+01
 -1       527 8.48250E+01
 -1       528 8.48250E+01
 -1       529 8.48250E+01
 -1       530 8.48218E+01
 -1       531 8.48218E+01
 -1       532 8.48038E+01
 -1       533 8.48038E+01
 -1       534 8.47694E+01
 -1       535 8.47694E+01
 -1       536 8.47180E+01
 -1       537 8.47160E+01
 -1       538 8.46480E+01
 -1       539 8.46398E+01
 -1       540 8.45520E+01
 -1       541 8.45350E+01
 -1       542 8.44229E+01
 -1       543 8.43939E+01
 -1       544 8.42509E+01
 -1       545 8.42053E+01
 -1       546 8.40219E+01
 -1       547 8.39529E+01
 -1       548 8.37155E+01
 -1       549 8.36133E+01
 -1       550 8.33014E+01
 -1       551 8.31513E+01
 -1       552 8.27328E+01
 -1       553 8.25122E+01
 -1       554 8.20143E+01
 -1       555 8.17555E+01
 -1       556 8.11749E+01
 -1       557 8.07740E+01
 -1       558 7.98061E+01
 -1       559 7.91896E+01
 -1       560 7.71572E+01
 -1       561 7.62486E+01
 -1       562 7.18313E+01
 -1       563 7.09459E+01
 -1       564 6.05831E+01
 -1       565 6.00309E+01
 -1       566 3.80642E+01
 -1       567 3.41775E+01
 -1       568 8.46003E+01
 -1       569 8.46003E+01
 -1       570 8.46003E+01
 -1       571 8.46003E+01
 -1       572 8.45932E+01
 -1       573 8.45932E+01
 -1       574 8.45718E+01
 -1       575 8.45699E+01
 -1       576 8.45341E+01
 -1       577 8.45286E+01
 -1       578 8.44770E+01
 -1       579 8.44663E+01
 -1       580 8.43966E+01
 -1       581 8.43785E+01
 -1       582 8.42871E+01
 -1       583 8.42589E+01
 -1       584 8.41401E+01
 -1       585 8.40980E+01
 -1       586 8.39435E+01
 -1       587 8.38820E+01
 -1       588 8.36793E+01
 -1       589 8.35906E+01
 -1       590 8.33202E+01
 -1       591 8.31927E+01
 -1       592 8.28240E+01
 -1       593 8.26400E+01
 -1       594 8.21225E+01
 -1       595 8.18544E+01
 -1       596 8.11274E+01
 -1       597 8.07826E+01
 -1       598 7.97106E+01
 -1       599 7.92021E+01
 -1       600 7.75168E+01
 -1       601 7.67754E+01
 -1       602 7.38852E+01
 -1       603 7.28757E+01
 -1       604 6.73978E+01
 -1       605 6.62788E+01
 -1       606 5.43922E+01
 -1       607 5.36712E+01
 -1       608 2.81993E+01
 -1       609 2.35771E+01
 -1       610 8.44319E+01
 -1       611 8.44353E+01
 -1       612 8.44353E+01
 -1       613 8.44319E+01
 -1       614 8.44264E+01
 -1       615 8.44219E+01
 -1       616 8.44016E+01
 -1       617 8.43947E+01
 -1       618 8.43592E+01
 -1       619 8.43485E+01
 -1       620 8.42962E+01
 -1       621 8.42800E+01
 -1       622 8.42080E+01
 -1       623 8.41841E+01
 -1       624 8.40884E+01
 -1       625 8.40538E+01
 -1       626 8.39278E+01
 -1       627 8.38784E+01
 -1       628 8.37123E+01
 -1       629 8.36423E+01
 -1       630 8.34211E+01
 -1       631 8.33220E+01
 -1       632 8.30228E+01
 -1       633 8.28819E+01
 -1       634 8.24680E+01
 -1       635 8.22659E+01
 -1       636 8.16812E+01
 -1       637 8.14202E+01
 -1       638 8.05951E+01
 -1       639 8.02128E+01
 -1       640 7.89744E+01
 -1       641 7.84076E+01
 -1       642 7.64560E+01
 -1       643 7.56221E+01
 -1       644 7.22910E+01
 -1       645 7.11434E+01
 -1       646 6.48955E+01
 -1       647 6.36285E+01
 -1       648 5.03939E+01
 -1       649 4.97046E+01
 -1       650 2.39964E+01
 -1       651 1.93025E+01
 -1       652 8.43000E+01
 -1       653 8.43061E+01
 -1       654 8.43061E+01
 -1       655 8.43000E+01
 -1       656 8.42950E+01
 -1       657 8.42877E+01
 -1       658 8.42673E+01
 -1       659 8.42576E+01
 -1       660 8.42210E+01
 -1       661 8.42075E+01
 -1       662 8.41530E+01
 -1       663 8.41339E+01
 -1       664 8.40584E+01
 -1       665 8.40315E+01
 -1       666 8.39303E+01
 -1       667 8.38925E+01
 -1       668 8.37585E+01
 -1       669 8.37055E+01
 -1       670 8.35279E+01
 -1       671 8.34536E+01
 -1       672 8.32163E+01
 -1       673 8.31118E+01
 -1       674 8.27898E+01
 -1       675 8.26417E+01
 -1       676 8.21960E+01
 -1       677 8.19996E+01
 -1       678 8.13880E+01
 -1       679 8.11116E+01
 -1       680 8.02290E+01
 -1       681 7.98236E+01
 -1       682 7.84991E+01
 -1       683 7.78970E+01
 -1       684 7.58067E+01
 -1       685 7.49191E+01
 -1       686 7.13428E+01
 -1       687 7.01202E+01
 -1       688 6.33939E+01
 -1       689 6.20498E+01
 -1       690 4.79869E+01
 -1       691 4.73178E+01
 -1       692 2.05438E+01
 -1       693 1.59538E+01
 -1       694 8.41969E+01
 -1       695 8.42041E+01
 -1       696 8.42041E+01
 -1       697 8.41969E+01
 -1       698 8.41913E+01
 -1       699 8.41829E+01
 -1       700 8.41613E+01
 -1       701 8.41505E+01
 -1       702 8.41119E+01
 -1       703 8.40973E+01
 -1       704 8.40399E+01
 -1       705 8.40197E+01
 -1       706 8.39402E+01
 -1       707 8.39121E+01
 -1       708 8.38055E+01
 -1       709 8.37663E+01
 -1       710 8.36252E+01
 -1       711 8.35705E+01
 -1       712 8.33836E+01
 -1       713 8.33072E+01
 -1       714 8.30578E+01
 -1       715 8.29504E+01
 -1       716 8.26127E+01
 -1       717 8.24662E+01
 -1       718 8.20131E+01
 -1       719 8.18150E+01
 -1       720 8.11815E+01
 -1       721 8.08956E+01
 -1       722 7.99822E+01
 -1       723 7.95627E+01
 -1       724 7.81918E+01
 -1       725 7.75685E+01
 -1       726 7.53987E+01
 -1       727 7.44798E+01
 -1       728 7.07518E+01
 -1       729 6.94851E+01
 -1       730 6.24353E+01
 -1       731 6.10471E+01
 -1       732 4.63215E+01
 -1       733 4.56903E+01
 -1       734 1.81984E+01
 -1       735 1.37491E+01
 -1       736 8.41152E+01
 -1       737 8.41227E+01
 -1       738 8.41227E+01
 -1       739 8.41152E+01
 -1       740 8.41088E+01
 -1       741 8.41001E+01
 -1       742 8.40770E+01
 -1       743 8.40660E+01
 -1       744 8.40254E+01
 -1       745 8.40105E+01
 -1       746 8.39504E+01
 -1       747 8.39299E+01
 -1       748 8.38470E+01
 -1       749 8.38185E+01
 -1       750 8.37076E+01
 -1       751 8.36680E+01
 -1       752 8.35214E+01
 -1       753 8.34661E+01
 -1       754 8.32726E+01
 -1       755 8.31952E+01
 -1       756 8.29377E+01
 -1       757 8.28288E+01
 -1       758 8.24891E+01
 -1       759 8.23470E+01
 -1       760 8.18849E+01
 -1       761 8.16828E+01
 -1       762 8.10375E+01
 -1       763 8.07457E+01
 -1       764 7.98160E+01
 -1       765 7.93878E+01
 -1       766 7.79920E+01
 -1       767 7.73560E+01
 -1       768 7.51433E+01
 -1       769 7.42062E+01
 -1       770 7.03967E+01
 -1       771 6.91059E+01
 -1       772 6.18811E+01
 -1       773 6.04731E+01
 -1       774 4.54251E+01
 -1       775 4.48290E+01
 -1       776 1.66870E+01
 -1       777 1.23795E+01
 -1       778 8.40492E+01
 -1       779 8.40566E+01
 -1       780 8.40566E+01
 -1       781 8.40492E+01
 -1       782 8.40419E+01
 -1       783 8.40333E+01
 -1       784 8.40090E+01
 -1       785 8.39981E+01
 -1       786 8.39559E+01
 -1       787 8.39411E+01
 -1       788 8.38790E+01
 -1       789 8.38586E+01
 -1       790 8.37732E+01
 -1       791 8.37448E+01
 -1       792 8.36310E+01
 -1       793 8.35913E+01
 -1       794 8.34413E+01
 -1       795 8.33858E+01
 -1       796 8.31881E+01
 -1       797 8.31103E+01
 -1       798 8.28484E+01
 -1       799 8.27463E+01
 -1       800 8.24032E+01
 -1       801 8.22594E+01
 -1       802 8.17927E+01
 -1       803 8.15881E+01
 -1       804 8.09370E+01
 -1       805 8.06415E+01
 -1       806 7.97039E+01
 -1       807 7.92704E+01
 -1       808 7.78627E+01
 -1       809 7.72193E+01
 -1       810 7.49864E+01
 -1       811 7.40392E+01
 -1       812 7.01918E+01
 -1       813 6.88889E+01
 -1       814 6.15840E+01
 -1       815 6.01672E+01
 -1       816 4.49248E+01
 -1       817 4.43554E+01
 -1       818 1.58098E+01
 -1       819 1.16014E+01
 -1       820 8.39939E+01
 -1       821 8.40012E+01
 -1       822 8.40012E+01
 -1       823 8.39939E+01
 -1       824 8.39860E+01
 -1       825 8.39776E+01
 -1       826 8.39526E+01
 -1       827 8.39418E+01
 -1       828 8.38987E+01
 -1       829 8.38840E+01
 -1       830 8.38209E+01
 -1       831 8.38006E+01
 -1       832 8.37139E+01
 -1       833 8.36856E+01
 -1       834 8.35703E+01
 -1       835 8.35306E+01
 -1       836 8.33788E+01
 -1       837 8.33232E+01
 -1       838 8.31236E+01
 -1       839 8.30456E+01
 -1       840 8.27861E+01
 -1       841 8.26833E+01
 -1       842 8.23387E+01
 -1       843 8.21939E+01
 -1       844 8.17255E+01
 -1       845 8.15194E+01
 -1       846 8.08661E+01
 -1       847 8.05685E+01
 -1       848 7.96279E+01
 -1       849 7.91915E+01
 -1       850 7.77794E+01
 -1       851 7.71319E+01
 -1       852 7.48913E+01
 -1       853 7.39389E+01
 -1       854 7.00767E+01
 -1       855 6.87680E+01
 -1       856 6.14292E+01
 -1       857 6.00088E+01
 -1       858 4.46786E+01
 -1       859 4.41190E+01
 -1       860 1.53219E+01
 -1       861 1.11745E+01
 -1       862 8.39448E+01
 -1       863 8.39521E+01
 -1       864 8.39521E+01
 -1       865 8.39448E+01
 -1       866 8.39369E+01
 -1       867 8.39284E+01
 -1       868 8.39033E+01
 -1       869 8.38925E+01
 -1       870 8.38493E+01
 -1       871 8.38346E+01
 -1       872 8.37713E+01
 -1       873 8.37510E+01
 -1       874 8.36642E+01
 -1       875 8.36358E+01
 -1       876 8.35203E+01
 -1       877 8.34805E+01
 -1       878 8.33286E+01
 -1       879 8.32729E+01
 -1       880 8.30730E+01
 -1       881 8.29949E+01
 -1       882 8.27358E+01
 -1       883 8.26325E+01
 -1       884 8.22882E+01
 -1       885 8.21428E+01
 -1       886 8.16746E+01
 -1       887 8.14677E+01
 -1       888 8.08148E+01
 -1       889 8.05161E+01
 -1       890 7.95759E+01
 -1       891 7.91380E+01
 -1       892 7.77263E+01
 -1       893 7.70770E+01
 -1       894 7.48362E+01
 -1       895 7.38816E+01
 -1       896 7.00178E+01
 -1       897 6.87068E+01
 -1       898 6.13624E+01
 -1       899 5.99414E+01
 -1       900 4.45656E+01
 -1       901 4.40100E+01
 -1       902 1.50753E+01
 -1       903 1.09552E+01
 -1       904 8.39939E+01
 -1       905 8.40012E+01
 -1       906 8.40012E+01
 -1       907 8.39939E+01
 -1       908 8.39860E+01
 -1       909 8.39776E+01
 -1       910 8.39526E+01
 -1       911 8.39418E+01
 -1       912 8.38987E+01
 -1       913 8.38840E+01
 -1       914 8.38209E+01
 -1       915 8.38006E+01
 -1       916 8.37139E+01
 -1       917 8.36856E+01
 -1       918 8.35703E+01
 -1       919 8.35306E+01
 -1       920 8.33788E+01
 -1       921 8.33232E+01
 -1       922 8.31236E+01
 -1       923 8.30456E+01
 -1       924 8.27861E+01
 -1       925 8.26833E+01
 -1       926 8.23387E+01
 -1       927 8.21939E+01
 -1       928 8.17255E+01
 -1       929 8.15194E+01
 -1       930 8.08661E+01
 -1       931 8.05685E+01
 -1       932 7.96279E+01
 -1       933 7.91915E+01
 -1       934 7.77794E+01
 -1       935 7.71319E+01
 -1       936 7.48913E+01
 -1       937 7.39389E+01
 -1       938 7.00767E+01
 -1       939 6.87680E+01
 -1       940 6.14292E+01
 -1       941 6.00088E+01
 -1       942 4.46786E+01
 -1       943 4.41190E+01
 -1       944 1.53219E+01
 -1       945 1.11745E+01
 -1       946 8.40492E+01
 -1       947 8.40566E+01
 -1       948 8.40566E+01
 -1       949 8.40492E+01
 -1       950 8.40419E+01
 -1       951 8.40333E+01
 -1       952 8.40090E+01
 -1       953 8.39981E+01
 -1       954 8.39559E+01
 -1       955 8.39411E+01
 -1       956 8.38790E+01
 -1       957 8.38586E+01
 -1       958 8.37732E+01
 -1       959 8.37448E+01
 -1       960 8.36310E+01
 -1       961 8.35913E+01
 -1       962 8.34413E+01
 -1       963 8.33858E+01
 -1       964 8.31881E+01
 -1       965 8.31103E+01
 -1       966 8.28484E+01
 -1       967 8.27463E+01
 -1       968 8.24032E+01
 -1       969 8.22594E+01
 -1       970 8.17927E+01
 -1       971 8.15881E+01
 -1       972 8.09370E+01
 -1       973 8.06415E+01
 -1       974 7.97039E+01
 -1       975 7.92704E+01
 -1       976 7.78627E+01
 -1       977 7.72193E+01
 -1       978 7.49864E+01
 -1       979 7.40392E+01
 -1       980 7.01918E+01
 -1       981 6.88889E+01
 -1       982 6.15840E+01
 -1       983 6.01672E+01
 -1       984 4.49248E+01
 -1       985 4.43554E+01
 -1       986 1.58098E+01
 -1       987 1.16014E+01
 -1       988 8.41152E+01
 -1       989 8.41227E+01
 -1       990 8.41227E+01
 -1       991 8.41152E+01
 -1       992 8.41088E+01
 -1       993 8.41001E+01
 -1       994 8.40770E+01
 -1       995 8.40660E+01
 -1       996 8.40254E+01
 -1       997 8.40105E+01
 -1       998 8.39504E+01
 -1       999 8.39299E+01
 -1      1000 8.38470E+01
 -1      1001 8.38185E+01
 -1      1002 8.37076E+01
 -1      1003 8.36680E+01
 -1      1004 8.35214E+01
 -1      1005 8.34661E+01
 -1      1006 8.32726E+01
 -1      1007 8.31952E+01
 -1      1008 8.29377E+01
 -1      1009 8.28288E+01
 -1      1010 8.24891E+01
 -1      1011 8.23470E+01
 -1      1012 8.18849E+01
 -1      1013 8.16828E+01
 -1      1014 8.10375E+01
 -1      1015 8.07457E+01
 -1      1016 7.98160E+01
 -1      1017 7.93878E+01
 -1      1018 7.79920E+01
 -1      1019 7.73560E+01
 -1      1020 7.51433E+01
 -1      1021 7.42062E+01
 -1      1022 7.03967E+01
 -1      1023 6.91059E+01
 -1      1024 6.18811E+01
 -1      1025 6.04731E+01
 -1      1026 4.54251E+01
 -1      1027 4.48290E+01
 -1      1028 1.66870E+01
 -1      1029 1.23795E+01
 -1      1030 8.41969E+01
 -1      1031 8.42041E+01
 -1      1032 8.42041E+01
 -1      1033 8.41969E+01
 -1      1034 8.41913E+01
 -1      1035 8.41829E+01
 -1      1036 8.41613E+01
 -1      1037 8.41505E+01
 -1      1038 8.41119E+01
 -1      1039 8.40973E+01
 -1      1040 8.40399E+01
 -1      1041 8.40197E+01
 -1      1042 8.39402E+01
 -1      1043 8.39121E+01
 -1      1044 8.38055E+01
 -1      1045 8.37663E+01
 -1      1046 8.36252E+01
 -1      1047 8.35705E+01
 -1      1048 8.33836E+01
 -1      1049 8.33072E+01
 -1      1050 8.30578E+01
 -1      1051 8.29504E+01
 -1      1052 8.26127E+01
 -1      1053 8.24662E+01
 -1      1054 8.20131E+01
 -1      1055 8.18150E+01
 -1      1056 8.11815E+01
 -1      1057 8.08956E+01
 -1      1058 7.99822E+01
 -1      1059 7.95627E+01
 -1      1060 7.81918E+01
 -1      1061 7.75685E+01
 -1      1062 7.53987E+01
 -1      1063 7.44798E+01
 -1      1064 7.07518E+01
 -1      1065 6.94851E+01
 -1      1066 6.24353E+01
 -1      1067 6.10471E+01
 -1      1068 4.63215E+01
 -1      1069 4.56903E+01
 -1      1070 1.81984E+01
 -1      1071 1.37491E+01
 -1      1072 8.43000E+01
 -1      1073 8.43061E+01
 -1      1074 8.43061E+01
 -1      1075 8.43000E+01
 -1      1076 8.42950E+01
 -1      1077 8.42877E+01
 -1      1078 8.42673E+01
 -1      1079 8.42576E+01
 -1      1080 8.42210E+01
 -1      1081 8.42075E+01
 -1      1082 8.41530E+01
 -1      1083 8.41339E+01
 -1      1084 8.40584E+01
 -1      1085 8.40315E+01
 -1      1086 8.39303E+01
 -1      1087 8.38925E+01
 -1      1088 8.37585E+01
 -1      1089 8.37055E+01
 -1      1090 8.35279E+01
 -1      1091 8.34536E+01
 -1      1092 8.32163E+01
 -1      1093 8.31118E+01
 -1      1094 8.27898E+01
 -1      1095 8.26417E+01
 -1      1096 8.21960E+01
 -1      1097 8.19996E+01
 -1      1098 8.13880E+01
 -1      1099 8.11116E+01
 -1      1100 8.02290E+01
 -1      1101 7.98236E+01
 -1      1102 7.84991E+01
 -1      1103 7.78970E+01
 -1      1104 7.58067E+01
 -1      1105 7.49191E+01
 -1      1106 7.13428E+01
 -1      1107 7.01202E+01
 -1      1108 6.33939E+01
 -1      1109 6.20498E+01
 -1      1110 4.79869E+01
 -1      1111 4.73178E+01
 -1      1112 2.05438E+01
 -1      1113 1.59538E+01
 -1      1114 8.44319E+01
 -1      1115 8.44353E+01
 -1      1116 8.44353E+01
 -1      1117 8.44319E+01
 -1      1118 8.44264E+01
 -1      1119 8.44219E+01
 -1      1120 8.44016E+01
 -1      1121 8.43947E+01
 -1      1122 8.43592E+01
 -1      1123 8.43485E+01
 -1      1124 8.42962E+01
 -1      1125 8.42800E+01
 -1      1126 8.42080E+01
 -1      1127 8.41841E+01
 -1      1128 8.40884E+01
 -1      1129 8.40538E+01
 -1      1130 8.39278E+01
 -1      1131 8.38784E+01
 -1      1132 8.37123E+01
 -1      1133 8.36423E+01
 -1      1134 8.34211E+01
 -1      1135 8.33220E+01
 -1      1136 8.30228E+01
 -1      1137 8.28819E+01
 -1      1138 8.24680E+01
 -1      1139 8.22659E+01
 -1      1140 8.16812E+01
 -1      1141 8.14202E+01
 -1      1142 8.05951E+01
 -1      1143 8.02128E+01
 -1      1144 7.89744E+01
 -1      1145 7.84076E+01
 -1      1146 7.64560E+01
 -1      1147 7.56221E+01
 -1      1148 7.22910E+01
 -1      1149 7.11434E+01
 -1      1150 6.48955E+01
 -1      1151 6.36285E+01
 -1      1152 5.03939E+01
 -1      1153 4.97046E+01
 -1      1154 2.39964E+01
 -1      1155 1.93025E+01
 -1      1156 8.46003E+01
 -1      1157 8.46003E+01
 -1      1158 8.46003E+01
 -1      1159 8.46003E+01
 -1      1160 8.45932E+01
 -1      1161 8.45932E+01
 -1      1162 8.45718E+01
 -1      1163 8.45699E+01
 -1      1164 8.45341E+01
 -1      1165 8.45286E+01
 -1      1166 8.44770E+01
 -1      1167 8.44663E+01
 -1      1168 8.43966E+01
 -1      1169 8.43785E+01
 -1      1170 8.42871E+01
 -1      1171 8.42589E+01
 -1      1172 8.41401E+01
 -1      1173 8.40980E+01
 -1      1174 8.39435E+01
 -1      1175 8.38820E+01
 -1      1176 8.36793E+01
 -1      1177 8.35906E+01
 -1      1178 8.33202E+01
 -1      1179 8.31927E+01
 -1      1180 8.28240E+01
 -1      1181 8.26400E+01
 -1      1182 8.21225E+01
 -1      1183 8.18544E+01
 -1      1184 8.11274E+01
 -1      1185 8.07826E+01
 -1      1186 7.97106E+01
 -1      1187 7.92021E+01
 -1      1188 7.75168E+01
 -1      1189 7.67754E+01
 -1      1190 7.38852E+01
 -1      1191 7.28757E+01
 -1      1192 6.73978E+01
 -1      1193 6.62788E+01
 -1      1194 5.43922E+01
 -1      1195 5.36712E+01
 -1      1196 2.81993E+01
 -1      1197 2.35771E+01
 -1      1198 8.48250E+01
 -1      1199 8.48250E+01
 -1      1200 8.48250E+01
 -1      1201 8.48250E+01
 -1      1202 8.48218E+01
 -1      1203 8.48218E+01
 -1      1204 8.48038E+01
 -1      1205 8.48038E+01
 -1      1206 8.47694E+01
 -1      1207 8.47694E+01
 -1      1208 8.47180E+01
 -1      1209 8.47160E+01
 -1      1210 8.46480E+01
 -1      1211 8.46398E+01
 -1      1212 8.45520E+01
 -1      1213 8.45350E+01
 -1      1214 8.44229E+01
 -1      1215 8.43939E+01
 -1      1216 8.42509E+01
 -1      1217 8.42053E+01
 -1      1218 8.40219E+01
 -1      1219 8.39529E+01
 -1      1220 8.37155E+01
 -1      1221 8.36133E+01
 -1      1222 8.33014E+01
 -1      1223 8.31513E+01
 -1      1224 8.27328E+01
 -1      1225 8.25122E+01
 -1      1226 8.20143E+01
 -1      1227 8.17555E+01
 -1      1228 8.11749E+01
 -1      1229 8.07740E+01
 -1      1230 7.98061E+01
 -1      1231 7.91896E+01
 -1      1232 7.71572E+01
 -1      1233 7.62486E+01
 -1      1234 7.18313E+01
 -1      1235 7.09459E+01
 -1      1236 6.05831E+01
 -1      1237 6.00309E+01
 -1      1238 3.80642E+01
 -1      1239 3.41775E+01
 -1      1240 8.48250E+01
 -1      1241 8.48250E+01
 -1      1242 8.48250E+01
 -1      1243 8.48250E+01
 -1      1244 8.48218E+01
 -1      1245 8.48218E+01
 -1      1246 8.48038E+01
 -1      1247 8.48038E+01
 -1      1248 8.47694E+01
 -1      1249 8.47694E+01
 -1      1250 8.47180E+01
 -1      1251 8.47160E+01
 -1      1252 8.46480E+01
 -1      1253 8.46398E+01
 -1      1254 8.45520E+01
 -1      1255 8.45350E+01
 -1      1256 8.44229E+01
 -1      1257 8.43939E+01
 -1      1258 8.42509E+01
 -1      1259 8.42053E+01
 -1      1260 8.40219E+01
 -1      1261 8.39529E+01
 -1      1262 8.37155E+01
 -1      1263 8.36133E+01
 -1      1264 8.33014E+01
 -1      1265 8.31513E+01
 -1      1266 8.27328E+01
 -1      1267 8.25122E+01
 -1      1268 8.20143E+01
 -1      1269 8.17555E+01
 -1      1270 8.11749E+01
 -1      1271 8.07740E+01
 -1      1272 7.98061E+01
 -1      1273 7.91896E+01
 -1      1274 7.71572E+01
 -1      1275 7.62486E+01
 -1      1276 7.38458E+01
 -1      1277 7.29966E+01
 -1      1278 6.88245E+01
 -1      1279 6.82370E+01
 -1      1280 6.15217E+01
 -1      1281 5.91587E+01
 -1      1282 8.44034E+01
 -1      1283 8.44034E+01
 -1      1284 8.44034E+01
 -1      1285 8.44034E+01
 -1      1286 8.43960E+01
 -1      1287 8.43960E+01
 -1      1288 8.43666E+01
 -1      1289 8.43666E+01
 -1      1290 8.43131E+01
 -1      1291 8.43131E+01
 -1      1292 8.42322E+01
 -1      1293 8.42322E+01
 -1      1294 8.41271E+01
 -1      1295 8.41188E+01
 -1      1296 8.39873E+01
 -1      1297 8.39659E+01
 -1      1298 8.38031E+01
 -1      1299 8.37639E+01
 -1      1300 8.35627E+01
 -1      1301 8.34996E+01
 -1      1302 8.32507E+01
 -1      1303 8.31550E+01
 -1      1304 8.28462E+01
 -1      1305 8.27062E+01
 -1      1306 8.23216E+01
 -1      1307 8.21208E+01
 -1      1308 8.16407E+01
 -1      1309 8.13559E+01
 -1      1310 8.07562E+01
 -1      1311 8.03543E+01
 -1      1312 7.96271E+01
 -1      1313 7.91300E+01
 -1      1314 7.83080E+01
 -1      1315 7.76336E+01
 -1      1316 7.65350E+01
 -1      1317 7.56933E+01
 -1      1318 7.38458E+01
 -1      1319 7.29966E+01
 -1      1320 6.88245E+01
 -1      1321 6.82370E+01
 -1      1322 6.15217E+01
 -1      1323 5.91587E+01
 -1      1324 8.43860E+01
 -1      1325 8.43860E+01
 -1      1326 8.48163E+01
 -1      1327 8.48163E+01
 -1      1328 8.43801E+01
 -1      1329 8.48141E+01
 -1      1330 8.43537E+01
 -1      1331 8.47982E+01
 -1      1332 8.43050E+01
 -1      1333 8.47669E+01
 -1      1334 8.42309E+01
 -1      1335 8.47180E+01
 -1      1336 8.41271E+01
 -1      1337 8.46480E+01
 -1      1338 8.39873E+01
 -1      1339 8.45520E+01
 -1      1340 8.38031E+01
 -1      1341 8.44229E+01
 -1      1342 8.35627E+01
 -1      1343 8.42509E+01
 -1      1344 8.32507E+01
 -1      1345 8.40219E+01
 -1      1346 8.28462E+01
 -1      1347 8.37155E+01
 -1      1348 8.23216E+01
 -1      1349 8.33014E+01
 -1      1350 8.16407E+01
 -1      1351 8.27328E+01
 -1      1352 8.07562E+01
 -1      1353 8.20143E+01
 -1      1354 7.96271E+01
 -1      1355 8.11749E+01
 -1      1356 7.83080E+01
 -1      1357 7.98061E+01
 -1      1358 7.65350E+01
 -1      1359 7.71572E+01
 -1      1360 7.38458E+01
 -1      1361 7.38458E+01
 -1      1362 6.88245E+01
 -1      1363 6.88245E+01
 -1      1364 6.15217E+01
 -1      1365 6.15217E+01
 -1      1366 8.48163E+01
 -1      1367 8.48163E+01
 -1      1368 8.48141E+01
 -1      1369 8.47982E+01
 -1      1370 8.47669E+01
 -1      1371 8.47180E+01
 -1      1372 8.46480E+01
 -1      1373 8.45520E+01
 -1      1374 8.44229E+01
 -1      1375 8.42509E+01
 -1      1376 8.40219E+01
 -1      1377 8.37155E+01
 -1      1378 8.33014E+01
 -1      1379 8.27328E+01
 -1      1380 8.20143E+01
 -1      1381 8.11749E+01
 -1      1382 7.98061E+01
 -1      1383 7.71572E+01
 -1      1384 7.18313E+01
 -1      1385 6.05831E+01
 -1      1386 3.80642E+01
 -1      1387 8.45988E+01
 -1      1388 8.45988E+01
 -1      1389 8.45928E+01
 -1      1390 8.45718E+01
 -1      1391 8.45341E+01
 -1      1392 8.44770E+01
 -1      1393 8.43966E+01
 -1      1394 8.42871E+01
 -1      1395 8.41401E+01
 -1      1396 8.39435E+01
 -1      1397 8.36793E+01
 -1      1398 8.33202E+01
 -1      1399 8.28240E+01
 -1      1400 8.21225E+01
 -1      1401 8.11274E+01
 -1      1402 7.97106E+01
 -1      1403 7.75168E+01
 -1      1404 7.38852E+01
 -1      1405 6.73978E+01
 -1      1406 5.43922E+01
 -1      1407 2.81993E+01
 -1      1408 8.44353E+01
 -1      1409 8.44353E+01
 -1      1410 8.44264E+01
 -1      1411 8.44016E+01
 -1      1412 8.43592E+01
 -1      1413 8.42962E+01
 -1      1414 8.42080E+01
 -1      1415 8.40884E+01
 -1      1416 8.39278E+01
 -1      1417 8.37123E+01
 -1      1418 8.34211E+01
 -1      1419 8.30228E+01
 -1      1420 8.24680E+01
 -1      1421 8.16812E+01
 -1      1422 8.05951E+01
 -1      1423 7.89744E+01
 -1      1424 7.64560E+01
 -1      1425 7.22910E+01
 -1      1426 6.48955E+01
 -1      1427 5.03939E+01
 -1      1428 2.39964E+01
 -1      1429 8.43061E+01
 -1      1430 8.43061E+01
 -1      1431 8.42950E+01
 -1      1432 8.42673E+01
 -1      1433 8.42210E+01
 -1      1434 8.41530E+01
 -1      1435 8.40584E+01
 -1      1436 8.39303E+01
 -1      1437 8.37585E+01
 -1      1438 8.35279E+01
 -1      1439 8.32163E+01
 -1      1440 8.27898E+01
 -1      1441 8.21960E+01
 -1      1442 8.13880E+01
 -1      1443 8.02290E+01
 -1      1444 7.84991E+01
 -1      1445 7.58067E+01
 -1      1446 7.13428E+01
 -1      1447 6.33939E+01
 -1      1448 4.79869E+01
 -1      1449 2.05438E+01
 -1      1450 8.42041E+01
 -1      1451 8.42041E+01
 -1      1452 8.41913E+01
 -1      1453 8.41613E+01
 -1      1454 8.41119E+01
 -1      1455 8.40399E+01
 -1      1456 8.39402E+01
 -1      1457 8.38055E+01
 -1      1458 8.36252E+01
 -1      1459 8.33836E+01
 -1      1460 8.30578E+01
 -1      1461 8.26127E+01
 -1      1462 8.20131E+01
 -1      1463 8.11815E+01
 -1      1464 7.99822E+01
 -1      1465 7.81918E+01
 -1      1466 7.53987E+01
 -1      1467 7.07518E+01
 -1      1468 6.24353E+01
 -1      1469 4.63215E+01
 -1      1470 1.81984E+01
 -1      1471 8.41227E+01
 -1      1472 8.41227E+01
 -1      1473 8.41088E+01
 -1      1474 8.40770E+01
 -1      1475 8.40254E+01
 -1      1476 8.39504E+01
 -1      1477 8.38470E+01
 -1      1478 8.37076E+01
 -1      1479 8.35214E+01
 -1      1480 8.32726E+01
 -1      1481 8.29377E+01
 -1      1482 8.24891E+01
 -1      1483 8.18849E+01
 -1      1484 8.10375E+01
 -1      1485 7.98160E+01
 -1      1486 7.79920E+01
 -1      1487 7.51433E+01
 -1      1488 7.03967E+01
 -1      1489 6.18811E+01
 -1      1490 4.54251E+01
 -1      1491 1.66870E+01
 -1      1492 8.40566E+01
 -1      1493 8.40566E+01
 -1      1494 8.40419E+01
 -1      1495 8.40090E+01
 -1      1496 8.39559E+01
 -1      1497 8.38790E+01
 -1      1498 8.37732E+01
 -1      1499 8.36310E+01
 -1      1500 8.34413E+01
 -1      1501 8.31881E+01
 -1      1502 8.28484E+01
 -1      1503 8.24032E+01
 -1      1504 8.17927E+01
 -1      1505 8.09370E+01
 -1      1506 7.97039E+01
 -1      1507 7.78627E+01
 -1      1508 7.49864E+01
 -1      1509 7.01918E+01
 -1      1510 6.15840E+01
 -1      1511 4.49248E+01
 -1      1512 1.58098E+01
 -1      1513 8.40012E+01
 -1      1514 8.40012E+01
 -1      1515 8.39860E+01
 -1      1516 8.39526E+01
 -1      1517 8.38987E+01
 -1      1518 8.38209E+01
 -1      1519 8.37139E+01
 -1      1520 8.35703E+01
 -1      1521 8.33788E+01
 -1      1522 8.31236E+01
 -1      1523 8.27861E+01
 -1      1524 8.23387E+01
 -1      1525 8.17255E+01
 -1      1526 8.08661E+01
 -1      1527 7.96279E+01
 -1      1528 7.77794E+01
 -1      1529 7.48913E+01
 -1      1530 7.00767E+01
 -1      1531 6.14292E+01
 -1      1532 4.46786E+01
 -1      1533 1.53219E+01
 -1      1534 8.39521E+01
 -1      1535 8.39521E+01
 -1      1536 8.39369E+01
 -1      1537 8.39033E+01
 -1      1538 8.38493E+01
 -1      1539 8.37713E+01
 -1      1540 8.36642E+01
 -1      1541 8.35203E+01
 -1      1542 8.33286E+01
 -1      1543 8.30730E+01
 -1      1544 8.27358E+01
 -1      1545 8.22882E+01
 -1      1546 8.16746E+01
 -1      1547 8.08148E+01
 -1      1548 7.95759E+01
 -1      1549 7.77263E+01
 -1      1550 7.48362E+01
 -1      1551 7.00178E+01
 -1      1552 6.13624E+01
 -1      1553 4.45656E+01
 -1      1554 1.50753E+01
 -1      1555 8.40012E+01
 -1      1556 8.40012E+01
 -1      1557 8.39860E+01
 -1      1558 8.39526E+01
 -1      1559 8.38987E+01
 -1      1560 8.38209E+01
 -1      1561 8.37139E+01
 -1      1562 8.35703E+01
 -1      1563 8.33788E+01
 -1      1564 8.31236E+01
 -1      1565 8.27861E+01
 -1      1566 8.23387E+01
 -1      1567 8.17255E+01
 -1      1568 8.08661E+01
 -1      1569 7.96279E+01
 -1      1570 7.77794E+01
 -1      1571 7.48913E+01
 -1      1572 7.00767E+01
 -1      1573 6.14292E+01
 -1      1574 4.46786E+01
 -1      1575 1.53219E+01
 -1      1576 8.40566E+01
 -1      1577 8.40566E+01
 -1      1578 8.40419E+01
 -1      1579 8.40090E+01
 -1      1580 8.39559E+01
 -1      1581 8.38790E+01
 -1      1582 8.37732E+01
 -1      1583 8.36310E+01
 -1      1584 8.34413E+01
 -1      1585 8.31881E+01
 -1      1586 8.28484E+01
 -1      1587 8.24032E+01
 -1      1588 8.17927E+01
 -1      1589 8.09370E+01
 -1      1590 7.97039E+01
 -1      1591 7.78627E+01
 -1      1592 7.49864E+01
 -1      1593 7.01918E+01
 -1      1594 6.15840E+01
 -1      1595 4.49248E+01
 -1      1596 1.58098E+01
 -1      1597 8.41227E+01
 -1      1598 8.41227E+01
 -1      1599 8.41088E+01
 -1      1600 8.40770E+01
 -1      1601 8.40254E+01
 -1      1602 8.39504E+01
 -1      1603 8.38470E+01
 -1      1604 8.37076E+01
 -1      1605 8.35214E+01
 -1      1606 8.32726E+01
 -1      1607 8.29377E+01
 -1      1608 8.24891E+01
 -1      1609 8.18849E+01
 -1      1610 8.10375E+01
 -1      1611 7.98160E+01
 -1      1612 7.79920E+01
 -1      1613 7.51433E+01
 -1      1614 7.03967E+01
 -1      1615 6.18811E+01
 -1      1616 4.54251E+01
 -1      1617 1.66870E+01
 -1      1618 8.42041E+01
 -1      1619 8.42041E+01
 -1      1620 8.41913E+01
 -1      1621 8.41613E+01
 -1      1622 8.41119E+01
 -1      1623 8.40399E+01
 -1      1624 8.39402E+01
 -1      1625 8.38055E+01
 -1      1626 8.36252E+01
 -1      1627 8.33836E+01
 -1      1628 8.30578E+01
 -1      1629 8.26127E+01
 -1      1630 8.20131E+01
 -1      1631 8.11815E+01
 -1      1632 7.99822E+01
 -1      1633 7.81918E+01
 -1      1634 7.53987E+01
 -1      1635 7.07518E+01
 -1      1636 6.24353E+01
 -1      1637 4.63215E+01
 -1      1638 1.81984E+01
 -1      1639 8.43061E+01
 -1      1640 8.43061E+01
 -1      1641 8.42950E+01
 -1      1642 8.42673E+01
 -1      1643 8.42210E+01
 -1      1644 8.41530E+01
 -1      1645 8.40584E+01
 -1      1646 8.39303E+01
 -1      1647 8.37585E+01
 -1      1648 8.35279E+01
 -1      1649 8.32163E+01
 -1      1650 8.27898E+01
 -1      1651 8.21960E+01
 -1      1652 8.13880E+01
 -1      1653 8.02290E+01
 -1      1654 7.84991E+01
 -1      1655 7.58067E+01
 -1      1656 7.13428E+01
 -1      1657 6.33939E+01
 -1      1658 4.79869E+01
 -1      1659 2.05438E+01
 -1      1660 8.44353E+01
 -1      1661 8.44353E+01
 -1      1662 8.44264E+01
 -1      1663 8.44016E+01
 -1      1664 8.43592E+01
 -1      1665 8.42962E+01
 -1      1666 8.42080E+01
 -1      1667 8.40884E+01
 -1      1668 8.39278E+01
 -1      1669 8.37123E+01
 -1      1670 8.34211E+01
 -1      1671 8.30228E+01
 -1      1672 8.24680E+01
 -1      1673 8.16812E+01
 -1      1674 8.05951E+01
 -1      1675 7.89744E+01
 -1      1676 7.64560E+01
 -1      1677 7.22910E+01
 -1      1678 6.48955E+01
 -1      1679 5.03939E+01
 -1      1680 2.39964E+01
 -1      1681 8.45988E+01
 -1      1682 8.45988E+01
 -1      1683 8.45928E+01
 -1      1684 8.45718E+01
 -1      1685 8.45341E+01
 -1      1686 8.44770E+01
 -1      1687 8.43966E+01
 -1      1688 8.42871E+01
 -1      1689 8.41401E+01
 -1      1690 8.39435E+01
 -1      1691 8.36793E+01
 -1      1692 8.33202E+01
 -1      1693 8.28240E+01
 -1      1694 8.21225E+01
 -1      1695 8.11274E+01
 -1      1696 7.97106E+01
 -1      1697 7.75168E+01
 -1      1698 7.38852E+01
 -1      1699 6.73978E+01
 -1      1700 5.43922E+01
 -1      1701 2.81993E+01
 -1      1702 8.48163E+01
 -1      1703 8.48163E+01
 -1      1704 8.48141E+01
 -1      1705 8.47982E+01
 -1      1706 8.47669E+01
 -1      1707 8.47180E+01
 -1      1708 8.46480E+01
 -1      1709 8.45520E+01
 -1      1710 8.44229E+01
 -1      1711 8.42509E+01
 -1      1712 8.40219E+01
 -1      1713 8.37155E+01
 -1      1714 8.33014E+01
 -1      1715 8.27328E+01
 -1      1716 8.20143E+01
 -1      1717 8.11749E+01
 -1      1718 7.98061E+01
 -1      1719 7.71572E+01
 -1      1720 7.18313E+01
 -1      1721 6.05831E+01
 -1      1722 3.80642E+01
 -1      1723 8.48163E+01
 -1      1724 8.48163E+01
 -1      1725 8.48141E+01
 -1      1726 8.47982E+01
 -1      1727 8.47669E+01
 -1      1728 8.47180E+01
 -1      1729 8.46480E+01
 -1      1730 8.45520E+01
 -1      1731 8.44229E+01
 -1      1732 8.42509E+01
 -1      1733 8.40219E+01
 -1      1734 8.37155E+01
 -1      1735 8.33014E+01
 -1      1736 8.27328E+01
 -1      1737 8.20143E+01
 -1      1738 8.11749E+01
 -1      1739 7.98061E+01
 -1      1740 7.71572E+01
 -1      1741 7.38458E+01
 -1      1742 6.88245E+01
 -1      1743 6.15217E+01
 -1      1744 8.43860E+01
 -1      1745 8.43860E+01
 -1      1746 8.43801E+01
 -1      1747 8.43537E+01
 -1      1748 8.43050E+01
 -1      1749 8.42309E+01
 -1      1750 8.41271E+01
 -1      1751 8.39873E+01
 -1      1752 8.38031E+01
 -1      1753 8.35627E+01
 -1      1754 8.32507E+01
 -1      1755 8.28462E+01
 -1      1756 8.23216E+01
 -1      1757 8.16407E+01
 -1      1758 8.07562E+01
 -1      1759 7.96271E+01
 -1      1760 7.83080E+01
 -1      1761 7.65350E+01
 -1      1762 7.38458E+01
 -1      1763 6.88245E+01
 -1      1764 6.15217E+01
 -3
 9999
