    1C
    1UUSER                                                              
    1UDATE              31.march.2022                                   
    1UTIME              02:31:39                                        
    1UHOST                                                              
    1UPGM               CalculiX                                        
    1UVERSION           Version 2.19                             
    1UCOMPILETIME       Wed Mar 30 06:04:19 EDT 2022                    
    1UDIR                                                               
    1UDBN                                                               
    1UMAT    1STEEL                                                     
    2C                         12899                                     1
 -1         1 0.00000E+00 0.00000E+00 0.00000E+00
 -1         2 1.95000E+01 0.00000E+00 0.00000E+00
 -1         3 3.00000E+01 0.00000E+00 0.00000E+00
 -1         4 3.20000E+01 2.00000E+00 0.00000E+00
 -1         5 5.00000E+01 2.00000E+00 0.00000E+00
 -1         6 5.00000E+01 2.40000E+01 0.00000E+00
 -1         7 0.00000E+00 2.40000E+01 0.00000E+00
 -1         9 4.50000E+01 1.10000E+01 0.00000E+00
 -1        10 4.00000E+01 1.60000E+01 0.00000E+00
 -1        11 3.50000E+01 1.10000E+01 0.00000E+00
 -1        12 4.00000E+01 6.00000E+00 0.00000E+00
 -1        13 0.00000E+00 0.00000E+00 1.00000E+01
 -1        14 1.95000E+01 0.00000E+00 1.00000E+01
 -1        15 3.00000E+01 0.00000E+00 1.00000E+01
 -1        16 3.20000E+01 2.00000E+00 1.00000E+01
 -1        17 5.00000E+01 2.00000E+00 1.00000E+01
 -1        18 5.00000E+01 2.40000E+01 1.00000E+01
 -1        19 0.00000E+00 2.40000E+01 1.00000E+01
 -1        20 4.50000E+01 1.10000E+01 1.00000E+01
 -1        22 4.00000E+01 6.00000E+00 1.00000E+01
 -1        23 3.50000E+01 1.10000E+01 1.00000E+01
 -1        24 4.00000E+01 1.60000E+01 1.00000E+01
 -1        25 4.31597E+00 0.00000E+00 0.00000E+00
 -1        26 7.69578E+00 0.00000E+00 0.00000E+00
 -1        27 1.03425E+01 0.00000E+00 0.00000E+00
 -1        28 1.24151E+01 0.00000E+00 0.00000E+00
 -1        29 1.40382E+01 0.00000E+00 0.00000E+00
 -1        30 1.53092E+01 0.00000E+00 0.00000E+00
 -1        31 1.63045E+01 0.00000E+00 0.00000E+00
 -1        32 1.70840E+01 0.00000E+00 0.00000E+00
 -1        33 1.76943E+01 0.00000E+00 0.00000E+00
 -1        34 1.81723E+01 0.00000E+00 0.00000E+00
 -1        35 1.85466E+01 0.00000E+00 0.00000E+00
 -1        36 1.88397E+01 0.00000E+00 0.00000E+00
 -1        37 1.90693E+01 0.00000E+00 0.00000E+00
 -1        38 1.92490E+01 0.00000E+00 0.00000E+00
 -1        39 1.93898E+01 0.00000E+00 0.00000E+00
 -1        40 2.15798E+00 0.00000E+00 0.00000E+00
 -1        41 6.00588E+00 0.00000E+00 0.00000E+00
 -1        42 9.01914E+00 0.00000E+00 0.00000E+00
 -1        43 1.13788E+01 0.00000E+00 0.00000E+00
 -1        44 1.32267E+01 0.00000E+00 0.00000E+00
 -1        45 1.46737E+01 0.00000E+00 0.00000E+00
 -1        46 1.58069E+01 0.00000E+00 0.00000E+00
 -1        47 1.66942E+01 0.00000E+00 0.00000E+00
 -1        48 1.73891E+01 0.00000E+00 0.00000E+00
 -1        49 1.79333E+01 0.00000E+00 0.00000E+00
 -1        50 1.83595E+01 0.00000E+00 0.00000E+00
 -1        51 1.86932E+01 0.00000E+00 0.00000E+00
 -1        52 1.89545E+01 0.00000E+00 0.00000E+00
 -1        53 1.91591E+01 0.00000E+00 0.00000E+00
 -1        54 1.93194E+01 0.00000E+00 0.00000E+00
 -1        55 1.94449E+01 0.00000E+00 0.00000E+00
 -1        56 1.96136E+01 0.00000E+00 0.00000E+00
 -1        57 1.97713E+01 0.00000E+00 0.00000E+00
 -1        58 1.99902E+01 0.00000E+00 0.00000E+00
 -1        59 2.02941E+01 0.00000E+00 0.00000E+00
 -1        60 2.07159E+01 0.00000E+00 0.00000E+00
 -1        61 2.13014E+01 0.00000E+00 0.00000E+00
 -1        62 2.21141E+01 0.00000E+00 0.00000E+00
 -1        63 2.32423E+01 0.00000E+00 0.00000E+00
 -1        64 2.48084E+01 0.00000E+00 0.00000E+00
 -1        65 2.69823E+01 0.00000E+00 0.00000E+00
 -1        66 1.95568E+01 0.00000E+00 0.00000E+00
 -1        67 1.96925E+01 0.00000E+00 0.00000E+00
 -1        68 1.98808E+01 0.00000E+00 0.00000E+00
 -1        69 2.01421E+01 0.00000E+00 0.00000E+00
 -1        70 2.05050E+01 0.00000E+00 0.00000E+00
 -1        71 2.10086E+01 0.00000E+00 0.00000E+00
 -1        72 2.17078E+01 0.00000E+00 0.00000E+00
 -1        73 2.26782E+01 0.00000E+00 0.00000E+00
 -1        74 2.40254E+01 0.00000E+00 0.00000E+00
 -1        75 2.58954E+01 0.00000E+00 0.00000E+00
 -1        76 2.84912E+01 0.00000E+00 0.00000E+00
 -1        77 3.10000E+01 1.00000E+00 0.00000E+00
 -1        78 3.65000E+01 2.00000E+00 0.00000E+00
 -1        79 4.10000E+01 2.00000E+00 0.00000E+00
 -1        80 4.55000E+01 2.00000E+00 0.00000E+00
 -1        81 3.42500E+01 2.00000E+00 0.00000E+00
 -1        82 3.87500E+01 2.00000E+00 0.00000E+00
 -1        83 4.32500E+01 2.00000E+00 0.00000E+00
 -1        84 4.77500E+01 2.00000E+00 0.00000E+00
 -1        85 5.00000E+01 7.50000E+00 0.00000E+00
 -1        86 5.00000E+01 1.30000E+01 0.00000E+00
 -1        87 5.00000E+01 1.85000E+01 0.00000E+00
 -1        88 5.00000E+01 4.75000E+00 0.00000E+00
 -1        89 5.00000E+01 1.02500E+01 0.00000E+00
 -1        90 5.00000E+01 1.57500E+01 0.00000E+00
 -1        91 5.00000E+01 2.12500E+01 0.00000E+00
 -1        92 4.44444E+01 2.40000E+01 0.00000E+00
 -1        93 3.88889E+01 2.40000E+01 0.00000E+00
 -1        94 3.33333E+01 2.40000E+01 0.00000E+00
 -1        95 2.77778E+01 2.40000E+01 0.00000E+00
 -1        96 2.22222E+01 2.40000E+01 0.00000E+00
 -1        97 1.66667E+01 2.40000E+01 0.00000E+00
 -1        98 1.11111E+01 2.40000E+01 0.00000E+00
 -1        99 5.55556E+00 2.40000E+01 0.00000E+00
 -1       100 4.72222E+01 2.40000E+01 0.00000E+00
 -1       101 4.16667E+01 2.40000E+01 0.00000E+00
 -1       102 3.61111E+01 2.40000E+01 0.00000E+00
 -1       103 3.05556E+01 2.40000E+01 0.00000E+00
 -1       104 2.50000E+01 2.40000E+01 0.00000E+00
 -1       105 1.94444E+01 2.40000E+01 0.00000E+00
 -1       106 1.38889E+01 2.40000E+01 0.00000E+00
 -1       107 8.33333E+00 2.40000E+01 0.00000E+00
 -1       108 2.77778E+00 2.40000E+01 0.00000E+00
 -1       109 0.00000E+00 1.85240E+01 0.00000E+00
 -1       110 0.00000E+00 1.13294E+01 0.00000E+00
 -1       111 0.00000E+00 4.85832E+00 0.00000E+00
 -1       112 0.00000E+00 2.12620E+01 0.00000E+00
 -1       113 0.00000E+00 1.49267E+01 0.00000E+00
 -1       114 0.00000E+00 8.09388E+00 0.00000E+00
 -1       115 0.00000E+00 2.42916E+00 0.00000E+00
 -1       116 4.35355E+01 1.45355E+01 0.00000E+00
 -1       117 4.46194E+01 1.29134E+01 0.00000E+00
 -1       118 4.19134E+01 1.56194E+01 0.00000E+00
 -1       119 3.64645E+01 1.45355E+01 0.00000E+00
 -1       120 3.80866E+01 1.56194E+01 0.00000E+00
 -1       121 3.53806E+01 1.29134E+01 0.00000E+00
 -1       122 3.64645E+01 7.46447E+00 0.00000E+00
 -1       123 3.53806E+01 9.08658E+00 0.00000E+00
 -1       124 3.80866E+01 6.38060E+00 0.00000E+00
 -1       125 4.35355E+01 7.46447E+00 0.00000E+00
 -1       126 4.19134E+01 6.38060E+00 0.00000E+00
 -1       127 4.46194E+01 9.08658E+00 0.00000E+00
 -1       128 4.31597E+00 0.00000E+00 1.00000E+01
 -1       129 7.69578E+00 0.00000E+00 1.00000E+01
 -1       130 1.03425E+01 0.00000E+00 1.00000E+01
 -1       131 1.24151E+01 0.00000E+00 1.00000E+01
 -1       132 1.40382E+01 0.00000E+00 1.00000E+01
 -1       133 1.53092E+01 0.00000E+00 1.00000E+01
 -1       134 1.63045E+01 0.00000E+00 1.00000E+01
 -1       135 1.70840E+01 0.00000E+00 1.00000E+01
 -1       136 1.76943E+01 0.00000E+00 1.00000E+01
 -1       137 1.81723E+01 0.00000E+00 1.00000E+01
 -1       138 1.85466E+01 0.00000E+00 1.00000E+01
 -1       139 1.88397E+01 0.00000E+00 1.00000E+01
 -1       140 1.90693E+01 0.00000E+00 1.00000E+01
 -1       141 1.92490E+01 0.00000E+00 1.00000E+01
 -1       142 1.93898E+01 0.00000E+00 1.00000E+01
 -1       143 2.15798E+00 0.00000E+00 1.00000E+01
 -1       144 6.00588E+00 0.00000E+00 1.00000E+01
 -1       145 9.01914E+00 0.00000E+00 1.00000E+01
 -1       146 1.13788E+01 0.00000E+00 1.00000E+01
 -1       147 1.32267E+01 0.00000E+00 1.00000E+01
 -1       148 1.46737E+01 0.00000E+00 1.00000E+01
 -1       149 1.58069E+01 0.00000E+00 1.00000E+01
 -1       150 1.66942E+01 0.00000E+00 1.00000E+01
 -1       151 1.73891E+01 0.00000E+00 1.00000E+01
 -1       152 1.79333E+01 0.00000E+00 1.00000E+01
 -1       153 1.83595E+01 0.00000E+00 1.00000E+01
 -1       154 1.86932E+01 0.00000E+00 1.00000E+01
 -1       155 1.89545E+01 0.00000E+00 1.00000E+01
 -1       156 1.91591E+01 0.00000E+00 1.00000E+01
 -1       157 1.93194E+01 0.00000E+00 1.00000E+01
 -1       158 1.94449E+01 0.00000E+00 1.00000E+01
 -1       159 1.96136E+01 0.00000E+00 1.00000E+01
 -1       160 1.97713E+01 0.00000E+00 1.00000E+01
 -1       161 1.99902E+01 0.00000E+00 1.00000E+01
 -1       162 2.02941E+01 0.00000E+00 1.00000E+01
 -1       163 2.07159E+01 0.00000E+00 1.00000E+01
 -1       164 2.13014E+01 0.00000E+00 1.00000E+01
 -1       165 2.21141E+01 0.00000E+00 1.00000E+01
 -1       166 2.32423E+01 0.00000E+00 1.00000E+01
 -1       167 2.48084E+01 0.00000E+00 1.00000E+01
 -1       168 2.69823E+01 0.00000E+00 1.00000E+01
 -1       169 1.95568E+01 0.00000E+00 1.00000E+01
 -1       170 1.96925E+01 0.00000E+00 1.00000E+01
 -1       171 1.98808E+01 0.00000E+00 1.00000E+01
 -1       172 2.01421E+01 0.00000E+00 1.00000E+01
 -1       173 2.05050E+01 0.00000E+00 1.00000E+01
 -1       174 2.10086E+01 0.00000E+00 1.00000E+01
 -1       175 2.17078E+01 0.00000E+00 1.00000E+01
 -1       176 2.26782E+01 0.00000E+00 1.00000E+01
 -1       177 2.40254E+01 0.00000E+00 1.00000E+01
 -1       178 2.58954E+01 0.00000E+00 1.00000E+01
 -1       179 2.84912E+01 0.00000E+00 1.00000E+01
 -1       180 3.10000E+01 1.00000E+00 1.00000E+01
 -1       181 3.65000E+01 2.00000E+00 1.00000E+01
 -1       182 4.10000E+01 2.00000E+00 1.00000E+01
 -1       183 4.55000E+01 2.00000E+00 1.00000E+01
 -1       184 3.42500E+01 2.00000E+00 1.00000E+01
 -1       185 3.87500E+01 2.00000E+00 1.00000E+01
 -1       186 4.32500E+01 2.00000E+00 1.00000E+01
 -1       187 4.77500E+01 2.00000E+00 1.00000E+01
 -1       188 5.00000E+01 7.50000E+00 1.00000E+01
 -1       189 5.00000E+01 1.30000E+01 1.00000E+01
 -1       190 5.00000E+01 1.85000E+01 1.00000E+01
 -1       191 5.00000E+01 4.75000E+00 1.00000E+01
 -1       192 5.00000E+01 1.02500E+01 1.00000E+01
 -1       193 5.00000E+01 1.57500E+01 1.00000E+01
 -1       194 5.00000E+01 2.12500E+01 1.00000E+01
 -1       195 4.44444E+01 2.40000E+01 1.00000E+01
 -1       196 3.88889E+01 2.40000E+01 1.00000E+01
 -1       197 3.33333E+01 2.40000E+01 1.00000E+01
 -1       198 2.77778E+01 2.40000E+01 1.00000E+01
 -1       199 2.22222E+01 2.40000E+01 1.00000E+01
 -1       200 1.66667E+01 2.40000E+01 1.00000E+01
 -1       201 1.11111E+01 2.40000E+01 1.00000E+01
 -1       202 5.55556E+00 2.40000E+01 1.00000E+01
 -1       203 4.72222E+01 2.40000E+01 1.00000E+01
 -1       204 4.16667E+01 2.40000E+01 1.00000E+01
 -1       205 3.61111E+01 2.40000E+01 1.00000E+01
 -1       206 3.05556E+01 2.40000E+01 1.00000E+01
 -1       207 2.50000E+01 2.40000E+01 1.00000E+01
 -1       208 1.94444E+01 2.40000E+01 1.00000E+01
 -1       209 1.38889E+01 2.40000E+01 1.00000E+01
 -1       210 8.33333E+00 2.40000E+01 1.00000E+01
 -1       211 2.77778E+00 2.40000E+01 1.00000E+01
 -1       212 0.00000E+00 1.85240E+01 1.00000E+01
 -1       213 0.00000E+00 1.13294E+01 1.00000E+01
 -1       214 0.00000E+00 4.85832E+00 1.00000E+01
 -1       215 0.00000E+00 2.12620E+01 1.00000E+01
 -1       216 0.00000E+00 1.49267E+01 1.00000E+01
 -1       217 0.00000E+00 8.09388E+00 1.00000E+01
 -1       218 0.00000E+00 2.42916E+00 1.00000E+01
 -1       219 4.35355E+01 7.46447E+00 1.00000E+01
 -1       220 4.46194E+01 9.08658E+00 1.00000E+01
 -1       221 4.19134E+01 6.38060E+00 1.00000E+01
 -1       222 3.64645E+01 7.46447E+00 1.00000E+01
 -1       223 3.80866E+01 6.38060E+00 1.00000E+01
 -1       224 3.53806E+01 9.08658E+00 1.00000E+01
 -1       225 3.64645E+01 1.45355E+01 1.00000E+01
 -1       226 3.53806E+01 1.29134E+01 1.00000E+01
 -1       227 3.80866E+01 1.56194E+01 1.00000E+01
 -1       228 4.35355E+01 1.45355E+01 1.00000E+01
 -1       229 4.19134E+01 1.56194E+01 1.00000E+01
 -1       230 4.46194E+01 1.29134E+01 1.00000E+01
 -1       231 0.00000E+00 0.00000E+00 5.00000E+00
 -1       232 0.00000E+00 0.00000E+00 2.50000E+00
 -1       233 0.00000E+00 0.00000E+00 7.50000E+00
 -1       234 1.95000E+01 0.00000E+00 1.00000E-01
 -1       235 1.95000E+01 0.00000E+00 2.00000E-01
 -1       236 1.95000E+01 0.00000E+00 3.00000E-01
 -1       237 1.95000E+01 0.00000E+00 4.00000E-01
 -1       238 1.95000E+01 0.00000E+00 5.00000E-01
 -1       239 1.95000E+01 0.00000E+00 6.00000E-01
 -1       240 1.95000E+01 0.00000E+00 7.00000E-01
 -1       241 1.95000E+01 0.00000E+00 8.00000E-01
 -1       242 1.95000E+01 0.00000E+00 9.00000E-01
 -1       243 1.95000E+01 0.00000E+00 1.00000E+00
 -1       244 1.95000E+01 0.00000E+00 1.10000E+00
 -1       245 1.95000E+01 0.00000E+00 1.20000E+00
 -1       246 1.95000E+01 0.00000E+00 1.30000E+00
 -1       247 1.95000E+01 0.00000E+00 1.40000E+00
 -1       248 1.95000E+01 0.00000E+00 1.50000E+00
 -1       249 1.95000E+01 0.00000E+00 1.60000E+00
 -1       250 1.95000E+01 0.00000E+00 1.70000E+00
 -1       251 1.95000E+01 0.00000E+00 1.80000E+00
 -1       252 1.95000E+01 0.00000E+00 1.90000E+00
 -1       253 1.95000E+01 0.00000E+00 2.00000E+00
 -1       254 1.95000E+01 0.00000E+00 2.10000E+00
 -1       255 1.95000E+01 0.00000E+00 2.20000E+00
 -1       256 1.95000E+01 0.00000E+00 2.30000E+00
 -1       257 1.95000E+01 0.00000E+00 2.40000E+00
 -1       258 1.95000E+01 0.00000E+00 2.50000E+00
 -1       259 1.95000E+01 0.00000E+00 2.60000E+00
 -1       260 1.95000E+01 0.00000E+00 2.70000E+00
 -1       261 1.95000E+01 0.00000E+00 2.80000E+00
 -1       262 1.95000E+01 0.00000E+00 2.90000E+00
 -1       263 1.95000E+01 0.00000E+00 3.00000E+00
 -1       264 1.95000E+01 0.00000E+00 3.10000E+00
 -1       265 1.95000E+01 0.00000E+00 3.20000E+00
 -1       266 1.95000E+01 0.00000E+00 3.30000E+00
 -1       267 1.95000E+01 0.00000E+00 3.40000E+00
 -1       268 1.95000E+01 0.00000E+00 3.50000E+00
 -1       269 1.95000E+01 0.00000E+00 3.60000E+00
 -1       270 1.95000E+01 0.00000E+00 3.70000E+00
 -1       271 1.95000E+01 0.00000E+00 3.80000E+00
 -1       272 1.95000E+01 0.00000E+00 3.90000E+00
 -1       273 1.95000E+01 0.00000E+00 4.00000E+00
 -1       274 1.95000E+01 0.00000E+00 4.10000E+00
 -1       275 1.95000E+01 0.00000E+00 4.20000E+00
 -1       276 1.95000E+01 0.00000E+00 4.30000E+00
 -1       277 1.95000E+01 0.00000E+00 4.40000E+00
 -1       278 1.95000E+01 0.00000E+00 4.50000E+00
 -1       279 1.95000E+01 0.00000E+00 4.60000E+00
 -1       280 1.95000E+01 0.00000E+00 4.70000E+00
 -1       281 1.95000E+01 0.00000E+00 4.80000E+00
 -1       282 1.95000E+01 0.00000E+00 4.90000E+00
 -1       283 1.95000E+01 0.00000E+00 5.00000E+00
 -1       284 1.95000E+01 0.00000E+00 5.10000E+00
 -1       285 1.95000E+01 0.00000E+00 5.20000E+00
 -1       286 1.95000E+01 0.00000E+00 5.30000E+00
 -1       287 1.95000E+01 0.00000E+00 5.40000E+00
 -1       288 1.95000E+01 0.00000E+00 5.50000E+00
 -1       289 1.95000E+01 0.00000E+00 5.60000E+00
 -1       290 1.95000E+01 0.00000E+00 5.70000E+00
 -1       291 1.95000E+01 0.00000E+00 5.80000E+00
 -1       292 1.95000E+01 0.00000E+00 5.90000E+00
 -1       293 1.95000E+01 0.00000E+00 6.00000E+00
 -1       294 1.95000E+01 0.00000E+00 6.10000E+00
 -1       295 1.95000E+01 0.00000E+00 6.20000E+00
 -1       296 1.95000E+01 0.00000E+00 6.30000E+00
 -1       297 1.95000E+01 0.00000E+00 6.40000E+00
 -1       298 1.95000E+01 0.00000E+00 6.50000E+00
 -1       299 1.95000E+01 0.00000E+00 6.60000E+00
 -1       300 1.95000E+01 0.00000E+00 6.70000E+00
 -1       301 1.95000E+01 0.00000E+00 6.80000E+00
 -1       302 1.95000E+01 0.00000E+00 6.90000E+00
 -1       303 1.95000E+01 0.00000E+00 7.00000E+00
 -1       304 1.95000E+01 0.00000E+00 7.10000E+00
 -1       305 1.95000E+01 0.00000E+00 7.20000E+00
 -1       306 1.95000E+01 0.00000E+00 7.30000E+00
 -1       307 1.95000E+01 0.00000E+00 7.40000E+00
 -1       308 1.95000E+01 0.00000E+00 7.50000E+00
 -1       309 1.95000E+01 0.00000E+00 7.60000E+00
 -1       310 1.95000E+01 0.00000E+00 7.70000E+00
 -1       311 1.95000E+01 0.00000E+00 7.80000E+00
 -1       312 1.95000E+01 0.00000E+00 7.90000E+00
 -1       313 1.95000E+01 0.00000E+00 8.00000E+00
 -1       314 1.95000E+01 0.00000E+00 8.10000E+00
 -1       315 1.95000E+01 0.00000E+00 8.20000E+00
 -1       316 1.95000E+01 0.00000E+00 8.30000E+00
 -1       317 1.95000E+01 0.00000E+00 8.40000E+00
 -1       318 1.95000E+01 0.00000E+00 8.50000E+00
 -1       319 1.95000E+01 0.00000E+00 8.60000E+00
 -1       320 1.95000E+01 0.00000E+00 8.70000E+00
 -1       321 1.95000E+01 0.00000E+00 8.80000E+00
 -1       322 1.95000E+01 0.00000E+00 8.90000E+00
 -1       323 1.95000E+01 0.00000E+00 9.00000E+00
 -1       324 1.95000E+01 0.00000E+00 9.10000E+00
 -1       325 1.95000E+01 0.00000E+00 9.20000E+00
 -1       326 1.95000E+01 0.00000E+00 9.30000E+00
 -1       327 1.95000E+01 0.00000E+00 9.40000E+00
 -1       328 1.95000E+01 0.00000E+00 9.50000E+00
 -1       329 1.95000E+01 0.00000E+00 9.60000E+00
 -1       330 1.95000E+01 0.00000E+00 9.70000E+00
 -1       331 1.95000E+01 0.00000E+00 9.80000E+00
 -1       332 1.95000E+01 0.00000E+00 9.90000E+00
 -1       333 1.95000E+01 0.00000E+00 5.00000E-02
 -1       334 1.95000E+01 0.00000E+00 1.50000E-01
 -1       335 1.95000E+01 0.00000E+00 2.50000E-01
 -1       336 1.95000E+01 0.00000E+00 3.50000E-01
 -1       337 1.95000E+01 0.00000E+00 4.50000E-01
 -1       338 1.95000E+01 0.00000E+00 5.50000E-01
 -1       339 1.95000E+01 0.00000E+00 6.50000E-01
 -1       340 1.95000E+01 0.00000E+00 7.50000E-01
 -1       341 1.95000E+01 0.00000E+00 8.50000E-01
 -1       342 1.95000E+01 0.00000E+00 9.50000E-01
 -1       343 1.95000E+01 0.00000E+00 1.05000E+00
 -1       344 1.95000E+01 0.00000E+00 1.15000E+00
 -1       345 1.95000E+01 0.00000E+00 1.25000E+00
 -1       346 1.95000E+01 0.00000E+00 1.35000E+00
 -1       347 1.95000E+01 0.00000E+00 1.45000E+00
 -1       348 1.95000E+01 0.00000E+00 1.55000E+00
 -1       349 1.95000E+01 0.00000E+00 1.65000E+00
 -1       350 1.95000E+01 0.00000E+00 1.75000E+00
 -1       351 1.95000E+01 0.00000E+00 1.85000E+00
 -1       352 1.95000E+01 0.00000E+00 1.95000E+00
 -1       353 1.95000E+01 0.00000E+00 2.05000E+00
 -1       354 1.95000E+01 0.00000E+00 2.15000E+00
 -1       355 1.95000E+01 0.00000E+00 2.25000E+00
 -1       356 1.95000E+01 0.00000E+00 2.35000E+00
 -1       357 1.95000E+01 0.00000E+00 2.45000E+00
 -1       358 1.95000E+01 0.00000E+00 2.55000E+00
 -1       359 1.95000E+01 0.00000E+00 2.65000E+00
 -1       360 1.95000E+01 0.00000E+00 2.75000E+00
 -1       361 1.95000E+01 0.00000E+00 2.85000E+00
 -1       362 1.95000E+01 0.00000E+00 2.95000E+00
 -1       363 1.95000E+01 0.00000E+00 3.05000E+00
 -1       364 1.95000E+01 0.00000E+00 3.15000E+00
 -1       365 1.95000E+01 0.00000E+00 3.25000E+00
 -1       366 1.95000E+01 0.00000E+00 3.35000E+00
 -1       367 1.95000E+01 0.00000E+00 3.45000E+00
 -1       368 1.95000E+01 0.00000E+00 3.55000E+00
 -1       369 1.95000E+01 0.00000E+00 3.65000E+00
 -1       370 1.95000E+01 0.00000E+00 3.75000E+00
 -1       371 1.95000E+01 0.00000E+00 3.85000E+00
 -1       372 1.95000E+01 0.00000E+00 3.95000E+00
 -1       373 1.95000E+01 0.00000E+00 4.05000E+00
 -1       374 1.95000E+01 0.00000E+00 4.15000E+00
 -1       375 1.95000E+01 0.00000E+00 4.25000E+00
 -1       376 1.95000E+01 0.00000E+00 4.35000E+00
 -1       377 1.95000E+01 0.00000E+00 4.45000E+00
 -1       378 1.95000E+01 0.00000E+00 4.55000E+00
 -1       379 1.95000E+01 0.00000E+00 4.65000E+00
 -1       380 1.95000E+01 0.00000E+00 4.75000E+00
 -1       381 1.95000E+01 0.00000E+00 4.85000E+00
 -1       382 1.95000E+01 0.00000E+00 4.95000E+00
 -1       383 1.95000E+01 0.00000E+00 5.05000E+00
 -1       384 1.95000E+01 0.00000E+00 5.15000E+00
 -1       385 1.95000E+01 0.00000E+00 5.25000E+00
 -1       386 1.95000E+01 0.00000E+00 5.35000E+00
 -1       387 1.95000E+01 0.00000E+00 5.45000E+00
 -1       388 1.95000E+01 0.00000E+00 5.55000E+00
 -1       389 1.95000E+01 0.00000E+00 5.65000E+00
 -1       390 1.95000E+01 0.00000E+00 5.75000E+00
 -1       391 1.95000E+01 0.00000E+00 5.85000E+00
 -1       392 1.95000E+01 0.00000E+00 5.95000E+00
 -1       393 1.95000E+01 0.00000E+00 6.05000E+00
 -1       394 1.95000E+01 0.00000E+00 6.15000E+00
 -1       395 1.95000E+01 0.00000E+00 6.25000E+00
 -1       396 1.95000E+01 0.00000E+00 6.35000E+00
 -1       397 1.95000E+01 0.00000E+00 6.45000E+00
 -1       398 1.95000E+01 0.00000E+00 6.55000E+00
 -1       399 1.95000E+01 0.00000E+00 6.65000E+00
 -1       400 1.95000E+01 0.00000E+00 6.75000E+00
 -1       401 1.95000E+01 0.00000E+00 6.85000E+00
 -1       402 1.95000E+01 0.00000E+00 6.95000E+00
 -1       403 1.95000E+01 0.00000E+00 7.05000E+00
 -1       404 1.95000E+01 0.00000E+00 7.15000E+00
 -1       405 1.95000E+01 0.00000E+00 7.25000E+00
 -1       406 1.95000E+01 0.00000E+00 7.35000E+00
 -1       407 1.95000E+01 0.00000E+00 7.45000E+00
 -1       408 1.95000E+01 0.00000E+00 7.55000E+00
 -1       409 1.95000E+01 0.00000E+00 7.65000E+00
 -1       410 1.95000E+01 0.00000E+00 7.75000E+00
 -1       411 1.95000E+01 0.00000E+00 7.85000E+00
 -1       412 1.95000E+01 0.00000E+00 7.95000E+00
 -1       413 1.95000E+01 0.00000E+00 8.05000E+00
 -1       414 1.95000E+01 0.00000E+00 8.15000E+00
 -1       415 1.95000E+01 0.00000E+00 8.25000E+00
 -1       416 1.95000E+01 0.00000E+00 8.35000E+00
 -1       417 1.95000E+01 0.00000E+00 8.45000E+00
 -1       418 1.95000E+01 0.00000E+00 8.55000E+00
 -1       419 1.95000E+01 0.00000E+00 8.65000E+00
 -1       420 1.95000E+01 0.00000E+00 8.75000E+00
 -1       421 1.95000E+01 0.00000E+00 8.85000E+00
 -1       422 1.95000E+01 0.00000E+00 8.95000E+00
 -1       423 1.95000E+01 0.00000E+00 9.05000E+00
 -1       424 1.95000E+01 0.00000E+00 9.15000E+00
 -1       425 1.95000E+01 0.00000E+00 9.25000E+00
 -1       426 1.95000E+01 0.00000E+00 9.35000E+00
 -1       427 1.95000E+01 0.00000E+00 9.45000E+00
 -1       428 1.95000E+01 0.00000E+00 9.55000E+00
 -1       429 1.95000E+01 0.00000E+00 9.65000E+00
 -1       430 1.95000E+01 0.00000E+00 9.75000E+00
 -1       431 1.95000E+01 0.00000E+00 9.85000E+00
 -1       432 1.95000E+01 0.00000E+00 9.95000E+00
 -1       433 3.00000E+01 0.00000E+00 5.00000E+00
 -1       434 3.00000E+01 0.00000E+00 2.50000E+00
 -1       435 3.00000E+01 0.00000E+00 7.50000E+00
 -1       436 3.20000E+01 2.00000E+00 5.00000E+00
 -1       437 3.20000E+01 2.00000E+00 2.50000E+00
 -1       438 3.20000E+01 2.00000E+00 7.50000E+00
 -1       439 5.00000E+01 2.00000E+00 5.00000E+00
 -1       440 5.00000E+01 2.00000E+00 2.50000E+00
 -1       441 5.00000E+01 2.00000E+00 7.50000E+00
 -1       442 5.00000E+01 2.40000E+01 5.00000E+00
 -1       443 5.00000E+01 2.40000E+01 2.50000E+00
 -1       444 5.00000E+01 2.40000E+01 7.50000E+00
 -1       445 0.00000E+00 2.40000E+01 5.00000E+00
 -1       446 0.00000E+00 2.40000E+01 2.50000E+00
 -1       447 0.00000E+00 2.40000E+01 7.50000E+00
 -1       448 4.50000E+01 1.10000E+01 5.00000E+00
 -1       449 4.50000E+01 1.10000E+01 2.50000E+00
 -1       450 4.50000E+01 1.10000E+01 7.50000E+00
 -1       451 4.00000E+01 6.00000E+00 5.00000E+00
 -1       452 4.00000E+01 6.00000E+00 2.50000E+00
 -1       453 4.00000E+01 6.00000E+00 7.50000E+00
 -1       454 3.50000E+01 1.10000E+01 5.00000E+00
 -1       455 3.50000E+01 1.10000E+01 2.50000E+00
 -1       456 3.50000E+01 1.10000E+01 7.50000E+00
 -1       457 4.00000E+01 1.60000E+01 5.00000E+00
 -1       458 4.00000E+01 1.60000E+01 2.50000E+00
 -1       459 4.00000E+01 1.60000E+01 7.50000E+00
 -1       460 1.89545E+01 1.77225E-01 0.00000E+00
 -1       461 1.73964E+01 4.77292E-01 0.00000E+00
 -1       462 1.45773E+01 1.12444E+00 0.00000E+00
 -1       463 2.16765E+01 5.95512E-01 0.00000E+00
 -1       464 2.01141E+01 2.14713E-01 0.00000E+00
 -1       465 1.94379E+01 1.00939E-01 0.00000E+00
 -1       466 2.58954E+01 1.61947E+00 0.00000E+00
 -1       467 1.13788E+01 1.60028E+00 0.00000E+00
 -1       468 1.83595E+01 2.89000E-01 0.00000E+00
 -1       469 1.94131E+01 1.88897E+01 0.00000E+00
 -1       470 1.96710E+01 1.14518E-01 0.00000E+00
 -1       471 1.95918E+01 3.29145E-01 0.00000E+00
 -1       472 3.28569E+01 1.47957E+01 0.00000E+00
 -1       473 3.11184E+01 1.09423E+01 0.00000E+00
 -1       474 2.88049E+01 1.35641E+01 0.00000E+00
 -1       475 2.73320E+01 1.02879E+01 0.00000E+00
 -1       476 4.22126E+00 8.34430E+00 0.00000E+00
 -1       477 8.63891E+00 1.84317E+01 0.00000E+00
 -1       478 2.52478E+01 1.31260E+01 0.00000E+00
 -1       479 2.40397E+01 9.89756E+00 0.00000E+00
 -1       480 2.58309E+01 7.51548E+00 0.00000E+00
 -1       481 2.29729E+01 7.22879E+00 0.00000E+00
 -1       482 2.13541E+01 9.43911E+00 0.00000E+00
 -1       483 2.04715E+01 6.64850E+00 0.00000E+00
 -1       484 1.87927E+01 8.80029E+00 0.00000E+00
 -1       485 1.79420E+01 6.12630E+00 0.00000E+00
 -1       486 1.60796E+01 8.51853E+00 0.00000E+00
 -1       487 1.95652E+01 4.83298E+00 0.00000E+00
 -1       488 1.50298E+01 5.89036E+00 0.00000E+00
 -1       489 1.30484E+01 8.27533E+00 0.00000E+00
 -1       490 1.42230E+01 1.13793E+01 0.00000E+00
 -1       491 1.93633E+01 1.18053E+01 0.00000E+00
 -1       492 2.44388E+01 5.27254E+00 0.00000E+00
 -1       493 2.69842E+01 5.26830E+00 0.00000E+00
 -1       494 1.07513E+01 1.09556E+01 0.00000E+00
 -1       495 2.64543E+01 1.65844E+01 0.00000E+00
 -1       496 2.39113E+01 1.11659E+00 0.00000E+00
 -1       497 2.22690E+01 5.10481E+00 0.00000E+00
 -1       498 1.19097E+01 5.51515E+00 0.00000E+00
 -1       499 6.05718E+00 2.50480E+00 0.00000E+00
 -1       500 2.78980E+01 1.69507E+00 0.00000E+00
 -1       501 2.34339E+01 3.42657E+00 0.00000E+00
 -1       502 2.15227E+01 3.16490E+00 0.00000E+00
 -1       503 2.26113E+01 1.96899E+00 0.00000E+00
 -1       504 1.68049E+01 4.09522E+00 0.00000E+00
 -1       505 1.86663E+01 2.67277E+00 0.00000E+00
 -1       506 1.49360E+01 3.53693E+00 0.00000E+00
 -1       507 2.10086E+01 4.36178E-01 0.00000E+00
 -1       508 2.12252E+01 1.16160E+00 0.00000E+00
 -1       509 2.05262E+01 9.56956E-01 0.00000E+00
 -1       510 2.06571E+01 1.60043E+00 0.00000E+00
 -1       511 1.98579E+01 1.53903E+00 0.00000E+00
 -1       512 2.02968E+01 2.51165E+00 0.00000E+00
 -1       513 3.62076E+01 1.89833E+01 0.00000E+00
 -1       514 1.64920E+01 2.57649E+00 0.00000E+00
 -1       515 2.94361E+01 7.49765E+00 0.00000E+00
 -1       516 2.95673E+01 4.82936E+00 0.00000E+00
 -1       517 3.22913E+01 6.19594E+00 0.00000E+00
 -1       518 1.20731E+01 1.47295E+01 0.00000E+00
 -1       519 1.57699E+01 8.91914E-01 0.00000E+00
 -1       520 4.31386E+01 1.84370E+01 0.00000E+00
 -1       521 1.92187E+01 3.50287E-01 0.00000E+00
 -1       522 1.93865E+01 6.15523E-01 0.00000E+00
 -1       523 1.89910E+01 6.98160E-01 0.00000E+00
 -1       524 2.25804E+01 8.32014E-01 0.00000E+00
 -1       525 4.93811E+00 1.40718E+01 0.00000E+00
 -1       526 1.66170E+01 1.43777E+01 0.00000E+00
 -1       527 1.92527E+01 1.09032E+00 0.00000E+00
 -1       528 1.85641E+01 1.05196E+00 0.00000E+00
 -1       529 1.89698E+01 1.76459E+00 0.00000E+00
 -1       530 1.81826E+01 1.77100E+00 0.00000E+00
 -1       531 1.40866E+01 1.90714E+01 0.00000E+00
 -1       532 3.20691E+01 1.89126E+01 0.00000E+00
 -1       533 9.01914E+00 1.99267E+00 0.00000E+00
 -1       534 8.01754E+00 5.29471E+00 0.00000E+00
 -1       535 1.79333E+01 3.59863E-01 0.00000E+00
 -1       536 1.77853E+01 9.46867E-01 0.00000E+00
 -1       537 1.71615E+01 1.08073E+00 0.00000E+00
 -1       538 1.31906E+01 1.41754E+00 0.00000E+00
 -1       539 1.86928E+01 2.26126E-01 0.00000E+00
 -1       540 1.98831E+01 6.11863E-01 0.00000E+00
 -1       541 1.85934E+01 5.53059E-01 0.00000E+00
 -1       542 2.53921E+01 3.57149E+00 0.00000E+00
 -1       543 2.29591E+01 1.58888E+01 0.00000E+00
 -1       544 2.04237E+01 3.69952E-01 0.00000E+00
 -1       545 1.28228E+01 3.28461E+00 0.00000E+00
 -1       546 1.98369E+01 2.11706E-01 0.00000E+00
 -1       547 2.43008E+01 1.99388E+01 0.00000E+00
 -1       548 2.14855E+01 1.94876E+00 0.00000E+00
 -1       549 2.03159E+01 3.76802E+00 0.00000E+00
 -1       550 1.66929E+01 6.78790E-01 0.00000E+00
 -1       551 2.22768E+01 1.24026E+01 0.00000E+00
 -1       552 3.42500E+01 4.08572E+00 0.00000E+00
 -1       553 1.82341E+01 6.44650E-01 0.00000E+00
 -1       554 1.53079E+01 2.04318E+00 0.00000E+00
 -1       555 1.02576E+01 7.99819E+00 0.00000E+00
 -1       556 2.90293E+00 2.62043E+00 0.00000E+00
 -1       557 1.06296E+01 3.53748E+00 0.00000E+00
 -1       558 4.65560E+01 1.68631E+01 0.00000E+00
 -1       559 1.91591E+01 1.38784E-01 0.00000E+00
 -1       560 2.07719E+01 5.02836E+00 0.00000E+00
 -1       561 1.76706E+01 2.83319E+00 0.00000E+00
 -1       562 2.01259E+01 1.46728E+01 0.00000E+00
 -1       563 4.08017E+00 1.99407E+01 0.00000E+00
 -1       564 2.83708E+01 2.01025E+01 0.00000E+00
 -1       565 3.33333E+01 8.76287E+00 0.00000E+00
 -1       566 2.19270E+01 1.31099E+00 0.00000E+00
 -1       567 1.88698E+01 4.24197E-01 0.00000E+00
 -1       568 2.71357E+01 3.41167E+00 0.00000E+00
 -1       569 2.97422E+01 2.67880E+00 0.00000E+00
 -1       570 4.31721E+01 4.53331E+00 0.00000E+00
 -1       571 4.64668E+01 5.29447E+00 0.00000E+00
 -1       572 4.65932E+01 8.26902E+00 0.00000E+00
 -1       573 1.70151E+01 1.09762E+01 0.00000E+00
 -1       574 2.44645E+01 2.43038E+00 0.00000E+00
 -1       575 4.66039E+01 2.04264E+01 0.00000E+00
 -1       576 4.00000E+01 2.04609E+01 0.00000E+00
 -1       577 4.62729E+01 1.38497E+01 0.00000E+00
 -1       578 1.64711E+01 1.51633E+00 0.00000E+00
 -1       579 1.93954E+01 2.41563E+00 0.00000E+00
 -1       580 1.73743E+01 1.81662E+00 0.00000E+00
 -1       581 7.80874E+00 1.00841E+01 0.00000E+00
 -1       582 2.97818E+01 1.66506E+01 0.00000E+00
 -1       583 1.41669E+01 2.28134E+00 0.00000E+00
 -1       584 8.73056E+00 1.37724E+01 0.00000E+00
 -1       585 1.94070E+01 3.43768E+00 0.00000E+00
 -1       586 1.83427E+01 3.99969E+00 0.00000E+00
 -1       587 3.18521E+01 4.13670E+00 0.00000E+00
 -1       588 3.74063E+01 4.73824E+00 0.00000E+00
 -1       589 4.39825E+00 4.94403E+00 0.00000E+00
 -1       590 1.36746E+01 4.55676E+00 0.00000E+00
 -1       591 3.60945E+00 1.31021E+00 0.00000E+00
 -1       592 1.45147E+00 1.31021E+00 0.00000E+00
 -1       593 1.45147E+00 3.73937E+00 0.00000E+00
 -1       594 1.94689E+01 5.04695E-02 0.00000E+00
 -1       595 1.94138E+01 5.04695E-02 0.00000E+00
 -1       596 1.95257E+01 5.04695E-02 0.00000E+00
 -1       597 3.08711E+01 2.33940E+00 0.00000E+00
 -1       598 2.98711E+01 1.33940E+00 0.00000E+00
 -1       599 2.89490E+01 8.47533E-01 0.00000E+00
 -1       600 2.74402E+01 8.47533E-01 0.00000E+00
 -1       601 2.88201E+01 2.18693E+00 0.00000E+00
 -1       602 3.53750E+01 3.04286E+00 0.00000E+00
 -1       603 3.31250E+01 3.04286E+00 0.00000E+00
 -1       604 3.30510E+01 4.11121E+00 0.00000E+00
 -1       605 3.19260E+01 3.06835E+00 0.00000E+00
 -1       606 3.07971E+01 3.40775E+00 0.00000E+00
 -1       607 4.82334E+01 3.64723E+00 0.00000E+00
 -1       608 4.59834E+01 3.64723E+00 0.00000E+00
 -1       609 4.82334E+01 6.39723E+00 0.00000E+00
 -1       610 4.83020E+01 2.22132E+01 0.00000E+00
 -1       611 4.83020E+01 1.94632E+01 0.00000E+00
 -1       612 4.55242E+01 2.22132E+01 0.00000E+00
 -1       613 2.04009E+00 2.19703E+01 0.00000E+00
 -1       614 4.81786E+00 2.19703E+01 0.00000E+00
 -1       615 2.04009E+00 1.92324E+01 0.00000E+00
 -1       616 4.75000E+01 1.20000E+01 0.00000E+00
 -1       617 4.57966E+01 9.63451E+00 0.00000E+00
 -1       618 4.82966E+01 1.06345E+01 0.00000E+00
 -1       619 4.81364E+01 1.34248E+01 0.00000E+00
 -1       620 4.56364E+01 1.24248E+01 0.00000E+00
 -1       621 4.49042E+01 1.41926E+01 0.00000E+00
 -1       622 4.50644E+01 7.86674E+00 0.00000E+00
 -1       623 4.33371E+01 1.64863E+01 0.00000E+00
 -1       624 4.15693E+01 1.72185E+01 0.00000E+00
 -1       625 3.81038E+01 1.74916E+01 0.00000E+00
 -1       626 3.63360E+01 1.67594E+01 0.00000E+00
 -1       627 4.00000E+01 1.82304E+01 0.00000E+00
 -1       628 3.81038E+01 1.97221E+01 0.00000E+00
 -1       629 4.15693E+01 1.94489E+01 0.00000E+00
 -1       630 3.46607E+01 1.46656E+01 0.00000E+00
 -1       631 3.39285E+01 1.28978E+01 0.00000E+00
 -1       632 3.41667E+01 9.88143E+00 0.00000E+00
 -1       633 3.48989E+01 8.11367E+00 0.00000E+00
 -1       634 3.19876E+01 1.28690E+01 0.00000E+00
 -1       635 3.30592E+01 1.09712E+01 0.00000E+00
 -1       636 3.22259E+01 9.85260E+00 0.00000E+00
 -1       637 4.05000E+01 4.00000E+00 0.00000E+00
 -1       638 4.20860E+01 3.26666E+00 0.00000E+00
 -1       639 4.15860E+01 5.26666E+00 0.00000E+00
 -1       640 3.87031E+01 5.36912E+00 0.00000E+00
 -1       641 3.92031E+01 3.36912E+00 0.00000E+00
 -1       642 3.69354E+01 6.10135E+00 0.00000E+00
 -1       643 4.33538E+01 5.99889E+00 0.00000E+00
 -1       644 6.87648E+00 1.25240E+00 0.00000E+00
 -1       645 5.18657E+00 1.25240E+00 0.00000E+00
 -1       646 4.48006E+00 2.56262E+00 0.00000E+00
 -1       647 9.68082E+00 9.96337E-01 0.00000E+00
 -1       648 8.35746E+00 9.96337E-01 0.00000E+00
 -1       649 7.53816E+00 2.24874E+00 0.00000E+00
 -1       650 1.18970E+01 8.00141E-01 0.00000E+00
 -1       651 1.08607E+01 8.00141E-01 0.00000E+00
 -1       652 1.01990E+01 1.79648E+00 0.00000E+00
 -1       653 1.36144E+01 7.08771E-01 0.00000E+00
 -1       654 1.28028E+01 7.08771E-01 0.00000E+00
 -1       655 1.22847E+01 1.50891E+00 0.00000E+00
 -1       656 1.49433E+01 5.62219E-01 0.00000E+00
 -1       657 1.43078E+01 5.62219E-01 0.00000E+00
 -1       658 1.38839E+01 1.27099E+00 0.00000E+00
 -1       659 1.60372E+01 4.45957E-01 0.00000E+00
 -1       660 1.55395E+01 4.45957E-01 0.00000E+00
 -1       661 1.51736E+01 1.00818E+00 0.00000E+00
 -1       662 1.68884E+01 3.39395E-01 0.00000E+00
 -1       663 1.64987E+01 3.39395E-01 0.00000E+00
 -1       664 1.62314E+01 7.85352E-01 0.00000E+00
 -1       665 1.75454E+01 2.38646E-01 0.00000E+00
 -1       666 1.72402E+01 2.38646E-01 0.00000E+00
 -1       667 1.70447E+01 5.78041E-01 0.00000E+00
 -1       668 1.80528E+01 1.79931E-01 0.00000E+00
 -1       669 1.78138E+01 1.79931E-01 0.00000E+00
 -1       670 1.76649E+01 4.18577E-01 0.00000E+00
 -1       671 1.84530E+01 1.44500E-01 0.00000E+00
 -1       672 1.82659E+01 1.44500E-01 0.00000E+00
 -1       673 1.81464E+01 3.24431E-01 0.00000E+00
 -1       674 1.87663E+01 1.13063E-01 0.00000E+00
 -1       675 1.86197E+01 1.13063E-01 0.00000E+00
 -1       676 1.85261E+01 2.57563E-01 0.00000E+00
 -1       677 1.90119E+01 8.86127E-02 0.00000E+00
 -1       678 1.88971E+01 8.86127E-02 0.00000E+00
 -1       679 1.88236E+01 2.01676E-01 0.00000E+00
 -1       680 1.92041E+01 6.93921E-02 0.00000E+00
 -1       681 1.91142E+01 6.93921E-02 0.00000E+00
 -1       682 1.90568E+01 1.58005E-01 0.00000E+00
 -1       683 1.93434E+01 5.04695E-02 0.00000E+00
 -1       684 1.92985E+01 1.19862E-01 0.00000E+00
 -1       685 1.97212E+01 5.72588E-02 0.00000E+00
 -1       686 1.96423E+01 5.72588E-02 0.00000E+00
 -1       687 1.95544E+01 1.07728E-01 0.00000E+00
 -1       688 1.99136E+01 1.05853E-01 0.00000E+00
 -1       689 1.98041E+01 1.05853E-01 0.00000E+00
 -1       690 1.97540E+01 1.63112E-01 0.00000E+00
 -1       691 2.02041E+01 1.07356E-01 0.00000E+00
 -1       692 2.00521E+01 1.07356E-01 0.00000E+00
 -1       693 1.99755E+01 2.13210E-01 0.00000E+00
 -1       694 2.05698E+01 1.84976E-01 0.00000E+00
 -1       695 2.03589E+01 1.84976E-01 0.00000E+00
 -1       696 2.02689E+01 2.92332E-01 0.00000E+00
 -1       697 2.11550E+01 2.18089E-01 0.00000E+00
 -1       698 2.08622E+01 2.18089E-01 0.00000E+00
 -1       699 2.07161E+01 4.03065E-01 0.00000E+00
 -1       700 2.18953E+01 2.97756E-01 0.00000E+00
 -1       701 2.14890E+01 2.97756E-01 0.00000E+00
 -1       702 2.13426E+01 5.15845E-01 0.00000E+00
 -1       703 2.29114E+01 4.16007E-01 0.00000E+00
 -1       704 2.23473E+01 4.16007E-01 0.00000E+00
 -1       705 2.21285E+01 7.13763E-01 0.00000E+00
 -1       706 2.43598E+01 5.58297E-01 0.00000E+00
 -1       707 2.35768E+01 5.58297E-01 0.00000E+00
 -1       708 2.32458E+01 9.74305E-01 0.00000E+00
 -1       709 2.64389E+01 8.09734E-01 0.00000E+00
 -1       710 2.53519E+01 8.09734E-01 0.00000E+00
 -1       711 2.49033E+01 1.36803E+00 0.00000E+00
 -1       712 2.68967E+01 1.65727E+00 0.00000E+00
 -1       713 3.69531E+01 3.36912E+00 0.00000E+00
 -1       714 3.58281E+01 4.41198E+00 0.00000E+00
 -1       715 4.43360E+01 3.26666E+00 0.00000E+00
 -1       716 4.48194E+01 4.91389E+00 0.00000E+00
 -1       717 4.82966E+01 7.88451E+00 0.00000E+00
 -1       718 4.65300E+01 6.78174E+00 0.00000E+00
 -1       719 4.82780E+01 1.76816E+01 0.00000E+00
 -1       720 4.82780E+01 1.49316E+01 0.00000E+00
 -1       721 4.64144E+01 1.53564E+01 0.00000E+00
 -1       722 4.65800E+01 1.86448E+01 0.00000E+00
 -1       723 3.94444E+01 2.22304E+01 0.00000E+00
 -1       724 4.22222E+01 2.22304E+01 0.00000E+00
 -1       725 4.37915E+01 2.12185E+01 0.00000E+00
 -1       726 4.48713E+01 1.94317E+01 0.00000E+00
 -1       727 3.47704E+01 2.14916E+01 0.00000E+00
 -1       728 3.75482E+01 2.14916E+01 0.00000E+00
 -1       729 2.80743E+01 2.20513E+01 0.00000E+00
 -1       730 3.08521E+01 2.20513E+01 0.00000E+00
 -1       731 3.27012E+01 2.14563E+01 0.00000E+00
 -1       732 3.41383E+01 1.89479E+01 0.00000E+00
 -1       733 3.02199E+01 1.95076E+01 0.00000E+00
 -1       734 2.32615E+01 2.19694E+01 0.00000E+00
 -1       735 2.60393E+01 2.19694E+01 0.00000E+00
 -1       736 2.63358E+01 2.00207E+01 0.00000E+00
 -1       737 1.80399E+01 2.14449E+01 0.00000E+00
 -1       738 2.08176E+01 2.14449E+01 0.00000E+00
 -1       739 2.18569E+01 1.94143E+01 0.00000E+00
 -1       740 1.25989E+01 2.15357E+01 0.00000E+00
 -1       741 1.53767E+01 2.15357E+01 0.00000E+00
 -1       742 1.67498E+01 1.89806E+01 0.00000E+00
 -1       743 7.09723E+00 2.12159E+01 0.00000E+00
 -1       744 9.87501E+00 2.12159E+01 0.00000E+00
 -1       745 1.13628E+01 1.87516E+01 0.00000E+00
 -1       746 6.35954E+00 1.91862E+01 0.00000E+00
 -1       747 2.46906E+00 1.27006E+01 0.00000E+00
 -1       748 2.46906E+00 1.62979E+01 0.00000E+00
 -1       749 4.50914E+00 1.70062E+01 0.00000E+00
 -1       750 2.11063E+00 6.60131E+00 0.00000E+00
 -1       751 2.11063E+00 9.83686E+00 0.00000E+00
 -1       752 4.57969E+00 1.12080E+01 0.00000E+00
 -1       753 2.19913E+00 4.90118E+00 0.00000E+00
 -1       754 4.30976E+00 6.64416E+00 0.00000E+00
 -1       755 3.65059E+00 3.78223E+00 0.00000E+00
 -1       756 4.50458E+01 1.56993E+01 0.00000E+00
 -1       757 4.48473E+01 1.76500E+01 0.00000E+00
 -1       758 3.45322E+01 1.68895E+01 0.00000E+00
 -1       759 3.43779E+01 6.83020E+00 0.00000E+00
 -1       760 3.32706E+01 5.14083E+00 0.00000E+00
 -1       761 3.53572E+01 5.77509E+00 0.00000E+00
 -1       762 3.28123E+01 7.47940E+00 0.00000E+00
 -1       763 4.50012E+01 6.37947E+00 0.00000E+00
 -1       764 1.90866E+01 2.63756E-01 0.00000E+00
 -1       765 1.91889E+01 2.44536E-01 0.00000E+00
 -1       766 1.90443E+01 3.87242E-01 0.00000E+00
 -1       767 1.89121E+01 3.00711E-01 0.00000E+00
 -1       768 1.87813E+01 3.25162E-01 0.00000E+00
 -1       769 1.78593E+01 6.53365E-01 0.00000E+00
 -1       770 1.75909E+01 7.12079E-01 0.00000E+00
 -1       771 1.74734E+01 1.01380E+00 0.00000E+00
 -1       772 1.72790E+01 7.79012E-01 0.00000E+00
 -1       773 1.69272E+01 8.79762E-01 0.00000E+00
 -1       774 1.55389E+01 1.46755E+00 0.00000E+00
 -1       775 1.49426E+01 1.58381E+00 0.00000E+00
 -1       776 1.43721E+01 1.70289E+00 0.00000E+00
 -1       777 1.36787E+01 1.84944E+00 0.00000E+00
 -1       778 1.47374E+01 2.16226E+00 0.00000E+00
 -1       779 2.14509E+01 8.78555E-01 0.00000E+00
 -1       780 2.11169E+01 7.98887E-01 0.00000E+00
 -1       781 2.18017E+01 9.53250E-01 0.00000E+00
 -1       782 2.15761E+01 1.23629E+00 0.00000E+00
 -1       783 2.22537E+01 1.07150E+00 0.00000E+00
 -1       784 1.99986E+01 4.13288E-01 0.00000E+00
 -1       785 2.01534E+01 4.90907E-01 0.00000E+00
 -1       786 1.98600E+01 4.11785E-01 0.00000E+00
 -1       787 1.96314E+01 2.21831E-01 0.00000E+00
 -1       788 1.95148E+01 2.15042E-01 0.00000E+00
 -1       789 1.94053E+01 3.39716E-01 0.00000E+00
 -1       790 1.93283E+01 2.25613E-01 0.00000E+00
 -1       791 2.51799E+01 2.02492E+00 0.00000E+00
 -1       792 2.41879E+01 1.77349E+00 0.00000E+00
 -1       793 2.75168E+01 2.55337E+00 0.00000E+00
 -1       794 2.65156E+01 2.51557E+00 0.00000E+00
 -1       795 2.56437E+01 2.59548E+00 0.00000E+00
 -1       796 2.62639E+01 3.49158E+00 0.00000E+00
 -1       797 2.49283E+01 3.00093E+00 0.00000E+00
 -1       798 1.10042E+01 2.56888E+00 0.00000E+00
 -1       799 9.82436E+00 2.76508E+00 0.00000E+00
 -1       800 1.30067E+01 2.35108E+00 0.00000E+00
 -1       801 1.21008E+01 2.44245E+00 0.00000E+00
 -1       802 1.17262E+01 3.41105E+00 0.00000E+00
 -1       803 1.82968E+01 4.66825E-01 0.00000E+00
 -1       804 1.80837E+01 5.02256E-01 0.00000E+00
 -1       805 1.86431E+01 3.89593E-01 0.00000E+00
 -1       806 1.84765E+01 4.21029E-01 0.00000E+00
 -1       807 1.84138E+01 5.98855E-01 0.00000E+00
 -1       808 1.80150E+01 1.66337E+01 0.00000E+00
 -1       809 1.53518E+01 1.67246E+01 0.00000E+00
 -1       810 1.83714E+01 1.45253E+01 0.00000E+00
 -1       811 1.97695E+01 1.67813E+01 0.00000E+00
 -1       812 2.11861E+01 1.73893E+01 0.00000E+00
 -1       813 2.36299E+01 1.79138E+01 0.00000E+00
 -1       814 2.15425E+01 1.52808E+01 0.00000E+00
 -1       815 1.97144E+01 2.70426E-01 0.00000E+00
 -1       816 1.94891E+01 4.72334E-01 0.00000E+00
 -1       817 1.93026E+01 4.82905E-01 0.00000E+00
 -1       818 1.97375E+01 4.70504E-01 0.00000E+00
 -1       819 1.96348E+01 6.13693E-01 0.00000E+00
 -1       820 3.08309E+01 1.41799E+01 0.00000E+00
 -1       821 2.99616E+01 1.22532E+01 0.00000E+00
 -1       822 3.13193E+01 1.57231E+01 0.00000E+00
 -1       823 2.92933E+01 1.51073E+01 0.00000E+00
 -1       824 3.24630E+01 1.68541E+01 0.00000E+00
 -1       825 3.09254E+01 1.77816E+01 0.00000E+00
 -1       826 2.80685E+01 1.19260E+01 0.00000E+00
 -1       827 2.92252E+01 1.06151E+01 0.00000E+00
 -1       828 2.83841E+01 8.89280E+00 0.00000E+00
 -1       829 3.02772E+01 9.22000E+00 0.00000E+00
 -1       830 3.13847E+01 8.13026E+00 0.00000E+00
 -1       831 2.70263E+01 1.33450E+01 0.00000E+00
 -1       832 2.62899E+01 1.17070E+01 0.00000E+00
 -1       833 2.76296E+01 1.50742E+01 0.00000E+00
 -1       834 2.58510E+01 1.48552E+01 0.00000E+00
 -1       835 2.81180E+01 1.66175E+01 0.00000E+00
 -1       836 2.46438E+01 1.15118E+01 0.00000E+00
 -1       837 2.56859E+01 1.00928E+01 0.00000E+00
 -1       838 2.49353E+01 8.70652E+00 0.00000E+00
 -1       839 2.65815E+01 8.90171E+00 0.00000E+00
 -1       840 2.76335E+01 7.50657E+00 0.00000E+00
 -1       841 6.01500E+00 9.21420E+00 0.00000E+00
 -1       842 6.37343E+00 1.20779E+01 0.00000E+00
 -1       843 6.11940E+00 6.81950E+00 0.00000E+00
 -1       844 7.91314E+00 7.68941E+00 0.00000E+00
 -1       845 6.20790E+00 5.11937E+00 0.00000E+00
 -1       846 1.03560E+01 1.65806E+01 0.00000E+00
 -1       847 1.30799E+01 1.69004E+01 0.00000E+00
 -1       848 8.68473E+00 1.61021E+01 0.00000E+00
 -1       849 1.04018E+01 1.42509E+01 0.00000E+00
 -1       850 6.78851E+00 1.62518E+01 0.00000E+00
 -1       851 6.83434E+00 1.39221E+01 0.00000E+00
 -1       852 2.37623E+01 1.27643E+01 0.00000E+00
 -1       853 2.31583E+01 1.11501E+01 0.00000E+00
 -1       854 2.47067E+01 1.62366E+01 0.00000E+00
 -1       855 2.41035E+01 1.45074E+01 0.00000E+00
 -1       856 2.26180E+01 1.41457E+01 0.00000E+00
 -1       857 2.35063E+01 8.56317E+00 0.00000E+00
 -1       858 2.44019E+01 7.37213E+00 0.00000E+00
 -1       859 2.26969E+01 9.66834E+00 0.00000E+00
 -1       860 2.21635E+01 8.33395E+00 0.00000E+00
 -1       861 2.18155E+01 1.09209E+01 0.00000E+00
 -1       862 2.37059E+01 6.25066E+00 0.00000E+00
 -1       863 2.51349E+01 6.39401E+00 0.00000E+00
 -1       864 2.57115E+01 5.27042E+00 0.00000E+00
 -1       865 2.64076E+01 6.39189E+00 0.00000E+00
 -1       866 2.82101E+01 6.38298E+00 0.00000E+00
 -1       867 2.09128E+01 8.04381E+00 0.00000E+00
 -1       868 2.17222E+01 6.93864E+00 0.00000E+00
 -1       869 2.13702E+01 5.87666E+00 0.00000E+00
 -1       870 2.26209E+01 6.16680E+00 0.00000E+00
 -1       871 2.33539E+01 5.18868E+00 0.00000E+00
 -1       872 2.00734E+01 9.11970E+00 0.00000E+00
 -1       873 1.96321E+01 7.72439E+00 0.00000E+00
 -1       874 2.03587E+01 1.06222E+01 0.00000E+00
 -1       875 1.90780E+01 1.03028E+01 0.00000E+00
 -1       876 2.08200E+01 1.21039E+01 0.00000E+00
 -1       877 1.83674E+01 7.46330E+00 0.00000E+00
 -1       878 1.92067E+01 6.38740E+00 0.00000E+00
 -1       879 1.87536E+01 5.47964E+00 0.00000E+00
 -1       880 2.00184E+01 5.74074E+00 0.00000E+00
 -1       881 2.01686E+01 4.93067E+00 0.00000E+00
 -1       882 2.06217E+01 5.83843E+00 0.00000E+00
 -1       883 2.15204E+01 5.06659E+00 0.00000E+00
 -1       884 1.74362E+01 8.65941E+00 0.00000E+00
 -1       885 1.70108E+01 7.32242E+00 0.00000E+00
 -1       886 1.79039E+01 9.88825E+00 0.00000E+00
 -1       887 1.65474E+01 9.74737E+00 0.00000E+00
 -1       888 1.81892E+01 1.13907E+01 0.00000E+00
 -1       889 1.55547E+01 7.20444E+00 0.00000E+00
 -1       890 1.64859E+01 6.00833E+00 0.00000E+00
 -1       891 1.81423E+01 5.06300E+00 0.00000E+00
 -1       892 1.89540E+01 4.41634E+00 0.00000E+00
 -1       893 1.59173E+01 4.99279E+00 0.00000E+00
 -1       894 1.73734E+01 5.11076E+00 0.00000E+00
 -1       895 1.75738E+01 4.04746E+00 0.00000E+00
 -1       896 1.45640E+01 8.39693E+00 0.00000E+00
 -1       897 1.40391E+01 7.08284E+00 0.00000E+00
 -1       898 1.51513E+01 9.94890E+00 0.00000E+00
 -1       899 1.36357E+01 9.82730E+00 0.00000E+00
 -1       900 1.56191E+01 1.11777E+01 0.00000E+00
 -1       901 1.99406E+01 4.30050E+00 0.00000E+00
 -1       902 2.05439E+01 4.39819E+00 0.00000E+00
 -1       903 1.94861E+01 4.13533E+00 0.00000E+00
 -1       904 1.98614E+01 3.60285E+00 0.00000E+00
 -1       905 1.88748E+01 3.71869E+00 0.00000E+00
 -1       906 1.24790E+01 6.89524E+00 0.00000E+00
 -1       907 1.34697E+01 5.70275E+00 0.00000E+00
 -1       908 1.27921E+01 5.03595E+00 0.00000E+00
 -1       909 1.43522E+01 5.22356E+00 0.00000E+00
 -1       910 1.49829E+01 4.71364E+00 0.00000E+00
 -1       911 1.58705E+01 3.81608E+00 0.00000E+00
 -1       912 1.43053E+01 4.04684E+00 0.00000E+00
 -1       913 1.24871E+01 1.11674E+01 0.00000E+00
 -1       914 1.18998E+01 9.61547E+00 0.00000E+00
 -1       915 1.05044E+01 9.47690E+00 0.00000E+00
 -1       916 1.16530E+01 8.13676E+00 0.00000E+00
 -1       917 1.10836E+01 6.75667E+00 0.00000E+00
 -1       918 1.31481E+01 1.30544E+01 0.00000E+00
 -1       919 1.14122E+01 1.28425E+01 0.00000E+00
 -1       920 1.54200E+01 1.28785E+01 0.00000E+00
 -1       921 1.43451E+01 1.45536E+01 0.00000E+00
 -1       922 1.68161E+01 1.26770E+01 0.00000E+00
 -1       923 1.79902E+01 1.30915E+01 0.00000E+00
 -1       924 1.97446E+01 1.32390E+01 0.00000E+00
 -1       925 2.12013E+01 1.35377E+01 0.00000E+00
 -1       926 2.49155E+01 4.42201E+00 0.00000E+00
 -1       927 2.61881E+01 4.41990E+00 0.00000E+00
 -1       928 2.28514E+01 4.26569E+00 0.00000E+00
 -1       929 2.39364E+01 4.34956E+00 0.00000E+00
 -1       930 2.44130E+01 3.49903E+00 0.00000E+00
 -1       931 2.82758E+01 5.04883E+00 0.00000E+00
 -1       932 2.95017E+01 6.16351E+00 0.00000E+00
 -1       933 2.70600E+01 4.33999E+00 0.00000E+00
 -1       934 2.83515E+01 4.12052E+00 0.00000E+00
 -1       935 9.74091E+00 1.23640E+01 0.00000E+00
 -1       936 9.28000E+00 1.05199E+01 0.00000E+00
 -1       937 9.03318E+00 9.04115E+00 0.00000E+00
 -1       938 8.26965E+00 1.19283E+01 0.00000E+00
 -1       939 2.53775E+01 1.82616E+01 0.00000E+00
 -1       940 2.74125E+01 1.83435E+01 0.00000E+00
 -1       941 2.90763E+01 1.83765E+01 0.00000E+00
 -1       942 2.32613E+01 1.54279E+00 0.00000E+00
 -1       943 2.25959E+01 1.40050E+00 0.00000E+00
 -1       944 2.35379E+01 2.19969E+00 0.00000E+00
 -1       945 2.18958E+01 4.13485E+00 0.00000E+00
 -1       946 2.24783E+01 3.29573E+00 0.00000E+00
 -1       947 2.11473E+01 4.09663E+00 0.00000E+00
 -1       948 9.96360E+00 5.40493E+00 0.00000E+00
 -1       949 9.13758E+00 6.64645E+00 0.00000E+00
 -1       950 9.32356E+00 4.41610E+00 0.00000E+00
 -1       951 1.12696E+01 4.52632E+00 0.00000E+00
 -1       952 1.23662E+01 4.39988E+00 0.00000E+00
 -1       953 1.32487E+01 3.92068E+00 0.00000E+00
 -1       954 8.51834E+00 3.64369E+00 0.00000E+00
 -1       955 7.03736E+00 3.89976E+00 0.00000E+00
 -1       956 5.22772E+00 3.72442E+00 0.00000E+00
 -1       957 2.84390E+01 3.04524E+00 0.00000E+00
 -1       958 2.20670E+01 2.56694E+00 0.00000E+00
 -1       959 2.30226E+01 2.69778E+00 0.00000E+00
 -1       960 2.39492E+01 2.92848E+00 0.00000E+00
 -1       961 2.15041E+01 2.55683E+00 0.00000E+00
 -1       962 2.20484E+01 1.95888E+00 0.00000E+00
 -1       963 2.09097E+01 2.83827E+00 0.00000E+00
 -1       964 2.08911E+01 2.23021E+00 0.00000E+00
 -1       965 2.09193E+01 3.46646E+00 0.00000E+00
 -1       966 2.03063E+01 3.13984E+00 0.00000E+00
 -1       967 2.22691E+01 1.63999E+00 0.00000E+00
 -1       968 2.17062E+01 1.62987E+00 0.00000E+00
 -1       969 1.57140E+01 3.05671E+00 0.00000E+00
 -1       970 1.66485E+01 3.33585E+00 0.00000E+00
 -1       971 1.70813E+01 2.70484E+00 0.00000E+00
 -1       972 1.72377E+01 3.46421E+00 0.00000E+00
 -1       973 1.80066E+01 3.41644E+00 0.00000E+00
 -1       974 1.88181E+01 2.21868E+00 0.00000E+00
 -1       975 1.84245E+01 2.22189E+00 0.00000E+00
 -1       976 1.85762E+01 1.76780E+00 0.00000E+00
 -1       977 1.91826E+01 2.09011E+00 0.00000E+00
 -1       978 1.90309E+01 2.54420E+00 0.00000E+00
 -1       979 1.81685E+01 2.75298E+00 0.00000E+00
 -1       980 1.79266E+01 2.30210E+00 0.00000E+00
 -1       981 1.85045E+01 3.33623E+00 0.00000E+00
 -1       982 1.94012E+01 2.92665E+00 0.00000E+00
 -1       983 1.90367E+01 3.05522E+00 0.00000E+00
 -1       984 1.51220E+01 2.79005E+00 0.00000E+00
 -1       985 1.59000E+01 2.30983E+00 0.00000E+00
 -1       986 1.38794E+01 3.41077E+00 0.00000E+00
 -1       987 1.34948E+01 2.78297E+00 0.00000E+00
 -1       988 1.45515E+01 2.90913E+00 0.00000E+00
 -1       989 2.08757E+01 1.05928E+00 0.00000E+00
 -1       990 2.07674E+01 6.96567E-01 0.00000E+00
 -1       991 2.04749E+01 6.63454E-01 0.00000E+00
 -1       992 2.09412E+01 1.38101E+00 0.00000E+00
 -1       993 2.05916E+01 1.27869E+00 0.00000E+00
 -1       994 2.13554E+01 1.55518E+00 0.00000E+00
 -1       995 2.10713E+01 1.77459E+00 0.00000E+00
 -1       996 2.02575E+01 1.56973E+00 0.00000E+00
 -1       997 2.01920E+01 1.24800E+00 0.00000E+00
 -1       998 1.98705E+01 1.07545E+00 0.00000E+00
 -1       999 2.02046E+01 7.84410E-01 0.00000E+00
 -1      1000 2.04769E+01 2.05604E+00 0.00000E+00
 -1      1001 2.00773E+01 2.02534E+00 0.00000E+00
 -1      1002 1.98461E+01 2.46364E+00 0.00000E+00
 -1      1003 1.96266E+01 1.97733E+00 0.00000E+00
 -1      1004 1.95553E+01 1.31468E+00 0.00000E+00
 -1      1005 1.94138E+01 1.65181E+00 0.00000E+00
 -1      1006 1.91113E+01 1.42746E+00 0.00000E+00
 -1      1007 1.95679E+01 8.51093E-01 0.00000E+00
 -1      1008 1.98519E+01 2.97467E+00 0.00000E+00
 -1      1009 1.58895E+01 1.77975E+00 0.00000E+00
 -1      1010 1.64816E+01 2.04641E+00 0.00000E+00
 -1      1011 1.69332E+01 2.19655E+00 0.00000E+00
 -1      1012 1.75225E+01 2.32491E+00 0.00000E+00
 -1      1013 1.69227E+01 1.66647E+00 0.00000E+00
 -1      1014 3.09293E+01 5.51265E+00 0.00000E+00
 -1      1015 3.08637E+01 6.84680E+00 0.00000E+00
 -1      1016 3.07097E+01 4.48303E+00 0.00000E+00
 -1      1017 3.20717E+01 5.16632E+00 0.00000E+00
 -1      1018 2.96548E+01 3.75408E+00 0.00000E+00
 -1      1019 1.65820E+01 1.09756E+00 0.00000E+00
 -1      1020 1.61205E+01 1.20412E+00 0.00000E+00
 -1      1021 1.91887E+01 6.56842E-01 0.00000E+00
 -1      1022 1.91049E+01 5.24224E-01 0.00000E+00
 -1      1023 1.89304E+01 5.61178E-01 0.00000E+00
 -1      1024 1.93196E+01 8.52923E-01 0.00000E+00
 -1      1025 1.91219E+01 8.94241E-01 0.00000E+00
 -1      1026 1.89084E+01 1.07114E+00 0.00000E+00
 -1      1027 1.87776E+01 8.75061E-01 0.00000E+00
 -1      1028 1.85788E+01 8.02511E-01 0.00000E+00
 -1      1029 1.87922E+01 6.25610E-01 0.00000E+00
 -1      1030 1.87316E+01 4.88628E-01 0.00000E+00
 -1      1031 1.87669E+01 1.40828E+00 0.00000E+00
 -1      1032 1.83734E+01 1.41148E+00 0.00000E+00
 -1      1033 1.79840E+01 1.35894E+00 0.00000E+00
 -1      1034 1.81747E+01 9.99415E-01 0.00000E+00
 -1      1035 1.80097E+01 7.95759E-01 0.00000E+00
 -1      1036 1.83991E+01 8.48306E-01 0.00000E+00
 -1      1037 1.77785E+01 1.79381E+00 0.00000E+00
 -1      1038 1.75798E+01 1.38174E+00 0.00000E+00
 -1      1039 1.72679E+01 1.44868E+00 0.00000E+00
 -1      1040 1.68163E+01 1.29853E+00 0.00000E+00
 -1      1041 1.94085E+01 0.00000E+00 5.25633E+00
 -1      1042 1.94134E+01 0.00000E+00 4.45000E+00
 -1      1043 1.94091E+01 0.00000E+00 6.05044E+00
 -1      1044 1.94113E+01 0.00000E+00 6.75033E+00
 -1      1045 1.94091E+01 0.00000E+00 3.75044E+00
 -1      1046 1.94134E+01 0.00000E+00 3.05000E+00
 -1      1047 1.94022E+01 0.00000E+00 2.45300E+00
 -1      1048 1.94165E+01 0.00000E+00 7.34981E+00
 -1      1049 1.94012E+01 0.00000E+00 1.95546E+00
 -1      1050 1.94064E+01 0.00000E+00 7.85148E+00
 -1      1051 1.94092E+01 0.00000E+00 8.35043E+00
 -1      1052 1.94014E+01 0.00000E+00 8.75601E+00
 -1      1053 1.94140E+01 0.00000E+00 1.54998E+00
 -1      1054 1.94035E+01 0.00000E+00 1.15213E+00
 -1      1055 1.94134E+01 0.00000E+00 5.65000E+00
 -1      1056 1.93962E+01 0.00000E+00 4.84430E+00
 -1      1057 1.47519E+01 0.00000E+00 9.55088E-01
 -1      1058 1.59147E+01 0.00000E+00 9.38659E+00
 -1      1059 1.94148E+01 0.00000E+00 9.25005E+00
 -1      1060 1.94134E+01 0.00000E+00 7.50000E-01
 -1      1061 1.93894E+01 0.00000E+00 7.07038E+00
 -1      1062 1.94011E+01 0.00000E+00 2.74089E+00
 -1      1063 1.94134E+01 0.00000E+00 3.35000E+00
 -1      1064 1.94134E+01 0.00000E+00 6.45000E+00
 -1      1065 1.93931E+01 0.00000E+00 4.05277E+00
 -1      1066 1.73840E+01 0.00000E+00 4.56131E-01
 -1      1067 1.79107E+01 0.00000E+00 9.64254E+00
 -1      1068 1.83547E+01 0.00000E+00 2.77521E-01
 -1      1069 1.94148E+01 0.00000E+00 9.55492E+00
 -1      1070 1.94134E+01 0.00000E+00 4.50000E-01
 -1      1071 1.31096E+01 0.00000E+00 8.73047E+00
 -1      1072 1.87010E+01 0.00000E+00 9.82105E+00
 -1      1073 1.16133E+01 0.00000E+00 1.45051E+00
 -1      1074 1.89312E+01 0.00000E+00 1.53286E-01
 -1      1075 1.94094E+01 0.00000E+00 9.50419E-01
 -1      1076 1.94146E+01 0.00000E+00 9.04384E+00
 -1      1077 1.93973E+01 0.00000E+00 1.35508E+00
 -1      1078 1.94093E+01 0.00000E+00 8.55043E+00
 -1      1079 1.94134E+01 0.00000E+00 8.15000E+00
 -1      1080 1.94093E+01 0.00000E+00 1.74957E+00
 -1      1081 1.94139E+01 0.00000E+00 2.15994E+00
 -1      1082 1.94092E+01 0.00000E+00 7.64957E+00
 -1      1083 1.94093E+01 0.00000E+00 6.25045E+00
 -1      1084 1.94052E+01 0.00000E+00 5.84390E+00
 -1      1085 1.94113E+01 0.00000E+00 5.44113E+00
 -1      1086 1.94233E+01 0.00000E+00 9.74389E+00
 -1      1087 1.93964E+01 0.00000E+00 2.61477E-01
 -1      1088 8.84507E+00 0.00000E+00 8.07241E+00
 -1      1089 1.91353E+01 0.00000E+00 9.85626E+00
 -1      1090 5.93922E+00 0.00000E+00 2.63359E+00
 -1      1091 1.93250E+01 0.00000E+00 9.65549E-02
 -1      1092 1.93156E+01 0.00000E+00 9.88660E+00
 -1      1093 1.56570E+01 0.00000E+00 8.31371E-01
 -1      1094 1.54253E+01 0.00000E+00 1.74288E+00
 -1      1095 1.42213E+01 0.00000E+00 2.03225E+00
 -1      1096 1.50899E+01 0.00000E+00 2.73518E+00
 -1      1097 1.61747E+01 0.00000E+00 2.54482E+00
 -1      1098 1.58455E+01 0.00000E+00 3.40742E+00
 -1      1099 1.66480E+01 0.00000E+00 3.23424E+00
 -1      1100 1.64577E+01 0.00000E+00 3.96267E+00
 -1      1101 1.57009E+01 0.00000E+00 4.21186E+00
 -1      1102 1.63256E+01 0.00000E+00 4.71593E+00
 -1      1103 1.70067E+01 0.00000E+00 4.47160E+00
 -1      1104 1.69067E+01 0.00000E+00 5.15991E+00
 -1      1105 1.62275E+01 0.00000E+00 5.45278E+00
 -1      1106 1.69764E+01 0.00000E+00 5.88826E+00
 -1      1107 1.75178E+01 0.00000E+00 4.95176E+00
 -1      1108 1.76353E+01 0.00000E+00 4.32256E+00
 -1      1109 1.62051E+01 0.00000E+00 6.19700E+00
 -1      1110 1.68298E+01 0.00000E+00 6.58650E+00
 -1      1111 1.74598E+01 0.00000E+00 6.36677E+00
 -1      1112 1.73599E+01 0.00000E+00 6.90701E+00
 -1      1113 1.78483E+01 0.00000E+00 6.69369E+00
 -1      1114 1.78061E+01 0.00000E+00 7.16988E+00
 -1      1115 1.79964E+01 0.00000E+00 4.68082E+00
 -1      1116 1.81052E+01 0.00000E+00 4.24841E+00
 -1      1117 1.55080E+01 0.00000E+00 5.78345E+00
 -1      1118 1.82298E+01 0.00000E+00 6.95911E+00
 -1      1119 1.81763E+01 0.00000E+00 7.38692E+00
 -1      1120 1.78028E+01 0.00000E+00 7.59927E+00
 -1      1121 1.82028E+01 0.00000E+00 7.80766E+00
 -1      1122 1.82433E+01 0.00000E+00 6.53085E+00
 -1      1123 1.78322E+01 0.00000E+00 8.02408E+00
 -1      1124 1.82069E+01 0.00000E+00 8.20553E+00
 -1      1125 1.39674E+01 0.00000E+00 3.05742E+00
 -1      1126 1.84241E+01 0.00000E+00 4.52544E+00
 -1      1127 1.83214E+01 0.00000E+00 4.89832E+00
 -1      1128 1.84995E+01 0.00000E+00 4.15228E+00
 -1      1129 1.82384E+01 0.00000E+00 3.88718E+00
 -1      1130 1.85614E+01 0.00000E+00 3.81354E+00
 -1      1131 1.83323E+01 0.00000E+00 3.56004E+00
 -1      1132 1.86821E+01 0.00000E+00 3.50844E+00
 -1      1133 1.84427E+01 0.00000E+00 3.26062E+00
 -1      1134 1.54529E+01 0.00000E+00 6.63065E+00
 -1      1135 1.46435E+01 0.00000E+00 6.10794E+00
 -1      1136 1.74330E+01 0.00000E+00 7.82338E+00
 -1      1137 1.74391E+01 0.00000E+00 8.30862E+00
 -1      1138 1.85156E+01 0.00000E+00 8.03276E+00
 -1      1139 1.85497E+01 0.00000E+00 8.37534E+00
 -1      1140 1.84819E+01 0.00000E+00 7.24276E+00
 -1      1141 1.87362E+01 0.00000E+00 3.21068E+00
 -1      1142 1.85716E+01 0.00000E+00 2.96469E+00
 -1      1143 1.82093E+01 0.00000E+00 2.98749E+00
 -1      1144 1.83432E+01 0.00000E+00 2.70460E+00
 -1      1145 1.79332E+01 0.00000E+00 3.62667E+00
 -1      1146 1.86107E+01 0.00000E+00 2.67767E+00
 -1      1147 1.84450E+01 0.00000E+00 2.42364E+00
 -1      1148 1.81332E+01 0.00000E+00 2.44304E+00
 -1      1149 1.82734E+01 0.00000E+00 2.13230E+00
 -1      1150 1.78943E+01 0.00000E+00 2.14333E+00
 -1      1151 1.86193E+01 0.00000E+00 2.13748E+00
 -1      1152 1.84354E+01 0.00000E+00 1.84490E+00
 -1      1153 1.87389E+01 0.00000E+00 1.84702E+00
 -1      1154 1.86351E+01 0.00000E+00 1.57829E+00
 -1      1155 1.82806E+01 0.00000E+00 1.57142E+00
 -1      1156 1.86572E+01 0.00000E+00 4.78024E+00
 -1      1157 1.86624E+01 0.00000E+00 5.09370E+00
 -1      1158 1.83243E+01 0.00000E+00 5.22439E+00
 -1      1159 1.85984E+01 0.00000E+00 5.40411E+00
 -1      1160 1.83137E+01 0.00000E+00 5.54580E+00
 -1      1161 1.85839E+01 0.00000E+00 5.70233E+00
 -1      1162 1.84552E+01 0.00000E+00 1.29495E+00
 -1      1163 1.87411E+01 0.00000E+00 1.29570E+00
 -1      1164 1.82447E+01 0.00000E+00 8.56369E+00
 -1      1165 1.85525E+01 0.00000E+00 8.70384E+00
 -1      1166 1.87656E+01 0.00000E+00 4.01883E+00
 -1      1167 1.87843E+01 0.00000E+00 8.17591E+00
 -1      1168 1.87844E+01 0.00000E+00 7.90952E+00
 -1      1169 1.69122E+01 0.00000E+00 8.06407E+00
 -1      1170 1.88517E+01 0.00000E+00 5.54882E+00
 -1      1171 1.88298E+01 0.00000E+00 5.82679E+00
 -1      1172 1.88910E+01 0.00000E+00 4.93984E+00
 -1      1173 1.89213E+01 0.00000E+00 4.70462E+00
 -1      1174 1.89217E+01 0.00000E+00 2.03759E+00
 -1      1175 1.86032E+01 0.00000E+00 1.04750E+00
 -1      1176 1.83007E+01 0.00000E+00 1.01696E+00
 -1      1177 1.89032E+01 0.00000E+00 1.04978E+00
 -1      1178 1.87575E+01 0.00000E+00 8.35263E-01
 -1      1179 1.89268E+01 0.00000E+00 3.39044E+00
 -1      1180 1.89825E+01 0.00000E+00 3.17202E+00
 -1      1181 1.90011E+01 0.00000E+00 1.83261E+00
 -1      1182 1.89864E+01 0.00000E+00 1.28448E+00
 -1      1183 1.89958E+01 0.00000E+00 8.32743E-01
 -1      1184 1.89925E+01 0.00000E+00 8.03717E+00
 -1      1185 1.90044E+01 0.00000E+00 7.80617E+00
 -1      1186 1.90145E+01 0.00000E+00 8.25201E+00
 -1      1187 1.77504E+01 0.00000E+00 2.51623E+00
 -1      1188 1.74580E+01 0.00000E+00 2.17098E+00
 -1      1189 1.88941E+01 0.00000E+00 6.44120E-01
 -1      1190 1.82787E+01 0.00000E+00 8.89903E+00
 -1      1191 1.85789E+01 0.00000E+00 9.01334E+00
 -1      1192 1.88132E+01 0.00000E+00 8.85774E+00
 -1      1193 1.88394E+01 0.00000E+00 9.10425E+00
 -1      1194 1.90264E+01 0.00000E+00 8.95899E+00
 -1      1195 1.90196E+01 0.00000E+00 8.74526E+00
 -1      1196 1.90729E+01 0.00000E+00 9.18857E+00
 -1      1197 1.90386E+01 0.00000E+00 5.72091E+00
 -1      1198 1.90303E+01 0.00000E+00 5.94270E+00
 -1      1199 1.88428E+01 0.00000E+00 6.06462E+00
 -1      1200 1.90529E+01 0.00000E+00 6.17600E+00
 -1      1201 1.88610E+01 0.00000E+00 6.28598E+00
 -1      1202 1.90252E+01 0.00000E+00 6.38802E+00
 -1      1203 1.88663E+01 0.00000E+00 6.50305E+00
 -1      1204 1.90648E+01 0.00000E+00 6.59953E+00
 -1      1205 1.88809E+01 0.00000E+00 6.71595E+00
 -1      1206 1.90673E+01 0.00000E+00 6.81607E+00
 -1      1207 1.90812E+01 0.00000E+00 5.51772E+00
 -1      1208 1.88100E+01 0.00000E+00 7.67469E+00
 -1      1209 1.90221E+01 0.00000E+00 7.59211E+00
 -1      1210 1.90963E+01 0.00000E+00 6.53490E-01
 -1      1211 1.88895E+01 0.00000E+00 9.32413E+00
 -1      1212 1.90590E+01 0.00000E+00 9.39985E+00
 -1      1213 1.83128E+01 0.00000E+00 5.84674E+00
 -1      1214 1.80008E+01 0.00000E+00 5.68608E+00
 -1      1215 1.91280E+01 0.00000E+00 2.04930E+00
 -1      1216 1.90398E+01 0.00000E+00 2.21945E+00
 -1      1217 1.69605E+01 0.00000E+00 8.64197E+00
 -1      1218 1.91242E+01 0.00000E+00 4.86087E+00
 -1      1219 1.94082E+01 0.00000E+00 4.64761E+00
 -1      1220 1.94134E+01 0.00000E+00 5.05000E+00
 -1      1221 1.90755E+01 0.00000E+00 5.04960E+00
 -1      1222 1.91546E+01 0.00000E+00 4.65400E+00
 -1      1223 1.89831E+01 0.00000E+00 4.50686E+00
 -1      1224 1.88908E+01 0.00000E+00 6.92697E+00
 -1      1225 1.90875E+01 0.00000E+00 7.02162E+00
 -1      1226 1.76927E+01 0.00000E+00 1.73129E+00
 -1      1227 1.70898E+01 0.00000E+00 1.76734E+00
 -1      1228 1.75747E+01 0.00000E+00 8.83191E+00
 -1      1229 1.86384E+01 0.00000E+00 6.19334E+00
 -1      1230 1.91500E+01 0.00000E+00 3.33280E+00
 -1      1231 1.94084E+01 0.00000E+00 3.54743E+00
 -1      1232 1.90863E+01 0.00000E+00 3.52551E+00
 -1      1233 1.89119E+01 0.00000E+00 7.13081E+00
 -1      1234 1.90975E+01 0.00000E+00 7.23603E+00
 -1      1235 1.88849E+01 0.00000E+00 1.50058E+00
 -1      1236 1.90997E+01 0.00000E+00 1.45965E+00
 -1      1237 1.45587E+01 0.00000E+00 7.09471E+00
 -1      1238 1.35835E+01 0.00000E+00 6.51882E+00
 -1      1239 1.39077E+01 0.00000E+00 5.27331E+00
 -1      1240 1.25395E+01 0.00000E+00 5.76744E+00
 -1      1241 1.54580E+01 0.00000E+00 7.53560E+00
 -1      1242 1.91877E+01 0.00000E+00 8.22018E-01
 -1      1243 1.91745E+01 0.00000E+00 3.13353E+00
 -1      1244 1.90575E+01 0.00000E+00 2.98826E+00
 -1      1245 1.91890E+01 0.00000E+00 7.91693E+00
 -1      1246 1.91739E+01 0.00000E+00 8.12033E+00
 -1      1247 1.91899E+01 0.00000E+00 4.46169E+00
 -1      1248 1.94117E+01 0.00000E+00 4.24980E+00
 -1      1249 1.90439E+01 0.00000E+00 4.31959E+00
 -1      1250 1.88500E+01 0.00000E+00 4.35638E+00
 -1      1251 1.92030E+01 0.00000E+00 1.84089E+00
 -1      1252 1.91074E+01 0.00000E+00 1.09266E+00
 -1      1253 1.91991E+01 0.00000E+00 1.27325E+00
 -1      1254 1.86876E+01 0.00000E+00 6.83147E+00
 -1      1255 1.64185E+01 0.00000E+00 8.36423E+00
 -1      1256 1.92004E+01 0.00000E+00 8.30690E+00
 -1      1257 1.92039E+01 0.00000E+00 8.83822E+00
 -1      1258 1.91730E+01 0.00000E+00 8.65603E+00
 -1      1259 1.26427E+01 0.00000E+00 4.43831E+00
 -1      1260 1.10332E+01 0.00000E+00 5.08497E+00
 -1      1261 1.92214E+01 0.00000E+00 6.89945E+00
 -1      1262 1.90154E+01 0.00000E+00 4.82633E-01
 -1      1263 1.88075E+01 0.00000E+00 4.52983E-01
 -1      1264 1.88334E+01 0.00000E+00 3.77547E+00
 -1      1265 1.90247E+01 0.00000E+00 3.95562E+00
 -1      1266 1.89356E+01 0.00000E+00 9.52892E+00
 -1      1267 1.91035E+01 0.00000E+00 9.57928E+00
 -1      1268 1.79146E+01 0.00000E+00 6.28313E+00
 -1      1269 1.83432E+01 0.00000E+00 9.20802E+00
 -1      1270 1.88487E+01 0.00000E+00 7.44833E+00
 -1      1271 1.91814E+01 0.00000E+00 4.94017E-01
 -1      1272 1.87343E+01 0.00000E+00 9.47281E+00
 -1      1273 1.73826E+01 0.00000E+00 1.31191E+00
 -1      1274 1.67970E+01 0.00000E+00 1.29347E+00
 -1      1275 1.86350E+01 0.00000E+00 7.50984E+00
 -1      1276 1.92028E+01 0.00000E+00 9.02724E+00
 -1      1277 1.90164E+01 0.00000E+00 8.55236E+00
 -1      1278 1.71579E+01 0.00000E+00 3.75013E+00
 -1      1279 1.88129E+01 0.00000E+00 5.30702E+00
 -1      1280 1.68602E+01 0.00000E+00 7.19774E+00
 -1      1281 1.91870E+01 0.00000E+00 5.83941E+00
 -1      1282 1.92088E+01 0.00000E+00 6.02315E+00
 -1      1283 1.92240E+01 0.00000E+00 6.19796E+00
 -1      1284 1.91953E+01 0.00000E+00 5.65509E+00
 -1      1285 1.90021E+01 0.00000E+00 9.71386E+00
 -1      1286 1.92427E+01 0.00000E+00 6.40700E+00
 -1      1287 1.92199E+01 0.00000E+00 6.71387E+00
 -1      1288 1.92260E+01 0.00000E+00 4.27341E+00
 -1      1289 1.92487E+01 0.00000E+00 2.97582E+00
 -1      1290 1.91359E+01 0.00000E+00 2.82523E+00
 -1      1291 1.89480E+01 0.00000E+00 2.83666E+00
 -1      1292 1.90402E+01 0.00000E+00 2.66801E+00
 -1      1293 1.92177E+01 0.00000E+00 2.66551E+00
 -1      1294 1.91231E+01 0.00000E+00 2.51372E+00
 -1      1295 1.89433E+01 0.00000E+00 2.50320E+00
 -1      1296 1.88796E+01 0.00000E+00 2.27681E+00
 -1      1297 1.71206E+01 0.00000E+00 9.24706E+00
 -1      1298 1.92382E+01 0.00000E+00 9.19836E+00
 -1      1299 1.92832E+01 0.00000E+00 9.38366E+00
 -1      1300 1.72623E+01 0.00000E+00 3.14530E+00
 -1      1301 1.88523E+01 0.00000E+00 8.41540E+00
 -1      1302 1.92216E+01 0.00000E+00 2.18320E+00
 -1      1303 1.87673E+01 0.00000E+00 2.02661E-01
 -1      1304 1.73719E+01 0.00000E+00 5.48331E+00
 -1      1305 1.24681E+01 0.00000E+00 7.40420E+00
 -1      1306 1.92301E+01 0.00000E+00 5.00729E+00
 -1      1307 1.92093E+01 0.00000E+00 5.17405E+00
 -1      1308 1.92232E+01 0.00000E+00 5.49393E+00
 -1      1309 1.91981E+01 0.00000E+00 7.70627E+00
 -1      1310 1.92040E+01 0.00000E+00 7.51531E+00
 -1      1311 1.92419E+01 0.00000E+00 7.11869E+00
 -1      1312 1.91416E+01 0.00000E+00 3.42435E-01
 -1      1313 1.92916E+01 0.00000E+00 6.51153E-01
 -1      1314 1.32386E+01 0.00000E+00 1.16350E+00
 -1      1315 1.92727E+01 0.00000E+00 3.48351E+00
 -1      1316 1.92142E+01 0.00000E+00 3.63715E+00
 -1      1317 1.92557E+01 0.00000E+00 7.27960E+00
 -1      1318 1.92564E+01 0.00000E+00 9.75264E+00
 -1      1319 8.59416E+00 0.00000E+00 2.75496E+00
 -1      1320 7.44017E+00 0.00000E+00 4.92955E+00
 -1      1321 6.53784E+00 0.00000E+00 7.79988E+00
 -1      1322 4.42513E+00 0.00000E+00 5.48356E+00
 -1      1323 1.43179E+01 0.00000E+00 8.66472E+00
 -1      1324 1.77869E+01 0.00000E+00 5.37985E-01
 -1      1325 1.82868E+01 0.00000E+00 9.64277E+00
 -1      1326 1.91413E+01 0.00000E+00 5.33689E+00
 -1      1327 1.92566E+01 0.00000E+00 4.77000E+00
 -1      1328 1.68381E+01 0.00000E+00 5.23822E-01
 -1      1329 1.93010E+01 0.00000E+00 3.64363E-01
 -1      1330 1.92647E+01 0.00000E+00 1.42758E+00
 -1      1331 1.92281E+01 0.00000E+00 1.58318E+00
 -1      1332 1.79979E+01 0.00000E+00 9.09769E+00
 -1      1333 1.91959E+01 0.00000E+00 1.14435E-01
 -1      1334 1.93207E+01 0.00000E+00 8.04015E+00
 -1      1335 1.68558E+01 0.00000E+00 2.27303E+00
 -1      1336 1.93278E+01 0.00000E+00 8.94334E+00
 -1      1337 1.92789E+01 0.00000E+00 2.03384E+00
 -1      1338 1.77926E+01 0.00000E+00 1.28924E+00
 -1      1339 1.93506E+01 0.00000E+00 7.19335E+00
 -1      1340 1.90997E+01 0.00000E+00 4.14554E+00
 -1      1341 1.92651E+01 0.00000E+00 4.11397E+00
 -1      1342 1.90593E+01 0.00000E+00 3.75360E+00
 -1      1343 1.92022E+01 0.00000E+00 3.88455E+00
 -1      1344 1.93005E+01 0.00000E+00 3.25381E+00
 -1      1345 1.26541E+01 0.00000E+00 2.43313E+00
 -1      1346 1.18633E+01 0.00000E+00 8.69066E+00
 -1      1347 1.74944E+01 0.00000E+00 9.60954E+00
 -1      1348 1.92801E+01 0.00000E+00 1.11181E+00
 -1      1349 1.79405E+01 0.00000E+00 5.10774E+00
 -1      1350 1.76095E+01 0.00000E+00 8.94236E-01
 -1      1351 1.92754E+01 0.00000E+00 4.57687E+00
 -1      1352 1.93494E+01 0.00000E+00 9.65389E+00
 -1      1353 1.90472E+01 0.00000E+00 1.63207E+00
 -1      1354 1.93082E+01 0.00000E+00 5.34338E+00
 -1      1355 1.78761E+01 0.00000E+00 8.44460E+00
 -1      1356 1.92942E+01 0.00000E+00 2.51231E+00
 -1      1357 1.92138E+01 0.00000E+00 2.36925E+00
 -1      1358 1.93324E+01 0.00000E+00 2.26606E+00
 -1      1359 1.92176E+01 0.00000E+00 6.55739E+00
 -1      1360 1.90588E+01 0.00000E+00 7.41112E+00
 -1      1361 1.88424E+01 0.00000E+00 8.63630E+00
 -1      1362 1.63576E+01 0.00000E+00 1.83223E+00
 -1      1363 1.93570E+01 0.00000E+00 2.62794E+00
 -1      1364 1.92883E+01 0.00000E+00 2.82144E+00
 -1      1365 1.93731E+01 0.00000E+00 2.91741E+00
 -1      1366 1.61780E+01 0.00000E+00 6.96063E+00
 -1      1367 1.63742E+01 0.00000E+00 7.72118E+00
 -1      1368 1.92073E+01 0.00000E+00 8.48901E+00
 -1      1369 1.94072E+01 0.00000E+00 1.58386E-01
 -1      1370 1.94146E+01 0.00000E+00 9.84546E+00
 -1      1371 1.84830E+01 0.00000E+00 7.95957E-01
 -1      1372 1.81617E+01 0.00000E+00 7.27306E-01
 -1      1373 1.48576E+01 0.00000E+00 3.69340E+00
 -1      1374 1.48040E+01 0.00000E+00 4.60655E+00
 -1      1375 1.94134E+01 0.00000E+00 5.50000E-01
 -1      1376 1.94162E+01 0.00000E+00 3.53896E-01
 -1      1377 1.92843E+01 0.00000E+00 2.26126E-01
 -1      1378 1.93995E+01 0.00000E+00 9.44774E+00
 -1      1379 1.94165E+01 0.00000E+00 6.50324E-01
 -1      1380 1.94090E+01 0.00000E+00 8.49647E-01
 -1      1381 1.94067E+01 0.00000E+00 9.34910E+00
 -1      1382 1.93978E+01 0.00000E+00 1.05281E+00
 -1      1383 1.93344E+01 0.00000E+00 9.88914E-01
 -1      1384 1.94117E+01 0.00000E+00 9.14853E+00
 -1      1385 1.94109E+01 0.00000E+00 1.25053E+00
 -1      1386 1.94105E+01 0.00000E+00 8.85876E+00
 -1      1387 1.94134E+01 0.00000E+00 1.65000E+00
 -1      1388 1.93123E+01 0.00000E+00 1.69072E+00
 -1      1389 1.94064E+01 0.00000E+00 1.45155E+00
 -1      1390 1.94013E+01 0.00000E+00 8.65447E+00
 -1      1391 1.94082E+01 0.00000E+00 8.44968E+00
 -1      1392 1.94087E+01 0.00000E+00 8.24963E+00
 -1      1393 1.93100E+01 0.00000E+00 8.19446E+00
 -1      1394 1.94251E+01 0.00000E+00 8.04726E+00
 -1      1395 1.93958E+01 0.00000E+00 2.06111E+00
 -1      1396 1.94111E+01 0.00000E+00 1.85041E+00
 -1      1397 1.94094E+01 0.00000E+00 7.75041E+00
 -1      1398 1.93110E+01 0.00000E+00 7.80000E+00
 -1      1399 1.94087E+01 0.00000E+00 7.55039E+00
 -1      1400 1.94134E+01 0.00000E+00 7.95000E+00
 -1      1401 1.93111E+01 0.00000E+00 8.40000E+00
 -1      1402 1.94090E+01 0.00000E+00 7.44959E+00
 -1      1403 1.94088E+01 0.00000E+00 6.95353E+00
 -1      1404 1.94134E+01 0.00000E+00 3.15000E+00
 -1      1405 1.93953E+01 0.00000E+00 3.44338E+00
 -1      1406 1.94190E+01 0.00000E+00 3.25107E+00
 -1      1407 1.94133E+01 0.00000E+00 6.64998E+00
 -1      1408 1.94119E+01 0.00000E+00 3.64977E+00
 -1      1409 1.94086E+01 0.00000E+00 3.84961E+00
 -1      1410 1.93149E+01 0.00000E+00 9.51068E+00
 -1      1411 1.94134E+01 0.00000E+00 6.85000E+00
 -1      1412 1.94105E+01 0.00000E+00 6.54967E+00
 -1      1413 1.94134E+01 0.00000E+00 6.35000E+00
 -1      1414 1.93985E+01 0.00000E+00 4.15104E+00
 -1      1415 1.94082E+01 0.00000E+00 6.14966E+00
 -1      1416 1.94119E+01 0.00000E+00 5.94970E+00
 -1      1417 1.94092E+01 0.00000E+00 4.35045E+00
 -1      1418 1.94029E+01 0.00000E+00 4.54779E+00
 -1      1419 1.94110E+01 0.00000E+00 3.95028E+00
 -1      1420 1.94160E+01 0.00000E+00 5.75100E+00
 -1      1421 1.94134E+01 0.00000E+00 5.55000E+00
 -1      1422 1.94203E+01 0.00000E+00 5.34777E+00
 -1      1423 1.94051E+01 0.00000E+00 4.74811E+00
 -1      1424 1.94101E+01 0.00000E+00 5.15049E+00
 -1      1425 1.94124E+01 0.00000E+00 4.94963E+00
 -1      1426 1.93108E+01 0.00000E+00 4.40000E+00
 -1      1427 1.12103E+01 0.00000E+00 3.25113E+00
 -1      1428 1.93053E+01 0.00000E+00 7.39783E+00
 -1      1429 1.92919E+01 0.00000E+00 3.98796E+00
 -1      1430 1.64590E+01 0.00000E+00 8.98827E+00
 -1      1431 1.76433E+01 0.00000E+00 5.91586E+00
 -1      1432 1.93092E+01 0.00000E+00 3.80363E+00
 -1      1433 1.56217E+01 0.00000E+00 8.45165E+00
 -1      1434 1.86524E+01 0.00000E+00 6.10734E-01
 -1      1435 8.99091E+00 0.00000E+00 6.15499E+00
 -1      1436 1.93110E+01 0.00000E+00 7.60000E+00
 -1      1437 1.93017E+01 0.00000E+00 8.59770E+00
 -1      1438 1.93138E+01 0.00000E+00 6.10046E+00
 -1      1439 1.88442E+01 0.00000E+00 3.00882E+00
 -1      1440 1.06961E+01 0.00000E+00 7.30801E+00
 -1      1441 1.81178E+01 0.00000E+00 1.84584E+00
 -1      1442 1.76180E+01 0.00000E+00 3.83017E+00
 -1      1443 1.91684E+01 0.00000E+00 4.01275E+00
 -1      1444 1.89203E+01 0.00000E+00 4.17030E+00
 -1      1445 1.93153E+01 0.00000E+00 9.09818E+00
 -1      1446 1.93056E+01 0.00000E+00 1.90298E+00
 -1      1447 1.87402E+01 0.00000E+00 4.54231E+00
 -1      1448 1.86311E+01 0.00000E+00 4.36328E+00
 -1      1449 1.73003E+01 0.00000E+00 2.62359E+00
 -1      1450 1.77782E+01 0.00000E+00 2.95738E+00
 -1      1451 1.94144E+01 0.00000E+00 2.34666E+00
 -1      1452 1.86379E+01 0.00000E+00 9.25919E+00
 -1      1453 2.83731E+00 0.00000E+00 2.80951E+00
 -1      1454 1.55839E+01 0.00000E+00 5.00396E+00
 -1      1455 1.92965E+01 0.00000E+00 6.30259E+00
 -1      1456 1.93106E+01 0.00000E+00 3.11141E+00
 -1      1457 1.80934E+01 0.00000E+00 3.29647E+00
 -1      1458 1.87196E+01 0.00000E+00 2.45260E+00
 -1      1459 1.92920E+01 0.00000E+00 8.72286E+00
 -1      1460 9.44548E+00 0.00000E+00 4.40167E+00
 -1      1461 1.88576E+01 0.00000E+00 1.67285E+00
 -1      1462 1.79783E+01 0.00000E+00 8.76731E+00
 -1      1463 1.85489E+01 0.00000E+00 7.76211E+00
 -1      1464 1.86985E+01 0.00000E+00 7.05612E+00
 -1      1465 1.86779E+01 0.00000E+00 6.40455E+00
 -1      1466 1.84483E+01 0.00000E+00 9.44142E+00
 -1      1467 1.93146E+01 0.00000E+00 7.99653E-01
 -1      1468 1.93008E+01 0.00000E+00 6.99568E+00
 -1      1469 1.83038E+01 0.00000E+00 6.18144E+00
 -1      1470 1.37932E+01 0.00000E+00 7.70128E+00
 -1      1471 1.85796E+01 0.00000E+00 5.96677E+00
 -1      1472 1.87134E+01 0.00000E+00 6.64185E+00
 -1      1473 1.85182E+01 0.00000E+00 6.67354E+00
 -1      1474 1.73872E+01 0.00000E+00 7.37824E+00
 -1      1475 1.93114E+01 0.00000E+00 1.30000E+00
 -1      1476 1.93082E+01 0.00000E+00 5.90044E+00
 -1      1477 2.49339E+00 0.00000E+00 7.63659E+00
 -1      1478 1.85867E+01 0.00000E+00 3.55080E-01
 -1      1479 1.38774E+01 0.00000E+00 4.10577E+00
 -1      1480 1.94203E+01 0.00000E+00 2.55000E+00
 -1      1481 1.89139E+01 0.00000E+00 3.58174E+00
 -1      1482 1.85086E+01 0.00000E+00 6.95535E+00
 -1      1483 1.93039E+01 0.00000E+00 4.90067E+00
 -1      1484 1.91450E+01 0.00000E+00 9.70411E+00
 -1      1485 1.90488E+01 0.00000E+00 2.37243E+00
 -1      1486 1.77058E+01 0.00000E+00 3.31170E+00
 -1      1487 1.83889E+01 0.00000E+00 7.58435E+00
 -1      1488 1.94258E+01 0.00000E+00 8.94846E+00
 -1      1489 1.72335E+01 0.00000E+00 8.94595E-01
 -1      1490 1.93229E+01 0.00000E+00 7.91214E+00
 -1      1491 1.91898E+01 0.00000E+00 3.75687E+00
 -1      1492 1.93157E+01 0.00000E+00 6.50000E+00
 -1      1493 1.93159E+01 0.00000E+00 5.00671E-01
 -1      1494 1.89421E+01 0.00000E+00 7.30011E+00
 -1      1495 1.87494E+01 0.00000E+00 7.27503E+00
 -1      1496 1.83925E+01 0.00000E+00 5.39052E-01
 -1      1497 1.88313E+01 0.00000E+00 2.66715E+00
 -1      1498 1.93163E+01 0.00000E+00 5.10000E+00
 -1      1499 1.93147E+01 0.00000E+00 5.60207E+00
 -1      1500 1.79775E+01 0.00000E+00 9.93944E-01
 -1      1501 1.93199E+01 0.00000E+00 6.80044E+00
 -1      1502 1.93179E+01 0.00000E+00 5.75222E+00
 -1      1503 1.93289E+01 0.00000E+00 2.38819E+00
 -1      1504 1.93257E+01 0.00000E+00 4.20846E+00
 -1      1505 1.94279E+01 0.00000E+00 2.25543E+00
 -1      1506 1.93102E+01 0.00000E+00 8.91848E-01
 -1      1507 1.94330E+01 0.00000E+00 9.65087E+00
 -1      1508 1.93233E+01 0.00000E+00 8.49775E+00
 -1      1509 1.93011E+01 0.00000E+00 1.79281E+00
 -1      1510 1.93227E+01 0.00000E+00 8.30083E+00
 -1      1511 1.89289E+01 0.00000E+00 9.84781E+00
 -1      1512 1.93212E+01 0.00000E+00 7.70177E+00
 -1      1513 1.93224E+01 0.00000E+00 7.50382E+00
 -1      1514 1.93067E+01 0.00000E+00 3.70031E+00
 -1      1515 1.93228E+01 0.00000E+00 3.89750E+00
 -1      1516 1.93264E+01 0.00000E+00 6.00623E+00
 -1      1517 1.93179E+01 0.00000E+00 6.60883E+00
 -1      1518 1.93226E+01 0.00000E+00 3.60581E+00
 -1      1519 1.93262E+01 0.00000E+00 5.20000E+00
 -1      1520 1.93319E+01 0.00000E+00 4.29590E+00
 -1      1521 1.94064E+01 0.00000E+00 2.83779E+00
 -1      1522 1.63497E+01 0.00000E+00 8.91499E-01
 -1      1523 1.89675E+01 0.00000E+00 3.19663E-01
 -1      1524 1.94267E+01 0.00000E+00 7.24945E+00
 -1      1525 1.90743E+01 0.00000E+00 5.20279E+00
 -1      1526 1.66138E+01 0.00000E+00 9.58453E+00
 -1      1527 1.90984E+01 0.00000E+00 9.48000E-01
 -1      1528 1.76821E+01 0.00000E+00 9.28905E+00
 -1      1529 1.89106E+01 0.00000E+00 5.13919E+00
 -1      1530 1.80176E+01 0.00000E+00 2.73895E+00
 -1      1531 1.80626E+01 0.00000E+00 5.40312E+00
 -1      1532 1.93063E+01 0.00000E+00 3.36746E+00
 -1      1533 1.93177E+01 0.00000E+00 2.71358E+00
 -1      1534 1.94320E+01 0.00000E+00 7.15321E+00
 -1      1535 1.91859E+01 0.00000E+00 1.71576E+00
 -1      1536 1.87404E+01 0.00000E+00 2.84383E+00
 -1      1537 1.93246E+01 0.00000E+00 1.21303E+00
 -1      1538 1.93230E+01 0.00000E+00 8.82519E+00
 -1      1539 1.92955E+01 0.00000E+00 4.68151E+00
 -1      1540 1.88236E+01 0.00000E+00 9.65837E+00
 -1      1541 1.90447E+01 0.00000E+00 8.40285E+00
 -1      1542 1.47588E+01 0.00000E+00 7.89235E+00
 -1      1543 1.93263E+01 0.00000E+00 6.20028E+00
 -1      1544 1.93050E+01 0.00000E+00 9.28609E+00
 -1      1545 1.91850E+01 0.00000E+00 9.31111E+00
 -1      1546 1.86805E+01 0.00000E+00 8.53984E+00
 -1      1547 1.79180E+01 0.00000E+00 3.97112E+00
 -1      1548 1.69711E+01 0.00000E+00 7.64596E+00
 -1      1549 1.91985E+01 0.00000E+00 9.46199E+00
 -1      1550 1.93322E+01 0.00000E+00 1.51392E+00
 -1      1551 1.59645E+01 0.00000E+00 1.36134E+00
 -1      1552 1.92042E+01 0.00000E+00 7.01085E+00
 -1      1553 1.81274E+01 0.00000E+00 1.28797E+00
 -1      1554 1.93317E+01 0.00000E+00 6.70514E+00
 -1      1555 1.81141E+01 0.00000E+00 9.39110E+00
 -1      1556 1.80160E+01 0.00000E+00 1.55973E+00
 -1      1557 1.92272E+01 0.00000E+00 9.60348E+00
 -1      1558 1.91907E+01 0.00000E+00 7.39115E+00
 -1      1559 1.93230E+01 0.00000E+00 4.49359E+00
 -1      1560 1.87429E+01 0.00000E+00 4.21479E+00
 -1      1561 1.89931E+01 0.00000E+00 5.36082E+00
 -1      1562 1.90847E+01 0.00000E+00 2.04282E-01
 -1      1563 1.93311E+01 0.00000E+00 1.60000E+00
 -1      1564 1.94227E+01 0.00000E+00 7.33143E-02
 -1      1565 1.94234E+01 0.00000E+00 9.92365E+00
 -1      1566 1.91394E+01 0.00000E+00 6.47647E+00
 -1      1567 1.48394E+01 0.00000E+00 5.34309E+00
 -1      1568 1.84736E+01 0.00000E+00 6.33793E+00
 -1      1569 1.94374E+01 0.00000E+00 2.65000E+00
 -1      1570 1.31027E+01 0.00000E+00 3.42096E+00
 -1      1571 1.77527E+01 0.00000E+00 5.43206E+00
 -1      1572 9.85032E+00 0.00000E+00 1.45441E+00
 -1      1573 1.93317E+01 0.00000E+00 5.00095E+00
 -1      1574 1.50729E+01 0.00000E+00 9.30156E+00
 -1      1575 1.93325E+01 0.00000E+00 6.40000E+00
 -1      1576 1.93311E+01 0.00000E+00 5.49601E+00
 -1      1577 1.80289E+01 0.00000E+00 5.97667E+00
 -1      1578 1.93339E+01 0.00000E+00 9.20000E+00
 -1      1579 1.81041E+01 0.00000E+00 3.33276E-01
 -1      1580 1.93206E+01 0.00000E+00 2.13419E+00
 -1      1581 1.93464E+01 0.00000E+00 9.78877E+00
 -1      1582 1.84770E+01 0.00000E+00 9.79432E+00
 -1      1583 1.92050E+01 0.00000E+00 1.94500E+00
 -1      1584 1.90972E+01 0.00000E+00 1.92645E+00
 -1      1585 1.92172E+01 0.00000E+00 9.70647E-01
 -1      1586 1.75010E+01 0.00000E+00 3.55178E+00
 -1      1587 1.91624E+01 0.00000E+00 6.31816E+00
 -1      1588 1.85844E+01 0.00000E+00 9.61345E+00
 -1      1589 1.93472E+01 0.00000E+00 7.29164E+00
 -1      1590 1.68433E+01 0.00000E+00 2.73778E+00
 -1      1591 1.93267E+01 0.00000E+00 6.90008E+00
 -1      1592 3.57664E+00 0.00000E+00 1.40476E+00
 -1      1593 1.41865E+00 0.00000E+00 1.40476E+00
 -1      1594 1.41865E+00 0.00000E+00 3.90476E+00
 -1      1595 1.94613E+01 0.00000E+00 3.66572E-02
 -1      1596 1.94062E+01 0.00000E+00 3.66572E-02
 -1      1597 1.94613E+01 0.00000E+00 8.66572E-02
 -1      1598 1.24670E+00 0.00000E+00 8.81830E+00
 -1      1599 3.40468E+00 0.00000E+00 8.81830E+00
 -1      1600 1.24670E+00 0.00000E+00 6.31830E+00
 -1      1601 1.94066E+01 0.00000E+00 9.96182E+00
 -1      1602 1.94617E+01 0.00000E+00 9.96182E+00
 -1      1603 1.94617E+01 0.00000E+00 9.91182E+00
 -1      1604 6.81750E+00 0.00000E+00 1.31679E+00
 -1      1605 5.12759E+00 0.00000E+00 1.31679E+00
 -1      1606 4.38826E+00 0.00000E+00 2.72155E+00
 -1      1607 1.00964E+01 0.00000E+00 7.27207E-01
 -1      1608 8.77305E+00 0.00000E+00 7.27207E-01
 -1      1609 8.14497E+00 0.00000E+00 1.37748E+00
 -1      1610 7.26669E+00 0.00000E+00 2.69428E+00
 -1      1611 9.22224E+00 0.00000E+00 2.10469E+00
 -1      1612 1.20142E+01 0.00000E+00 7.25256E-01
 -1      1613 1.09779E+01 0.00000E+00 7.25256E-01
 -1      1614 1.07318E+01 0.00000E+00 1.45246E+00
 -1      1615 1.36384E+01 0.00000E+00 5.81749E-01
 -1      1616 1.28268E+01 0.00000E+00 5.81749E-01
 -1      1617 1.24259E+01 0.00000E+00 1.30701E+00
 -1      1618 1.50305E+01 0.00000E+00 4.77544E-01
 -1      1619 1.43950E+01 0.00000E+00 4.77544E-01
 -1      1620 1.39952E+01 0.00000E+00 1.05929E+00
 -1      1621 1.59808E+01 0.00000E+00 4.15685E-01
 -1      1622 1.54831E+01 0.00000E+00 4.15685E-01
 -1      1623 1.52044E+01 0.00000E+00 8.93229E-01
 -1      1624 1.69610E+01 0.00000E+00 2.61911E-01
 -1      1625 1.65713E+01 0.00000E+00 2.61911E-01
 -1      1626 1.63271E+01 0.00000E+00 4.45749E-01
 -1      1627 1.60033E+01 0.00000E+00 8.61435E-01
 -1      1628 1.65939E+01 0.00000E+00 7.07660E-01
 -1      1629 1.75392E+01 0.00000E+00 2.28065E-01
 -1      1630 1.72340E+01 0.00000E+00 2.28065E-01
 -1      1631 1.71110E+01 0.00000E+00 4.89976E-01
 -1      1632 1.81382E+01 0.00000E+00 1.66638E-01
 -1      1633 1.78992E+01 0.00000E+00 1.66638E-01
 -1      1634 1.77406E+01 0.00000E+00 2.68992E-01
 -1      1635 1.75855E+01 0.00000E+00 4.97058E-01
 -1      1636 1.79455E+01 0.00000E+00 4.35630E-01
 -1      1637 1.84506E+01 0.00000E+00 1.38761E-01
 -1      1638 1.82635E+01 0.00000E+00 1.38761E-01
 -1      1639 1.82294E+01 0.00000E+00 3.05399E-01
 -1      1640 1.88035E+01 0.00000E+00 1.01331E-01
 -1      1641 1.86570E+01 0.00000E+00 1.01331E-01
 -1      1642 1.85667E+01 0.00000E+00 1.77540E-01
 -1      1643 1.84707E+01 0.00000E+00 3.16300E-01
 -1      1644 1.86770E+01 0.00000E+00 2.78870E-01
 -1      1645 1.90002E+01 0.00000E+00 7.66431E-02
 -1      1646 1.88855E+01 0.00000E+00 7.66431E-02
 -1      1647 1.88493E+01 0.00000E+00 1.77974E-01
 -1      1648 1.92225E+01 0.00000E+00 5.72174E-02
 -1      1649 1.91326E+01 0.00000E+00 5.72174E-02
 -1      1650 1.90770E+01 0.00000E+00 1.02141E-01
 -1      1651 1.90080E+01 0.00000E+00 1.78784E-01
 -1      1652 1.91403E+01 0.00000E+00 1.59358E-01
 -1      1653 1.93574E+01 0.00000E+00 4.82775E-02
 -1      1654 1.92870E+01 0.00000E+00 4.82775E-02
 -1      1655 1.92605E+01 0.00000E+00 1.05495E-01
 -1      1656 1.93739E+01 0.00000E+00 8.49346E-02
 -1      1657 5.42691E+00 0.00000E+00 8.89994E+00
 -1      1658 7.11681E+00 0.00000E+00 8.89994E+00
 -1      1659 4.51562E+00 0.00000E+00 7.71824E+00
 -1      1660 8.27043E+00 0.00000E+00 9.03621E+00
 -1      1661 9.59379E+00 0.00000E+00 9.03621E+00
 -1      1662 7.69146E+00 0.00000E+00 7.93615E+00
 -1      1663 1.11029E+01 0.00000E+00 9.34533E+00
 -1      1664 1.21392E+01 0.00000E+00 9.34533E+00
 -1      1665 9.77058E+00 0.00000E+00 7.69021E+00
 -1      1666 1.05193E+01 0.00000E+00 8.65400E+00
 -1      1667 1.12797E+01 0.00000E+00 7.99933E+00
 -1      1668 1.27624E+01 0.00000E+00 9.36524E+00
 -1      1669 1.35739E+01 0.00000E+00 9.36524E+00
 -1      1670 1.24864E+01 0.00000E+00 8.71057E+00
 -1      1671 1.45555E+01 0.00000E+00 9.65078E+00
 -1      1672 1.51910E+01 0.00000E+00 9.65078E+00
 -1      1673 1.37138E+01 0.00000E+00 8.69760E+00
 -1      1674 1.41780E+01 0.00000E+00 9.33236E+00
 -1      1675 1.46954E+01 0.00000E+00 8.98314E+00
 -1      1676 1.56119E+01 0.00000E+00 9.69329E+00
 -1      1677 1.61096E+01 0.00000E+00 9.69329E+00
 -1      1678 1.54938E+01 0.00000E+00 9.34407E+00
 -1      1679 1.64591E+01 0.00000E+00 9.79227E+00
 -1      1680 1.68489E+01 0.00000E+00 9.79227E+00
 -1      1681 1.62642E+01 0.00000E+00 9.48556E+00
 -1      1682 1.72892E+01 0.00000E+00 9.80477E+00
 -1      1683 1.75944E+01 0.00000E+00 9.80477E+00
 -1      1684 1.73075E+01 0.00000E+00 9.42830E+00
 -1      1685 1.71023E+01 0.00000E+00 9.62353E+00
 -1      1686 1.68672E+01 0.00000E+00 9.41579E+00
 -1      1687 1.78025E+01 0.00000E+00 9.82127E+00
 -1      1688 1.80415E+01 0.00000E+00 9.82127E+00
 -1      1689 1.77026E+01 0.00000E+00 9.62604E+00
 -1      1690 1.83247E+01 0.00000E+00 9.89716E+00
 -1      1691 1.85118E+01 0.00000E+00 9.89716E+00
 -1      1692 1.80988E+01 0.00000E+00 9.64266E+00
 -1      1693 1.82296E+01 0.00000E+00 9.82139E+00
 -1      1694 1.83819E+01 0.00000E+00 9.71854E+00
 -1      1695 1.86238E+01 0.00000E+00 9.91053E+00
 -1      1696 1.87704E+01 0.00000E+00 9.91053E+00
 -1      1697 1.85890E+01 0.00000E+00 9.80768E+00
 -1      1698 1.88843E+01 0.00000E+00 9.92391E+00
 -1      1699 1.89991E+01 0.00000E+00 9.92391E+00
 -1      1700 1.88150E+01 0.00000E+00 9.83443E+00
 -1      1701 1.91023E+01 0.00000E+00 9.92813E+00
 -1      1702 1.91921E+01 0.00000E+00 9.92813E+00
 -1      1703 1.90321E+01 0.00000E+00 9.85204E+00
 -1      1704 1.92823E+01 0.00000E+00 9.94330E+00
 -1      1705 1.93527E+01 0.00000E+00 9.94330E+00
 -1      1706 1.92255E+01 0.00000E+00 9.87143E+00
 -1      1707 1.93695E+01 0.00000E+00 9.90512E+00
 -1      1708 3.63122E+00 0.00000E+00 4.14654E+00
 -1      1709 2.21256E+00 0.00000E+00 5.24178E+00
 -1      1710 3.45926E+00 0.00000E+00 6.56008E+00
 -1      1711 1.94536E+01 0.00000E+00 1.79193E-01
 -1      1712 1.94536E+01 0.00000E+00 1.29193E-01
 -1      1713 1.94149E+01 0.00000E+00 1.15850E-01
 -1      1714 1.94482E+01 0.00000E+00 2.80738E-01
 -1      1715 1.94482E+01 0.00000E+00 2.30738E-01
 -1      1716 1.94018E+01 0.00000E+00 2.09931E-01
 -1      1717 1.94581E+01 0.00000E+00 3.76948E-01
 -1      1718 1.94581E+01 0.00000E+00 3.26948E-01
 -1      1719 1.94063E+01 0.00000E+00 3.07686E-01
 -1      1720 1.94567E+01 0.00000E+00 4.75000E-01
 -1      1721 1.94567E+01 0.00000E+00 4.25000E-01
 -1      1722 1.94148E+01 0.00000E+00 4.01948E-01
 -1      1723 1.94567E+01 0.00000E+00 5.75000E-01
 -1      1724 1.94567E+01 0.00000E+00 5.25000E-01
 -1      1725 1.94134E+01 0.00000E+00 5.00000E-01
 -1      1726 1.94583E+01 0.00000E+00 6.75162E-01
 -1      1727 1.94583E+01 0.00000E+00 6.25162E-01
 -1      1728 1.94150E+01 0.00000E+00 6.00162E-01
 -1      1729 1.94567E+01 0.00000E+00 7.75000E-01
 -1      1730 1.94567E+01 0.00000E+00 7.25000E-01
 -1      1731 1.94150E+01 0.00000E+00 7.00162E-01
 -1      1732 1.94545E+01 0.00000E+00 8.74824E-01
 -1      1733 1.94545E+01 0.00000E+00 8.24824E-01
 -1      1734 1.94112E+01 0.00000E+00 7.99824E-01
 -1      1735 1.94547E+01 0.00000E+00 9.75209E-01
 -1      1736 1.94547E+01 0.00000E+00 9.25209E-01
 -1      1737 1.94092E+01 0.00000E+00 9.00033E-01
 -1      1738 1.94489E+01 0.00000E+00 1.07641E+00
 -1      1739 1.94489E+01 0.00000E+00 1.02641E+00
 -1      1740 1.94036E+01 0.00000E+00 1.00162E+00
 -1      1741 1.94518E+01 0.00000E+00 1.17607E+00
 -1      1742 1.94518E+01 0.00000E+00 1.12607E+00
 -1      1743 1.94007E+01 0.00000E+00 1.10247E+00
 -1      1744 1.94555E+01 0.00000E+00 1.27527E+00
 -1      1745 1.94555E+01 0.00000E+00 1.22527E+00
 -1      1746 1.94072E+01 0.00000E+00 1.20133E+00
 -1      1747 1.94487E+01 0.00000E+00 1.37754E+00
 -1      1748 1.94487E+01 0.00000E+00 1.32754E+00
 -1      1749 1.94041E+01 0.00000E+00 1.30280E+00
 -1      1750 1.94532E+01 0.00000E+00 1.47577E+00
 -1      1751 1.94532E+01 0.00000E+00 1.42577E+00
 -1      1752 1.94018E+01 0.00000E+00 1.40331E+00
 -1      1753 1.94570E+01 0.00000E+00 1.57499E+00
 -1      1754 1.94570E+01 0.00000E+00 1.52499E+00
 -1      1755 1.94102E+01 0.00000E+00 1.50077E+00
 -1      1756 1.94567E+01 0.00000E+00 1.67500E+00
 -1      1757 1.94567E+01 0.00000E+00 1.62500E+00
 -1      1758 1.94137E+01 0.00000E+00 1.59999E+00
 -1      1759 1.94546E+01 0.00000E+00 1.77479E+00
 -1      1760 1.94546E+01 0.00000E+00 1.72479E+00
 -1      1761 1.94113E+01 0.00000E+00 1.69979E+00
 -1      1762 1.94556E+01 0.00000E+00 1.87520E+00
 -1      1763 1.94556E+01 0.00000E+00 1.82520E+00
 -1      1764 1.94102E+01 0.00000E+00 1.79999E+00
 -1      1765 1.94506E+01 0.00000E+00 1.97773E+00
 -1      1766 1.94506E+01 0.00000E+00 1.92773E+00
 -1      1767 1.94062E+01 0.00000E+00 1.90293E+00
 -1      1768 1.94479E+01 0.00000E+00 2.08055E+00
 -1      1769 1.94479E+01 0.00000E+00 2.03055E+00
 -1      1770 1.93985E+01 0.00000E+00 2.00829E+00
 -1      1771 1.94569E+01 0.00000E+00 2.17997E+00
 -1      1772 1.94569E+01 0.00000E+00 2.12997E+00
 -1      1773 1.94049E+01 0.00000E+00 2.11052E+00
 -1      1774 1.94639E+01 0.00000E+00 2.27771E+00
 -1      1775 1.94639E+01 0.00000E+00 2.22771E+00
 -1      1776 1.94209E+01 0.00000E+00 2.20768E+00
 -1      1777 1.94572E+01 0.00000E+00 2.37333E+00
 -1      1778 1.94572E+01 0.00000E+00 2.32333E+00
 -1      1779 1.94211E+01 0.00000E+00 2.30104E+00
 -1      1780 1.94511E+01 0.00000E+00 2.47650E+00
 -1      1781 1.94511E+01 0.00000E+00 2.42650E+00
 -1      1782 1.94083E+01 0.00000E+00 2.39983E+00
 -1      1783 1.94601E+01 0.00000E+00 2.57500E+00
 -1      1784 1.94601E+01 0.00000E+00 2.52500E+00
 -1      1785 1.94113E+01 0.00000E+00 2.50150E+00
 -1      1786 1.94687E+01 0.00000E+00 2.67500E+00
 -1      1787 1.94687E+01 0.00000E+00 2.62500E+00
 -1      1788 1.94288E+01 0.00000E+00 2.60000E+00
 -1      1789 1.94505E+01 0.00000E+00 2.77044E+00
 -1      1790 1.94505E+01 0.00000E+00 2.72044E+00
 -1      1791 1.94192E+01 0.00000E+00 2.69544E+00
 -1      1792 1.94532E+01 0.00000E+00 2.86889E+00
 -1      1793 1.94532E+01 0.00000E+00 2.81889E+00
 -1      1794 1.94037E+01 0.00000E+00 2.78934E+00
 -1      1795 1.94366E+01 0.00000E+00 2.95870E+00
 -1      1796 1.94366E+01 0.00000E+00 2.90870E+00
 -1      1797 1.93897E+01 0.00000E+00 2.87760E+00
 -1      1798 1.94567E+01 0.00000E+00 3.07500E+00
 -1      1799 1.94567E+01 0.00000E+00 3.02500E+00
 -1      1800 1.93933E+01 0.00000E+00 2.98370E+00
 -1      1801 1.94567E+01 0.00000E+00 3.17500E+00
 -1      1802 1.94567E+01 0.00000E+00 3.12500E+00
 -1      1803 1.94134E+01 0.00000E+00 3.10000E+00
 -1      1804 1.94595E+01 0.00000E+00 3.27553E+00
 -1      1805 1.94595E+01 0.00000E+00 3.22553E+00
 -1      1806 1.94162E+01 0.00000E+00 3.20053E+00
 -1      1807 1.94567E+01 0.00000E+00 3.37500E+00
 -1      1808 1.94567E+01 0.00000E+00 3.32500E+00
 -1      1809 1.94162E+01 0.00000E+00 3.30053E+00
 -1      1810 1.94477E+01 0.00000E+00 3.47169E+00
 -1      1811 1.94477E+01 0.00000E+00 3.42169E+00
 -1      1812 1.94044E+01 0.00000E+00 3.39669E+00
 -1      1813 1.94542E+01 0.00000E+00 3.57371E+00
 -1      1814 1.94542E+01 0.00000E+00 3.52371E+00
 -1      1815 1.94019E+01 0.00000E+00 3.49540E+00
 -1      1816 1.94560E+01 0.00000E+00 3.67489E+00
 -1      1817 1.94560E+01 0.00000E+00 3.62489E+00
 -1      1818 1.94102E+01 0.00000E+00 3.59860E+00
 -1      1819 1.94546E+01 0.00000E+00 3.77522E+00
 -1      1820 1.94546E+01 0.00000E+00 3.72522E+00
 -1      1821 1.94105E+01 0.00000E+00 3.70010E+00
 -1      1822 1.94543E+01 0.00000E+00 3.87480E+00
 -1      1823 1.94543E+01 0.00000E+00 3.82480E+00
 -1      1824 1.94089E+01 0.00000E+00 3.80002E+00
 -1      1825 1.94555E+01 0.00000E+00 3.97514E+00
 -1      1826 1.94555E+01 0.00000E+00 3.92514E+00
 -1      1827 1.94098E+01 0.00000E+00 3.89994E+00
 -1      1828 1.94466E+01 0.00000E+00 4.07638E+00
 -1      1829 1.94466E+01 0.00000E+00 4.02638E+00
 -1      1830 1.94021E+01 0.00000E+00 4.00152E+00
 -1      1831 1.94492E+01 0.00000E+00 4.17552E+00
 -1      1832 1.94492E+01 0.00000E+00 4.12552E+00
 -1      1833 1.93958E+01 0.00000E+00 4.10190E+00
 -1      1834 1.94559E+01 0.00000E+00 4.27490E+00
 -1      1835 1.94559E+01 0.00000E+00 4.22490E+00
 -1      1836 1.94051E+01 0.00000E+00 4.20042E+00
 -1      1837 1.94546E+01 0.00000E+00 4.37522E+00
 -1      1838 1.94546E+01 0.00000E+00 4.32522E+00
 -1      1839 1.94105E+01 0.00000E+00 4.30012E+00
 -1      1840 1.94567E+01 0.00000E+00 4.47500E+00
 -1      1841 1.94567E+01 0.00000E+00 4.42500E+00
 -1      1842 1.94113E+01 0.00000E+00 4.40022E+00
 -1      1843 1.94515E+01 0.00000E+00 4.57390E+00
 -1      1844 1.94515E+01 0.00000E+00 4.52390E+00
 -1      1845 1.94082E+01 0.00000E+00 4.49890E+00
 -1      1846 1.94541E+01 0.00000E+00 4.67380E+00
 -1      1847 1.94541E+01 0.00000E+00 4.62380E+00
 -1      1848 1.94056E+01 0.00000E+00 4.59770E+00
 -1      1849 1.94526E+01 0.00000E+00 4.77406E+00
 -1      1850 1.94526E+01 0.00000E+00 4.72406E+00
 -1      1851 1.94067E+01 0.00000E+00 4.69786E+00
 -1      1852 1.94481E+01 0.00000E+00 4.87215E+00
 -1      1853 1.94481E+01 0.00000E+00 4.82215E+00
 -1      1854 1.94007E+01 0.00000E+00 4.79620E+00
 -1      1855 1.94562E+01 0.00000E+00 4.97481E+00
 -1      1856 1.94562E+01 0.00000E+00 4.92482E+00
 -1      1857 1.94043E+01 0.00000E+00 4.89696E+00
 -1      1858 1.94567E+01 0.00000E+00 5.07500E+00
 -1      1859 1.94567E+01 0.00000E+00 5.02500E+00
 -1      1860 1.94129E+01 0.00000E+00 4.99981E+00
 -1      1861 1.94550E+01 0.00000E+00 5.17524E+00
 -1      1862 1.94550E+01 0.00000E+00 5.12525E+00
 -1      1863 1.94117E+01 0.00000E+00 5.10024E+00
 -1      1864 1.94543E+01 0.00000E+00 5.27816E+00
 -1      1865 1.94543E+01 0.00000E+00 5.22816E+00
 -1      1866 1.94093E+01 0.00000E+00 5.20341E+00
 -1      1867 1.94602E+01 0.00000E+00 5.37388E+00
 -1      1868 1.94602E+01 0.00000E+00 5.32388E+00
 -1      1869 1.94144E+01 0.00000E+00 5.30205E+00
 -1      1870 1.94557E+01 0.00000E+00 5.47056E+00
 -1      1871 1.94557E+01 0.00000E+00 5.42056E+00
 -1      1872 1.94158E+01 0.00000E+00 5.39445E+00
 -1      1873 1.94567E+01 0.00000E+00 5.57500E+00
 -1      1874 1.94567E+01 0.00000E+00 5.52500E+00
 -1      1875 1.94124E+01 0.00000E+00 5.49556E+00
 -1      1876 1.94567E+01 0.00000E+00 5.67500E+00
 -1      1877 1.94567E+01 0.00000E+00 5.62500E+00
 -1      1878 1.94134E+01 0.00000E+00 5.60000E+00
 -1      1879 1.94580E+01 0.00000E+00 5.77550E+00
 -1      1880 1.94580E+01 0.00000E+00 5.72550E+00
 -1      1881 1.94147E+01 0.00000E+00 5.70050E+00
 -1      1882 1.94526E+01 0.00000E+00 5.87195E+00
 -1      1883 1.94526E+01 0.00000E+00 5.82195E+00
 -1      1884 1.94106E+01 0.00000E+00 5.79745E+00
 -1      1885 1.94559E+01 0.00000E+00 5.97485E+00
 -1      1886 1.94559E+01 0.00000E+00 5.92485E+00
 -1      1887 1.94085E+01 0.00000E+00 5.89680E+00
 -1      1888 1.94546E+01 0.00000E+00 6.07522E+00
 -1      1889 1.94546E+01 0.00000E+00 6.02522E+00
 -1      1890 1.94105E+01 0.00000E+00 6.00007E+00
 -1      1891 1.94541E+01 0.00000E+00 6.17483E+00
 -1      1892 1.94541E+01 0.00000E+00 6.12483E+00
 -1      1893 1.94087E+01 0.00000E+00 6.10005E+00
 -1      1894 1.94546E+01 0.00000E+00 6.27523E+00
 -1      1895 1.94546E+01 0.00000E+00 6.22523E+00
 -1      1896 1.94087E+01 0.00000E+00 6.20005E+00
 -1      1897 1.94567E+01 0.00000E+00 6.37500E+00
 -1      1898 1.94567E+01 0.00000E+00 6.32500E+00
 -1      1899 1.94113E+01 0.00000E+00 6.30023E+00
 -1      1900 1.94567E+01 0.00000E+00 6.47500E+00
 -1      1901 1.94567E+01 0.00000E+00 6.42500E+00
 -1      1902 1.94134E+01 0.00000E+00 6.40000E+00
 -1      1903 1.94552E+01 0.00000E+00 6.57484E+00
 -1      1904 1.94552E+01 0.00000E+00 6.52484E+00
 -1      1905 1.94119E+01 0.00000E+00 6.49984E+00
 -1      1906 1.94566E+01 0.00000E+00 6.67499E+00
 -1      1907 1.94566E+01 0.00000E+00 6.62499E+00
 -1      1908 1.94119E+01 0.00000E+00 6.59983E+00
 -1      1909 1.94557E+01 0.00000E+00 6.77517E+00
 -1      1910 1.94557E+01 0.00000E+00 6.72517E+00
 -1      1911 1.94123E+01 0.00000E+00 6.70016E+00
 -1      1912 1.94567E+01 0.00000E+00 6.87500E+00
 -1      1913 1.94567E+01 0.00000E+00 6.82500E+00
 -1      1914 1.94124E+01 0.00000E+00 6.80017E+00
 -1      1915 1.94544E+01 0.00000E+00 6.97676E+00
 -1      1916 1.94544E+01 0.00000E+00 6.92676E+00
 -1      1917 1.94111E+01 0.00000E+00 6.90176E+00
 -1      1918 1.94447E+01 0.00000E+00 7.08519E+00
 -1      1919 1.94447E+01 0.00000E+00 7.03519E+00
 -1      1920 1.93991E+01 0.00000E+00 7.01195E+00
 -1      1921 1.94660E+01 0.00000E+00 7.17661E+00
 -1      1922 1.94660E+01 0.00000E+00 7.12661E+00
 -1      1923 1.94107E+01 0.00000E+00 7.11180E+00
 -1      1924 1.94633E+01 0.00000E+00 7.27472E+00
 -1      1925 1.94633E+01 0.00000E+00 7.22472E+00
 -1      1926 1.94293E+01 0.00000E+00 7.20133E+00
 -1      1927 1.94583E+01 0.00000E+00 7.37490E+00
 -1      1928 1.94583E+01 0.00000E+00 7.32490E+00
 -1      1929 1.94216E+01 0.00000E+00 7.29963E+00
 -1      1930 1.94545E+01 0.00000E+00 7.47480E+00
 -1      1931 1.94545E+01 0.00000E+00 7.42480E+00
 -1      1932 1.94128E+01 0.00000E+00 7.39970E+00
 -1      1933 1.94543E+01 0.00000E+00 7.57519E+00
 -1      1934 1.94543E+01 0.00000E+00 7.52519E+00
 -1      1935 1.94088E+01 0.00000E+00 7.49999E+00
 -1      1936 1.94546E+01 0.00000E+00 7.67478E+00
 -1      1937 1.94546E+01 0.00000E+00 7.62478E+00
 -1      1938 1.94089E+01 0.00000E+00 7.59998E+00
 -1      1939 1.94547E+01 0.00000E+00 7.77521E+00
 -1      1940 1.94547E+01 0.00000E+00 7.72521E+00
 -1      1941 1.94093E+01 0.00000E+00 7.69999E+00
 -1      1942 1.94532E+01 0.00000E+00 7.87574E+00
 -1      1943 1.94532E+01 0.00000E+00 7.82574E+00
 -1      1944 1.94079E+01 0.00000E+00 7.80094E+00
 -1      1945 1.94567E+01 0.00000E+00 7.97500E+00
 -1      1946 1.94567E+01 0.00000E+00 7.92500E+00
 -1      1947 1.94099E+01 0.00000E+00 7.90074E+00
 -1      1948 1.94626E+01 0.00000E+00 8.07363E+00
 -1      1949 1.94626E+01 0.00000E+00 8.02363E+00
 -1      1950 1.94193E+01 0.00000E+00 7.99863E+00
 -1      1951 1.94567E+01 0.00000E+00 8.17500E+00
 -1      1952 1.94567E+01 0.00000E+00 8.12500E+00
 -1      1953 1.94193E+01 0.00000E+00 8.09863E+00
 -1      1954 1.94544E+01 0.00000E+00 8.27481E+00
 -1      1955 1.94544E+01 0.00000E+00 8.22482E+00
 -1      1956 1.94111E+01 0.00000E+00 8.19981E+00
 -1      1957 1.94546E+01 0.00000E+00 8.37522E+00
 -1      1958 1.94546E+01 0.00000E+00 8.32522E+00
 -1      1959 1.94090E+01 0.00000E+00 8.30003E+00
 -1      1960 1.94541E+01 0.00000E+00 8.47484E+00
 -1      1961 1.94541E+01 0.00000E+00 8.42484E+00
 -1      1962 1.94087E+01 0.00000E+00 8.40005E+00
 -1      1963 1.94546E+01 0.00000E+00 8.57521E+00
 -1      1964 1.94546E+01 0.00000E+00 8.52521E+00
 -1      1965 1.94087E+01 0.00000E+00 8.50005E+00
 -1      1966 1.94507E+01 0.00000E+00 8.67724E+00
 -1      1967 1.94507E+01 0.00000E+00 8.62724E+00
 -1      1968 1.94053E+01 0.00000E+00 8.60245E+00
 -1      1969 1.94507E+01 0.00000E+00 8.77801E+00
 -1      1970 1.94507E+01 0.00000E+00 8.72801E+00
 -1      1971 1.94014E+01 0.00000E+00 8.70524E+00
 -1      1972 1.94553E+01 0.00000E+00 8.87938E+00
 -1      1973 1.94553E+01 0.00000E+00 8.82938E+00
 -1      1974 1.94060E+01 0.00000E+00 8.80739E+00
 -1      1975 1.94629E+01 0.00000E+00 8.97423E+00
 -1      1976 1.94629E+01 0.00000E+00 8.92423E+00
 -1      1977 1.94181E+01 0.00000E+00 8.90361E+00
 -1      1978 1.94573E+01 0.00000E+00 9.07192E+00
 -1      1979 1.94573E+01 0.00000E+00 9.02192E+00
 -1      1980 1.94202E+01 0.00000E+00 8.99615E+00
 -1      1981 1.94558E+01 0.00000E+00 9.17426E+00
 -1      1982 1.94558E+01 0.00000E+00 9.12426E+00
 -1      1983 1.94132E+01 0.00000E+00 9.09618E+00
 -1      1984 1.94574E+01 0.00000E+00 9.27503E+00
 -1      1985 1.94574E+01 0.00000E+00 9.22503E+00
 -1      1986 1.94132E+01 0.00000E+00 9.19929E+00
 -1      1987 1.94533E+01 0.00000E+00 9.37455E+00
 -1      1988 1.94533E+01 0.00000E+00 9.32455E+00
 -1      1989 1.94107E+01 0.00000E+00 9.29958E+00
 -1      1990 1.94498E+01 0.00000E+00 9.47387E+00
 -1      1991 1.94498E+01 0.00000E+00 9.42387E+00
 -1      1992 1.94031E+01 0.00000E+00 9.39842E+00
 -1      1993 1.94574E+01 0.00000E+00 9.57746E+00
 -1      1994 1.94574E+01 0.00000E+00 9.52746E+00
 -1      1995 1.94072E+01 0.00000E+00 9.50133E+00
 -1      1996 1.94665E+01 0.00000E+00 9.67544E+00
 -1      1997 1.94665E+01 0.00000E+00 9.62543E+00
 -1      1998 1.94239E+01 0.00000E+00 9.60289E+00
 -1      1999 1.94617E+01 0.00000E+00 9.77195E+00
 -1      2000 1.94617E+01 0.00000E+00 9.72195E+00
 -1      2001 1.94282E+01 0.00000E+00 9.69738E+00
 -1      2002 1.94573E+01 0.00000E+00 9.87273E+00
 -1      2003 1.94573E+01 0.00000E+00 9.82273E+00
 -1      2004 1.94190E+01 0.00000E+00 9.79468E+00
 -1      2005 1.94190E+01 0.00000E+00 9.88455E+00
 -1      2006 1.93643E+01 0.00000E+00 5.34557E+00
 -1      2007 1.93584E+01 0.00000E+00 5.29985E+00
 -1      2008 1.93172E+01 0.00000E+00 5.27169E+00
 -1      2009 1.93674E+01 0.00000E+00 5.22816E+00
 -1      2010 1.93681E+01 0.00000E+00 5.17524E+00
 -1      2011 1.93621E+01 0.00000E+00 4.42500E+00
 -1      2012 1.93600E+01 0.00000E+00 4.37522E+00
 -1      2013 1.93630E+01 0.00000E+00 4.52069E+00
 -1      2014 1.93682E+01 0.00000E+00 4.47180E+00
 -1      2015 1.93169E+01 0.00000E+00 4.44680E+00
 -1      2016 1.93610E+01 0.00000E+00 6.12506E+00
 -1      2017 1.93615E+01 0.00000E+00 6.07545E+00
 -1      2018 1.93678E+01 0.00000E+00 6.02834E+00
 -1      2019 1.93692E+01 0.00000E+00 5.97797E+00
 -1      2020 1.93201E+01 0.00000E+00 6.05335E+00
 -1      2021 1.93715E+01 0.00000E+00 6.72774E+00
 -1      2022 1.93725E+01 0.00000E+00 6.67756E+00
 -1      2023 1.93666E+01 0.00000E+00 6.82522E+00
 -1      2024 1.93656E+01 0.00000E+00 6.77539E+00
 -1      2025 1.93258E+01 0.00000E+00 6.75279E+00
 -1      2026 1.93579E+01 0.00000E+00 3.72537E+00
 -1      2027 1.93593E+01 0.00000E+00 3.67504E+00
 -1      2028 1.93589E+01 0.00000E+00 3.82662E+00
 -1      2029 1.93592E+01 0.00000E+00 3.77703E+00
 -1      2030 1.93079E+01 0.00000E+00 3.75197E+00
 -1      2031 1.93109E+01 0.00000E+00 2.94662E+00
 -1      2032 1.93311E+01 0.00000E+00 3.01291E+00
 -1      2033 1.93620E+01 0.00000E+00 3.08070E+00
 -1      2034 1.92797E+01 0.00000E+00 3.04362E+00
 -1      2035 1.93620E+01 0.00000E+00 3.13070E+00
 -1      2036 1.93572E+01 0.00000E+00 2.53115E+00
 -1      2037 1.93482E+01 0.00000E+00 2.48265E+00
 -1      2038 1.93116E+01 0.00000E+00 2.45025E+00
 -1      2039 1.93656E+01 0.00000E+00 2.42059E+00
 -1      2040 1.93717E+01 0.00000E+00 2.36743E+00
 -1      2041 1.93571E+01 0.00000E+00 7.42371E+00
 -1      2042 1.93609E+01 0.00000E+00 7.37382E+00
 -1      2043 1.93263E+01 0.00000E+00 7.34473E+00
 -1      2044 1.93819E+01 0.00000E+00 7.32072E+00
 -1      2045 1.93869E+01 0.00000E+00 7.27054E+00
 -1      2046 1.93374E+01 0.00000E+00 2.04747E+00
 -1      2047 1.93400E+01 0.00000E+00 1.99465E+00
 -1      2048 1.92923E+01 0.00000E+00 1.96841E+00
 -1      2049 1.93534E+01 0.00000E+00 1.92922E+00
 -1      2050 1.93584E+01 0.00000E+00 1.87669E+00
 -1      2051 1.93587E+01 0.00000E+00 7.82574E+00
 -1      2052 1.93602E+01 0.00000E+00 7.77521E+00
 -1      2053 1.93647E+01 0.00000E+00 7.88181E+00
 -1      2054 1.93170E+01 0.00000E+00 7.85607E+00
 -1      2055 1.93682E+01 0.00000E+00 7.93107E+00
 -1      2056 1.93597E+01 0.00000E+00 8.42484E+00
 -1      2057 1.93602E+01 0.00000E+00 8.37522E+00
 -1      2058 1.93660E+01 0.00000E+00 8.32563E+00
 -1      2059 1.93657E+01 0.00000E+00 8.27523E+00
 -1      2060 1.93169E+01 0.00000E+00 8.35041E+00
 -1      2061 1.93668E+01 0.00000E+00 8.84198E+00
 -1      2062 1.93622E+01 0.00000E+00 8.79060E+00
 -1      2063 1.93467E+01 0.00000E+00 8.73944E+00
 -1      2064 1.93467E+01 0.00000E+00 8.68867E+00
 -1      2065 1.93075E+01 0.00000E+00 8.77403E+00
 -1      2066 1.93722E+01 0.00000E+00 1.62500E+00
 -1      2067 1.93726E+01 0.00000E+00 1.57499E+00
 -1      2068 1.93731E+01 0.00000E+00 1.53195E+00
 -1      2069 1.93693E+01 0.00000E+00 1.48274E+00
 -1      2070 1.93316E+01 0.00000E+00 1.55696E+00
 -1      2071 1.93390E+01 0.00000E+00 1.08231E+00
 -1      2072 1.93418E+01 0.00000E+00 1.13197E+00
 -1      2073 1.93641E+01 0.00000E+00 1.18258E+00
 -1      2074 1.93023E+01 0.00000E+00 1.16242E+00
 -1      2075 1.93678E+01 0.00000E+00 1.23178E+00
 -1      2076 1.93669E+01 0.00000E+00 5.75161E+00
 -1      2077 1.93656E+01 0.00000E+00 5.70111E+00
 -1      2078 1.93640E+01 0.00000E+00 5.62603E+00
 -1      2079 1.93640E+01 0.00000E+00 5.57603E+00
 -1      2080 1.93163E+01 0.00000E+00 5.67714E+00
 -1      2081 1.93309E+01 0.00000E+00 4.75906E+00
 -1      2082 1.93264E+01 0.00000E+00 4.80715E+00
 -1      2083 1.93501E+01 0.00000E+00 4.87248E+00
 -1      2084 1.92803E+01 0.00000E+00 4.83534E+00
 -1      2085 1.93581E+01 0.00000E+00 4.92515E+00
 -1      2086 1.55412E+01 0.00000E+00 1.28713E+00
 -1      2087 1.50886E+01 0.00000E+00 1.34898E+00
 -1      2088 1.48233E+01 0.00000E+00 1.88756E+00
 -1      2089 1.44866E+01 0.00000E+00 1.49367E+00
 -1      2090 1.37299E+01 0.00000E+00 1.59787E+00
 -1      2091 1.57682E+01 0.00000E+00 8.91912E+00
 -1      2092 1.60404E+01 0.00000E+00 8.71996E+00
 -1      2093 1.61868E+01 0.00000E+00 9.18743E+00
 -1      2094 1.65364E+01 0.00000E+00 9.28640E+00
 -1      2095 1.53473E+01 0.00000E+00 8.87660E+00
 -1      2096 1.93558E+01 0.00000E+00 9.31759E+00
 -1      2097 1.93599E+01 0.00000E+00 9.26807E+00
 -1      2098 1.93744E+01 0.00000E+00 9.22503E+00
 -1      2099 1.93728E+01 0.00000E+00 9.17426E+00
 -1      2100 1.93195E+01 0.00000E+00 9.24304E+00
 -1      2101 1.93541E+01 0.00000E+00 6.50738E-01
 -1      2102 1.93525E+01 0.00000E+00 7.00576E-01
 -1      2103 1.93640E+01 0.00000E+00 7.74826E-01
 -1      2104 1.93031E+01 0.00000E+00 7.25403E-01
 -1      2105 1.93618E+01 0.00000E+00 8.24650E-01
 -1      2106 1.93700E+01 0.00000E+00 7.13186E+00
 -1      2107 1.92963E+01 0.00000E+00 7.15602E+00
 -1      2108 1.93157E+01 0.00000E+00 7.09454E+00
 -1      2109 1.92714E+01 0.00000E+00 7.05719E+00
 -1      2110 1.93451E+01 0.00000E+00 7.03303E+00
 -1      2111 1.93913E+01 0.00000E+00 7.17328E+00
 -1      2112 1.93548E+01 0.00000E+00 6.97461E+00
 -1      2113 1.93594E+01 0.00000E+00 2.72723E+00
 -1      2114 1.93373E+01 0.00000E+00 2.67076E+00
 -1      2115 1.93790E+01 0.00000E+00 2.68441E+00
 -1      2116 1.93972E+01 0.00000E+00 2.63897E+00
 -1      2117 1.93473E+01 0.00000E+00 2.82962E+00
 -1      2118 1.93447E+01 0.00000E+00 2.78116E+00
 -1      2119 1.93030E+01 0.00000E+00 2.76751E+00
 -1      2120 1.93598E+01 0.00000E+00 3.25244E+00
 -1      2121 1.93569E+01 0.00000E+00 3.30191E+00
 -1      2122 1.93599E+01 0.00000E+00 3.35873E+00
 -1      2123 1.93034E+01 0.00000E+00 3.31063E+00
 -1      2124 1.93508E+01 0.00000E+00 3.40542E+00
 -1      2125 1.93631E+01 0.00000E+00 6.52484E+00
 -1      2126 1.93645E+01 0.00000E+00 6.47500E+00
 -1      2127 1.93730E+01 0.00000E+00 6.42500E+00
 -1      2128 1.93730E+01 0.00000E+00 6.37500E+00
 -1      2129 1.93241E+01 0.00000E+00 6.45000E+00
 -1      2130 1.93318E+01 0.00000E+00 4.13250E+00
 -1      2131 1.93291E+01 0.00000E+00 4.08337E+00
 -1      2132 1.92785E+01 0.00000E+00 4.05096E+00
 -1      2133 1.93425E+01 0.00000E+00 4.02036E+00
 -1      2134 1.93514E+01 0.00000E+00 3.96912E+00
 -1      2135 1.76982E+01 0.00000E+00 7.16111E-01
 -1      2136 1.74967E+01 0.00000E+00 6.75184E-01
 -1      2137 1.73088E+01 0.00000E+00 6.75363E-01
 -1      2138 1.70358E+01 0.00000E+00 7.09208E-01
 -1      2139 1.74215E+01 0.00000E+00 8.94416E-01
 -1      2140 1.80124E+01 0.00000E+00 9.51682E+00
 -1      2141 1.82005E+01 0.00000E+00 9.51693E+00
 -1      2142 1.75883E+01 0.00000E+00 9.44929E+00
 -1      2143 1.77964E+01 0.00000E+00 9.46580E+00
 -1      2144 1.78981E+01 0.00000E+00 9.34007E+00
 -1      2145 1.84896E+01 0.00000E+00 4.47066E-01
 -1      2146 1.83736E+01 0.00000E+00 4.08287E-01
 -1      2147 1.82483E+01 0.00000E+00 4.36164E-01
 -1      2148 1.93321E+01 0.00000E+00 9.58228E+00
 -1      2149 1.93648E+01 0.00000E+00 9.53280E+00
 -1      2150 1.93821E+01 0.00000E+00 9.60440E+00
 -1      2151 1.93912E+01 0.00000E+00 9.65238E+00
 -1      2152 1.93572E+01 0.00000E+00 9.47921E+00
 -1      2153 1.93586E+01 0.00000E+00 3.59130E-01
 -1      2154 1.93572E+01 0.00000E+00 4.07182E-01
 -1      2155 1.93647E+01 0.00000E+00 4.75335E-01
 -1      2156 1.93084E+01 0.00000E+00 4.32517E-01
 -1      2157 1.93647E+01 0.00000E+00 5.25335E-01
 -1      2158 1.21657E+01 0.00000E+00 8.04743E+00
 -1      2159 1.27889E+01 0.00000E+00 8.06734E+00
 -1      2160 1.31307E+01 0.00000E+00 7.55274E+00
 -1      2161 1.34514E+01 0.00000E+00 8.21588E+00
 -1      2162 1.40556E+01 0.00000E+00 8.18300E+00
 -1      2163 1.87623E+01 0.00000E+00 9.73971E+00
 -1      2164 1.88763E+01 0.00000E+00 9.75309E+00
 -1      2165 1.86427E+01 0.00000E+00 9.71725E+00
 -1      2166 1.87040E+01 0.00000E+00 9.63591E+00
 -1      2167 1.85307E+01 0.00000E+00 9.70388E+00
 -1      2168 1.29463E+01 0.00000E+00 1.79831E+00
 -1      2169 1.21337E+01 0.00000E+00 1.94182E+00
 -1      2170 1.19322E+01 0.00000E+00 2.84213E+00
 -1      2171 1.14118E+01 0.00000E+00 2.35082E+00
 -1      2172 1.05303E+01 0.00000E+00 2.35277E+00
 -1      2173 1.89493E+01 0.00000E+00 2.36475E-01
 -1      2174 1.88674E+01 0.00000E+00 2.61162E-01
 -1      2175 1.90261E+01 0.00000E+00 2.61972E-01
 -1      2176 1.93598E+01 0.00000E+00 9.21133E-01
 -1      2177 1.93596E+01 0.00000E+00 8.70748E-01
 -1      2178 1.93661E+01 0.00000E+00 1.02086E+00
 -1      2179 1.93719E+01 0.00000E+00 9.69666E-01
 -1      2180 1.93223E+01 0.00000E+00 9.40381E-01
 -1      2181 1.93650E+01 0.00000E+00 9.07101E+00
 -1      2182 1.93216E+01 0.00000E+00 9.02076E+00
 -1      2183 1.93712E+01 0.00000E+00 8.99359E+00
 -1      2184 1.93768E+01 0.00000E+00 8.94590E+00
 -1      2185 1.93635E+01 0.00000E+00 9.12336E+00
 -1      2186 1.93355E+01 0.00000E+00 1.43956E+00
 -1      2187 1.93310E+01 0.00000E+00 1.39133E+00
 -1      2188 1.92881E+01 0.00000E+00 1.36379E+00
 -1      2189 1.93544E+01 0.00000E+00 1.32754E+00
 -1      2190 1.93612E+01 0.00000E+00 1.27527E+00
 -1      2191 1.93515E+01 0.00000E+00 8.62609E+00
 -1      2192 1.93555E+01 0.00000E+00 8.57407E+00
 -1      2193 1.93663E+01 0.00000E+00 8.52409E+00
 -1      2194 1.93658E+01 0.00000E+00 8.47371E+00
 -1      2195 1.93125E+01 0.00000E+00 8.54773E+00
 -1      2196 1.93617E+01 0.00000E+00 8.17223E+00
 -1      2197 1.93154E+01 0.00000E+00 8.11731E+00
 -1      2198 1.93671E+01 0.00000E+00 8.09508E+00
 -1      2199 1.93729E+01 0.00000E+00 8.04371E+00
 -1      2200 1.93593E+01 0.00000E+00 8.22204E+00
 -1      2201 1.93608E+01 0.00000E+00 1.72015E+00
 -1      2202 1.93628E+01 0.00000E+00 1.67036E+00
 -1      2203 1.93552E+01 0.00000E+00 1.77119E+00
 -1      2204 1.93067E+01 0.00000E+00 1.74177E+00
 -1      2205 1.93561E+01 0.00000E+00 1.82161E+00
 -1      2206 1.93801E+01 0.00000E+00 2.26074E+00
 -1      2207 1.93731E+01 0.00000E+00 2.21300E+00
 -1      2208 1.93265E+01 0.00000E+00 2.20012E+00
 -1      2209 1.93673E+01 0.00000E+00 2.14707E+00
 -1      2210 1.93582E+01 0.00000E+00 2.09765E+00
 -1      2211 1.93653E+01 0.00000E+00 7.72609E+00
 -1      2212 1.93652E+01 0.00000E+00 7.67567E+00
 -1      2213 1.93601E+01 0.00000E+00 7.62478E+00
 -1      2214 1.93598E+01 0.00000E+00 7.57519E+00
 -1      2215 1.93161E+01 0.00000E+00 7.65088E+00
 -1      2216 1.93549E+01 0.00000E+00 6.32629E+00
 -1      2217 1.93529E+01 0.00000E+00 6.27652E+00
 -1      2218 1.93678E+01 0.00000E+00 6.22537E+00
 -1      2219 1.93672E+01 0.00000E+00 6.17497E+00
 -1      2220 1.93114E+01 0.00000E+00 6.25143E+00
 -1      2221 1.93600E+01 0.00000E+00 5.92507E+00
 -1      2222 1.93567E+01 0.00000E+00 5.87217E+00
 -1      2223 1.93615E+01 0.00000E+00 5.79806E+00
 -1      2224 1.93130E+01 0.00000E+00 5.82633E+00
 -1      2225 1.93598E+01 0.00000E+00 5.39225E+00
 -1      2226 1.93712E+01 0.00000E+00 5.46857E+00
 -1      2227 1.93197E+01 0.00000E+00 5.41969E+00
 -1      2228 1.93723E+01 0.00000E+00 5.52300E+00
 -1      2229 1.93863E+01 0.00000E+00 9.69889E+00
 -1      2230 1.93848E+01 0.00000E+00 9.76633E+00
 -1      2231 1.93479E+01 0.00000E+00 9.72133E+00
 -1      2232 1.93805E+01 0.00000E+00 9.81712E+00
 -1      2233 1.93487E+01 0.00000E+00 3.12920E-01
 -1      2234 1.92926E+01 0.00000E+00 2.95245E-01
 -1      2235 1.93404E+01 0.00000E+00 2.43801E-01
 -1      2236 1.93457E+01 0.00000E+00 1.92256E-01
 -1      2237 7.76438E+00 0.00000E+00 6.97743E+00
 -1      2238 8.91799E+00 0.00000E+00 7.11370E+00
 -1      2239 9.84350E+00 0.00000E+00 6.73150E+00
 -1      2240 1.91959E+01 0.00000E+00 9.80445E+00
 -1      2241 1.92860E+01 0.00000E+00 9.81962E+00
 -1      2242 1.90736E+01 0.00000E+00 9.70898E+00
 -1      2243 1.91402E+01 0.00000E+00 9.78019E+00
 -1      2244 1.90687E+01 0.00000E+00 9.78506E+00
 -1      2245 1.89655E+01 0.00000E+00 9.78084E+00
 -1      2246 1.92007E+01 0.00000E+00 9.72838E+00
 -1      2247 8.01716E+00 0.00000E+00 3.84226E+00
 -1      2248 6.68969E+00 0.00000E+00 3.78157E+00
 -1      2249 5.93265E+00 0.00000E+00 5.20656E+00
 -1      2250 5.18217E+00 0.00000E+00 4.05858E+00
 -1      2251 1.93047E+01 0.00000E+00 1.61341E-01
 -1      2252 1.92401E+01 0.00000E+00 1.70281E-01
 -1      2253 1.93661E+01 0.00000E+00 1.27470E-01
 -1      2254 1.93014E+01 0.00000E+00 9.77071E+00
 -1      2255 1.93310E+01 0.00000E+00 9.83769E+00
 -1      2256 1.93651E+01 0.00000E+00 9.86603E+00
 -1      2257 1.58107E+01 0.00000E+00 1.09635E+00
 -1      2258 1.56949E+01 0.00000E+00 1.55211E+00
 -1      2259 1.61571E+01 0.00000E+00 1.12642E+00
 -1      2260 1.52576E+01 0.00000E+00 2.23903E+00
 -1      2261 1.46556E+01 0.00000E+00 2.38371E+00
 -1      2262 1.58000E+01 0.00000E+00 2.14385E+00
 -1      2263 1.56323E+01 0.00000E+00 2.64000E+00
 -1      2264 1.58915E+01 0.00000E+00 1.78755E+00
 -1      2265 1.62661E+01 0.00000E+00 2.18852E+00
 -1      2266 1.61610E+01 0.00000E+00 1.59678E+00
 -1      2267 1.45287E+01 0.00000E+00 2.89630E+00
 -1      2268 1.40944E+01 0.00000E+00 2.54483E+00
 -1      2269 1.33107E+01 0.00000E+00 2.74527E+00
 -1      2270 1.34377E+01 0.00000E+00 2.23269E+00
 -1      2271 1.60101E+01 0.00000E+00 2.97612E+00
 -1      2272 1.54677E+01 0.00000E+00 3.07130E+00
 -1      2273 1.53516E+01 0.00000E+00 3.55041E+00
 -1      2274 1.49738E+01 0.00000E+00 3.21429E+00
 -1      2275 1.44125E+01 0.00000E+00 3.37541E+00
 -1      2276 1.64114E+01 0.00000E+00 2.88953E+00
 -1      2277 1.62468E+01 0.00000E+00 3.32083E+00
 -1      2278 1.65090E+01 0.00000E+00 2.64130E+00
 -1      2279 1.67457E+01 0.00000E+00 2.98601E+00
 -1      2280 1.66067E+01 0.00000E+00 2.05263E+00
 -1      2281 1.65152E+01 0.00000E+00 2.40893E+00
 -1      2282 1.68496E+01 0.00000E+00 2.50541E+00
 -1      2283 1.65529E+01 0.00000E+00 3.59845E+00
 -1      2284 1.61516E+01 0.00000E+00 3.68505E+00
 -1      2285 1.60793E+01 0.00000E+00 4.08727E+00
 -1      2286 1.57732E+01 0.00000E+00 3.80964E+00
 -1      2287 1.52793E+01 0.00000E+00 3.95263E+00
 -1      2288 1.69030E+01 0.00000E+00 3.49219E+00
 -1      2289 1.68078E+01 0.00000E+00 3.85640E+00
 -1      2290 1.69552E+01 0.00000E+00 3.18977E+00
 -1      2291 1.72101E+01 0.00000E+00 3.44772E+00
 -1      2292 1.70528E+01 0.00000E+00 2.94154E+00
 -1      2293 1.63917E+01 0.00000E+00 4.33930E+00
 -1      2294 1.60132E+01 0.00000E+00 4.46389E+00
 -1      2295 1.67322E+01 0.00000E+00 4.21714E+00
 -1      2296 1.66661E+01 0.00000E+00 4.59377E+00
 -1      2297 1.70823E+01 0.00000E+00 4.11087E+00
 -1      2298 1.59548E+01 0.00000E+00 4.85995E+00
 -1      2299 1.56424E+01 0.00000E+00 4.60791E+00
 -1      2300 1.52524E+01 0.00000E+00 4.40921E+00
 -1      2301 1.48308E+01 0.00000E+00 4.14998E+00
 -1      2302 1.51939E+01 0.00000E+00 4.80526E+00
 -1      2303 1.69567E+01 0.00000E+00 4.81576E+00
 -1      2304 1.66161E+01 0.00000E+00 4.93792E+00
 -1      2305 1.65671E+01 0.00000E+00 5.30634E+00
 -1      2306 1.62765E+01 0.00000E+00 5.08435E+00
 -1      2307 1.59057E+01 0.00000E+00 5.22837E+00
 -1      2308 1.72622E+01 0.00000E+00 4.71168E+00
 -1      2309 1.72122E+01 0.00000E+00 5.05584E+00
 -1      2310 1.73210E+01 0.00000E+00 4.39708E+00
 -1      2311 1.75765E+01 0.00000E+00 4.63716E+00
 -1      2312 1.73966E+01 0.00000E+00 4.03634E+00
 -1      2313 1.69415E+01 0.00000E+00 5.52409E+00
 -1      2314 1.66019E+01 0.00000E+00 5.67052E+00
 -1      2315 1.71393E+01 0.00000E+00 5.32161E+00
 -1      2316 1.71742E+01 0.00000E+00 5.68579E+00
 -1      2317 1.74449E+01 0.00000E+00 5.21754E+00
 -1      2318 1.65907E+01 0.00000E+00 6.04263E+00
 -1      2319 1.62163E+01 0.00000E+00 5.82489E+00
 -1      2320 1.58565E+01 0.00000E+00 5.99022E+00
 -1      2321 1.58678E+01 0.00000E+00 5.61811E+00
 -1      2322 1.55460E+01 0.00000E+00 5.39371E+00
 -1      2323 1.69031E+01 0.00000E+00 6.23738E+00
 -1      2324 1.65174E+01 0.00000E+00 6.39175E+00
 -1      2325 1.72181E+01 0.00000E+00 6.12751E+00
 -1      2326 1.71448E+01 0.00000E+00 6.47663E+00
 -1      2327 1.73098E+01 0.00000E+00 5.90206E+00
 -1      2328 1.75516E+01 0.00000E+00 6.14131E+00
 -1      2329 1.75076E+01 0.00000E+00 5.69959E+00
 -1      2330 1.78158E+01 0.00000E+00 4.50169E+00
 -1      2331 1.77571E+01 0.00000E+00 4.81629E+00
 -1      2332 1.79685E+01 0.00000E+00 4.89428E+00
 -1      2333 1.77291E+01 0.00000E+00 5.02975E+00
 -1      2334 1.76352E+01 0.00000E+00 5.19191E+00
 -1      2335 1.75623E+01 0.00000E+00 5.45769E+00
 -1      2336 1.78466E+01 0.00000E+00 5.26990E+00
 -1      2337 1.78702E+01 0.00000E+00 4.28548E+00
 -1      2338 1.80508E+01 0.00000E+00 4.46462E+00
 -1      2339 1.77766E+01 0.00000E+00 4.14684E+00
 -1      2340 1.80116E+01 0.00000E+00 4.10977E+00
 -1      2341 1.73880E+01 0.00000E+00 3.79015E+00
 -1      2342 1.76266E+01 0.00000E+00 4.07637E+00
 -1      2343 1.77680E+01 0.00000E+00 3.90065E+00
 -1      2344 1.65039E+01 0.00000E+00 6.77357E+00
 -1      2345 1.61915E+01 0.00000E+00 6.57882E+00
 -1      2346 1.58290E+01 0.00000E+00 6.41383E+00
 -1      2347 1.54805E+01 0.00000E+00 6.20705E+00
 -1      2348 1.58155E+01 0.00000E+00 6.79564E+00
 -1      2349 1.74099E+01 0.00000E+00 6.63689E+00
 -1      2350 1.70949E+01 0.00000E+00 6.74676E+00
 -1      2351 1.71101E+01 0.00000E+00 7.05238E+00
 -1      2352 1.68450E+01 0.00000E+00 6.89212E+00
 -1      2353 1.65191E+01 0.00000E+00 7.07919E+00
 -1      2354 1.76540E+01 0.00000E+00 6.53023E+00
 -1      2355 1.76041E+01 0.00000E+00 6.80035E+00
 -1      2356 1.76872E+01 0.00000E+00 6.32495E+00
 -1      2357 1.78815E+01 0.00000E+00 6.48841E+00
 -1      2358 1.77790E+01 0.00000E+00 6.09950E+00
 -1      2359 1.78272E+01 0.00000E+00 6.93178E+00
 -1      2360 1.75830E+01 0.00000E+00 7.03844E+00
 -1      2361 1.75966E+01 0.00000E+00 7.27406E+00
 -1      2362 1.73736E+01 0.00000E+00 7.14262E+00
 -1      2363 1.71237E+01 0.00000E+00 7.28799E+00
 -1      2364 1.80390E+01 0.00000E+00 6.82640E+00
 -1      2365 1.80179E+01 0.00000E+00 7.06450E+00
 -1      2366 1.80458E+01 0.00000E+00 6.61227E+00
 -1      2367 1.82365E+01 0.00000E+00 6.74498E+00
 -1      2368 1.80790E+01 0.00000E+00 6.40699E+00
 -1      2369 1.82030E+01 0.00000E+00 7.17302E+00
 -1      2370 1.79912E+01 0.00000E+00 7.27840E+00
 -1      2371 1.79895E+01 0.00000E+00 7.49309E+00
 -1      2372 1.78044E+01 0.00000E+00 7.38457E+00
 -1      2373 1.75950E+01 0.00000E+00 7.48875E+00
 -1      2374 1.82647E+01 0.00000E+00 4.38693E+00
 -1      2375 1.82103E+01 0.00000E+00 4.60313E+00
 -1      2376 1.83728E+01 0.00000E+00 4.71188E+00
 -1      2377 1.81589E+01 0.00000E+00 4.78957E+00
 -1      2378 1.81310E+01 0.00000E+00 5.00303E+00
 -1      2379 1.83023E+01 0.00000E+00 4.20035E+00
 -1      2380 1.84618E+01 0.00000E+00 4.33886E+00
 -1      2381 1.81718E+01 0.00000E+00 4.06780E+00
 -1      2382 1.83689E+01 0.00000E+00 4.01973E+00
 -1      2383 1.80782E+01 0.00000E+00 3.92915E+00
 -1      2384 1.50482E+01 0.00000E+00 6.36930E+00
 -1      2385 1.50757E+01 0.00000E+00 5.94570E+00
 -1      2386 1.47414E+01 0.00000E+00 5.72552E+00
 -1      2387 1.51737E+01 0.00000E+00 5.56327E+00
 -1      2388 1.52117E+01 0.00000E+00 5.17353E+00
 -1      2389 1.83558E+01 0.00000E+00 7.10094E+00
 -1      2390 1.83291E+01 0.00000E+00 7.31484E+00
 -1      2391 1.83807E+01 0.00000E+00 6.60220E+00
 -1      2392 1.83740E+01 0.00000E+00 6.81633E+00
 -1      2393 1.83692E+01 0.00000E+00 6.95723E+00
 -1      2394 1.84952E+01 0.00000E+00 7.09905E+00
 -1      2395 1.85134E+01 0.00000E+00 6.81444E+00
 -1      2396 1.81895E+01 0.00000E+00 7.59729E+00
 -1      2397 1.80028E+01 0.00000E+00 7.70346E+00
 -1      2398 1.82826E+01 0.00000E+00 7.48563E+00
 -1      2399 1.82958E+01 0.00000E+00 7.69600E+00
 -1      2400 1.84354E+01 0.00000E+00 7.41355E+00
 -1      2401 1.80175E+01 0.00000E+00 7.91587E+00
 -1      2402 1.78175E+01 0.00000E+00 7.81167E+00
 -1      2403 1.76326E+01 0.00000E+00 7.92373E+00
 -1      2404 1.76179E+01 0.00000E+00 7.71133E+00
 -1      2405 1.74101E+01 0.00000E+00 7.60081E+00
 -1      2406 1.82048E+01 0.00000E+00 8.00660E+00
 -1      2407 1.80195E+01 0.00000E+00 8.11480E+00
 -1      2408 1.83592E+01 0.00000E+00 7.92021E+00
 -1      2409 1.83612E+01 0.00000E+00 8.11914E+00
 -1      2410 1.83758E+01 0.00000E+00 7.78489E+00
 -1      2411 1.85322E+01 0.00000E+00 7.89744E+00
 -1      2412 1.84689E+01 0.00000E+00 7.67323E+00
 -1      2413 1.81092E+01 0.00000E+00 6.23229E+00
 -1      2414 1.82735E+01 0.00000E+00 6.35615E+00
 -1      2415 1.83887E+01 0.00000E+00 6.25969E+00
 -1      2416 1.83585E+01 0.00000E+00 6.43439E+00
 -1      2417 1.84959E+01 0.00000E+00 6.50574E+00
 -1      2418 1.80415E+01 0.00000E+00 8.32507E+00
 -1      2419 1.78541E+01 0.00000E+00 8.23434E+00
 -1      2420 1.76357E+01 0.00000E+00 8.16635E+00
 -1      2421 1.74361E+01 0.00000E+00 8.06600E+00
 -1      2422 1.76576E+01 0.00000E+00 8.37661E+00
 -1      2423 1.85326E+01 0.00000E+00 8.20405E+00
 -1      2424 1.83783E+01 0.00000E+00 8.29043E+00
 -1      2425 1.83972E+01 0.00000E+00 8.46951E+00
 -1      2426 1.82258E+01 0.00000E+00 8.38461E+00
 -1      2427 1.80604E+01 0.00000E+00 8.50415E+00
 -1      2428 1.35350E+01 0.00000E+00 3.23919E+00
 -1      2429 1.28784E+01 0.00000E+00 2.92705E+00
 -1      2430 1.43675E+01 0.00000E+00 3.89958E+00
 -1      2431 1.39224E+01 0.00000E+00 3.58159E+00
 -1      2432 1.34900E+01 0.00000E+00 3.76337E+00
 -1      2433 1.85407E+01 0.00000E+00 4.65284E+00
 -1      2434 1.84893E+01 0.00000E+00 4.83928E+00
 -1      2435 1.85653E+01 0.00000E+00 4.25778E+00
 -1      2436 1.85276E+01 0.00000E+00 4.44436E+00
 -1      2437 1.85821E+01 0.00000E+00 4.53387E+00
 -1      2438 1.86987E+01 0.00000E+00 4.66127E+00
 -1      2439 1.86856E+01 0.00000E+00 4.45279E+00
 -1      2440 1.86598E+01 0.00000E+00 4.93697E+00
 -1      2441 1.84919E+01 0.00000E+00 4.99601E+00
 -1      2442 1.84933E+01 0.00000E+00 5.15905E+00
 -1      2443 1.83229E+01 0.00000E+00 5.06136E+00
 -1      2444 1.81324E+01 0.00000E+00 5.16607E+00
 -1      2445 1.83999E+01 0.00000E+00 3.85036E+00
 -1      2446 1.85304E+01 0.00000E+00 3.98291E+00
 -1      2447 1.86635E+01 0.00000E+00 3.91619E+00
 -1      2448 1.86325E+01 0.00000E+00 4.08556E+00
 -1      2449 1.87542E+01 0.00000E+00 4.11681E+00
 -1      2450 1.86212E+01 0.00000E+00 4.18354E+00
 -1      2451 1.86870E+01 0.00000E+00 4.28903E+00
 -1      2452 1.82853E+01 0.00000E+00 3.72361E+00
 -1      2453 1.84469E+01 0.00000E+00 3.68679E+00
 -1      2454 1.80858E+01 0.00000E+00 3.75692E+00
 -1      2455 1.81328E+01 0.00000E+00 3.59335E+00
 -1      2456 1.79256E+01 0.00000E+00 3.79889E+00
 -1      2457 1.85072E+01 0.00000E+00 3.53424E+00
 -1      2458 1.86218E+01 0.00000E+00 3.66099E+00
 -1      2459 1.87578E+01 0.00000E+00 3.64195E+00
 -1      2460 1.86974E+01 0.00000E+00 3.79451E+00
 -1      2461 1.87995E+01 0.00000E+00 3.89715E+00
 -1      2462 1.83875E+01 0.00000E+00 3.41033E+00
 -1      2463 1.85624E+01 0.00000E+00 3.38453E+00
 -1      2464 1.82129E+01 0.00000E+00 3.42826E+00
 -1      2465 1.82681E+01 0.00000E+00 3.27855E+00
 -1      2466 1.80133E+01 0.00000E+00 3.46157E+00
 -1      2467 1.85894E+01 0.00000E+00 3.23565E+00
 -1      2468 1.87092E+01 0.00000E+00 3.35956E+00
 -1      2469 1.88315E+01 0.00000E+00 3.30056E+00
 -1      2470 1.88044E+01 0.00000E+00 3.44944E+00
 -1      2471 1.89204E+01 0.00000E+00 3.48609E+00
 -1      2472 1.87980E+01 0.00000E+00 3.54509E+00
 -1      2473 1.88737E+01 0.00000E+00 3.67860E+00
 -1      2474 1.85071E+01 0.00000E+00 3.11266E+00
 -1      2475 1.86539E+01 0.00000E+00 3.08769E+00
 -1      2476 1.83260E+01 0.00000E+00 3.12406E+00
 -1      2477 1.83904E+01 0.00000E+00 2.97609E+00
 -1      2478 1.81514E+01 0.00000E+00 3.14198E+00
 -1      2479 1.50058E+01 0.00000E+00 6.86268E+00
 -1      2480 1.46011E+01 0.00000E+00 6.60133E+00
 -1      2481 1.54555E+01 0.00000E+00 7.08312E+00
 -1      2482 1.50083E+01 0.00000E+00 7.31515E+00
 -1      2483 1.58180E+01 0.00000E+00 7.24811E+00
 -1      2484 1.40711E+01 0.00000E+00 6.80676E+00
 -1      2485 1.41135E+01 0.00000E+00 6.31338E+00
 -1      2486 1.37456E+01 0.00000E+00 5.89606E+00
 -1      2487 1.42756E+01 0.00000E+00 5.69063E+00
 -1      2488 1.43735E+01 0.00000E+00 5.30820E+00
 -1      2489 1.71756E+01 0.00000E+00 8.18635E+00
 -1      2490 1.71726E+01 0.00000E+00 7.94373E+00
 -1      2491 1.69416E+01 0.00000E+00 7.85502E+00
 -1      2492 1.72021E+01 0.00000E+00 7.73467E+00
 -1      2493 1.71791E+01 0.00000E+00 7.51210E+00
 -1      2494 1.71998E+01 0.00000E+00 8.47529E+00
 -1      2495 1.69363E+01 0.00000E+00 8.35302E+00
 -1      2496 1.75069E+01 0.00000E+00 8.57027E+00
 -1      2497 1.72676E+01 0.00000E+00 8.73694E+00
 -1      2498 1.77254E+01 0.00000E+00 8.63826E+00
 -1      2499 1.86499E+01 0.00000E+00 8.10433E+00
 -1      2500 1.86670E+01 0.00000E+00 8.27562E+00
 -1      2501 1.86500E+01 0.00000E+00 7.97114E+00
 -1      2502 1.87843E+01 0.00000E+00 8.04271E+00
 -1      2503 1.86666E+01 0.00000E+00 7.83581E+00
 -1      2504 1.85511E+01 0.00000E+00 8.53959E+00
 -1      2505 1.83986E+01 0.00000E+00 8.63376E+00
 -1      2506 1.86151E+01 0.00000E+00 8.45759E+00
 -1      2507 1.86165E+01 0.00000E+00 8.62184E+00
 -1      2508 1.88183E+01 0.00000E+00 8.29565E+00
 -1      2509 1.87010E+01 0.00000E+00 8.39537E+00
 -1      2510 1.87664E+01 0.00000E+00 8.47762E+00
 -1      2511 1.85119E+01 0.00000E+00 7.54710E+00
 -1      2512 1.85584E+01 0.00000E+00 7.37630E+00
 -1      2513 1.86156E+01 0.00000E+00 7.25890E+00
 -1      2514 1.86922E+01 0.00000E+00 7.39244E+00
 -1      2515 1.86035E+01 0.00000E+00 7.00573E+00
 -1      2516 1.85902E+01 0.00000E+00 7.14944E+00
 -1      2517 1.87239E+01 0.00000E+00 7.16557E+00
 -1      2518 1.87079E+01 0.00000E+00 2.98676E+00
 -1      2519 1.87902E+01 0.00000E+00 3.10975E+00
 -1      2520 1.88594E+01 0.00000E+00 3.19135E+00
 -1      2521 1.89546E+01 0.00000E+00 3.28123E+00
 -1      2522 1.89134E+01 0.00000E+00 3.09042E+00
 -1      2523 1.82763E+01 0.00000E+00 2.84605E+00
 -1      2524 1.84574E+01 0.00000E+00 2.83464E+00
 -1      2525 1.84769E+01 0.00000E+00 2.69113E+00
 -1      2526 1.85911E+01 0.00000E+00 2.82118E+00
 -1      2527 1.86755E+01 0.00000E+00 2.76075E+00
 -1      2528 1.86560E+01 0.00000E+00 2.90426E+00
 -1      2529 1.87923E+01 0.00000E+00 2.92633E+00
 -1      2530 1.81134E+01 0.00000E+00 2.86322E+00
 -1      2531 1.81804E+01 0.00000E+00 2.72177E+00
 -1      2532 1.79358E+01 0.00000E+00 3.12693E+00
 -1      2533 1.79937E+01 0.00000E+00 2.97244E+00
 -1      2534 1.78979E+01 0.00000E+00 2.84816E+00
 -1      2535 1.83941E+01 0.00000E+00 2.56412E+00
 -1      2536 1.85278E+01 0.00000E+00 2.55065E+00
 -1      2537 1.82382E+01 0.00000E+00 2.57382E+00
 -1      2538 1.82891E+01 0.00000E+00 2.43334E+00
 -1      2539 1.80754E+01 0.00000E+00 2.59099E+00
 -1      2540 1.77756E+01 0.00000E+00 3.72842E+00
 -1      2541 1.75595E+01 0.00000E+00 3.69098E+00
 -1      2542 1.77171E+01 0.00000E+00 3.58922E+00
 -1      2543 1.78195E+01 0.00000E+00 3.46918E+00
 -1      2544 1.78996E+01 0.00000E+00 3.30409E+00
 -1      2545 1.76034E+01 0.00000E+00 3.43174E+00
 -1      2546 1.85823E+01 0.00000E+00 2.43812E+00
 -1      2547 1.86651E+01 0.00000E+00 2.56513E+00
 -1      2548 1.87754E+01 0.00000E+00 2.55987E+00
 -1      2549 1.87210E+01 0.00000E+00 2.67241E+00
 -1      2550 1.87858E+01 0.00000E+00 2.75549E+00
 -1      2551 1.82033E+01 0.00000E+00 2.28767E+00
 -1      2552 1.83592E+01 0.00000E+00 2.27797E+00
 -1      2553 1.84463E+01 0.00000E+00 2.13489E+00
 -1      2554 1.85321E+01 0.00000E+00 2.28056E+00
 -1      2555 1.86694E+01 0.00000E+00 2.29504E+00
 -1      2556 1.80137E+01 0.00000E+00 2.29319E+00
 -1      2557 1.80838E+01 0.00000E+00 2.13782E+00
 -1      2558 1.79418E+01 0.00000E+00 2.47964E+00
 -1      2559 1.78223E+01 0.00000E+00 2.32978E+00
 -1      2560 1.78840E+01 0.00000E+00 2.62759E+00
 -1      2561 1.80060E+01 0.00000E+00 1.99458E+00
 -1      2562 1.81956E+01 0.00000E+00 1.98907E+00
 -1      2563 1.83544E+01 0.00000E+00 1.98860E+00
 -1      2564 1.85274E+01 0.00000E+00 1.99119E+00
 -1      2565 1.82766E+01 0.00000E+00 1.84537E+00
 -1      2566 1.76042E+01 0.00000E+00 2.34360E+00
 -1      2567 1.76761E+01 0.00000E+00 2.15715E+00
 -1      2568 1.75754E+01 0.00000E+00 1.95113E+00
 -1      2569 1.77935E+01 0.00000E+00 1.93731E+00
 -1      2570 1.79053E+01 0.00000E+00 1.78856E+00
 -1      2571 1.85871E+01 0.00000E+00 1.84596E+00
 -1      2572 1.86791E+01 0.00000E+00 1.99225E+00
 -1      2573 1.88303E+01 0.00000E+00 1.94231E+00
 -1      2574 1.87705E+01 0.00000E+00 2.08754E+00
 -1      2575 1.89007E+01 0.00000E+00 2.15720E+00
 -1      2576 1.87495E+01 0.00000E+00 2.20714E+00
 -1      2577 1.87996E+01 0.00000E+00 2.36470E+00
 -1      2578 1.85352E+01 0.00000E+00 1.71160E+00
 -1      2579 1.86870E+01 0.00000E+00 1.71266E+00
 -1      2580 1.83580E+01 0.00000E+00 1.70816E+00
 -1      2581 1.84578E+01 0.00000E+00 1.57485E+00
 -1      2582 1.81992E+01 0.00000E+00 1.70863E+00
 -1      2583 1.87463E+01 0.00000E+00 1.62557E+00
 -1      2584 1.87983E+01 0.00000E+00 1.75994E+00
 -1      2585 1.88700E+01 0.00000E+00 1.83981E+00
 -1      2586 1.89614E+01 0.00000E+00 1.93510E+00
 -1      2587 1.89293E+01 0.00000E+00 1.75273E+00
 -1      2588 1.83679E+01 0.00000E+00 1.43318E+00
 -1      2589 1.85452E+01 0.00000E+00 1.43662E+00
 -1      2590 1.85982E+01 0.00000E+00 1.29533E+00
 -1      2591 1.86881E+01 0.00000E+00 1.43700E+00
 -1      2592 1.88130E+01 0.00000E+00 1.39814E+00
 -1      2593 1.87600E+01 0.00000E+00 1.53944E+00
 -1      2594 1.88713E+01 0.00000E+00 1.58671E+00
 -1      2595 1.82040E+01 0.00000E+00 1.42969E+00
 -1      2596 1.82913E+01 0.00000E+00 1.29146E+00
 -1      2597 1.80669E+01 0.00000E+00 1.70278E+00
 -1      2598 1.81483E+01 0.00000E+00 1.56557E+00
 -1      2599 1.80717E+01 0.00000E+00 1.42385E+00
 -1      2600 1.87741E+01 0.00000E+00 4.86004E+00
 -1      2601 1.87767E+01 0.00000E+00 5.01677E+00
 -1      2602 1.87893E+01 0.00000E+00 4.74243E+00
 -1      2603 1.89061E+01 0.00000E+00 4.82223E+00
 -1      2604 1.88307E+01 0.00000E+00 4.62346E+00
 -1      2605 1.86304E+01 0.00000E+00 5.24890E+00
 -1      2606 1.84614E+01 0.00000E+00 5.31425E+00
 -1      2607 1.87376E+01 0.00000E+00 5.20036E+00
 -1      2608 1.87057E+01 0.00000E+00 5.35557E+00
 -1      2609 1.89008E+01 0.00000E+00 5.03952E+00
 -1      2610 1.87865E+01 0.00000E+00 5.11645E+00
 -1      2611 1.88617E+01 0.00000E+00 5.22311E+00
 -1      2612 1.84560E+01 0.00000E+00 5.47495E+00
 -1      2613 1.83190E+01 0.00000E+00 5.38510E+00
 -1      2614 1.81881E+01 0.00000E+00 5.47446E+00
 -1      2615 1.81935E+01 0.00000E+00 5.31376E+00
 -1      2616 1.80015E+01 0.00000E+00 5.25543E+00
 -1      2617 1.85912E+01 0.00000E+00 5.55322E+00
 -1      2618 1.84488E+01 0.00000E+00 5.62406E+00
 -1      2619 1.87251E+01 0.00000E+00 5.47646E+00
 -1      2620 1.87178E+01 0.00000E+00 5.62557E+00
 -1      2621 1.88323E+01 0.00000E+00 5.42792E+00
 -1      2622 1.84484E+01 0.00000E+00 5.77453E+00
 -1      2623 1.83133E+01 0.00000E+00 5.69627E+00
 -1      2624 1.81568E+01 0.00000E+00 5.76641E+00
 -1      2625 1.81572E+01 0.00000E+00 5.61594E+00
 -1      2626 1.80317E+01 0.00000E+00 5.54460E+00
 -1      2627 1.88407E+01 0.00000E+00 5.68780E+00
 -1      2628 1.87068E+01 0.00000E+00 5.76456E+00
 -1      2629 1.87047E+01 0.00000E+00 5.89678E+00
 -1      2630 1.85818E+01 0.00000E+00 5.83455E+00
 -1      2631 1.84462E+01 0.00000E+00 5.90675E+00
 -1      2632 1.85292E+01 0.00000E+00 1.17122E+00
 -1      2633 1.86721E+01 0.00000E+00 1.17160E+00
 -1      2634 1.83780E+01 0.00000E+00 1.15596E+00
 -1      2635 1.84519E+01 0.00000E+00 1.03223E+00
 -1      2636 1.82141E+01 0.00000E+00 1.15247E+00
 -1      2637 1.87532E+01 0.00000E+00 1.04864E+00
 -1      2638 1.88222E+01 0.00000E+00 1.17274E+00
 -1      2639 1.89448E+01 0.00000E+00 1.16713E+00
 -1      2640 1.88637E+01 0.00000E+00 1.29009E+00
 -1      2641 1.89356E+01 0.00000E+00 1.39253E+00
 -1      2642 1.84156E+01 0.00000E+00 8.80144E+00
 -1      2643 1.82617E+01 0.00000E+00 8.73136E+00
 -1      2644 1.81285E+01 0.00000E+00 8.83317E+00
 -1      2645 1.81115E+01 0.00000E+00 8.66550E+00
 -1      2646 1.79272E+01 0.00000E+00 8.60595E+00
 -1      2647 1.85657E+01 0.00000E+00 8.85859E+00
 -1      2648 1.84288E+01 0.00000E+00 8.95619E+00
 -1      2649 1.86828E+01 0.00000E+00 8.78079E+00
 -1      2650 1.86960E+01 0.00000E+00 8.93554E+00
 -1      2651 1.86975E+01 0.00000E+00 8.67007E+00
 -1      2652 1.88278E+01 0.00000E+00 8.74702E+00
 -1      2653 1.87614E+01 0.00000E+00 8.58807E+00
 -1      2654 1.89291E+01 0.00000E+00 3.86554E+00
 -1      2655 1.88952E+01 0.00000E+00 3.98722E+00
 -1      2656 1.89725E+01 0.00000E+00 4.06296E+00
 -1      2657 1.88429E+01 0.00000E+00 4.09456E+00
 -1      2658 1.88316E+01 0.00000E+00 4.19254E+00
 -1      2659 1.88884E+01 0.00000E+00 7.97334E+00
 -1      2660 1.88884E+01 0.00000E+00 8.10654E+00
 -1      2661 1.90035E+01 0.00000E+00 8.14459E+00
 -1      2662 1.88994E+01 0.00000E+00 8.21396E+00
 -1      2663 1.89334E+01 0.00000E+00 8.33370E+00
 -1      2664 1.88944E+01 0.00000E+00 7.85784E+00
 -1      2665 1.89984E+01 0.00000E+00 7.92167E+00
 -1      2666 1.87972E+01 0.00000E+00 7.79210E+00
 -1      2667 1.89072E+01 0.00000E+00 7.74043E+00
 -1      2668 1.86795E+01 0.00000E+00 7.71840E+00
 -1      2669 1.66895E+01 0.00000E+00 8.50310E+00
 -1      2670 1.66653E+01 0.00000E+00 8.21415E+00
 -1      2671 1.63963E+01 0.00000E+00 8.04270E+00
 -1      2672 1.66432E+01 0.00000E+00 7.89263E+00
 -1      2673 1.66727E+01 0.00000E+00 7.68357E+00
 -1      2674 1.89452E+01 0.00000E+00 5.63486E+00
 -1      2675 1.89342E+01 0.00000E+00 5.77385E+00
 -1      2676 1.89665E+01 0.00000E+00 5.53327E+00
 -1      2677 1.90599E+01 0.00000E+00 5.61932E+00
 -1      2678 1.89224E+01 0.00000E+00 5.45482E+00
 -1      2679 1.90372E+01 0.00000E+00 5.43927E+00
 -1      2680 1.89030E+01 0.00000E+00 5.33392E+00
 -1      2681 1.90344E+01 0.00000E+00 5.83181E+00
 -1      2682 1.89300E+01 0.00000E+00 5.88475E+00
 -1      2683 1.89365E+01 0.00000E+00 6.00366E+00
 -1      2684 1.88363E+01 0.00000E+00 5.94571E+00
 -1      2685 1.87112E+01 0.00000E+00 6.01570E+00
 -1      2686 1.90227E+01 0.00000E+00 4.78274E+00
 -1      2687 1.90076E+01 0.00000E+00 4.90035E+00
 -1      2688 1.90999E+01 0.00000E+00 4.95523E+00
 -1      2689 1.89833E+01 0.00000E+00 4.99472E+00
 -1      2690 1.89931E+01 0.00000E+00 5.09440E+00
 -1      2691 1.90379E+01 0.00000E+00 4.67931E+00
 -1      2692 1.91394E+01 0.00000E+00 4.75743E+00
 -1      2693 1.89522E+01 0.00000E+00 4.60574E+00
 -1      2694 1.90688E+01 0.00000E+00 4.58043E+00
 -1      2695 1.88616E+01 0.00000E+00 4.52458E+00
 -1      2696 1.90491E+01 0.00000E+00 1.87953E+00
 -1      2697 1.90095E+01 0.00000E+00 1.98202E+00
 -1      2698 1.90839E+01 0.00000E+00 2.13438E+00
 -1      2699 1.89807E+01 0.00000E+00 2.12852E+00
 -1      2700 1.90249E+01 0.00000E+00 2.04345E+00
 -1      2701 1.91126E+01 0.00000E+00 1.98788E+00
 -1      2702 1.89597E+01 0.00000E+00 2.24813E+00
 -1      2703 1.83919E+01 0.00000E+00 9.06459E-01
 -1      2704 1.85431E+01 0.00000E+00 9.21726E-01
 -1      2705 1.86803E+01 0.00000E+00 9.41379E-01
 -1      2706 1.88304E+01 0.00000E+00 9.42523E-01
 -1      2707 1.86203E+01 0.00000E+00 8.15610E-01
 -1      2708 1.82312E+01 0.00000E+00 8.72134E-01
 -1      2709 1.83223E+01 0.00000E+00 7.61631E-01
 -1      2710 1.81391E+01 0.00000E+00 1.00545E+00
 -1      2711 1.80696E+01 0.00000E+00 8.60625E-01
 -1      2712 1.80525E+01 0.00000E+00 1.14096E+00
 -1      2713 1.88767E+01 0.00000E+00 8.34003E-01
 -1      2714 1.89495E+01 0.00000E+00 9.41263E-01
 -1      2715 1.90053E+01 0.00000E+00 1.07122E+00
 -1      2716 1.90469E+01 0.00000E+00 1.18857E+00
 -1      2717 1.90471E+01 0.00000E+00 8.90371E-01
 -1      2718 1.90008E+01 0.00000E+00 9.98891E-01
 -1      2719 1.91029E+01 0.00000E+00 1.02033E+00
 -1      2720 1.88258E+01 0.00000E+00 7.39691E-01
 -1      2721 1.89449E+01 0.00000E+00 7.38431E-01
 -1      2722 1.87049E+01 0.00000E+00 7.22998E-01
 -1      2723 1.87732E+01 0.00000E+00 6.27427E-01
 -1      2724 1.85677E+01 0.00000E+00 7.03345E-01
 -1      2725 1.90662E+01 0.00000E+00 3.25241E+00
 -1      2726 1.90384E+01 0.00000E+00 3.36162E+00
 -1      2727 1.91181E+01 0.00000E+00 3.42916E+00
 -1      2728 1.90065E+01 0.00000E+00 3.45798E+00
 -1      2729 1.90001E+01 0.00000E+00 3.55362E+00
 -1      2730 1.90785E+01 0.00000E+00 3.15277E+00
 -1      2731 1.91622E+01 0.00000E+00 3.23317E+00
 -1      2732 1.90200E+01 0.00000E+00 3.08014E+00
 -1      2733 1.91160E+01 0.00000E+00 3.06090E+00
 -1      2734 1.89508E+01 0.00000E+00 2.99854E+00
 -1      2735 1.90935E+01 0.00000E+00 1.77418E+00
 -1      2736 1.91944E+01 0.00000E+00 1.77832E+00
 -1      2737 1.91020E+01 0.00000E+00 1.83675E+00
 -1      2738 1.91501E+01 0.00000E+00 1.88367E+00
 -1      2739 1.89524E+01 0.00000E+00 1.65246E+00
 -1      2740 1.90241E+01 0.00000E+00 1.73234E+00
 -1      2741 1.91165E+01 0.00000E+00 1.67391E+00
 -1      2742 1.90431E+01 0.00000E+00 1.37206E+00
 -1      2743 1.89923E+01 0.00000E+00 1.48011E+00
 -1      2744 1.90927E+01 0.00000E+00 1.27886E+00
 -1      2745 1.91494E+01 0.00000E+00 1.36645E+00
 -1      2746 1.91532E+01 0.00000E+00 1.18295E+00
 -1      2747 1.89952E+01 0.00000E+00 6.48805E-01
 -1      2748 1.90461E+01 0.00000E+00 7.43116E-01
 -1      2749 1.91420E+01 0.00000E+00 7.37754E-01
 -1      2750 1.90918E+01 0.00000E+00 8.27380E-01
 -1      2751 1.91431E+01 0.00000E+00 8.85009E-01
 -1      2752 1.90967E+01 0.00000E+00 7.86155E+00
 -1      2753 1.90907E+01 0.00000E+00 7.97705E+00
 -1      2754 1.90832E+01 0.00000E+00 8.07875E+00
 -1      2755 1.90942E+01 0.00000E+00 8.18617E+00
 -1      2756 1.91815E+01 0.00000E+00 8.01863E+00
 -1      2757 1.89161E+01 0.00000E+00 7.63340E+00
 -1      2758 1.90132E+01 0.00000E+00 7.69914E+00
 -1      2759 1.91101E+01 0.00000E+00 7.64919E+00
 -1      2760 1.91012E+01 0.00000E+00 7.75622E+00
 -1      2761 1.91935E+01 0.00000E+00 7.81160E+00
 -1      2762 1.91871E+01 0.00000E+00 8.21362E+00
 -1      2763 1.91075E+01 0.00000E+00 8.27945E+00
 -1      2764 1.91226E+01 0.00000E+00 8.35487E+00
 -1      2765 1.90296E+01 0.00000E+00 8.32743E+00
 -1      2766 1.89485E+01 0.00000E+00 8.40912E+00
 -1      2767 1.75253E+01 0.00000E+00 2.56991E+00
 -1      2768 1.73791E+01 0.00000E+00 2.39728E+00
 -1      2769 1.77643E+01 0.00000E+00 2.73680E+00
 -1      2770 1.75392E+01 0.00000E+00 2.79048E+00
 -1      2771 1.72739E+01 0.00000E+00 1.96916E+00
 -1      2772 1.73913E+01 0.00000E+00 1.74931E+00
 -1      2773 1.71569E+01 0.00000E+00 2.22200E+00
 -1      2774 1.69728E+01 0.00000E+00 2.02018E+00
 -1      2775 1.70780E+01 0.00000E+00 2.44831E+00
 -1      2776 1.89547E+01 0.00000E+00 5.63376E-01
 -1      2777 1.90559E+01 0.00000E+00 5.68061E-01
 -1      2778 1.88508E+01 0.00000E+00 5.48551E-01
 -1      2779 1.89114E+01 0.00000E+00 4.67808E-01
 -1      2780 1.87299E+01 0.00000E+00 5.31858E-01
 -1      2781 1.84611E+01 0.00000E+00 9.11068E+00
 -1      2782 1.83110E+01 0.00000E+00 9.05353E+00
 -1      2783 1.81706E+01 0.00000E+00 9.15285E+00
 -1      2784 1.81383E+01 0.00000E+00 8.99836E+00
 -1      2785 1.79881E+01 0.00000E+00 8.93250E+00
 -1      2786 1.88263E+01 0.00000E+00 8.98099E+00
 -1      2787 1.87091E+01 0.00000E+00 9.05880E+00
 -1      2788 1.87387E+01 0.00000E+00 9.18172E+00
 -1      2789 1.86084E+01 0.00000E+00 9.13627E+00
 -1      2790 1.84906E+01 0.00000E+00 9.23361E+00
 -1      2791 1.89198E+01 0.00000E+00 8.90837E+00
 -1      2792 1.89329E+01 0.00000E+00 9.03162E+00
 -1      2793 1.89164E+01 0.00000E+00 8.80150E+00
 -1      2794 1.90230E+01 0.00000E+00 8.85213E+00
 -1      2795 1.89310E+01 0.00000E+00 8.69078E+00
 -1      2796 1.90497E+01 0.00000E+00 9.07378E+00
 -1      2797 1.89562E+01 0.00000E+00 9.14641E+00
 -1      2798 1.89812E+01 0.00000E+00 9.25635E+00
 -1      2799 1.88644E+01 0.00000E+00 9.21419E+00
 -1      2800 1.87637E+01 0.00000E+00 9.29166E+00
 -1      2801 1.91117E+01 0.00000E+00 8.79174E+00
 -1      2802 1.91151E+01 0.00000E+00 8.89861E+00
 -1      2803 1.91146E+01 0.00000E+00 8.99312E+00
 -1      2804 1.91379E+01 0.00000E+00 9.10790E+00
 -1      2805 1.92033E+01 0.00000E+00 8.93273E+00
 -1      2806 1.90963E+01 0.00000E+00 8.70064E+00
 -1      2807 1.91885E+01 0.00000E+00 8.74712E+00
 -1      2808 1.90180E+01 0.00000E+00 8.64881E+00
 -1      2809 1.90947E+01 0.00000E+00 8.60419E+00
 -1      2810 1.89294E+01 0.00000E+00 8.59433E+00
 -1      2811 1.90660E+01 0.00000E+00 9.29421E+00
 -1      2812 1.89742E+01 0.00000E+00 9.36199E+00
 -1      2813 1.91290E+01 0.00000E+00 9.24984E+00
 -1      2814 1.91220E+01 0.00000E+00 9.35548E+00
 -1      2815 1.92205E+01 0.00000E+00 9.11280E+00
 -1      2816 1.91556E+01 0.00000E+00 9.19346E+00
 -1      2817 1.92116E+01 0.00000E+00 9.25473E+00
 -1      2818 1.91128E+01 0.00000E+00 5.78016E+00
 -1      2819 1.91086E+01 0.00000E+00 5.89105E+00
 -1      2820 1.91383E+01 0.00000E+00 5.58640E+00
 -1      2821 1.91169E+01 0.00000E+00 5.68800E+00
 -1      2822 1.91911E+01 0.00000E+00 5.74725E+00
 -1      2823 1.90416E+01 0.00000E+00 6.05935E+00
 -1      2824 1.89479E+01 0.00000E+00 6.12031E+00
 -1      2825 1.91195E+01 0.00000E+00 5.98293E+00
 -1      2826 1.91309E+01 0.00000E+00 6.09957E+00
 -1      2827 1.91979E+01 0.00000E+00 5.93128E+00
 -1      2828 1.89570E+01 0.00000E+00 6.23099E+00
 -1      2829 1.88519E+01 0.00000E+00 6.17530E+00
 -1      2830 1.87497E+01 0.00000E+00 6.23966E+00
 -1      2831 1.87406E+01 0.00000E+00 6.12898E+00
 -1      2832 1.86090E+01 0.00000E+00 6.08006E+00
 -1      2833 1.90390E+01 0.00000E+00 6.28201E+00
 -1      2834 1.89431E+01 0.00000E+00 6.33700E+00
 -1      2835 1.91077E+01 0.00000E+00 6.24708E+00
 -1      2836 1.90938E+01 0.00000E+00 6.35309E+00
 -1      2837 1.92164E+01 0.00000E+00 6.11056E+00
 -1      2838 1.91385E+01 0.00000E+00 6.18698E+00
 -1      2839 1.91932E+01 0.00000E+00 6.25806E+00
 -1      2840 1.89457E+01 0.00000E+00 6.44553E+00
 -1      2841 1.88637E+01 0.00000E+00 6.39451E+00
 -1      2842 1.87721E+01 0.00000E+00 6.45380E+00
 -1      2843 1.87695E+01 0.00000E+00 6.34527E+00
 -1      2844 1.86581E+01 0.00000E+00 6.29895E+00
 -1      2845 1.90450E+01 0.00000E+00 6.49377E+00
 -1      2846 1.89655E+01 0.00000E+00 6.55129E+00
 -1      2847 1.90823E+01 0.00000E+00 6.43225E+00
 -1      2848 1.91021E+01 0.00000E+00 6.53800E+00
 -1      2849 1.91509E+01 0.00000E+00 6.39732E+00
 -1      2850 1.89729E+01 0.00000E+00 6.65774E+00
 -1      2851 1.88736E+01 0.00000E+00 6.60950E+00
 -1      2852 1.87972E+01 0.00000E+00 6.67890E+00
 -1      2853 1.87898E+01 0.00000E+00 6.57245E+00
 -1      2854 1.86956E+01 0.00000E+00 6.52320E+00
 -1      2855 1.90661E+01 0.00000E+00 6.70780E+00
 -1      2856 1.89741E+01 0.00000E+00 6.76601E+00
 -1      2857 1.91423E+01 0.00000E+00 6.65670E+00
 -1      2858 1.91436E+01 0.00000E+00 6.76497E+00
 -1      2859 1.91412E+01 0.00000E+00 6.57846E+00
 -1      2860 1.92187E+01 0.00000E+00 6.63563E+00
 -1      2861 1.91785E+01 0.00000E+00 6.51693E+00
 -1      2862 1.89791E+01 0.00000E+00 6.87152E+00
 -1      2863 1.88859E+01 0.00000E+00 6.82146E+00
 -1      2864 1.87892E+01 0.00000E+00 6.87922E+00
 -1      2865 1.87843E+01 0.00000E+00 6.77371E+00
 -1      2866 1.87005E+01 0.00000E+00 6.73666E+00
 -1      2867 1.90774E+01 0.00000E+00 6.91884E+00
 -1      2868 1.89891E+01 0.00000E+00 6.97429E+00
 -1      2869 1.91444E+01 0.00000E+00 6.85776E+00
 -1      2870 1.91544E+01 0.00000E+00 6.96054E+00
 -1      2871 1.92206E+01 0.00000E+00 6.80666E+00
 -1      2872 1.91522E+01 0.00000E+00 5.50583E+00
 -1      2873 1.92093E+01 0.00000E+00 5.57451E+00
 -1      2874 1.91113E+01 0.00000E+00 5.42730E+00
 -1      2875 1.91823E+01 0.00000E+00 5.41541E+00
 -1      2876 1.90672E+01 0.00000E+00 5.34885E+00
 -1      2877 1.88294E+01 0.00000E+00 7.56151E+00
 -1      2878 1.89354E+01 0.00000E+00 7.52022E+00
 -1      2879 1.87225E+01 0.00000E+00 7.59227E+00
 -1      2880 1.87419E+01 0.00000E+00 7.47909E+00
 -1      2881 1.85920E+01 0.00000E+00 7.63598E+00
 -1      2882 1.89538E+01 0.00000E+00 7.42972E+00
 -1      2883 1.90404E+01 0.00000E+00 7.50161E+00
 -1      2884 1.91130E+01 0.00000E+00 7.55371E+00
 -1      2885 1.92010E+01 0.00000E+00 7.61079E+00
 -1      2886 1.91314E+01 0.00000E+00 7.46321E+00
 -1      2887 1.91940E+01 0.00000E+00 6.52321E-01
 -1      2888 1.92397E+01 0.00000E+00 7.36585E-01
 -1      2889 1.90984E+01 0.00000E+00 4.88325E-01
 -1      2890 1.91388E+01 0.00000E+00 5.73754E-01
 -1      2891 1.92365E+01 0.00000E+00 5.72585E-01
 -1      2892 1.89973E+01 0.00000E+00 9.46438E+00
 -1      2893 1.89125E+01 0.00000E+00 9.42652E+00
 -1      2894 1.88350E+01 0.00000E+00 9.50086E+00
 -1      2895 1.88119E+01 0.00000E+00 9.39847E+00
 -1      2896 1.86861E+01 0.00000E+00 9.36600E+00
 -1      2897 1.90812E+01 0.00000E+00 9.48957E+00
 -1      2898 1.90196E+01 0.00000E+00 9.55410E+00
 -1      2899 1.91288E+01 0.00000E+00 9.43092E+00
 -1      2900 1.91510E+01 0.00000E+00 9.52064E+00
 -1      2901 1.91918E+01 0.00000E+00 9.38655E+00
 -1      2902 1.81709E+01 0.00000E+00 5.91170E+00
 -1      2903 1.80148E+01 0.00000E+00 5.83137E+00
 -1      2904 1.84417E+01 0.00000E+00 6.07411E+00
 -1      2905 1.83083E+01 0.00000E+00 6.01409E+00
 -1      2906 1.81663E+01 0.00000E+00 6.07905E+00
 -1      2907 1.76980E+01 0.00000E+00 5.67396E+00
 -1      2908 1.78767E+01 0.00000E+00 5.55907E+00
 -1      2909 1.78220E+01 0.00000E+00 5.80097E+00
 -1      2910 1.78361E+01 0.00000E+00 5.94626E+00
 -1      2911 1.79076E+01 0.00000E+00 5.41759E+00
 -1      2912 1.91748E+01 0.00000E+00 2.11625E+00
 -1      2913 1.91307E+01 0.00000E+00 2.20133E+00
 -1      2914 1.92035E+01 0.00000E+00 2.04157E+00
 -1      2915 1.92503E+01 0.00000E+00 2.10852E+00
 -1      2916 1.91665E+01 0.00000E+00 1.99715E+00
 -1      2917 1.92419E+01 0.00000E+00 1.98942E+00
 -1      2918 1.91511E+01 0.00000E+00 1.93573E+00
 -1      2919 1.90443E+01 0.00000E+00 2.29594E+00
 -1      2920 1.89642E+01 0.00000E+00 2.32462E+00
 -1      2921 1.92177E+01 0.00000E+00 2.27622E+00
 -1      2922 1.91268E+01 0.00000E+00 2.29435E+00
 -1      2923 1.91313E+01 0.00000E+00 2.37084E+00
 -1      2924 1.73477E+01 0.00000E+00 9.03948E+00
 -1      2925 1.70405E+01 0.00000E+00 8.94451E+00
 -1      2926 1.67097E+01 0.00000E+00 8.81512E+00
 -1      2927 1.64387E+01 0.00000E+00 8.67625E+00
 -1      2928 1.67898E+01 0.00000E+00 9.11766E+00
 -1      2929 1.91771E+01 0.00000E+00 4.93408E+00
 -1      2930 1.91528E+01 0.00000E+00 5.02845E+00
 -1      2931 1.92056E+01 0.00000E+00 4.71200E+00
 -1      2932 1.91904E+01 0.00000E+00 4.81543E+00
 -1      2933 1.92141E+01 0.00000E+00 4.88077E+00
 -1      2934 1.92670E+01 0.00000E+00 4.95398E+00
 -1      2935 1.93392E+01 0.00000E+00 4.56233E+00
 -1      2936 1.93418E+01 0.00000E+00 4.61224E+00
 -1      2937 1.93519E+01 0.00000E+00 4.66456E+00
 -1      2938 1.92855E+01 0.00000E+00 4.62919E+00
 -1      2939 1.93503E+01 0.00000E+00 4.71481E+00
 -1      2940 1.93632E+01 0.00000E+00 5.12525E+00
 -1      2941 1.93648E+01 0.00000E+00 5.07500E+00
 -1      2942 1.93726E+01 0.00000E+00 5.02547E+00
 -1      2943 1.93720E+01 0.00000E+00 4.97529E+00
 -1      2944 1.93240E+01 0.00000E+00 5.05047E+00
 -1      2945 1.92197E+01 0.00000E+00 5.09067E+00
 -1      2946 1.91424E+01 0.00000E+00 5.11182E+00
 -1      2947 1.91418E+01 0.00000E+00 5.18842E+00
 -1      2948 1.90749E+01 0.00000E+00 5.12619E+00
 -1      2949 1.89924E+01 0.00000E+00 5.17099E+00
 -1      2950 1.90865E+01 0.00000E+00 4.48427E+00
 -1      2951 1.91722E+01 0.00000E+00 4.55784E+00
 -1      2952 1.92327E+01 0.00000E+00 4.51928E+00
 -1      2953 1.92150E+01 0.00000E+00 4.61543E+00
 -1      2954 1.92251E+01 0.00000E+00 4.66775E+00
 -1      2955 1.92761E+01 0.00000E+00 4.72576E+00
 -1      2956 1.90135E+01 0.00000E+00 4.41323E+00
 -1      2957 1.91169E+01 0.00000E+00 4.39064E+00
 -1      2958 1.89165E+01 0.00000E+00 4.43162E+00
 -1      2959 1.89469E+01 0.00000E+00 4.33798E+00
 -1      2960 1.87951E+01 0.00000E+00 4.44934E+00
 -1      2961 1.89997E+01 0.00000E+00 7.07621E+00
 -1      2962 1.89014E+01 0.00000E+00 7.02889E+00
 -1      2963 1.88052E+01 0.00000E+00 7.09346E+00
 -1      2964 1.87946E+01 0.00000E+00 6.99154E+00
 -1      2965 1.86930E+01 0.00000E+00 6.94379E+00
 -1      2966 1.90925E+01 0.00000E+00 7.12882E+00
 -1      2967 1.90047E+01 0.00000E+00 7.18342E+00
 -1      2968 1.91647E+01 0.00000E+00 7.07015E+00
 -1      2969 1.91697E+01 0.00000E+00 7.17736E+00
 -1      2970 1.92128E+01 0.00000E+00 6.95515E+00
 -1      2971 1.91458E+01 0.00000E+00 7.01623E+00
 -1      2972 1.92231E+01 0.00000E+00 7.06477E+00
 -1      2973 1.72362E+01 0.00000E+00 1.53962E+00
 -1      2974 1.75376E+01 0.00000E+00 1.52160E+00
 -1      2975 1.75876E+01 0.00000E+00 1.30057E+00
 -1      2976 1.77427E+01 0.00000E+00 1.51026E+00
 -1      2977 1.79043E+01 0.00000E+00 1.42449E+00
 -1      2978 1.78544E+01 0.00000E+00 1.64551E+00
 -1      2979 1.69434E+01 0.00000E+00 1.53040E+00
 -1      2980 1.70898E+01 0.00000E+00 1.30269E+00
 -1      2981 1.67237E+01 0.00000E+00 1.79978E+00
 -1      2982 1.65773E+01 0.00000E+00 1.56285E+00
 -1      2983 1.76284E+01 0.00000E+00 9.06048E+00
 -1      2984 1.74013E+01 0.00000E+00 9.26805E+00
 -1      2985 1.77765E+01 0.00000E+00 8.79961E+00
 -1      2986 1.77863E+01 0.00000E+00 8.96480E+00
 -1      2987 1.78400E+01 0.00000E+00 9.19337E+00
 -1      2988 1.85758E+01 0.00000E+00 6.37124E+00
 -1      2989 1.85560E+01 0.00000E+00 6.26564E+00
 -1      2990 1.84711E+01 0.00000E+00 6.18739E+00
 -1      2991 1.92113E+01 0.00000E+00 3.40816E+00
 -1      2992 1.91795E+01 0.00000E+00 3.50451E+00
 -1      2993 1.92375E+01 0.00000E+00 3.19367E+00
 -1      2994 1.92252E+01 0.00000E+00 3.29331E+00
 -1      2995 1.92281E+01 0.00000E+00 3.35013E+00
 -1      2996 1.92895E+01 0.00000E+00 3.42549E+00
 -1      2997 1.93340E+01 0.00000E+00 3.46345E+00
 -1      2998 1.93406E+01 0.00000E+00 3.51547E+00
 -1      2999 1.93655E+01 0.00000E+00 3.57662E+00
 -1      3000 1.92977E+01 0.00000E+00 3.54466E+00
 -1      3001 1.93673E+01 0.00000E+00 3.62779E+00
 -1      3002 1.92434E+01 0.00000E+00 3.56033E+00
 -1      3003 1.91502E+01 0.00000E+00 3.58133E+00
 -1      3004 1.91367E+01 0.00000E+00 3.69538E+00
 -1      3005 1.90728E+01 0.00000E+00 3.63956E+00
 -1      3006 1.89866E+01 0.00000E+00 3.66767E+00
 -1      3007 1.90198E+01 0.00000E+00 7.26807E+00
 -1      3008 1.89270E+01 0.00000E+00 7.21546E+00
 -1      3009 1.88307E+01 0.00000E+00 7.20292E+00
 -1      3010 1.88457E+01 0.00000E+00 7.28757E+00
 -1      3011 1.92488E+01 0.00000E+00 7.19915E+00
 -1      3012 1.91766E+01 0.00000E+00 7.25781E+00
 -1      3013 1.92232E+01 0.00000E+00 7.33537E+00
 -1      3014 1.91441E+01 0.00000E+00 7.31359E+00
 -1      3015 1.90005E+01 0.00000E+00 7.35561E+00
 -1      3016 1.90781E+01 0.00000E+00 7.32357E+00
 -1      3017 1.91248E+01 0.00000E+00 7.40113E+00
 -1      3018 1.90735E+01 0.00000E+00 1.54586E+00
 -1      3019 1.89660E+01 0.00000E+00 1.56632E+00
 -1      3020 1.92319E+01 0.00000E+00 1.35041E+00
 -1      3021 1.91822E+01 0.00000E+00 1.44362E+00
 -1      3022 1.92464E+01 0.00000E+00 1.50538E+00
 -1      3023 1.91639E+01 0.00000E+00 1.52141E+00
 -1      3024 1.91377E+01 0.00000E+00 1.60762E+00
 -1      3025 1.41759E+01 0.00000E+00 7.39800E+00
 -1      3026 1.36884E+01 0.00000E+00 7.11005E+00
 -1      3027 1.51084E+01 0.00000E+00 7.71397E+00
 -1      3028 1.46588E+01 0.00000E+00 7.49353E+00
 -1      3029 1.42760E+01 0.00000E+00 7.79681E+00
 -1      3030 1.30615E+01 0.00000E+00 6.14313E+00
 -1      3031 1.32236E+01 0.00000E+00 5.52038E+00
 -1      3032 1.30258E+01 0.00000E+00 6.96151E+00
 -1      3033 1.25038E+01 0.00000E+00 6.58582E+00
 -1      3034 1.25911E+01 0.00000E+00 5.10288E+00
 -1      3035 1.32752E+01 0.00000E+00 4.85581E+00
 -1      3036 1.32600E+01 0.00000E+00 4.27204E+00
 -1      3037 1.38925E+01 0.00000E+00 4.68954E+00
 -1      3038 1.43407E+01 0.00000E+00 4.35616E+00
 -1      3039 1.43558E+01 0.00000E+00 4.93993E+00
 -1      3040 1.48217E+01 0.00000E+00 4.97482E+00
 -1      3041 1.17863E+01 0.00000E+00 5.42621E+00
 -1      3042 1.18379E+01 0.00000E+00 4.76164E+00
 -1      3043 1.16178E+01 0.00000E+00 6.53773E+00
 -1      3044 1.08646E+01 0.00000E+00 6.19649E+00
 -1      3045 1.15821E+01 0.00000E+00 7.35610E+00
 -1      3046 1.62761E+01 0.00000E+00 7.34091E+00
 -1      3047 1.59161E+01 0.00000E+00 7.62839E+00
 -1      3048 1.59980E+01 0.00000E+00 8.08642E+00
 -1      3049 1.55398E+01 0.00000E+00 7.99362E+00
 -1      3050 1.51903E+01 0.00000E+00 8.17200E+00
 -1      3051 1.92512E+01 0.00000E+00 8.10835E-01
 -1      3052 1.93124E+01 0.00000E+00 8.45750E-01
 -1      3053 1.92490E+01 0.00000E+00 8.56933E-01
 -1      3054 1.92637E+01 0.00000E+00 9.31247E-01
 -1      3055 1.92025E+01 0.00000E+00 8.96332E-01
 -1      3056 1.91578E+01 0.00000E+00 9.59323E-01
 -1      3057 1.91531E+01 0.00000E+00 2.98204E+00
 -1      3058 1.92116E+01 0.00000E+00 3.05468E+00
 -1      3059 1.92425E+01 0.00000E+00 3.12247E+00
 -1      3060 1.93055E+01 0.00000E+00 3.18261E+00
 -1      3061 1.90967E+01 0.00000E+00 2.90675E+00
 -1      3062 1.91923E+01 0.00000E+00 2.90053E+00
 -1      3063 1.90028E+01 0.00000E+00 2.91246E+00
 -1      3064 1.90420E+01 0.00000E+00 2.83095E+00
 -1      3065 1.88961E+01 0.00000E+00 2.92274E+00
 -1      3066 1.92549E+01 0.00000E+00 7.97854E+00
 -1      3067 1.92473E+01 0.00000E+00 8.08024E+00
 -1      3068 1.92546E+01 0.00000E+00 7.75313E+00
 -1      3069 1.92500E+01 0.00000E+00 7.85847E+00
 -1      3070 1.92560E+01 0.00000E+00 7.91454E+00
 -1      3071 1.93218E+01 0.00000E+00 7.97615E+00
 -1      3072 1.92419E+01 0.00000E+00 8.15740E+00
 -1      3073 1.92552E+01 0.00000E+00 8.25068E+00
 -1      3074 1.91349E+01 0.00000E+00 4.29650E+00
 -1      3075 1.92080E+01 0.00000E+00 4.36755E+00
 -1      3076 1.92684E+01 0.00000E+00 4.33670E+00
 -1      3077 1.92503E+01 0.00000E+00 4.43084E+00
 -1      3078 1.92565E+01 0.00000E+00 4.47764E+00
 -1      3079 1.92992E+01 0.00000E+00 4.53523E+00
 -1      3080 1.93687E+01 0.00000E+00 4.22913E+00
 -1      3081 1.93621E+01 0.00000E+00 4.17975E+00
 -1      3082 1.93706E+01 0.00000E+00 4.32317E+00
 -1      3083 1.93718E+01 0.00000E+00 4.27285E+00
 -1      3084 1.93288E+01 0.00000E+00 4.25218E+00
 -1      3085 1.88851E+01 0.00000E+00 4.26334E+00
 -1      3086 1.89821E+01 0.00000E+00 4.24494E+00
 -1      3087 1.90718E+01 0.00000E+00 4.23257E+00
 -1      3088 1.91628E+01 0.00000E+00 4.20948E+00
 -1      3089 1.90100E+01 0.00000E+00 4.15792E+00
 -1      3090 1.87964E+01 0.00000E+00 4.28558E+00
 -1      3091 1.87406E+01 0.00000E+00 4.35983E+00
 -1      3092 1.92520E+01 0.00000E+00 1.81685E+00
 -1      3093 1.93033E+01 0.00000E+00 1.84789E+00
 -1      3094 1.92543E+01 0.00000E+00 1.87194E+00
 -1      3095 1.92553E+01 0.00000E+00 1.92399E+00
 -1      3096 1.92040E+01 0.00000E+00 1.89295E+00
 -1      3097 1.92435E+01 0.00000E+00 1.75428E+00
 -1      3098 1.91937E+01 0.00000E+00 1.10223E+00
 -1      3099 1.92396E+01 0.00000E+00 1.19253E+00
 -1      3100 1.91623E+01 0.00000E+00 1.03165E+00
 -1      3101 1.92486E+01 0.00000E+00 1.04123E+00
 -1      3102 1.92552E+01 0.00000E+00 1.28662E+00
 -1      3103 1.92618E+01 0.00000E+00 1.24314E+00
 -1      3104 1.93180E+01 0.00000E+00 1.25652E+00
 -1      3105 1.85981E+01 0.00000E+00 6.89341E+00
 -1      3106 1.86029E+01 0.00000E+00 6.75250E+00
 -1      3107 1.86158E+01 0.00000E+00 6.65770E+00
 -1      3108 1.60201E+01 0.00000E+00 8.40794E+00
 -1      3109 1.92558E+01 0.00000E+00 8.35345E+00
 -1      3110 1.92592E+01 0.00000E+00 8.44450E+00
 -1      3111 1.92039E+01 0.00000E+00 8.39795E+00
 -1      3112 1.91260E+01 0.00000E+00 8.44593E+00
 -1      3113 1.93164E+01 0.00000E+00 8.24764E+00
 -1      3114 1.92616E+01 0.00000E+00 8.30386E+00
 -1      3115 1.92325E+01 0.00000E+00 8.68944E+00
 -1      3116 1.92480E+01 0.00000E+00 8.78054E+00
 -1      3117 1.92658E+01 0.00000E+00 8.89078E+00
 -1      3118 1.92653E+01 0.00000E+00 8.98529E+00
 -1      3119 1.92635E+01 0.00000E+00 8.83171E+00
 -1      3120 1.93254E+01 0.00000E+00 8.88427E+00
 -1      3121 1.91119E+01 0.00000E+00 8.52068E+00
 -1      3122 1.91902E+01 0.00000E+00 8.57252E+00
 -1      3123 1.92545E+01 0.00000E+00 8.54336E+00
 -1      3124 1.92374E+01 0.00000E+00 8.62686E+00
 -1      3125 1.92969E+01 0.00000E+00 8.66028E+00
 -1      3126 1.11217E+01 0.00000E+00 4.16805E+00
 -1      3127 1.19265E+01 0.00000E+00 3.84472E+00
 -1      3128 1.21565E+01 0.00000E+00 3.33605E+00
 -1      3129 1.28727E+01 0.00000E+00 3.92964E+00
 -1      3130 1.02393E+01 0.00000E+00 4.74332E+00
 -1      3131 1.03279E+01 0.00000E+00 3.82640E+00
 -1      3132 1.00120E+01 0.00000E+00 5.61998E+00
 -1      3133 9.21819E+00 0.00000E+00 5.27833E+00
 -1      3134 1.92699E+01 0.00000E+00 6.75715E+00
 -1      3135 1.92706E+01 0.00000E+00 6.84995E+00
 -1      3136 1.92525E+01 0.00000E+00 7.00327E+00
 -1      3137 1.92611E+01 0.00000E+00 6.94757E+00
 -1      3138 1.92740E+01 0.00000E+00 6.89977E+00
 -1      3139 1.93137E+01 0.00000E+00 6.94788E+00
 -1      3140 1.93233E+01 0.00000E+00 6.85026E+00
 -1      3141 1.88875E+01 0.00000E+00 3.86323E-01
 -1      3142 1.89914E+01 0.00000E+00 4.01148E-01
 -1      3143 1.90785E+01 0.00000E+00 4.12534E-01
 -1      3144 1.91615E+01 0.00000E+00 4.18226E-01
 -1      3145 1.90545E+01 0.00000E+00 3.31049E-01
 -1      3146 1.86971E+01 0.00000E+00 4.04031E-01
 -1      3147 1.87874E+01 0.00000E+00 3.27822E-01
 -1      3148 1.86195E+01 0.00000E+00 4.82907E-01
 -1      3149 1.89464E+01 0.00000E+00 3.76454E+00
 -1      3150 1.90420E+01 0.00000E+00 3.85461E+00
 -1      3151 1.90966E+01 0.00000E+00 3.98418E+00
 -1      3152 1.91340E+01 0.00000E+00 4.07915E+00
 -1      3153 1.90622E+01 0.00000E+00 4.05058E+00
 -1      3154 1.91308E+01 0.00000E+00 3.81908E+00
 -1      3155 1.91135E+01 0.00000E+00 3.92008E+00
 -1      3156 1.91853E+01 0.00000E+00 3.94865E+00
 -1      3157 1.90528E+01 0.00000E+00 9.64657E+00
 -1      3158 1.89689E+01 0.00000E+00 9.62139E+00
 -1      3159 1.88796E+01 0.00000E+00 9.59364E+00
 -1      3160 1.87790E+01 0.00000E+00 9.56559E+00
 -1      3161 1.89129E+01 0.00000E+00 9.68611E+00
 -1      3162 1.91243E+01 0.00000E+00 9.64170E+00
 -1      3163 1.91653E+01 0.00000E+00 9.59138E+00
 -1      3164 1.91861E+01 0.00000E+00 9.65380E+00
 -1      3165 1.92129E+01 0.00000E+00 9.53274E+00
 -1      3166 1.79718E+01 0.00000E+00 6.12990E+00
 -1      3167 1.82287E+01 0.00000E+00 9.29956E+00
 -1      3168 1.80560E+01 0.00000E+00 9.24439E+00
 -1      3169 1.85431E+01 0.00000E+00 9.35031E+00
 -1      3170 1.83958E+01 0.00000E+00 9.32472E+00
 -1      3171 1.82812E+01 0.00000E+00 9.41626E+00
 -1      3172 1.87991E+01 0.00000E+00 7.36168E+00
 -1      3173 1.88954E+01 0.00000E+00 7.37422E+00
 -1      3174 1.92213E+01 0.00000E+00 3.53399E-01
 -1      3175 1.92412E+01 0.00000E+00 4.29190E-01
 -1      3176 1.92487E+01 0.00000E+00 4.97344E-01
 -1      3177 1.93038E+01 0.00000E+00 5.75912E-01
 -1      3178 1.85913E+01 0.00000E+00 9.45712E+00
 -1      3179 1.86594E+01 0.00000E+00 9.54313E+00
 -1      3180 1.85163E+01 0.00000E+00 9.52744E+00
 -1      3181 1.70152E+01 0.00000E+00 1.09403E+00
 -1      3182 1.73080E+01 0.00000E+00 1.10325E+00
 -1      3183 1.74960E+01 0.00000E+00 1.10307E+00
 -1      3184 1.77011E+01 0.00000E+00 1.09174E+00
 -1      3185 1.68175E+01 0.00000E+00 9.08645E-01
 -1      3186 1.65733E+01 0.00000E+00 1.09248E+00
 -1      3187 1.63807E+01 0.00000E+00 1.32740E+00
 -1      3188 1.92591E+01 0.00000E+00 9.06271E+00
 -1      3189 1.92768E+01 0.00000E+00 9.14827E+00
 -1      3190 1.88473E+01 0.00000E+00 8.52585E+00
 -1      3191 1.89344E+01 0.00000E+00 8.48388E+00
 -1      3192 1.90306E+01 0.00000E+00 8.47760E+00
 -1      3193 1.73817E+01 0.00000E+00 3.34854E+00
 -1      3194 1.73295E+01 0.00000E+00 3.65096E+00
 -1      3195 1.89519E+01 0.00000E+00 5.25001E+00
 -1      3196 1.66172E+01 0.00000E+00 7.45946E+00
 -1      3197 1.69157E+01 0.00000E+00 7.42185E+00
 -1      3198 1.92476E+01 0.00000E+00 5.86992E+00
 -1      3199 1.92585E+01 0.00000E+00 5.96180E+00
 -1      3200 1.92566E+01 0.00000E+00 5.70365E+00
 -1      3201 1.92524E+01 0.00000E+00 5.79581E+00
 -1      3202 1.92613E+01 0.00000E+00 6.06180E+00
 -1      3203 1.92689E+01 0.00000E+00 6.14921E+00
 -1      3204 1.92676E+01 0.00000E+00 6.01469E+00
 -1      3205 1.93173E+01 0.00000E+00 5.95334E+00
 -1      3206 1.93200E+01 0.00000E+00 6.15037E+00
 -1      3207 1.92751E+01 0.00000E+00 6.19912E+00
 -1      3208 1.92602E+01 0.00000E+00 6.25027E+00
 -1      3209 1.92294E+01 0.00000E+00 6.31037E+00
 -1      3210 1.92689E+01 0.00000E+00 5.54800E+00
 -1      3211 1.92550E+01 0.00000E+00 5.62858E+00
 -1      3212 1.92792E+01 0.00000E+00 6.45350E+00
 -1      3213 1.92666E+01 0.00000E+00 6.52869E+00
 -1      3214 1.92301E+01 0.00000E+00 6.48220E+00
 -1      3215 1.91910E+01 0.00000E+00 6.44174E+00
 -1      3216 1.93145E+01 0.00000E+00 6.35129E+00
 -1      3217 1.92876E+01 0.00000E+00 6.40350E+00
 -1      3218 1.92696E+01 0.00000E+00 6.35479E+00
 -1      3219 1.92025E+01 0.00000E+00 6.36258E+00
 -1      3220 1.92677E+01 0.00000E+00 6.58311E+00
 -1      3221 1.92689E+01 0.00000E+00 6.66135E+00
 -1      3222 1.92758E+01 0.00000E+00 6.70950E+00
 -1      3223 1.93248E+01 0.00000E+00 6.65699E+00
 -1      3224 1.91824E+01 0.00000E+00 4.12976E+00
 -1      3225 1.92456E+01 0.00000E+00 4.19369E+00
 -1      3226 1.92954E+01 0.00000E+00 4.16121E+00
 -1      3227 1.92759E+01 0.00000E+00 4.24093E+00
 -1      3228 1.92790E+01 0.00000E+00 4.28466E+00
 -1      3229 1.93213E+01 0.00000E+00 4.34795E+00
 -1      3230 1.92121E+01 0.00000E+00 2.82334E+00
 -1      3231 1.92685E+01 0.00000E+00 2.89863E+00
 -1      3232 1.93307E+01 0.00000E+00 2.86943E+00
 -1      3233 1.89941E+01 0.00000E+00 2.75233E+00
 -1      3234 1.90881E+01 0.00000E+00 2.74662E+00
 -1      3235 1.91289E+01 0.00000E+00 2.66676E+00
 -1      3236 1.91768E+01 0.00000E+00 2.74537E+00
 -1      3237 1.92530E+01 0.00000E+00 2.74348E+00
 -1      3238 1.88896E+01 0.00000E+00 2.75190E+00
 -1      3239 1.89357E+01 0.00000E+00 2.66758E+00
 -1      3240 1.88442E+01 0.00000E+00 2.84025E+00
 -1      3241 1.90817E+01 0.00000E+00 2.59086E+00
 -1      3242 1.91704E+01 0.00000E+00 2.58961E+00
 -1      3243 1.89918E+01 0.00000E+00 2.58560E+00
 -1      3244 1.90332E+01 0.00000E+00 2.50846E+00
 -1      3245 1.88873E+01 0.00000E+00 2.58517E+00
 -1      3246 1.92086E+01 0.00000E+00 2.51301E+00
 -1      3247 1.92559E+01 0.00000E+00 2.58891E+00
 -1      3248 1.93256E+01 0.00000E+00 2.57012E+00
 -1      3249 1.92873E+01 0.00000E+00 2.64672E+00
 -1      3250 1.92677E+01 0.00000E+00 2.68954E+00
 -1      3251 1.89960E+01 0.00000E+00 2.43781E+00
 -1      3252 1.90859E+01 0.00000E+00 2.44307E+00
 -1      3253 1.91684E+01 0.00000E+00 2.44148E+00
 -1      3254 1.92540E+01 0.00000E+00 2.44078E+00
 -1      3255 1.88314E+01 0.00000E+00 2.47790E+00
 -1      3256 1.89115E+01 0.00000E+00 2.39000E+00
 -1      3257 1.93246E+01 0.00000E+00 9.14909E+00
 -1      3258 1.92861E+01 0.00000E+00 9.19918E+00
 -1      3259 1.92450E+01 0.00000E+00 9.29860E+00
 -1      3260 1.92716E+01 0.00000E+00 9.24222E+00
 -1      3261 1.93449E+01 0.00000E+00 9.36638E+00
 -1      3262 1.93414E+01 0.00000E+00 9.41570E+00
 -1      3263 1.92990E+01 0.00000E+00 9.44717E+00
 -1      3264 1.92941E+01 0.00000E+00 9.33487E+00
 -1      3265 1.92567E+01 0.00000E+00 9.48633E+00
 -1      3266 1.92409E+01 0.00000E+00 9.42283E+00
 -1      3267 1.92341E+01 0.00000E+00 9.34738E+00
 -1      3268 1.75203E+01 0.00000E+00 3.05134E+00
 -1      3269 1.72813E+01 0.00000E+00 2.88444E+00
 -1      3270 1.70718E+01 0.00000E+00 2.68069E+00
 -1      3271 1.77420E+01 0.00000E+00 3.13454E+00
 -1      3272 1.74841E+01 0.00000E+00 3.22850E+00
 -1      3273 1.92998E+01 0.00000E+00 2.08402E+00
 -1      3274 1.92711E+01 0.00000E+00 2.15870E+00
 -1      3275 1.92770E+01 0.00000E+00 2.22463E+00
 -1      3276 1.92731E+01 0.00000E+00 2.31765E+00
 -1      3277 1.92732E+01 0.00000E+00 5.05365E+00
 -1      3278 1.92628E+01 0.00000E+00 5.13703E+00
 -1      3279 1.93178E+01 0.00000E+00 4.95081E+00
 -1      3280 1.92809E+01 0.00000E+00 5.00412E+00
 -1      3281 1.92587E+01 0.00000E+00 5.25871E+00
 -1      3282 1.92248E+01 0.00000E+00 5.34013E+00
 -1      3283 1.91753E+01 0.00000E+00 5.25547E+00
 -1      3284 1.91078E+01 0.00000E+00 5.26984E+00
 -1      3285 1.92678E+01 0.00000E+00 5.18703E+00
 -1      3286 1.93213E+01 0.00000E+00 5.15000E+00
 -1      3287 1.92657E+01 0.00000E+00 5.41866E+00
 -1      3288 1.92772E+01 0.00000E+00 5.49497E+00
 -1      3289 1.93229E+01 0.00000E+00 5.54904E+00
 -1      3290 1.92575E+01 0.00000E+00 7.55766E+00
 -1      3291 1.92545E+01 0.00000E+00 7.65313E+00
 -1      3292 1.92596E+01 0.00000E+00 7.70402E+00
 -1      3293 1.93161E+01 0.00000E+00 7.75088E+00
 -1      3294 1.91973E+01 0.00000E+00 7.45323E+00
 -1      3295 1.93138E+01 0.00000E+00 7.45082E+00
 -1      3296 1.92632E+01 0.00000E+00 7.50957E+00
 -1      3297 1.92546E+01 0.00000E+00 7.45657E+00
 -1      3298 1.92480E+01 0.00000E+00 7.39449E+00
 -1      3299 1.93167E+01 0.00000E+00 7.55191E+00
 -1      3300 1.93032E+01 0.00000E+00 7.23647E+00
 -1      3301 1.92129E+01 0.00000E+00 2.84281E-01
 -1      3302 1.91132E+01 0.00000E+00 2.73359E-01
 -1      3303 1.91845E+01 0.00000E+00 2.15204E-01
 -1      3304 1.93525E+01 0.00000E+00 6.00576E-01
 -1      3305 1.92684E+01 0.00000E+00 3.62148E+00
 -1      3306 1.92020E+01 0.00000E+00 3.69701E+00
 -1      3307 1.91245E+01 0.00000E+00 3.75524E+00
 -1      3308 1.92604E+01 0.00000E+00 3.66873E+00
 -1      3309 1.92482E+01 0.00000E+00 3.72859E+00
 -1      3310 1.93147E+01 0.00000E+00 3.65306E+00
 -1      3311 1.93489E+01 0.00000E+00 7.24249E+00
 -1      3312 1.93015E+01 0.00000E+00 7.28562E+00
 -1      3313 1.92805E+01 0.00000E+00 7.33871E+00
 -1      3314 1.92418E+01 0.00000E+00 9.67806E+00
 -1      3315 1.92883E+01 0.00000E+00 9.62869E+00
 -1      3316 1.93029E+01 0.00000E+00 9.70327E+00
 -1      3317 9.01982E+00 0.00000E+00 3.57832E+00
 -1      3318 8.44282E+00 0.00000E+00 4.66561E+00
 -1      3319 9.90220E+00 0.00000E+00 3.00305E+00
 -1      3320 5.48149E+00 0.00000E+00 6.64172E+00
 -1      3321 6.98901E+00 0.00000E+00 6.36472E+00
 -1      3322 8.21554E+00 0.00000E+00 5.54227E+00
 -1      3323 1.45384E+01 0.00000E+00 8.27853E+00
 -1      3324 1.49698E+01 0.00000E+00 8.55819E+00
 -1      3325 1.78822E+01 0.00000E+00 7.65964E-01
 -1      3326 1.77935E+01 0.00000E+00 9.44090E-01
 -1      3327 1.79743E+01 0.00000E+00 6.32646E-01
 -1      3328 1.81329E+01 0.00000E+00 5.30291E-01
 -1      3329 1.83675E+01 0.00000E+00 9.54210E+00
 -1      3330 1.84356E+01 0.00000E+00 9.62811E+00
 -1      3331 1.90337E+01 0.00000E+00 5.28180E+00
 -1      3332 1.92985E+01 0.00000E+00 1.47075E+00
 -1      3333 1.92802E+01 0.00000E+00 1.54855E+00
 -1      3334 1.92070E+01 0.00000E+00 1.64947E+00
 -1      3335 1.92491E+01 0.00000E+00 1.70324E+00
 -1      3336 1.92702E+01 0.00000E+00 1.63695E+00
 -1      3337 1.92796E+01 0.00000E+00 1.59159E+00
 -1      3338 1.93217E+01 0.00000E+00 1.64536E+00
 -1      3339 1.93671E+01 0.00000E+00 7.99508E+00
 -1      3340 1.93692E+01 0.00000E+00 8.90105E+00
 -1      3341 1.78851E+01 0.00000E+00 1.14159E+00
 -1      3342 1.79600E+01 0.00000E+00 1.28860E+00
 -1      3343 1.93886E+01 0.00000E+00 7.22140E+00
 -1      3344 1.92168E+01 0.00000E+00 4.06336E+00
 -1      3345 1.92301E+01 0.00000E+00 4.00035E+00
 -1      3346 1.91960E+01 0.00000E+00 3.82071E+00
 -1      3347 1.92470E+01 0.00000E+00 3.93625E+00
 -1      3348 1.92625E+01 0.00000E+00 3.89103E+00
 -1      3349 1.93073E+01 0.00000E+00 3.94273E+00
 -1      3350 1.92495E+01 0.00000E+00 3.78025E+00
 -1      3351 1.92557E+01 0.00000E+00 3.84409E+00
 -1      3352 1.93160E+01 0.00000E+00 3.85056E+00
 -1      3353 1.93569E+01 0.00000E+00 3.20191E+00
 -1      3354 1.93072E+01 0.00000E+00 1.05036E+00
 -1      3355 1.92758E+01 0.00000E+00 9.79780E-01
 -1      3356 1.92710E+01 0.00000E+00 9.55708E+00
 -1      3357 1.92714E+01 0.00000E+00 2.37872E+00
 -1      3358 1.93886E+01 0.00000E+00 2.58897E+00
 -1      3359 1.93307E+01 0.00000E+00 2.32712E+00
 -1      3360 1.93734E+01 0.00000E+00 2.30636E+00
 -1      3361 1.93168E+01 0.00000E+00 6.55442E+00
 -1      3362 1.93172E+01 0.00000E+00 8.44888E+00
 -1      3363 1.92653E+01 0.00000E+00 8.49338E+00
 -1      3364 1.82771E+01 0.00000E+00 6.33179E-01
 -1      3365 1.84378E+01 0.00000E+00 6.67505E-01
 -1      3366 1.85224E+01 0.00000E+00 5.74893E-01
 -1      3367 1.93655E+01 0.00000E+00 7.52710E+00
 -1      3368 1.93657E+01 0.00000E+00 7.47671E+00
 -1      3369 1.93677E+01 0.00000E+00 6.92680E+00
 -1      3370 1.93700E+01 0.00000E+00 6.87504E+00
 -1      3371 1.93656E+01 0.00000E+00 6.62941E+00
 -1      3372 1.93642E+01 0.00000E+00 6.57925E+00
 -1      3373 1.93669E+01 0.00000E+00 3.92389E+00
 -1      3374 1.93657E+01 0.00000E+00 3.87356E+00
 -1      3375 1.85980E+01 0.00000E+00 6.53905E+00
 -1      3376 1.95981E+01 0.00000E+00 5.55690E+00
 -1      3377 1.95866E+01 0.00000E+00 4.75000E+00
 -1      3378 1.95968E+01 0.00000E+00 3.95448E+00
 -1      3379 1.95921E+01 0.00000E+00 3.25190E+00
 -1      3380 1.95866E+01 0.00000E+00 6.25000E+00
 -1      3381 1.95905E+01 0.00000E+00 6.94997E+00
 -1      3382 1.95902E+01 0.00000E+00 7.54997E+00
 -1      3383 1.95763E+01 0.00000E+00 2.64908E+00
 -1      3384 1.95902E+01 0.00000E+00 8.05003E+00
 -1      3385 1.95904E+01 0.00000E+00 2.14997E+00
 -1      3386 1.95999E+01 0.00000E+00 1.64480E+00
 -1      3387 1.95903E+01 0.00000E+00 1.24997E+00
 -1      3388 1.95869E+01 0.00000E+00 8.44566E+00
 -1      3389 1.95923E+01 0.00000E+00 8.84754E+00
 -1      3390 1.96064E+01 0.00000E+00 5.14113E+00
 -1      3391 1.95896E+01 0.00000E+00 4.34998E+00
 -1      3392 1.95767E+01 0.00000E+00 9.14804E+00
 -1      3393 1.95850E+01 0.00000E+00 9.44094E+00
 -1      3394 1.95866E+01 0.00000E+00 9.50000E-01
 -1      3395 1.95902E+01 0.00000E+00 6.50026E-01
 -1      3396 1.95866E+01 0.00000E+00 7.25000E+00
 -1      3397 1.95905E+01 0.00000E+00 6.64997E+00
 -1      3398 1.95780E+01 0.00000E+00 3.55003E+00
 -1      3399 1.95964E+01 0.00000E+00 2.95305E+00
 -1      3400 1.95985E+01 0.00000E+00 5.94784E+00
 -1      3401 2.40273E+01 0.00000E+00 8.85602E+00
 -1      3402 2.41331E+01 0.00000E+00 1.13048E+00
 -1      3403 2.17078E+01 0.00000E+00 9.39453E+00
 -1      3404 2.17100E+01 0.00000E+00 5.62462E-01
 -1      3405 2.05043E+01 0.00000E+00 3.07632E-01
 -1      3406 2.05143E+01 0.00000E+00 9.70654E+00
 -1      3407 1.95866E+01 0.00000E+00 3.50000E-01
 -1      3408 1.96062E+01 0.00000E+00 9.65171E+00
 -1      3409 1.96058E+01 0.00000E+00 8.63826E+00
 -1      3410 1.95898E+01 0.00000E+00 1.44997E+00
 -1      3411 1.95902E+01 0.00000E+00 1.85003E+00
 -1      3412 1.95711E+01 0.00000E+00 7.86016E+00
 -1      3413 1.95857E+01 0.00000E+00 8.25819E+00
 -1      3414 1.96015E+01 0.00000E+00 2.34950E+00
 -1      3415 1.98808E+01 0.00000E+00 9.83693E+00
 -1      3416 1.98853E+01 0.00000E+00 1.55607E-01
 -1      3417 1.95925E+01 0.00000E+00 9.85865E+00
 -1      3418 1.96014E+01 0.00000E+00 1.54393E-01
 -1      3419 2.28933E+01 0.00000E+00 8.81407E+00
 -1      3420 2.34266E+01 0.00000E+00 7.79700E+00
 -1      3421 2.23324E+01 0.00000E+00 7.95883E+00
 -1      3422 2.47843E+01 0.00000E+00 7.75459E+00
 -1      3423 2.39349E+01 0.00000E+00 6.51719E+00
 -1      3424 2.29221E+01 0.00000E+00 1.08824E+00
 -1      3425 2.32806E+01 0.00000E+00 2.04719E+00
 -1      3426 2.22375E+01 0.00000E+00 2.23173E+00
 -1      3427 2.45235E+01 0.00000E+00 2.22776E+00
 -1      3428 2.27936E+01 0.00000E+00 3.04336E+00
 -1      3429 2.17595E+01 0.00000E+00 2.86850E+00
 -1      3430 2.14806E+01 0.00000E+00 2.12295E+00
 -1      3431 2.09702E+01 0.00000E+00 3.00592E+00
 -1      3432 2.13892E+01 0.00000E+00 3.48586E+00
 -1      3433 2.07515E+01 0.00000E+00 2.26627E+00
 -1      3434 2.08307E+01 0.00000E+00 3.47664E+00
 -1      3435 2.09518E+01 0.00000E+00 3.94403E+00
 -1      3436 2.15628E+01 0.00000E+00 4.04206E+00
 -1      3437 2.11603E+01 0.00000E+00 4.46246E+00
 -1      3438 2.05909E+01 0.00000E+00 4.40668E+00
 -1      3439 2.07886E+01 0.00000E+00 4.84113E+00
 -1      3440 2.13110E+01 0.00000E+00 4.99310E+00
 -1      3441 2.08456E+01 0.00000E+00 5.36521E+00
 -1      3442 2.14080E+01 0.00000E+00 5.54481E+00
 -1      3443 2.09711E+01 0.00000E+00 5.89232E+00
 -1      3444 2.19277E+01 0.00000E+00 5.12503E+00
 -1      3445 2.05611E+01 0.00000E+00 5.78260E+00
 -1      3446 2.05688E+01 0.00000E+00 6.19489E+00
 -1      3447 2.10163E+01 0.00000E+00 6.38229E+00
 -1      3448 2.06276E+01 0.00000E+00 6.61945E+00
 -1      3449 2.04261E+01 0.00000E+00 4.70842E+00
 -1      3450 2.02058E+01 0.00000E+00 4.27830E+00
 -1      3451 2.02723E+01 0.00000E+00 6.47996E+00
 -1      3452 2.02525E+01 0.00000E+00 6.85077E+00
 -1      3453 2.06208E+01 0.00000E+00 7.01982E+00
 -1      3454 2.02618E+01 0.00000E+00 7.25755E+00
 -1      3455 2.05896E+01 0.00000E+00 7.39704E+00
 -1      3456 2.02670E+01 0.00000E+00 7.61616E+00
 -1      3457 2.05715E+01 0.00000E+00 7.76299E+00
 -1      3458 2.02897E+01 0.00000E+00 7.94070E+00
 -1      3459 2.05648E+01 0.00000E+00 8.11211E+00
 -1      3460 2.02370E+01 0.00000E+00 8.29842E+00
 -1      3461 2.05365E+01 0.00000E+00 8.45483E+00
 -1      3462 2.02800E+01 0.00000E+00 8.63528E+00
 -1      3463 2.05316E+01 0.00000E+00 8.79904E+00
 -1      3464 2.02177E+01 0.00000E+00 8.95059E+00
 -1      3465 2.10104E+01 0.00000E+00 7.27437E+00
 -1      3466 2.08792E+01 0.00000E+00 8.29849E+00
 -1      3467 1.99983E+01 0.00000E+00 4.61280E+00
 -1      3468 1.95866E+01 0.00000E+00 4.55000E+00
 -1      3469 1.99805E+01 0.00000E+00 7.34156E+00
 -1      3470 2.20480E+01 0.00000E+00 5.78378E+00
 -1      3471 2.26483E+01 0.00000E+00 5.31447E+00
 -1      3472 2.00114E+01 0.00000E+00 6.64667E+00
 -1      3473 1.99722E+01 0.00000E+00 6.36328E+00
 -1      3474 1.95775E+01 0.00000E+00 6.45013E+00
 -1      3475 2.00234E+01 0.00000E+00 8.07533E+00
 -1      3476 1.99790E+01 0.00000E+00 8.36542E+00
 -1      3477 1.99083E+01 0.00000E+00 8.71889E+00
 -1      3478 1.99997E+01 0.00000E+00 7.67286E+00
 -1      3479 2.04478E+01 0.00000E+00 4.02276E+00
 -1      3480 2.01010E+01 0.00000E+00 4.00313E+00
 -1      3481 1.99398E+01 0.00000E+00 4.21388E+00
 -1      3482 1.96091E+01 0.00000E+00 4.13448E+00
 -1      3483 2.02895E+01 0.00000E+00 3.74475E+00
 -1      3484 2.00028E+01 0.00000E+00 3.72970E+00
 -1      3485 2.01515E+01 0.00000E+00 3.49369E+00
 -1      3486 1.95694E+01 0.00000E+00 3.76015E+00
 -1      3487 1.98851E+01 0.00000E+00 3.48454E+00
 -1      3488 2.00265E+01 0.00000E+00 3.26782E+00
 -1      3489 2.05534E+01 0.00000E+00 2.94351E+00
 -1      3490 2.00157E+01 0.00000E+00 7.08943E+00
 -1      3491 2.04751E+01 0.00000E+00 9.14523E+00
 -1      3492 2.08205E+01 0.00000E+00 9.01251E+00
 -1      3493 2.01753E+01 0.00000E+00 9.26271E+00
 -1      3494 1.99715E+01 0.00000E+00 9.12760E+00
 -1      3495 1.99518E+01 0.00000E+00 9.35395E+00
 -1      3496 2.01745E+01 0.00000E+00 6.18645E+00
 -1      3497 1.99176E+01 0.00000E+00 6.11067E+00
 -1      3498 1.98401E+01 0.00000E+00 4.01220E+00
 -1      3499 2.04316E+01 0.00000E+00 5.26714E+00
 -1      3500 2.01441E+01 0.00000E+00 5.54581E+00
 -1      3501 2.00837E+01 0.00000E+00 5.94086E+00
 -1      3502 1.98677E+01 0.00000E+00 5.89676E+00
 -1      3503 1.95878E+01 0.00000E+00 5.74439E+00
 -1      3504 1.98274E+01 0.00000E+00 6.52649E+00
 -1      3505 1.97944E+01 0.00000E+00 6.75508E+00
 -1      3506 1.98303E+01 0.00000E+00 7.21344E+00
 -1      3507 1.97979E+01 0.00000E+00 7.41764E+00
 -1      3508 1.98104E+01 0.00000E+00 6.99749E+00
 -1      3509 1.98070E+01 0.00000E+00 9.23375E+00
 -1      3510 1.98086E+01 0.00000E+00 9.04515E+00
 -1      3511 2.17576E+01 0.00000E+00 1.57310E+00
 -1      3512 2.11579E+01 0.00000E+00 1.59135E+00
 -1      3513 2.53024E+01 0.00000E+00 6.40607E+00
 -1      3514 2.43699E+01 0.00000E+00 4.82734E+00
 -1      3515 2.11222E+01 0.00000E+00 5.79322E-01
 -1      3516 2.23532E+01 0.00000E+00 4.48260E+00
 -1      3517 1.98030E+01 0.00000E+00 8.21808E+00
 -1      3518 1.97994E+01 0.00000E+00 8.00117E+00
 -1      3519 2.02233E+01 0.00000E+00 9.70223E+00
 -1      3520 2.01985E+01 0.00000E+00 3.26577E-01
 -1      3521 2.03344E+01 0.00000E+00 5.89448E-01
 -1      3522 2.00474E+01 0.00000E+00 5.65100E-01
 -1      3523 2.01871E+01 0.00000E+00 8.26435E-01
 -1      3524 2.04929E+01 0.00000E+00 8.61483E-01
 -1      3525 2.02965E+01 0.00000E+00 1.10384E+00
 -1      3526 2.00093E+01 0.00000E+00 1.04408E+00
 -1      3527 2.01079E+01 0.00000E+00 1.33039E+00
 -1      3528 2.03936E+01 0.00000E+00 1.38423E+00
 -1      3529 2.01869E+01 0.00000E+00 1.59493E+00
 -1      3530 1.99259E+01 0.00000E+00 1.53891E+00
 -1      3531 1.99979E+01 0.00000E+00 1.79101E+00
 -1      3532 2.02558E+01 0.00000E+00 1.86283E+00
 -1      3533 2.00464E+01 0.00000E+00 2.03229E+00
 -1      3534 1.98549E+01 0.00000E+00 1.29486E+00
 -1      3535 1.97589E+01 0.00000E+00 1.08619E+00
 -1      3536 1.98396E+01 0.00000E+00 9.07524E-01
 -1      3537 1.98206E+01 0.00000E+00 1.96282E+00
 -1      3538 1.98437E+01 0.00000E+00 2.18060E+00
 -1      3539 2.00683E+01 0.00000E+00 2.26957E+00
 -1      3540 1.98630E+01 0.00000E+00 2.40068E+00
 -1      3541 2.00840E+01 0.00000E+00 2.49941E+00
 -1      3542 1.98760E+01 0.00000E+00 2.63329E+00
 -1      3543 2.01028E+01 0.00000E+00 2.73313E+00
 -1      3544 1.99186E+01 0.00000E+00 2.85128E+00
 -1      3545 1.97912E+01 0.00000E+00 1.75165E+00
 -1      3546 2.03182E+01 0.00000E+00 2.58475E+00
 -1      3547 2.00939E+01 0.00000E+00 3.00458E+00
 -1      3548 1.98058E+01 0.00000E+00 3.26559E+00
 -1      3549 1.97905E+01 0.00000E+00 6.33867E+00
 -1      3550 2.08830E+01 0.00000E+00 9.67174E+00
 -1      3551 1.97850E+01 0.00000E+00 3.67262E+00
 -1      3552 1.97834E+01 0.00000E+00 8.41873E+00
 -1      3553 2.03040E+01 0.00000E+00 3.17998E+00
 -1      3554 1.99265E+01 0.00000E+00 8.91066E+00
 -1      3555 1.97777E+01 0.00000E+00 9.42455E+00
 -1      3556 1.99080E+01 0.00000E+00 9.54201E+00
 -1      3557 1.97214E+01 0.00000E+00 2.51710E+00
 -1      3558 1.97371E+01 0.00000E+00 2.77599E+00
 -1      3559 1.97118E+01 0.00000E+00 3.42103E+00
 -1      3560 1.97387E+01 0.00000E+00 6.18653E+00
 -1      3561 2.02919E+01 0.00000E+00 2.13206E+00
 -1      3562 2.05353E+01 0.00000E+00 2.02925E+00
 -1      3563 2.27723E+01 0.00000E+00 6.97196E+00
 -1      3564 2.19211E+01 0.00000E+00 7.13068E+00
 -1      3565 2.15160E+01 0.00000E+00 7.65860E+00
 -1      3566 2.17041E+01 0.00000E+00 8.33781E+00
 -1      3567 1.97239E+01 0.00000E+00 1.59106E+00
 -1      3568 1.97535E+01 0.00000E+00 8.86314E+00
 -1      3569 1.97230E+01 0.00000E+00 8.69636E+00
 -1      3570 1.96812E+01 0.00000E+00 7.13705E+00
 -1      3571 1.97400E+01 0.00000E+00 9.58720E+00
 -1      3572 1.97588E+01 0.00000E+00 4.18140E+00
 -1      3573 1.97890E+01 0.00000E+00 4.37104E+00
 -1      3574 1.99774E+01 0.00000E+00 6.86774E+00
 -1      3575 1.98943E+01 0.00000E+00 3.07217E+00
 -1      3576 1.97208E+01 0.00000E+00 3.09217E+00
 -1      3577 2.06199E+01 0.00000E+00 1.15071E+00
 -1      3578 1.99425E+01 0.00000E+00 7.87473E+00
 -1      3579 1.97653E+01 0.00000E+00 7.82887E+00
 -1      3580 1.98058E+01 0.00000E+00 7.60821E+00
 -1      3581 2.13703E+01 0.00000E+00 1.08234E+00
 -1      3582 1.97499E+01 0.00000E+00 2.92563E+00
 -1      3583 2.21629E+01 0.00000E+00 3.64053E+00
 -1      3584 2.31284E+01 0.00000E+00 3.92257E+00
 -1      3585 1.96747E+01 0.00000E+00 9.33403E+00
 -1      3586 1.96214E+01 0.00000E+00 6.12993E+00
 -1      3587 1.97152E+01 0.00000E+00 6.02092E+00
 -1      3588 1.97343E+01 0.00000E+00 9.85688E+00
 -1      3589 1.97343E+01 0.00000E+00 2.29714E+00
 -1      3590 1.97339E+01 0.00000E+00 1.46725E-01
 -1      3591 1.98074E+01 0.00000E+00 2.85603E-01
 -1      3592 2.62491E+01 0.00000E+00 7.74955E+00
 -1      3593 1.96089E+01 0.00000E+00 9.76482E+00
 -1      3594 2.38623E+01 0.00000E+00 3.13967E+00
 -1      3595 1.97383E+01 0.00000E+00 9.73232E+00
 -1      3596 1.95767E+01 0.00000E+00 2.49764E-01
 -1      3597 1.95943E+01 0.00000E+00 4.47083E-01
 -1      3598 1.95947E+01 0.00000E+00 9.54833E+00
 -1      3599 1.95893E+01 0.00000E+00 5.49746E-01
 -1      3600 1.97139E+01 0.00000E+00 5.13367E-01
 -1      3601 1.95866E+01 0.00000E+00 7.50000E-01
 -1      3602 1.97028E+01 0.00000E+00 7.06493E-01
 -1      3603 1.96906E+01 0.00000E+00 8.42012E-01
 -1      3604 2.14888E+01 0.00000E+00 6.10820E+00
 -1      3605 1.95728E+01 0.00000E+00 8.48363E-01
 -1      3606 1.95866E+01 0.00000E+00 9.05000E+00
 -1      3607 1.95876E+01 0.00000E+00 9.24832E+00
 -1      3608 1.96091E+01 0.00000E+00 1.04138E+00
 -1      3609 1.95866E+01 0.00000E+00 8.95000E+00
 -1      3610 1.95866E+01 0.00000E+00 8.75000E+00
 -1      3611 1.97040E+01 0.00000E+00 8.55144E+00
 -1      3612 1.96720E+01 0.00000E+00 8.33899E+00
 -1      3613 1.96089E+01 0.00000E+00 1.14620E+00
 -1      3614 1.95921E+01 0.00000E+00 8.54028E+00
 -1      3615 1.95915E+01 0.00000E+00 1.35002E+00
 -1      3616 1.96933E+01 0.00000E+00 1.40000E+00
 -1      3617 1.95946E+01 0.00000E+00 1.54837E+00
 -1      3618 1.95910E+01 0.00000E+00 1.74913E+00
 -1      3619 1.95910E+01 0.00000E+00 1.94998E+00
 -1      3620 1.95908E+01 0.00000E+00 8.15131E+00
 -1      3621 1.95937E+01 0.00000E+00 2.24975E+00
 -1      3622 1.97117E+01 0.00000E+00 5.86690E+00
 -1      3623 1.97962E+01 0.00000E+00 5.70933E+00
 -1      3624 1.99935E+01 0.00000E+00 5.72961E+00
 -1      3625 1.99194E+01 0.00000E+00 5.52391E+00
 -1      3626 1.95906E+01 0.00000E+00 5.34997E+00
 -1      3627 2.00586E+01 0.00000E+00 5.32351E+00
 -1      3628 1.98079E+01 0.00000E+00 5.33928E+00
 -1      3629 1.98953E+01 0.00000E+00 5.13097E+00
 -1      3630 1.96256E+01 0.00000E+00 4.95146E+00
 -1      3631 2.01534E+01 0.00000E+00 5.06721E+00
 -1      3632 1.99793E+01 0.00000E+00 4.93185E+00
 -1      3633 1.97943E+01 0.00000E+00 4.94525E+00
 -1      3634 1.98617E+01 0.00000E+00 4.76009E+00
 -1      3635 1.97226E+01 0.00000E+00 5.51805E+00
 -1      3636 1.98306E+01 0.00000E+00 4.56337E+00
 -1      3637 1.97322E+01 0.00000E+00 5.19449E+00
 -1      3638 1.96632E+01 0.00000E+00 5.65618E+00
 -1      3639 1.95865E+01 0.00000E+00 7.95162E+00
 -1      3640 1.96146E+01 0.00000E+00 7.77684E+00
 -1      3641 1.96002E+01 0.00000E+00 2.45279E+00
 -1      3642 1.95908E+01 0.00000E+00 7.45002E+00
 -1      3643 1.95956E+01 0.00000E+00 7.65443E+00
 -1      3644 1.95709E+01 0.00000E+00 7.14735E+00
 -1      3645 1.95911E+01 0.00000E+00 7.34998E+00
 -1      3646 1.96934E+01 0.00000E+00 7.29473E+00
 -1      3647 1.95973E+01 0.00000E+00 2.74058E+00
 -1      3648 1.95908E+01 0.00000E+00 6.85003E+00
 -1      3649 1.96939E+01 0.00000E+00 6.90000E+00
 -1      3650 1.95883E+01 0.00000E+00 6.75000E+00
 -1      3651 1.95969E+01 0.00000E+00 3.04922E+00
 -1      3652 1.95918E+01 0.00000E+00 2.05002E+00
 -1      3653 1.96936E+01 0.00000E+00 2.10000E+00
 -1      3654 1.95972E+01 0.00000E+00 3.35574E+00
 -1      3655 1.96011E+01 0.00000E+00 2.56068E+00
 -1      3656 1.96091E+01 0.00000E+00 3.65826E+00
 -1      3657 1.95838E+01 0.00000E+00 4.04315E+00
 -1      3658 1.95929E+01 0.00000E+00 5.84291E+00
 -1      3659 1.95863E+01 0.00000E+00 7.05406E+00
 -1      3660 1.95866E+01 0.00000E+00 5.05000E+00
 -1      3661 1.95734E+01 0.00000E+00 4.66017E+00
 -1      3662 1.96906E+01 0.00000E+00 4.67163E+00
 -1      3663 1.96911E+01 0.00000E+00 4.82787E+00
 -1      3664 1.96138E+01 0.00000E+00 2.84925E+00
 -1      3665 1.95998E+01 0.00000E+00 3.14884E+00
 -1      3666 1.95866E+01 0.00000E+00 3.45000E+00
 -1      3667 1.96932E+01 0.00000E+00 1.20000E+00
 -1      3668 1.95866E+01 0.00000E+00 3.85000E+00
 -1      3669 1.97096E+01 0.00000E+00 3.91045E+00
 -1      3670 1.95866E+01 0.00000E+00 6.55000E+00
 -1      3671 1.95881E+01 0.00000E+00 6.35220E+00
 -1      3672 1.95866E+01 0.00000E+00 4.25000E+00
 -1      3673 1.95909E+01 0.00000E+00 4.45002E+00
 -1      3674 1.95866E+01 0.00000E+00 4.85000E+00
 -1      3675 1.96042E+01 0.00000E+00 5.24758E+00
 -1      3676 1.95866E+01 0.00000E+00 5.45000E+00
 -1      3677 1.99773E+01 0.00000E+00 3.26307E-01
 -1      3678 1.98615E+01 0.00000E+00 4.60678E-01
 -1      3679 1.98285E+01 0.00000E+00 6.25436E-01
 -1      3680 2.06546E+01 0.00000E+00 5.97397E-01
 -1      3681 2.03582E+01 0.00000E+00 5.98891E+00
 -1      3682 1.98298E+01 0.00000E+00 3.84042E+00
 -1      3683 1.96965E+01 0.00000E+00 9.65325E-01
 -1      3684 2.06313E+01 0.00000E+00 3.73499E+00
 -1      3685 1.96943E+01 0.00000E+00 4.50000E+00
 -1      3686 2.67684E+01 0.00000E+00 5.17293E+00
 -1      3687 2.57494E+01 0.00000E+00 1.47246E+00
 -1      3688 2.10188E+01 0.00000E+00 6.83207E+00
 -1      3689 2.04315E+01 0.00000E+00 3.49331E+00
 -1      3690 1.96934E+01 0.00000E+00 8.10000E+00
 -1      3691 1.99982E+01 0.00000E+00 4.42975E+00
 -1      3692 2.28495E+01 0.00000E+00 6.09426E+00
 -1      3693 2.33936E+01 0.00000E+00 5.49463E+00
 -1      3694 2.74367E+01 0.00000E+00 2.53682E+00
 -1      3695 1.96936E+01 0.00000E+00 1.90000E+00
 -1      3696 2.03842E+01 0.00000E+00 4.99044E+00
 -1      3697 2.08459E+01 0.00000E+00 3.15161E-01
 -1      3698 2.01043E+01 0.00000E+00 9.50460E+00
 -1      3699 2.04933E+01 0.00000E+00 1.71446E+00
 -1      3700 2.16632E+01 0.00000E+00 4.62011E+00
 -1      3701 1.97047E+01 0.00000E+00 7.70114E+00
 -1      3702 2.53925E+01 0.00000E+00 3.32838E+00
 -1      3703 1.96975E+01 0.00000E+00 6.60515E+00
 -1      3704 1.97097E+01 0.00000E+00 3.54733E+00
 -1      3705 2.09741E+01 0.00000E+00 7.69071E+00
 -1      3706 2.07986E+01 0.00000E+00 8.67314E+00
 -1      3707 2.12467E+01 0.00000E+00 8.78789E+00
 -1      3708 2.11712E+01 0.00000E+00 9.31861E+00
 -1      3709 2.08548E+01 0.00000E+00 7.99439E+00
 -1      3710 2.12863E+01 0.00000E+00 8.10855E+00
 -1      3711 1.96975E+01 0.00000E+00 2.40168E+00
 -1      3712 2.00854E+01 0.00000E+00 8.76990E+00
 -1      3713 1.98115E+01 0.00000E+00 7.68451E-01
 -1      3714 1.99764E+01 0.00000E+00 7.72760E-01
 -1      3715 2.03496E+01 0.00000E+00 9.48826E+00
 -1      3716 2.07032E+01 0.00000E+00 9.39099E+00
 -1      3717 1.96816E+01 0.00000E+00 3.21409E+00
 -1      3718 2.02577E+01 0.00000E+00 2.35412E+00
 -1      3719 2.14422E+01 0.00000E+00 6.59996E+00
 -1      3720 2.20551E+01 0.00000E+00 6.44478E+00
 -1      3721 2.09072E+01 0.00000E+00 1.96639E+00
 -1      3722 1.95871E+01 0.00000E+00 6.03986E+00
 -1      3723 1.96944E+01 0.00000E+00 5.30000E+00
 -1      3724 1.96924E+01 0.00000E+00 7.50000E+00
 -1      3725 2.03223E+01 0.00000E+00 2.83646E+00
 -1      3726 2.06405E+01 0.00000E+00 2.61627E+00
 -1      3727 1.95698E+01 0.00000E+00 5.65149E+00
 -1      3728 1.95690E+01 0.00000E+00 8.34850E+00
 -1      3729 2.53695E+01 0.00000E+00 8.87416E+00
 -1      3730 1.96913E+01 0.00000E+00 4.03562E+00
 -1      3731 2.08707E+01 0.00000E+00 9.00022E-01
 -1      3732 2.09867E+01 0.00000E+00 1.24972E+00
 -1      3733 2.07607E+01 0.00000E+00 1.50861E+00
 -1      3734 1.97116E+01 0.00000E+00 5.06412E+00
 -1      3735 1.96892E+01 0.00000E+00 4.30000E+00
 -1      3736 2.79908E+01 0.00000E+00 7.60299E+00
 -1      3737 1.95695E+01 0.00000E+00 9.34462E+00
 -1      3738 2.23804E+01 0.00000E+00 9.38217E+00
 -1      3739 2.23804E+01 0.00000E+00 6.17826E-01
 -1      3740 1.96795E+01 0.00000E+00 9.49154E+00
 -1      3741 1.97034E+01 0.00000E+00 3.82962E-01
 -1      3742 1.96992E+01 0.00000E+00 2.64571E+00
 -1      3743 1.98618E+01 0.00000E+00 8.54545E+00
 -1      3744 2.00812E+01 0.00000E+00 9.84356E+00
 -1      3745 2.02554E+01 0.00000E+00 5.74970E+00
 -1      3746 2.00619E+01 0.00000E+00 1.66401E-01
 -1      3747 1.96835E+01 0.00000E+00 9.14807E+00
 -1      3748 1.96772E+01 0.00000E+00 6.44627E+00
 -1      3749 2.13985E+01 0.00000E+00 7.09830E+00
 -1      3750 1.96779E+01 0.00000E+00 7.90109E+00
 -1      3751 1.98569E+01 0.00000E+00 9.67519E+00
 -1      3752 1.99276E+01 0.00000E+00 7.51801E+00
 -1      3753 1.96850E+01 0.00000E+00 6.08948E-01
 -1      3754 2.31806E+01 0.00000E+00 4.80816E+00
 -1      3755 1.96842E+01 0.00000E+00 3.30636E+00
 -1      3756 1.96850E+01 0.00000E+00 1.29894E+00
 -1      3757 1.96692E+01 0.00000E+00 8.21318E+00
 -1      3758 1.96776E+01 0.00000E+00 1.70532E+00
 -1      3759 1.96751E+01 0.00000E+00 2.20000E+00
 -1      3760 1.96782E+01 0.00000E+00 1.99240E+00
 -1      3761 1.96778E+01 0.00000E+00 7.60281E+00
 -1      3762 1.96734E+01 0.00000E+00 7.00536E+00
 -1      3763 1.96732E+01 0.00000E+00 7.40258E+00
 -1      3764 1.96686E+01 0.00000E+00 1.79106E+00
 -1      3765 1.96686E+01 0.00000E+00 6.71217E+00
 -1      3766 1.96696E+01 0.00000E+00 8.00080E+00
 -1      3767 1.96798E+01 0.00000E+00 3.78731E+00
 -1      3768 1.96701E+01 0.00000E+00 6.79656E+00
 -1      3769 1.96788E+01 0.00000E+00 5.39379E+00
 -1      3770 1.96706E+01 0.00000E+00 4.39409E+00
 -1      3771 1.96761E+01 0.00000E+00 3.00000E+00
 -1      3772 2.01433E+01 0.00000E+00 4.77397E+00
 -1      3773 1.96576E+01 0.00000E+00 9.91465E+00
 -1      3774 1.96576E+01 0.00000E+00 8.53478E-02
 -1      3775 1.96765E+01 0.00000E+00 8.80000E+00
 -1      3776 1.97921E+01 0.00000E+00 1.46141E+00
 -1      3777 2.04830E+01 0.00000E+00 2.31738E+00
 -1      3778 2.00582E+01 0.00000E+00 8.55542E+00
 -1      3779 1.96758E+01 0.00000E+00 2.56687E-01
 -1      3780 1.95748E+01 0.00000E+00 9.92955E+00
 -1      3781 1.95748E+01 0.00000E+00 7.04447E-02
 -1      3782 2.20380E+01 0.00000E+00 8.89892E+00
 -1      3783 1.96836E+01 0.00000E+00 9.01107E+00
 -1      3784 1.96761E+01 0.00000E+00 6.31446E+00
 -1      3785 2.06183E+01 0.00000E+00 3.21953E+00
 -1      3786 1.96787E+01 0.00000E+00 1.49022E+00
 -1      3787 2.00835E+01 0.00000E+00 7.50056E+00
 -1      3788 1.98693E+01 0.00000E+00 7.74524E+00
 -1      3789 2.06215E+01 0.00000E+00 5.10775E+00
 -1      3790 2.20694E+01 0.00000E+00 1.06996E+00
 -1      3791 2.24546E+01 0.00000E+00 1.60099E+00
 -1      3792 2.01044E+01 0.00000E+00 7.83565E+00
 -1      3793 1.96821E+01 0.00000E+00 8.45209E+00
 -1      3794 2.00176E+01 0.00000E+00 9.67751E+00
 -1      3795 2.02210E+01 0.00000E+00 4.53870E+00
 -1      3796 1.96702E+01 0.00000E+00 5.76369E+00
 -1      3797 2.04183E+01 0.00000E+00 5.52563E+00
 -1      3798 1.99430E+01 0.00000E+00 3.89762E+00
 -1      3799 2.10846E+01 0.00000E+00 2.47524E+00
 -1      3800 1.98541E+01 0.00000E+00 6.24967E+00
 -1      3801 1.95942E+01 0.00000E+00 3.52224E-02
 -1      3802 1.95374E+01 0.00000E+00 3.52224E-02
 -1      3803 1.95374E+01 0.00000E+00 8.52223E-02
 -1      3804 2.87184E+01 0.00000E+00 1.26841E+00
 -1      3805 2.72095E+01 0.00000E+00 1.26841E+00
 -1      3806 2.87184E+01 0.00000E+00 3.76841E+00
 -1      3807 1.95374E+01 0.00000E+00 9.96478E+00
 -1      3808 1.95942E+01 0.00000E+00 9.96478E+00
 -1      3809 1.95374E+01 0.00000E+00 9.91478E+00
 -1      3810 2.74866E+01 0.00000E+00 8.80149E+00
 -1      3811 2.89954E+01 0.00000E+00 8.80149E+00
 -1      3812 2.89954E+01 0.00000E+00 6.30149E+00
 -1      3813 1.97144E+01 0.00000E+00 4.26739E-02
 -1      3814 1.96356E+01 0.00000E+00 4.26739E-02
 -1      3815 1.96162E+01 0.00000E+00 7.78963E-02
 -1      3816 1.99377E+01 0.00000E+00 7.78037E-02
 -1      3817 1.98283E+01 0.00000E+00 7.78037E-02
 -1      3818 1.98096E+01 0.00000E+00 1.51166E-01
 -1      3819 1.97526E+01 0.00000E+00 7.33623E-02
 -1      3820 1.96957E+01 0.00000E+00 1.16036E-01
 -1      3821 2.01780E+01 0.00000E+00 8.32007E-02
 -1      3822 2.00261E+01 0.00000E+00 8.32007E-02
 -1      3823 1.99736E+01 0.00000E+00 1.61004E-01
 -1      3824 2.06101E+01 0.00000E+00 1.53816E-01
 -1      3825 2.03992E+01 0.00000E+00 1.53816E-01
 -1      3826 2.03514E+01 0.00000E+00 3.17105E-01
 -1      3827 2.02463E+01 0.00000E+00 1.63289E-01
 -1      3828 2.01302E+01 0.00000E+00 2.46489E-01
 -1      3829 2.10736E+01 0.00000E+00 1.57581E-01
 -1      3830 2.07809E+01 0.00000E+00 1.57581E-01
 -1      3831 2.06751E+01 0.00000E+00 3.11397E-01
 -1      3832 2.19121E+01 0.00000E+00 2.81231E-01
 -1      3833 2.15057E+01 0.00000E+00 2.81231E-01
 -1      3834 2.14161E+01 0.00000E+00 5.70892E-01
 -1      3835 2.12118E+01 0.00000E+00 2.89661E-01
 -1      3836 2.09840E+01 0.00000E+00 4.47242E-01
 -1      3837 2.28114E+01 0.00000E+00 3.08913E-01
 -1      3838 2.22473E+01 0.00000E+00 3.08913E-01
 -1      3839 2.20452E+01 0.00000E+00 5.90144E-01
 -1      3840 2.44708E+01 0.00000E+00 5.65240E-01
 -1      3841 2.36877E+01 0.00000E+00 5.65240E-01
 -1      3842 2.35276E+01 0.00000E+00 1.10936E+00
 -1      3843 2.30822E+01 0.00000E+00 5.44122E-01
 -1      3844 2.26513E+01 0.00000E+00 8.53035E-01
 -1      3845 2.63659E+01 0.00000E+00 7.36230E-01
 -1      3846 2.52789E+01 0.00000E+00 7.36230E-01
 -1      3847 2.49413E+01 0.00000E+00 1.30147E+00
 -1      3848 2.65931E+01 0.00000E+00 2.00464E+00
 -1      3849 1.96356E+01 0.00000E+00 9.95733E+00
 -1      3850 1.97144E+01 0.00000E+00 9.95733E+00
 -1      3851 1.96162E+01 0.00000E+00 9.92210E+00
 -1      3852 1.98260E+01 0.00000E+00 9.91846E+00
 -1      3853 1.99355E+01 0.00000E+00 9.91846E+00
 -1      3854 1.97528E+01 0.00000E+00 9.92844E+00
 -1      3855 1.98075E+01 0.00000E+00 9.84690E+00
 -1      3856 1.96959E+01 0.00000E+00 9.88577E+00
 -1      3857 2.00357E+01 0.00000E+00 9.92178E+00
 -1      3858 2.01876E+01 0.00000E+00 9.92178E+00
 -1      3859 1.99810E+01 0.00000E+00 9.84025E+00
 -1      3860 2.04042E+01 0.00000E+00 9.85327E+00
 -1      3861 2.06151E+01 0.00000E+00 9.85327E+00
 -1      3862 2.02587E+01 0.00000E+00 9.85111E+00
 -1      3863 2.03688E+01 0.00000E+00 9.70438E+00
 -1      3864 2.01523E+01 0.00000E+00 9.77289E+00
 -1      3865 2.07994E+01 0.00000E+00 9.83587E+00
 -1      3866 2.10922E+01 0.00000E+00 9.83587E+00
 -1      3867 2.06986E+01 0.00000E+00 9.68914E+00
 -1      3868 2.15046E+01 0.00000E+00 9.69727E+00
 -1      3869 2.19109E+01 0.00000E+00 9.69727E+00
 -1      3870 2.12363E+01 0.00000E+00 9.65930E+00
 -1      3871 2.14395E+01 0.00000E+00 9.35657E+00
 -1      3872 2.10271E+01 0.00000E+00 9.49517E+00
 -1      3873 2.22473E+01 0.00000E+00 9.69109E+00
 -1      3874 2.28114E+01 0.00000E+00 9.69109E+00
 -1      3875 2.20441E+01 0.00000E+00 9.38835E+00
 -1      3876 2.36348E+01 0.00000E+00 9.42801E+00
 -1      3877 2.44178E+01 0.00000E+00 9.42801E+00
 -1      3878 2.30678E+01 0.00000E+00 9.40703E+00
 -1      3879 2.34603E+01 0.00000E+00 8.83505E+00
 -1      3880 2.26369E+01 0.00000E+00 9.09812E+00
 -1      3881 2.50889E+01 0.00000E+00 9.43708E+00
 -1      3882 2.61759E+01 0.00000E+00 9.43708E+00
 -1      3883 2.46984E+01 0.00000E+00 8.86509E+00
 -1      3884 2.58093E+01 0.00000E+00 8.31186E+00
 -1      3885 2.66157E+01 0.00000E+00 8.87478E+00
 -1      3886 2.71199E+01 0.00000E+00 7.67627E+00
 -1      3887 1.95507E+01 0.00000E+00 1.27197E-01
 -1      3888 1.95507E+01 0.00000E+00 1.77197E-01
 -1      3889 1.95881E+01 0.00000E+00 1.12419E-01
 -1      3890 1.95384E+01 0.00000E+00 2.24882E-01
 -1      3891 1.95384E+01 0.00000E+00 2.74882E-01
 -1      3892 1.95890E+01 0.00000E+00 2.02079E-01
 -1      3893 1.95433E+01 0.00000E+00 3.25000E-01
 -1      3894 1.95433E+01 0.00000E+00 3.75000E-01
 -1      3895 1.95817E+01 0.00000E+00 2.99882E-01
 -1      3896 1.95472E+01 0.00000E+00 4.23542E-01
 -1      3897 1.95472E+01 0.00000E+00 4.73542E-01
 -1      3898 1.95905E+01 0.00000E+00 3.98542E-01
 -1      3899 1.95447E+01 0.00000E+00 5.24873E-01
 -1      3900 1.95447E+01 0.00000E+00 5.74873E-01
 -1      3901 1.95918E+01 0.00000E+00 4.98414E-01
 -1      3902 1.95451E+01 0.00000E+00 6.25013E-01
 -1      3903 1.95451E+01 0.00000E+00 6.75013E-01
 -1      3904 1.95898E+01 0.00000E+00 5.99886E-01
 -1      3905 1.95433E+01 0.00000E+00 7.25000E-01
 -1      3906 1.95433E+01 0.00000E+00 7.75000E-01
 -1      3907 1.95884E+01 0.00000E+00 7.00013E-01
 -1      3908 1.95364E+01 0.00000E+00 8.24182E-01
 -1      3909 1.95364E+01 0.00000E+00 8.74182E-01
 -1      3910 1.95797E+01 0.00000E+00 7.99182E-01
 -1      3911 1.95433E+01 0.00000E+00 9.25000E-01
 -1      3912 1.95433E+01 0.00000E+00 9.75000E-01
 -1      3913 1.95797E+01 0.00000E+00 8.99182E-01
 -1      3914 1.95545E+01 0.00000E+00 1.02069E+00
 -1      3915 1.95545E+01 0.00000E+00 1.07069E+00
 -1      3916 1.95978E+01 0.00000E+00 9.95689E-01
 -1      3917 1.95545E+01 0.00000E+00 1.12310E+00
 -1      3918 1.95545E+01 0.00000E+00 1.17310E+00
 -1      3919 1.96090E+01 0.00000E+00 1.09379E+00
 -1      3920 1.95452E+01 0.00000E+00 1.22499E+00
 -1      3921 1.95452E+01 0.00000E+00 1.27499E+00
 -1      3922 1.95996E+01 0.00000E+00 1.19809E+00
 -1      3923 1.95458E+01 0.00000E+00 1.32501E+00
 -1      3924 1.95458E+01 0.00000E+00 1.37501E+00
 -1      3925 1.95909E+01 0.00000E+00 1.30000E+00
 -1      3926 1.95449E+01 0.00000E+00 1.42498E+00
 -1      3927 1.95449E+01 0.00000E+00 1.47498E+00
 -1      3928 1.95907E+01 0.00000E+00 1.39999E+00
 -1      3929 1.95473E+01 0.00000E+00 1.52419E+00
 -1      3930 1.95473E+01 0.00000E+00 1.57419E+00
 -1      3931 1.95922E+01 0.00000E+00 1.49917E+00
 -1      3932 1.95500E+01 0.00000E+00 1.62240E+00
 -1      3933 1.95500E+01 0.00000E+00 1.67240E+00
 -1      3934 1.95973E+01 0.00000E+00 1.59658E+00
 -1      3935 1.95455E+01 0.00000E+00 1.72457E+00
 -1      3936 1.95455E+01 0.00000E+00 1.77457E+00
 -1      3937 1.95954E+01 0.00000E+00 1.69696E+00
 -1      3938 1.95451E+01 0.00000E+00 1.82501E+00
 -1      3939 1.95451E+01 0.00000E+00 1.87501E+00
 -1      3940 1.95906E+01 0.00000E+00 1.79958E+00
 -1      3941 1.95455E+01 0.00000E+00 1.92499E+00
 -1      3942 1.95455E+01 0.00000E+00 1.97499E+00
 -1      3943 1.95906E+01 0.00000E+00 1.90000E+00
 -1      3944 1.95459E+01 0.00000E+00 2.02501E+00
 -1      3945 1.95459E+01 0.00000E+00 2.07501E+00
 -1      3946 1.95914E+01 0.00000E+00 2.00000E+00
 -1      3947 1.95452E+01 0.00000E+00 2.12499E+00
 -1      3948 1.95452E+01 0.00000E+00 2.17499E+00
 -1      3949 1.95911E+01 0.00000E+00 2.10000E+00
 -1      3950 1.95468E+01 0.00000E+00 2.22487E+00
 -1      3951 1.95468E+01 0.00000E+00 2.27487E+00
 -1      3952 1.95921E+01 0.00000E+00 2.19986E+00
 -1      3953 1.95508E+01 0.00000E+00 2.32475E+00
 -1      3954 1.95508E+01 0.00000E+00 2.37475E+00
 -1      3955 1.95976E+01 0.00000E+00 2.29962E+00
 -1      3956 1.95501E+01 0.00000E+00 2.42639E+00
 -1      3957 1.95501E+01 0.00000E+00 2.47639E+00
 -1      3958 1.96009E+01 0.00000E+00 2.40114E+00
 -1      3959 1.95506E+01 0.00000E+00 2.53034E+00
 -1      3960 1.95506E+01 0.00000E+00 2.58034E+00
 -1      3961 1.96007E+01 0.00000E+00 2.50673E+00
 -1      3962 1.95382E+01 0.00000E+00 2.62454E+00
 -1      3963 1.95382E+01 0.00000E+00 2.67454E+00
 -1      3964 1.95887E+01 0.00000E+00 2.60488E+00
 -1      3965 1.95486E+01 0.00000E+00 2.72029E+00
 -1      3966 1.95486E+01 0.00000E+00 2.77029E+00
 -1      3967 1.95868E+01 0.00000E+00 2.69483E+00
 -1      3968 1.95569E+01 0.00000E+00 2.82463E+00
 -1      3969 1.95569E+01 0.00000E+00 2.87462E+00
 -1      3970 1.96055E+01 0.00000E+00 2.79491E+00
 -1      3971 1.95482E+01 0.00000E+00 2.92653E+00
 -1      3972 1.95482E+01 0.00000E+00 2.97653E+00
 -1      3973 1.96051E+01 0.00000E+00 2.90115E+00
 -1      3974 1.95484E+01 0.00000E+00 3.02461E+00
 -1      3975 1.95484E+01 0.00000E+00 3.07461E+00
 -1      3976 1.95966E+01 0.00000E+00 3.00114E+00
 -1      3977 1.95499E+01 0.00000E+00 3.12442E+00
 -1      3978 1.95499E+01 0.00000E+00 3.17442E+00
 -1      3979 1.95983E+01 0.00000E+00 3.09903E+00
 -1      3980 1.95461E+01 0.00000E+00 3.22595E+00
 -1      3981 1.95461E+01 0.00000E+00 3.27595E+00
 -1      3982 1.95960E+01 0.00000E+00 3.20037E+00
 -1      3983 1.95486E+01 0.00000E+00 3.32787E+00
 -1      3984 1.95486E+01 0.00000E+00 3.37787E+00
 -1      3985 1.95946E+01 0.00000E+00 3.30382E+00
 -1      3986 1.95433E+01 0.00000E+00 3.42500E+00
 -1      3987 1.95433E+01 0.00000E+00 3.47500E+00
 -1      3988 1.95919E+01 0.00000E+00 3.40287E+00
 -1      3989 1.95390E+01 0.00000E+00 3.52501E+00
 -1      3990 1.95390E+01 0.00000E+00 3.57501E+00
 -1      3991 1.95823E+01 0.00000E+00 3.50001E+00
 -1      3992 1.95545E+01 0.00000E+00 3.62913E+00
 -1      3993 1.95545E+01 0.00000E+00 3.67913E+00
 -1      3994 1.95936E+01 0.00000E+00 3.60415E+00
 -1      3995 1.95347E+01 0.00000E+00 3.73007E+00
 -1      3996 1.95347E+01 0.00000E+00 3.78007E+00
 -1      3997 1.95893E+01 0.00000E+00 3.70921E+00
 -1      3998 1.95433E+01 0.00000E+00 3.82500E+00
 -1      3999 1.95433E+01 0.00000E+00 3.87500E+00
 -1      4000 1.95780E+01 0.00000E+00 3.80507E+00
 -1      4001 1.95484E+01 0.00000E+00 3.92724E+00
 -1      4002 1.95484E+01 0.00000E+00 3.97724E+00
 -1      4003 1.95917E+01 0.00000E+00 3.90224E+00
 -1      4004 1.95419E+01 0.00000E+00 4.02158E+00
 -1      4005 1.95419E+01 0.00000E+00 4.07158E+00
 -1      4006 1.95903E+01 0.00000E+00 3.99882E+00
 -1      4007 1.95546E+01 0.00000E+00 4.11724E+00
 -1      4008 1.95546E+01 0.00000E+00 4.16724E+00
 -1      4009 1.95965E+01 0.00000E+00 4.08882E+00
 -1      4010 1.95433E+01 0.00000E+00 4.22500E+00
 -1      4011 1.95433E+01 0.00000E+00 4.27500E+00
 -1      4012 1.95979E+01 0.00000E+00 4.19224E+00
 -1      4013 1.95448E+01 0.00000E+00 4.32499E+00
 -1      4014 1.95448E+01 0.00000E+00 4.37499E+00
 -1      4015 1.95881E+01 0.00000E+00 4.29999E+00
 -1      4016 1.95455E+01 0.00000E+00 4.42501E+00
 -1      4017 1.95455E+01 0.00000E+00 4.47501E+00
 -1      4018 1.95902E+01 0.00000E+00 4.40000E+00
 -1      4019 1.95433E+01 0.00000E+00 4.52500E+00
 -1      4020 1.95433E+01 0.00000E+00 4.57500E+00
 -1      4021 1.95888E+01 0.00000E+00 4.50001E+00
 -1      4022 1.95367E+01 0.00000E+00 4.63009E+00
 -1      4023 1.95367E+01 0.00000E+00 4.68009E+00
 -1      4024 1.95800E+01 0.00000E+00 4.60509E+00
 -1      4025 1.95433E+01 0.00000E+00 4.72500E+00
 -1      4026 1.95433E+01 0.00000E+00 4.77500E+00
 -1      4027 1.95800E+01 0.00000E+00 4.70509E+00
 -1      4028 1.95433E+01 0.00000E+00 4.82500E+00
 -1      4029 1.95433E+01 0.00000E+00 4.87500E+00
 -1      4030 1.95866E+01 0.00000E+00 4.80000E+00
 -1      4031 1.95628E+01 0.00000E+00 4.92573E+00
 -1      4032 1.95628E+01 0.00000E+00 4.97573E+00
 -1      4033 1.96061E+01 0.00000E+00 4.90073E+00
 -1      4034 1.95433E+01 0.00000E+00 5.02500E+00
 -1      4035 1.95433E+01 0.00000E+00 5.07500E+00
 -1      4036 1.96061E+01 0.00000E+00 5.00073E+00
 -1      4037 1.95532E+01 0.00000E+00 5.12057E+00
 -1      4038 1.95532E+01 0.00000E+00 5.17057E+00
 -1      4039 1.95965E+01 0.00000E+00 5.09557E+00
 -1      4040 1.95521E+01 0.00000E+00 5.22379E+00
 -1      4041 1.95521E+01 0.00000E+00 5.27379E+00
 -1      4042 1.96053E+01 0.00000E+00 5.19435E+00
 -1      4043 1.95453E+01 0.00000E+00 5.32499E+00
 -1      4044 1.95453E+01 0.00000E+00 5.37499E+00
 -1      4045 1.95974E+01 0.00000E+00 5.29877E+00
 -1      4046 1.95433E+01 0.00000E+00 5.42500E+00
 -1      4047 1.95433E+01 0.00000E+00 5.47500E+00
 -1      4048 1.95886E+01 0.00000E+00 5.39999E+00
 -1      4049 1.95490E+01 0.00000E+00 5.52845E+00
 -1      4050 1.95490E+01 0.00000E+00 5.57845E+00
 -1      4051 1.95923E+01 0.00000E+00 5.50345E+00
 -1      4052 1.95349E+01 0.00000E+00 5.62575E+00
 -1      4053 1.95349E+01 0.00000E+00 5.67575E+00
 -1      4054 1.95839E+01 0.00000E+00 5.60420E+00
 -1      4055 1.95439E+01 0.00000E+00 5.72219E+00
 -1      4056 1.95439E+01 0.00000E+00 5.77219E+00
 -1      4057 1.95788E+01 0.00000E+00 5.69794E+00
 -1      4058 1.95465E+01 0.00000E+00 5.82146E+00
 -1      4059 1.95465E+01 0.00000E+00 5.87146E+00
 -1      4060 1.95904E+01 0.00000E+00 5.79365E+00
 -1      4061 1.95493E+01 0.00000E+00 5.92392E+00
 -1      4062 1.95493E+01 0.00000E+00 5.97392E+00
 -1      4063 1.95957E+01 0.00000E+00 5.89537E+00
 -1      4064 1.95436E+01 0.00000E+00 6.01993E+00
 -1      4065 1.95436E+01 0.00000E+00 6.06993E+00
 -1      4066 1.95928E+01 0.00000E+00 5.99385E+00
 -1      4067 1.95607E+01 0.00000E+00 6.11496E+00
 -1      4068 1.95607E+01 0.00000E+00 6.16496E+00
 -1      4069 1.96042E+01 0.00000E+00 6.08489E+00
 -1      4070 1.95433E+01 0.00000E+00 6.22500E+00
 -1      4071 1.95433E+01 0.00000E+00 6.27500E+00
 -1      4072 1.96040E+01 0.00000E+00 6.18996E+00
 -1      4073 1.95440E+01 0.00000E+00 6.32610E+00
 -1      4074 1.95440E+01 0.00000E+00 6.37610E+00
 -1      4075 1.95873E+01 0.00000E+00 6.30110E+00
 -1      4076 1.95388E+01 0.00000E+00 6.42507E+00
 -1      4077 1.95388E+01 0.00000E+00 6.47507E+00
 -1      4078 1.95828E+01 0.00000E+00 6.40117E+00
 -1      4079 1.95433E+01 0.00000E+00 6.52500E+00
 -1      4080 1.95433E+01 0.00000E+00 6.57500E+00
 -1      4081 1.95821E+01 0.00000E+00 6.50007E+00
 -1      4082 1.95452E+01 0.00000E+00 6.62499E+00
 -1      4083 1.95452E+01 0.00000E+00 6.67499E+00
 -1      4084 1.95886E+01 0.00000E+00 6.59999E+00
 -1      4085 1.95441E+01 0.00000E+00 6.72500E+00
 -1      4086 1.95441E+01 0.00000E+00 6.77500E+00
 -1      4087 1.95894E+01 0.00000E+00 6.69999E+00
 -1      4088 1.95454E+01 0.00000E+00 6.82501E+00
 -1      4089 1.95454E+01 0.00000E+00 6.87501E+00
 -1      4090 1.95895E+01 0.00000E+00 6.80001E+00
 -1      4091 1.95452E+01 0.00000E+00 6.92499E+00
 -1      4092 1.95452E+01 0.00000E+00 6.97499E+00
 -1      4093 1.95906E+01 0.00000E+00 6.90000E+00
 -1      4094 1.95432E+01 0.00000E+00 7.02703E+00
 -1      4095 1.95432E+01 0.00000E+00 7.07703E+00
 -1      4096 1.95884E+01 0.00000E+00 7.00202E+00
 -1      4097 1.95355E+01 0.00000E+00 7.12367E+00
 -1      4098 1.95355E+01 0.00000E+00 7.17367E+00
 -1      4099 1.95786E+01 0.00000E+00 7.10071E+00
 -1      4100 1.95433E+01 0.00000E+00 7.22500E+00
 -1      4101 1.95433E+01 0.00000E+00 7.27500E+00
 -1      4102 1.95788E+01 0.00000E+00 7.19867E+00
 -1      4103 1.95456E+01 0.00000E+00 7.32499E+00
 -1      4104 1.95456E+01 0.00000E+00 7.37499E+00
 -1      4105 1.95889E+01 0.00000E+00 7.29999E+00
 -1      4106 1.95454E+01 0.00000E+00 7.42501E+00
 -1      4107 1.95454E+01 0.00000E+00 7.47501E+00
 -1      4108 1.95909E+01 0.00000E+00 7.40000E+00
 -1      4109 1.95451E+01 0.00000E+00 7.52499E+00
 -1      4110 1.95451E+01 0.00000E+00 7.57499E+00
 -1      4111 1.95905E+01 0.00000E+00 7.50000E+00
 -1      4112 1.95478E+01 0.00000E+00 7.62721E+00
 -1      4113 1.95478E+01 0.00000E+00 7.67721E+00
 -1      4114 1.95929E+01 0.00000E+00 7.60220E+00
 -1      4115 1.95573E+01 0.00000E+00 7.73842E+00
 -1      4116 1.95573E+01 0.00000E+00 7.78842E+00
 -1      4117 1.96051E+01 0.00000E+00 7.71563E+00
 -1      4118 1.95356E+01 0.00000E+00 7.83008E+00
 -1      4119 1.95356E+01 0.00000E+00 7.88008E+00
 -1      4120 1.95929E+01 0.00000E+00 7.81850E+00
 -1      4121 1.95433E+01 0.00000E+00 7.92581E+00
 -1      4122 1.95433E+01 0.00000E+00 7.97581E+00
 -1      4123 1.95788E+01 0.00000E+00 7.90589E+00
 -1      4124 1.95451E+01 0.00000E+00 8.02501E+00
 -1      4125 1.95451E+01 0.00000E+00 8.07501E+00
 -1      4126 1.95883E+01 0.00000E+00 8.00083E+00
 -1      4127 1.95454E+01 0.00000E+00 8.12565E+00
 -1      4128 1.95454E+01 0.00000E+00 8.17565E+00
 -1      4129 1.95905E+01 0.00000E+00 8.10067E+00
 -1      4130 1.95428E+01 0.00000E+00 8.22910E+00
 -1      4131 1.95428E+01 0.00000E+00 8.27910E+00
 -1      4132 1.95882E+01 0.00000E+00 8.20475E+00
 -1      4133 1.95345E+01 0.00000E+00 8.32425E+00
 -1      4134 1.95345E+01 0.00000E+00 8.37425E+00
 -1      4135 1.95773E+01 0.00000E+00 8.30334E+00
 -1      4136 1.95435E+01 0.00000E+00 8.42283E+00
 -1      4137 1.95435E+01 0.00000E+00 8.47283E+00
 -1      4138 1.95780E+01 0.00000E+00 8.39708E+00
 -1      4139 1.95461E+01 0.00000E+00 8.52014E+00
 -1      4140 1.95461E+01 0.00000E+00 8.57014E+00
 -1      4141 1.95895E+01 0.00000E+00 8.49297E+00
 -1      4142 1.95529E+01 0.00000E+00 8.61913E+00
 -1      4143 1.95529E+01 0.00000E+00 8.66913E+00
 -1      4144 1.95990E+01 0.00000E+00 8.58927E+00
 -1      4145 1.95433E+01 0.00000E+00 8.72500E+00
 -1      4146 1.95433E+01 0.00000E+00 8.77500E+00
 -1      4147 1.95962E+01 0.00000E+00 8.69413E+00
 -1      4148 1.95461E+01 0.00000E+00 8.82377E+00
 -1      4149 1.95461E+01 0.00000E+00 8.87377E+00
 -1      4150 1.95894E+01 0.00000E+00 8.79877E+00
 -1      4151 1.95433E+01 0.00000E+00 8.92500E+00
 -1      4152 1.95433E+01 0.00000E+00 8.97500E+00
 -1      4153 1.95894E+01 0.00000E+00 8.89877E+00
 -1      4154 1.95433E+01 0.00000E+00 9.02500E+00
 -1      4155 1.95433E+01 0.00000E+00 9.07500E+00
 -1      4156 1.95866E+01 0.00000E+00 9.00000E+00
 -1      4157 1.95383E+01 0.00000E+00 9.12402E+00
 -1      4158 1.95383E+01 0.00000E+00 9.17402E+00
 -1      4159 1.95816E+01 0.00000E+00 9.09902E+00
 -1      4160 1.95438E+01 0.00000E+00 9.22416E+00
 -1      4161 1.95438E+01 0.00000E+00 9.27416E+00
 -1      4162 1.95821E+01 0.00000E+00 9.19818E+00
 -1      4163 1.95348E+01 0.00000E+00 9.32231E+00
 -1      4164 1.95348E+01 0.00000E+00 9.37231E+00
 -1      4165 1.95786E+01 0.00000E+00 9.29647E+00
 -1      4166 1.95425E+01 0.00000E+00 9.42047E+00
 -1      4167 1.95425E+01 0.00000E+00 9.47047E+00
 -1      4168 1.95773E+01 0.00000E+00 9.39278E+00
 -1      4169 1.95473E+01 0.00000E+00 9.52417E+00
 -1      4170 1.95473E+01 0.00000E+00 9.57417E+00
 -1      4171 1.95898E+01 0.00000E+00 9.49464E+00
 -1      4172 1.95531E+01 0.00000E+00 9.62585E+00
 -1      4173 1.95531E+01 0.00000E+00 9.67585E+00
 -1      4174 1.96004E+01 0.00000E+00 9.60002E+00
 -1      4175 1.95545E+01 0.00000E+00 9.73241E+00
 -1      4176 1.95545E+01 0.00000E+00 9.78241E+00
 -1      4177 1.96075E+01 0.00000E+00 9.70827E+00
 -1      4178 1.95463E+01 0.00000E+00 9.82933E+00
 -1      4179 1.95463E+01 0.00000E+00 9.87933E+00
 -1      4180 1.96007E+01 0.00000E+00 9.81174E+00
 -1      4181 1.95837E+01 0.00000E+00 9.89410E+00
 -1      4182 2.71026E+01 0.00000E+00 3.85488E+00
 -1      4183 2.83842E+01 0.00000E+00 5.08647E+00
 -1      4184 2.73796E+01 0.00000E+00 6.38796E+00
 -1      4185 1.96929E+01 0.00000E+00 5.58711E+00
 -1      4186 1.96306E+01 0.00000E+00 5.60654E+00
 -1      4187 1.96603E+01 0.00000E+00 5.53748E+00
 -1      4188 1.96546E+01 0.00000E+00 5.48403E+00
 -1      4189 1.96165E+01 0.00000E+00 5.65384E+00
 -1      4190 1.96320E+01 0.00000E+00 4.66590E+00
 -1      4191 1.96386E+01 0.00000E+00 4.71082E+00
 -1      4192 1.96909E+01 0.00000E+00 4.74975E+00
 -1      4193 1.96389E+01 0.00000E+00 4.78893E+00
 -1      4194 1.96389E+01 0.00000E+00 4.83893E+00
 -1      4195 1.96441E+01 0.00000E+00 3.99505E+00
 -1      4196 1.96375E+01 0.00000E+00 4.03939E+00
 -1      4197 1.96481E+01 0.00000E+00 3.88023E+00
 -1      4198 1.96532E+01 0.00000E+00 3.93247E+00
 -1      4199 1.97004E+01 0.00000E+00 3.97304E+00
 -1      4200 1.96382E+01 0.00000E+00 3.27913E+00
 -1      4201 1.96407E+01 0.00000E+00 3.33105E+00
 -1      4202 1.96407E+01 0.00000E+00 3.18146E+00
 -1      4203 1.96369E+01 0.00000E+00 3.23300E+00
 -1      4204 1.96829E+01 0.00000E+00 3.26022E+00
 -1      4205 1.96801E+01 0.00000E+00 6.15823E+00
 -1      4206 1.96627E+01 0.00000E+00 6.21826E+00
 -1      4207 1.97074E+01 0.00000E+00 6.25049E+00
 -1      4208 1.96313E+01 0.00000E+00 6.28223E+00
 -1      4209 1.96321E+01 0.00000E+00 6.33333E+00
 -1      4210 1.96423E+01 0.00000E+00 6.87501E+00
 -1      4211 1.96422E+01 0.00000E+00 6.92499E+00
 -1      4212 1.96836E+01 0.00000E+00 6.95268E+00
 -1      4213 1.96319E+01 0.00000E+00 6.97767E+00
 -1      4214 1.96298E+01 0.00000E+00 7.02971E+00
 -1      4215 1.96416E+01 0.00000E+00 7.47501E+00
 -1      4216 1.96413E+01 0.00000E+00 7.52499E+00
 -1      4217 1.96340E+01 0.00000E+00 7.57639E+00
 -1      4218 1.96367E+01 0.00000E+00 7.62862E+00
 -1      4219 1.96851E+01 0.00000E+00 7.55140E+00
 -1      4220 1.96378E+01 0.00000E+00 2.64739E+00
 -1      4221 1.96482E+01 0.00000E+00 2.69315E+00
 -1      4222 1.96502E+01 0.00000E+00 2.60320E+00
 -1      4223 1.96418E+01 0.00000E+00 8.07501E+00
 -1      4224 1.96421E+01 0.00000E+00 8.12565E+00
 -1      4225 1.96280E+01 0.00000E+00 7.97621E+00
 -1      4226 1.96299E+01 0.00000E+00 8.02542E+00
 -1      4227 1.96815E+01 0.00000E+00 8.05040E+00
 -1      4228 1.96328E+01 0.00000E+00 2.17499E+00
 -1      4229 1.96344E+01 0.00000E+00 2.22487E+00
 -1      4230 1.96427E+01 0.00000E+00 2.07501E+00
 -1      4231 1.96420E+01 0.00000E+00 2.12499E+00
 -1      4232 1.96843E+01 0.00000E+00 2.15000E+00
 -1      4233 1.96593E+01 0.00000E+00 1.56972E+00
 -1      4234 1.96619E+01 0.00000E+00 1.61793E+00
 -1      4235 1.97008E+01 0.00000E+00 1.64819E+00
 -1      4236 1.96388E+01 0.00000E+00 1.67506E+00
 -1      4237 1.96343E+01 0.00000E+00 1.72723E+00
 -1      4238 1.96510E+01 0.00000E+00 1.17310E+00
 -1      4239 1.96418E+01 0.00000E+00 1.22499E+00
 -1      4240 1.96377E+01 0.00000E+00 1.27446E+00
 -1      4241 1.96382E+01 0.00000E+00 1.32448E+00
 -1      4242 1.96891E+01 0.00000E+00 1.24947E+00
 -1      4243 1.96205E+01 0.00000E+00 8.34374E+00
 -1      4244 1.96295E+01 0.00000E+00 8.39232E+00
 -1      4245 1.96771E+01 0.00000E+00 8.39554E+00
 -1      4246 1.96345E+01 0.00000E+00 8.44887E+00
 -1      4247 1.96371E+01 0.00000E+00 8.49619E+00
 -1      4248 1.96700E+01 0.00000E+00 8.90657E+00
 -1      4249 1.96729E+01 0.00000E+00 8.85534E+00
 -1      4250 1.96344E+01 0.00000E+00 8.82377E+00
 -1      4251 1.97150E+01 0.00000E+00 8.83157E+00
 -1      4252 1.96316E+01 0.00000E+00 8.77500E+00
 -1      4253 1.96682E+01 0.00000E+00 5.22103E+00
 -1      4254 1.96693E+01 0.00000E+00 5.16781E+00
 -1      4255 1.96590E+01 0.00000E+00 5.10262E+00
 -1      4256 1.97219E+01 0.00000E+00 5.12930E+00
 -1      4257 1.96491E+01 0.00000E+00 5.05706E+00
 -1      4258 1.96379E+01 0.00000E+00 4.27500E+00
 -1      4259 1.96394E+01 0.00000E+00 4.32499E+00
 -1      4260 1.96301E+01 0.00000E+00 4.37204E+00
 -1      4261 1.96307E+01 0.00000E+00 4.42206E+00
 -1      4262 1.96799E+01 0.00000E+00 4.34705E+00
 -1      4263 1.96350E+01 0.00000E+00 9.09903E+00
 -1      4264 1.96301E+01 0.00000E+00 9.14806E+00
 -1      4265 1.96355E+01 0.00000E+00 9.19819E+00
 -1      4266 1.96221E+01 0.00000E+00 9.33932E+00
 -1      4267 1.96299E+01 0.00000E+00 9.38748E+00
 -1      4268 1.96771E+01 0.00000E+00 9.41279E+00
 -1      4269 1.96323E+01 0.00000E+00 9.46624E+00
 -1      4270 1.96371E+01 0.00000E+00 9.51994E+00
 -1      4271 1.96317E+01 0.00000E+00 8.45188E-01
 -1      4272 1.96386E+01 0.00000E+00 8.96006E-01
 -1      4273 1.96935E+01 0.00000E+00 9.03669E-01
 -1      4274 1.96416E+01 0.00000E+00 9.57663E-01
 -1      4275 1.96528E+01 0.00000E+00 1.00335E+00
 -1      4276 1.96372E+01 0.00000E+00 5.79347E-01
 -1      4277 1.96376E+01 0.00000E+00 6.29487E-01
 -1      4278 1.96465E+01 0.00000E+00 6.78259E-01
 -1      4279 1.96447E+01 0.00000E+00 7.28246E-01
 -1      4280 1.96939E+01 0.00000E+00 6.57720E-01
 -1      4281 1.96261E+01 0.00000E+00 7.14220E+00
 -1      4282 1.96339E+01 0.00000E+00 7.19353E+00
 -1      4283 1.96873E+01 0.00000E+00 7.21589E+00
 -1      4284 1.96400E+01 0.00000E+00 7.27237E+00
 -1      4285 1.96423E+01 0.00000E+00 7.32235E+00
 -1      4286 1.96296E+01 0.00000E+00 6.68107E+00
 -1      4287 1.96285E+01 0.00000E+00 6.73108E+00
 -1      4288 1.96420E+01 0.00000E+00 6.57758E+00
 -1      4289 1.96440E+01 0.00000E+00 6.62756E+00
 -1      4290 1.96831E+01 0.00000E+00 6.65866E+00
 -1      4291 1.96438E+01 0.00000E+00 3.54868E+00
 -1      4292 1.96594E+01 0.00000E+00 3.60280E+00
 -1      4293 1.96481E+01 0.00000E+00 3.49867E+00
 -1      4294 1.96818E+01 0.00000E+00 2.88744E+00
 -1      4295 1.96731E+01 0.00000E+00 2.93934E+00
 -1      4296 1.97130E+01 0.00000E+00 2.96282E+00
 -1      4297 1.96362E+01 0.00000E+00 2.97653E+00
 -1      4298 1.96365E+01 0.00000E+00 3.02461E+00
 -1      4299 1.96551E+01 0.00000E+00 5.90737E+00
 -1      4300 1.97135E+01 0.00000E+00 5.94391E+00
 -1      4301 1.96569E+01 0.00000E+00 5.98438E+00
 -1      4302 1.96512E+01 0.00000E+00 6.03039E+00
 -1      4303 1.96523E+01 0.00000E+00 5.85491E+00
 -1      4304 2.31600E+01 0.00000E+00 8.30553E+00
 -1      4305 2.37269E+01 0.00000E+00 8.32651E+00
 -1      4306 2.41054E+01 0.00000E+00 7.77580E+00
 -1      4307 2.44058E+01 0.00000E+00 8.30531E+00
 -1      4308 2.50769E+01 0.00000E+00 8.31438E+00
 -1      4309 2.37068E+01 0.00000E+00 1.58883E+00
 -1      4310 2.31013E+01 0.00000E+00 1.56772E+00
 -1      4311 2.43283E+01 0.00000E+00 1.67912E+00
 -1      4312 2.39020E+01 0.00000E+00 2.13747E+00
 -1      4313 2.51364E+01 0.00000E+00 1.85011E+00
 -1      4314 2.12089E+01 0.00000E+00 9.05325E+00
 -1      4315 2.14772E+01 0.00000E+00 9.09121E+00
 -1      4316 2.16423E+01 0.00000E+00 8.84340E+00
 -1      4317 2.18729E+01 0.00000E+00 9.14673E+00
 -1      4318 2.22092E+01 0.00000E+00 9.14055E+00
 -1      4319 2.15402E+01 0.00000E+00 8.22401E-01
 -1      4320 2.12463E+01 0.00000E+00 8.30831E-01
 -1      4321 2.18897E+01 0.00000E+00 8.16211E-01
 -1      4322 2.17199E+01 0.00000E+00 1.07615E+00
 -1      4323 2.22249E+01 0.00000E+00 8.43894E-01
 -1      4324 2.04193E+01 0.00000E+00 4.48540E-01
 -1      4325 2.02665E+01 0.00000E+00 4.58013E-01
 -1      4326 2.05795E+01 0.00000E+00 4.52514E-01
 -1      4327 2.04945E+01 0.00000E+00 5.93422E-01
 -1      4328 2.07503E+01 0.00000E+00 4.56279E-01
 -1      4329 2.02865E+01 0.00000E+00 9.59524E+00
 -1      4330 2.04319E+01 0.00000E+00 9.59740E+00
 -1      4331 2.06088E+01 0.00000E+00 9.54877E+00
 -1      4332 2.07931E+01 0.00000E+00 9.53137E+00
 -1      4333 2.05264E+01 0.00000E+00 9.43963E+00
 -1      4334 1.96262E+01 0.00000E+00 2.53225E-01
 -1      4335 1.96312E+01 0.00000E+00 3.03343E-01
 -1      4336 1.96450E+01 0.00000E+00 3.66481E-01
 -1      4337 1.96488E+01 0.00000E+00 4.15022E-01
 -1      4338 1.96896E+01 0.00000E+00 3.19824E-01
 -1      4339 1.97391E+01 0.00000E+00 9.65976E+00
 -1      4340 1.96722E+01 0.00000E+00 9.69201E+00
 -1      4341 1.96731E+01 0.00000E+00 9.61945E+00
 -1      4342 1.96673E+01 0.00000E+00 9.56776E+00
 -1      4343 1.96736E+01 0.00000E+00 9.74857E+00
 -1      4344 1.96548E+01 0.00000E+00 8.72318E+00
 -1      4345 1.96644E+01 0.00000E+00 8.66731E+00
 -1      4346 1.96549E+01 0.00000E+00 8.59485E+00
 -1      4347 1.97135E+01 0.00000E+00 8.62390E+00
 -1      4348 1.96480E+01 0.00000E+00 8.54586E+00
 -1      4349 1.96424E+01 0.00000E+00 1.37501E+00
 -1      4350 1.96416E+01 0.00000E+00 1.42498E+00
 -1      4351 1.96860E+01 0.00000E+00 1.44511E+00
 -1      4352 1.96343E+01 0.00000E+00 1.47010E+00
 -1      4353 1.96366E+01 0.00000E+00 1.51930E+00
 -1      4354 1.96298E+01 0.00000E+00 1.77010E+00
 -1      4355 1.96294E+01 0.00000E+00 1.82054E+00
 -1      4356 1.96419E+01 0.00000E+00 1.87501E+00
 -1      4357 1.96423E+01 0.00000E+00 1.92499E+00
 -1      4358 1.96811E+01 0.00000E+00 1.84553E+00
 -1      4359 1.96245E+01 0.00000E+00 7.88062E+00
 -1      4360 1.96322E+01 0.00000E+00 7.92636E+00
 -1      4361 1.96462E+01 0.00000E+00 7.83896E+00
 -1      4362 1.96288E+01 0.00000E+00 8.29859E+00
 -1      4363 1.96274E+01 0.00000E+00 8.23569E+00
 -1      4364 1.96706E+01 0.00000E+00 8.27608E+00
 -1      4365 1.96300E+01 0.00000E+00 8.18225E+00
 -1      4366 1.96640E+01 0.00000E+00 2.27344E+00
 -1      4367 1.96679E+01 0.00000E+00 2.32332E+00
 -1      4368 1.97159E+01 0.00000E+00 2.34941E+00
 -1      4369 1.96495E+01 0.00000E+00 2.37559E+00
 -1      4370 1.96489E+01 0.00000E+00 2.42723E+00
 -1      4371 1.97363E+01 0.00000E+00 9.79460E+00
 -1      4372 1.98095E+01 0.00000E+00 9.78462E+00
 -1      4373 1.97976E+01 0.00000E+00 9.70376E+00
 -1      4374 1.98688E+01 0.00000E+00 9.75606E+00
 -1      4375 1.99492E+01 0.00000E+00 9.75722E+00
 -1      4376 2.00494E+01 0.00000E+00 9.76054E+00
 -1      4377 1.99372E+01 0.00000E+00 9.67635E+00
 -1      4378 1.98463E+01 0.00000E+00 2.20605E-01
 -1      4379 1.97706E+01 0.00000E+00 2.16164E-01
 -1      4380 1.99313E+01 0.00000E+00 2.40957E-01
 -1      4381 1.98923E+01 0.00000E+00 3.05955E-01
 -1      4382 2.00196E+01 0.00000E+00 2.46354E-01
 -1      4383 1.96716E+01 0.00000E+00 9.81085E+00
 -1      4384 1.96634E+01 0.00000E+00 9.85777E+00
 -1      4385 1.96251E+01 0.00000E+00 9.88665E+00
 -1      4386 1.96295E+01 0.00000E+00 1.19870E-01
 -1      4387 1.96676E+01 0.00000E+00 1.50559E-01
 -1      4388 1.97048E+01 0.00000E+00 2.01706E-01
 -1      4389 1.96386E+01 0.00000E+00 2.05540E-01
 -1      4390 2.26129E+01 0.00000E+00 8.38645E+00
 -1      4391 2.28795E+01 0.00000E+00 7.87791E+00
 -1      4392 2.24657E+01 0.00000E+00 8.85650E+00
 -1      4393 2.21852E+01 0.00000E+00 8.42888E+00
 -1      4394 2.25524E+01 0.00000E+00 7.46539E+00
 -1      4395 2.30995E+01 0.00000E+00 7.38448E+00
 -1      4396 2.36808E+01 0.00000E+00 7.15709E+00
 -1      4397 2.43596E+01 0.00000E+00 7.13589E+00
 -1      4398 2.33536E+01 0.00000E+00 6.74457E+00
 -1      4399 2.21268E+01 0.00000E+00 7.54475E+00
 -1      4400 2.23467E+01 0.00000E+00 7.05132E+00
 -1      4401 2.19242E+01 0.00000E+00 7.80871E+00
 -1      4402 2.17186E+01 0.00000E+00 7.39464E+00
 -1      4403 2.20183E+01 0.00000E+00 8.14832E+00
 -1      4404 2.16101E+01 0.00000E+00 7.99820E+00
 -1      4405 2.18711E+01 0.00000E+00 8.61837E+00
 -1      4406 2.46186E+01 0.00000E+00 6.46163E+00
 -1      4407 2.50433E+01 0.00000E+00 7.08033E+00
 -1      4408 2.57757E+01 0.00000E+00 7.07781E+00
 -1      4409 2.55167E+01 0.00000E+00 7.75207E+00
 -1      4410 2.41524E+01 0.00000E+00 5.67226E+00
 -1      4411 2.48361E+01 0.00000E+00 5.61671E+00
 -1      4412 2.36642E+01 0.00000E+00 6.00591E+00
 -1      4413 2.38817E+01 0.00000E+00 5.16098E+00
 -1      4414 2.28109E+01 0.00000E+00 6.53311E+00
 -1      4415 2.33922E+01 0.00000E+00 6.30572E+00
 -1      4416 2.31215E+01 0.00000E+00 5.79444E+00
 -1      4417 2.28676E+01 0.00000E+00 1.82409E+00
 -1      4418 2.26883E+01 0.00000E+00 1.34462E+00
 -1      4419 2.24958E+01 0.00000E+00 1.07910E+00
 -1      4420 2.22620E+01 0.00000E+00 1.33548E+00
 -1      4421 2.30371E+01 0.00000E+00 2.54527E+00
 -1      4422 2.25155E+01 0.00000E+00 2.63755E+00
 -1      4423 2.27590E+01 0.00000E+00 2.13946E+00
 -1      4424 2.23460E+01 0.00000E+00 1.91636E+00
 -1      4425 2.41929E+01 0.00000E+00 2.68372E+00
 -1      4426 2.35714E+01 0.00000E+00 2.59343E+00
 -1      4427 2.33279E+01 0.00000E+00 3.09152E+00
 -1      4428 2.22765E+01 0.00000E+00 2.95593E+00
 -1      4429 2.19985E+01 0.00000E+00 2.55012E+00
 -1      4430 2.16201E+01 0.00000E+00 2.49572E+00
 -1      4431 2.18591E+01 0.00000E+00 2.17734E+00
 -1      4432 2.16191E+01 0.00000E+00 1.84802E+00
 -1      4433 2.19975E+01 0.00000E+00 1.90242E+00
 -1      4434 2.21061E+01 0.00000E+00 1.58705E+00
 -1      4435 2.49580E+01 0.00000E+00 2.77807E+00
 -1      4436 2.46274E+01 0.00000E+00 3.23403E+00
 -1      4437 2.55710E+01 0.00000E+00 2.40042E+00
 -1      4438 2.24782E+01 0.00000E+00 3.34195E+00
 -1      4439 2.19612E+01 0.00000E+00 3.25452E+00
 -1      4440 2.29610E+01 0.00000E+00 3.48296E+00
 -1      4441 2.26457E+01 0.00000E+00 3.78155E+00
 -1      4442 2.34954E+01 0.00000E+00 3.53112E+00
 -1      4443 2.14221E+01 0.00000E+00 2.67187E+00
 -1      4444 2.12826E+01 0.00000E+00 2.29909E+00
 -1      4445 2.15743E+01 0.00000E+00 3.17718E+00
 -1      4446 2.11797E+01 0.00000E+00 3.24589E+00
 -1      4447 2.13649E+01 0.00000E+00 2.93721E+00
 -1      4448 2.10274E+01 0.00000E+00 2.74058E+00
 -1      4449 2.17760E+01 0.00000E+00 3.56320E+00
 -1      4450 2.13192E+01 0.00000E+00 1.85715E+00
 -1      4451 2.14577E+01 0.00000E+00 1.58223E+00
 -1      4452 2.11939E+01 0.00000E+00 2.04467E+00
 -1      4453 2.10326E+01 0.00000E+00 1.77887E+00
 -1      4454 2.09959E+01 0.00000E+00 2.22081E+00
 -1      4455 2.11099E+01 0.00000E+00 3.48125E+00
 -1      4456 2.09005E+01 0.00000E+00 3.24128E+00
 -1      4457 2.07245E+01 0.00000E+00 3.34808E+00
 -1      4458 2.07943E+01 0.00000E+00 3.11272E+00
 -1      4459 2.05970E+01 0.00000E+00 2.77989E+00
 -1      4460 2.08054E+01 0.00000E+00 2.81109E+00
 -1      4461 2.07618E+01 0.00000E+00 2.97471E+00
 -1      4462 2.05859E+01 0.00000E+00 3.08152E+00
 -1      4463 2.08626E+01 0.00000E+00 2.54575E+00
 -1      4464 2.11705E+01 0.00000E+00 3.71495E+00
 -1      4465 2.08912E+01 0.00000E+00 3.71033E+00
 -1      4466 2.14760E+01 0.00000E+00 3.76396E+00
 -1      4467 2.12573E+01 0.00000E+00 3.99304E+00
 -1      4468 2.18629E+01 0.00000E+00 3.84130E+00
 -1      4469 2.07213E+01 0.00000E+00 1.99782E+00
 -1      4470 2.08294E+01 0.00000E+00 2.11633E+00
 -1      4471 2.06434E+01 0.00000E+00 2.14776E+00
 -1      4472 2.06172E+01 0.00000E+00 2.29183E+00
 -1      4473 2.05091E+01 0.00000E+00 2.17332E+00
 -1      4474 2.09181E+01 0.00000E+00 2.37076E+00
 -1      4475 2.05617E+01 0.00000E+00 2.46682E+00
 -1      4476 2.06960E+01 0.00000E+00 2.44127E+00
 -1      4477 2.07915E+01 0.00000E+00 3.83951E+00
 -1      4478 2.07310E+01 0.00000E+00 3.60581E+00
 -1      4479 2.05314E+01 0.00000E+00 3.61415E+00
 -1      4480 2.06311E+01 0.00000E+00 3.48498E+00
 -1      4481 2.05249E+01 0.00000E+00 3.35642E+00
 -1      4482 2.13616E+01 0.00000E+00 4.25226E+00
 -1      4483 2.10560E+01 0.00000E+00 4.20325E+00
 -1      4484 2.08756E+01 0.00000E+00 4.43457E+00
 -1      4485 2.07713E+01 0.00000E+00 4.17535E+00
 -1      4486 2.05193E+01 0.00000E+00 4.21472E+00
 -1      4487 2.06998E+01 0.00000E+00 3.98340E+00
 -1      4488 2.05395E+01 0.00000E+00 3.87888E+00
 -1      4489 2.16130E+01 0.00000E+00 4.33109E+00
 -1      4490 2.14117E+01 0.00000E+00 4.54129E+00
 -1      4491 2.22580E+01 0.00000E+00 4.06156E+00
 -1      4492 2.19580E+01 0.00000E+00 4.26233E+00
 -1      4493 2.20082E+01 0.00000E+00 4.55135E+00
 -1      4494 2.09744E+01 0.00000E+00 4.65180E+00
 -1      4495 2.06897E+01 0.00000E+00 4.62391E+00
 -1      4496 2.12356E+01 0.00000E+00 4.72778E+00
 -1      4497 2.10498E+01 0.00000E+00 4.91711E+00
 -1      4498 2.14871E+01 0.00000E+00 4.80661E+00
 -1      4499 2.06073E+01 0.00000E+00 4.77478E+00
 -1      4500 2.05085E+01 0.00000E+00 4.55755E+00
 -1      4501 2.03235E+01 0.00000E+00 4.62356E+00
 -1      4502 2.04060E+01 0.00000E+00 4.47269E+00
 -1      4503 2.03268E+01 0.00000E+00 4.15053E+00
 -1      4504 2.03984E+01 0.00000E+00 4.34249E+00
 -1      4505 2.02134E+01 0.00000E+00 4.40850E+00
 -1      4506 2.10783E+01 0.00000E+00 5.17915E+00
 -1      4507 2.08171E+01 0.00000E+00 5.10317E+00
 -1      4508 2.07335E+01 0.00000E+00 5.23648E+00
 -1      4509 2.07050E+01 0.00000E+00 4.97444E+00
 -1      4510 2.05864E+01 0.00000E+00 4.91579E+00
 -1      4511 2.04051E+01 0.00000E+00 4.84943E+00
 -1      4512 2.05028E+01 0.00000E+00 5.04910E+00
 -1      4513 2.13595E+01 0.00000E+00 5.26896E+00
 -1      4514 2.11268E+01 0.00000E+00 5.45501E+00
 -1      4515 2.16194E+01 0.00000E+00 5.05906E+00
 -1      4516 2.16679E+01 0.00000E+00 5.33492E+00
 -1      4517 2.17955E+01 0.00000E+00 4.87257E+00
 -1      4518 2.11896E+01 0.00000E+00 5.71856E+00
 -1      4519 2.09084E+01 0.00000E+00 5.62876E+00
 -1      4520 2.07661E+01 0.00000E+00 5.83746E+00
 -1      4521 2.07034E+01 0.00000E+00 5.57390E+00
 -1      4522 2.04897E+01 0.00000E+00 5.65411E+00
 -1      4523 2.06319E+01 0.00000E+00 5.44542E+00
 -1      4524 2.05265E+01 0.00000E+00 5.18745E+00
 -1      4525 2.06386E+01 0.00000E+00 5.31617E+00
 -1      4526 2.04249E+01 0.00000E+00 5.39638E+00
 -1      4527 2.14484E+01 0.00000E+00 5.82651E+00
 -1      4528 2.12300E+01 0.00000E+00 6.00026E+00
 -1      4529 2.19879E+01 0.00000E+00 5.45441E+00
 -1      4530 2.17280E+01 0.00000E+00 5.66430E+00
 -1      4531 2.17684E+01 0.00000E+00 5.94599E+00
 -1      4532 2.07700E+01 0.00000E+00 6.04360E+00
 -1      4533 2.05650E+01 0.00000E+00 5.98874E+00
 -1      4534 2.09937E+01 0.00000E+00 6.13731E+00
 -1      4535 2.07926E+01 0.00000E+00 6.28859E+00
 -1      4536 2.12526E+01 0.00000E+00 6.24525E+00
 -1      4537 2.22880E+01 0.00000E+00 5.21975E+00
 -1      4538 2.23481E+01 0.00000E+00 5.54913E+00
 -1      4539 2.21404E+01 0.00000E+00 4.80381E+00
 -1      4540 2.25007E+01 0.00000E+00 4.89853E+00
 -1      4541 2.04635E+01 0.00000E+00 6.09190E+00
 -1      4542 2.04597E+01 0.00000E+00 5.88575E+00
 -1      4543 2.03068E+01 0.00000E+00 5.86931E+00
 -1      4544 2.04082E+01 0.00000E+00 5.76615E+00
 -1      4545 2.03368E+01 0.00000E+00 5.63767E+00
 -1      4546 2.08220E+01 0.00000E+00 6.50087E+00
 -1      4547 2.05982E+01 0.00000E+00 6.40717E+00
 -1      4548 2.04499E+01 0.00000E+00 6.54971E+00
 -1      4549 2.04206E+01 0.00000E+00 6.33742E+00
 -1      4550 2.02234E+01 0.00000E+00 6.33321E+00
 -1      4551 2.03717E+01 0.00000E+00 6.19067E+00
 -1      4552 2.02664E+01 0.00000E+00 6.08768E+00
 -1      4553 2.10176E+01 0.00000E+00 6.60718E+00
 -1      4554 2.08232E+01 0.00000E+00 6.72576E+00
 -1      4555 2.14655E+01 0.00000E+00 6.35408E+00
 -1      4556 2.12293E+01 0.00000E+00 6.49113E+00
 -1      4557 2.12305E+01 0.00000E+00 6.71602E+00
 -1      4558 2.04400E+01 0.00000E+00 6.73511E+00
 -1      4559 2.02624E+01 0.00000E+00 6.66537E+00
 -1      4560 2.06242E+01 0.00000E+00 6.81963E+00
 -1      4561 2.04367E+01 0.00000E+00 6.93529E+00
 -1      4562 2.08198E+01 0.00000E+00 6.92595E+00
 -1      4563 2.02637E+01 0.00000E+00 4.88221E+00
 -1      4564 2.02847E+01 0.00000E+00 4.74120E+00
 -1      4565 2.01822E+01 0.00000E+00 4.65634E+00
 -1      4566 2.01534E+01 0.00000E+00 4.14072E+00
 -1      4567 2.02744E+01 0.00000E+00 4.01295E+00
 -1      4568 2.00728E+01 0.00000E+00 4.24609E+00
 -1      4569 2.00204E+01 0.00000E+00 4.10851E+00
 -1      4570 2.01020E+01 0.00000E+00 4.35402E+00
 -1      4571 1.99690E+01 0.00000E+00 4.32182E+00
 -1      4572 2.01096E+01 0.00000E+00 4.48423E+00
 -1      4573 2.01320E+01 0.00000E+00 6.74872E+00
 -1      4574 2.01418E+01 0.00000E+00 6.56332E+00
 -1      4575 1.99918E+01 0.00000E+00 6.50498E+00
 -1      4576 2.01222E+01 0.00000E+00 6.42162E+00
 -1      4577 2.00734E+01 0.00000E+00 6.27487E+00
 -1      4578 2.04413E+01 0.00000E+00 7.13868E+00
 -1      4579 2.02571E+01 0.00000E+00 7.05416E+00
 -1      4580 2.01388E+01 0.00000E+00 7.17349E+00
 -1      4581 2.01341E+01 0.00000E+00 6.97010E+00
 -1      4582 2.01150E+01 0.00000E+00 6.85926E+00
 -1      4583 1.99944E+01 0.00000E+00 6.75721E+00
 -1      4584 1.99966E+01 0.00000E+00 6.97858E+00
 -1      4585 2.06052E+01 0.00000E+00 7.20843E+00
 -1      4586 2.04257E+01 0.00000E+00 7.32729E+00
 -1      4587 2.08156E+01 0.00000E+00 7.14710E+00
 -1      4588 2.08000E+01 0.00000E+00 7.33571E+00
 -1      4589 2.10146E+01 0.00000E+00 7.05322E+00
 -1      4590 2.04283E+01 0.00000E+00 7.50660E+00
 -1      4591 2.02644E+01 0.00000E+00 7.43685E+00
 -1      4592 2.01753E+01 0.00000E+00 7.55836E+00
 -1      4593 2.01726E+01 0.00000E+00 7.37905E+00
 -1      4594 1.99981E+01 0.00000E+00 7.21549E+00
 -1      4595 2.01211E+01 0.00000E+00 7.29955E+00
 -1      4596 2.00320E+01 0.00000E+00 7.42106E+00
 -1      4597 2.05805E+01 0.00000E+00 7.58001E+00
 -1      4598 2.04192E+01 0.00000E+00 7.68957E+00
 -1      4599 2.07818E+01 0.00000E+00 7.54388E+00
 -1      4600 2.07728E+01 0.00000E+00 7.72685E+00
 -1      4601 2.09922E+01 0.00000E+00 7.48254E+00
 -1      4602 2.04306E+01 0.00000E+00 7.85184E+00
 -1      4603 2.02783E+01 0.00000E+00 7.77843E+00
 -1      4604 2.01970E+01 0.00000E+00 7.88817E+00
 -1      4605 2.01857E+01 0.00000E+00 7.72590E+00
 -1      4606 2.00416E+01 0.00000E+00 7.58671E+00
 -1      4607 2.01333E+01 0.00000E+00 7.64451E+00
 -1      4608 2.00520E+01 0.00000E+00 7.75425E+00
 -1      4609 2.05681E+01 0.00000E+00 7.93755E+00
 -1      4610 2.04272E+01 0.00000E+00 8.02640E+00
 -1      4611 2.07132E+01 0.00000E+00 7.87869E+00
 -1      4612 2.07098E+01 0.00000E+00 8.05325E+00
 -1      4613 2.09145E+01 0.00000E+00 7.84255E+00
 -1      4614 2.04009E+01 0.00000E+00 8.20526E+00
 -1      4615 2.02633E+01 0.00000E+00 8.11956E+00
 -1      4616 2.01302E+01 0.00000E+00 8.18687E+00
 -1      4617 2.01566E+01 0.00000E+00 8.00801E+00
 -1      4618 2.00639E+01 0.00000E+00 7.95549E+00
 -1      4619 2.05506E+01 0.00000E+00 8.28347E+00
 -1      4620 2.03868E+01 0.00000E+00 8.37662E+00
 -1      4621 2.07220E+01 0.00000E+00 8.20530E+00
 -1      4622 2.07079E+01 0.00000E+00 8.37666E+00
 -1      4623 2.08670E+01 0.00000E+00 8.14644E+00
 -1      4624 2.04083E+01 0.00000E+00 8.54505E+00
 -1      4625 2.02585E+01 0.00000E+00 8.46685E+00
 -1      4626 2.01691E+01 0.00000E+00 8.59535E+00
 -1      4627 2.01476E+01 0.00000E+00 8.42692E+00
 -1      4628 2.01080E+01 0.00000E+00 8.33192E+00
 -1      4629 2.00012E+01 0.00000E+00 8.22037E+00
 -1      4630 2.00186E+01 0.00000E+00 8.46042E+00
 -1      4631 2.05341E+01 0.00000E+00 8.62693E+00
 -1      4632 2.04058E+01 0.00000E+00 8.71716E+00
 -1      4633 2.06676E+01 0.00000E+00 8.56398E+00
 -1      4634 2.06651E+01 0.00000E+00 8.73609E+00
 -1      4635 2.08389E+01 0.00000E+00 8.48581E+00
 -1      4636 2.03746E+01 0.00000E+00 8.87482E+00
 -1      4637 2.02488E+01 0.00000E+00 8.79294E+00
 -1      4638 2.01516E+01 0.00000E+00 8.86025E+00
 -1      4639 2.01827E+01 0.00000E+00 8.70259E+00
 -1      4640 2.00718E+01 0.00000E+00 8.66266E+00
 -1      4641 2.05033E+01 0.00000E+00 8.97213E+00
 -1      4642 2.03464E+01 0.00000E+00 9.04791E+00
 -1      4643 2.06761E+01 0.00000E+00 8.90577E+00
 -1      4644 2.06478E+01 0.00000E+00 9.07887E+00
 -1      4645 2.08096E+01 0.00000E+00 8.84282E+00
 -1      4646 2.03252E+01 0.00000E+00 9.20397E+00
 -1      4647 2.01965E+01 0.00000E+00 9.10665E+00
 -1      4648 2.00734E+01 0.00000E+00 9.19515E+00
 -1      4649 2.00946E+01 0.00000E+00 9.03910E+00
 -1      4650 1.99490E+01 0.00000E+00 9.01913E+00
 -1      4651 2.00721E+01 0.00000E+00 8.93062E+00
 -1      4652 2.00060E+01 0.00000E+00 8.84028E+00
 -1      4653 2.12450E+01 0.00000E+00 7.67465E+00
 -1      4654 2.12632E+01 0.00000E+00 7.46649E+00
 -1      4655 2.12044E+01 0.00000E+00 7.18634E+00
 -1      4656 2.14572E+01 0.00000E+00 7.37845E+00
 -1      4657 2.12086E+01 0.00000E+00 6.96519E+00
 -1      4658 2.10629E+01 0.00000E+00 8.54319E+00
 -1      4659 2.10226E+01 0.00000E+00 8.73051E+00
 -1      4660 2.10828E+01 0.00000E+00 8.20352E+00
 -1      4661 2.12665E+01 0.00000E+00 8.44822E+00
 -1      4662 2.10706E+01 0.00000E+00 8.05147E+00
 -1      4663 1.98462E+01 0.00000E+00 4.66174E+00
 -1      4664 1.99145E+01 0.00000E+00 4.58809E+00
 -1      4665 1.99300E+01 0.00000E+00 4.68645E+00
 -1      4666 2.00708E+01 0.00000E+00 4.69339E+00
 -1      4667 2.00025E+01 0.00000E+00 4.76703E+00
 -1      4668 1.99144E+01 0.00000E+00 4.49656E+00
 -1      4669 1.99983E+01 0.00000E+00 4.52128E+00
 -1      4670 2.01097E+01 0.00000E+00 4.57575E+00
 -1      4671 1.96386E+01 0.00000E+00 4.61082E+00
 -1      4672 1.96405E+01 0.00000E+00 4.52500E+00
 -1      4673 1.96925E+01 0.00000E+00 4.58582E+00
 -1      4674 1.96426E+01 0.00000E+00 4.47501E+00
 -1      4675 1.99054E+01 0.00000E+00 7.27750E+00
 -1      4676 1.99230E+01 0.00000E+00 7.15143E+00
 -1      4677 1.98892E+01 0.00000E+00 7.37960E+00
 -1      4678 1.98141E+01 0.00000E+00 7.31554E+00
 -1      4679 1.99541E+01 0.00000E+00 7.42978E+00
 -1      4680 1.98628E+01 0.00000E+00 7.46782E+00
 -1      4681 2.00056E+01 0.00000E+00 7.50928E+00
 -1      4682 2.27489E+01 0.00000E+00 5.70437E+00
 -1      4683 2.24487E+01 0.00000E+00 5.93902E+00
 -1      4684 2.20515E+01 0.00000E+00 6.11428E+00
 -1      4685 2.17719E+01 0.00000E+00 6.27649E+00
 -1      4686 2.24523E+01 0.00000E+00 6.26952E+00
 -1      4687 2.27669E+01 0.00000E+00 4.64538E+00
 -1      4688 2.29145E+01 0.00000E+00 5.06131E+00
 -1      4689 2.30209E+01 0.00000E+00 5.40455E+00
 -1      4690 2.32871E+01 0.00000E+00 5.15139E+00
 -1      4691 1.99194E+01 0.00000E+00 6.58658E+00
 -1      4692 1.98998E+01 0.00000E+00 6.44489E+00
 -1      4693 1.99029E+01 0.00000E+00 6.70088E+00
 -1      4694 1.98109E+01 0.00000E+00 6.64079E+00
 -1      4695 1.98859E+01 0.00000E+00 6.81141E+00
 -1      4696 1.99449E+01 0.00000E+00 6.23698E+00
 -1      4697 2.00461E+01 0.00000E+00 6.14856E+00
 -1      4698 1.99132E+01 0.00000E+00 6.30648E+00
 -1      4699 1.98859E+01 0.00000E+00 6.18017E+00
 -1      4700 1.98089E+01 0.00000E+00 6.43258E+00
 -1      4701 1.98814E+01 0.00000E+00 6.35098E+00
 -1      4702 1.98223E+01 0.00000E+00 6.29417E+00
 -1      4703 1.96273E+01 0.00000E+00 6.44820E+00
 -1      4704 1.96319E+01 0.00000E+00 6.49814E+00
 -1      4705 1.96326E+01 0.00000E+00 6.39924E+00
 -1      4706 1.98910E+01 0.00000E+00 8.29175E+00
 -1      4707 1.99132E+01 0.00000E+00 8.14670E+00
 -1      4708 1.98012E+01 0.00000E+00 8.10962E+00
 -1      4709 1.99114E+01 0.00000E+00 8.03825E+00
 -1      4710 1.98710E+01 0.00000E+00 7.93795E+00
 -1      4711 1.99830E+01 0.00000E+00 7.97503E+00
 -1      4712 2.00235E+01 0.00000E+00 7.85519E+00
 -1      4713 1.98812E+01 0.00000E+00 8.39208E+00
 -1      4714 1.97932E+01 0.00000E+00 8.31840E+00
 -1      4715 1.99204E+01 0.00000E+00 8.45544E+00
 -1      4716 1.98226E+01 0.00000E+00 8.48209E+00
 -1      4717 1.99600E+01 0.00000E+00 8.55044E+00
 -1      4718 1.98400E+01 0.00000E+00 8.88690E+00
 -1      4719 1.98309E+01 0.00000E+00 8.79102E+00
 -1      4720 1.99174E+01 0.00000E+00 8.81477E+00
 -1      4721 1.99968E+01 0.00000E+00 8.74440E+00
 -1      4722 1.97382E+01 0.00000E+00 8.77975E+00
 -1      4723 1.98156E+01 0.00000E+00 8.70762E+00
 -1      4724 1.97924E+01 0.00000E+00 8.62091E+00
 -1      4725 1.98850E+01 0.00000E+00 8.63217E+00
 -1      4726 1.99832E+01 0.00000E+00 8.63715E+00
 -1      4727 1.99059E+01 0.00000E+00 7.80998E+00
 -1      4728 1.99345E+01 0.00000E+00 7.70905E+00
 -1      4729 1.99711E+01 0.00000E+00 7.77379E+00
 -1      4730 1.98667E+01 0.00000E+00 7.56311E+00
 -1      4731 1.99636E+01 0.00000E+00 7.59543E+00
 -1      4732 1.99027E+01 0.00000E+00 7.64053E+00
 -1      4733 1.98376E+01 0.00000E+00 7.67672E+00
 -1      4734 2.01952E+01 0.00000E+00 3.87394E+00
 -1      4735 2.03686E+01 0.00000E+00 3.88376E+00
 -1      4736 2.04604E+01 0.00000E+00 3.73987E+00
 -1      4737 1.98900E+01 0.00000E+00 4.11304E+00
 -1      4738 1.99705E+01 0.00000E+00 4.00767E+00
 -1      4739 2.00519E+01 0.00000E+00 3.86642E+00
 -1      4740 2.01462E+01 0.00000E+00 3.73722E+00
 -1      4741 2.00220E+01 0.00000E+00 3.95038E+00
 -1      4742 1.99729E+01 0.00000E+00 3.81366E+00
 -1      4743 1.98915E+01 0.00000E+00 3.95491E+00
 -1      4744 1.98493E+01 0.00000E+00 4.19764E+00
 -1      4745 1.97995E+01 0.00000E+00 4.09680E+00
 -1      4746 1.98644E+01 0.00000E+00 4.29246E+00
 -1      4747 1.97739E+01 0.00000E+00 4.27622E+00
 -1      4748 1.98936E+01 0.00000E+00 4.40040E+00
 -1      4749 1.96727E+01 0.00000E+00 4.21570E+00
 -1      4750 1.96840E+01 0.00000E+00 4.15794E+00
 -1      4751 1.96502E+01 0.00000E+00 4.08505E+00
 -1      4752 1.97251E+01 0.00000E+00 4.10851E+00
 -1      4753 2.00771E+01 0.00000E+00 3.61169E+00
 -1      4754 2.02205E+01 0.00000E+00 3.61922E+00
 -1      4755 2.02915E+01 0.00000E+00 3.49350E+00
 -1      4756 2.03605E+01 0.00000E+00 3.61903E+00
 -1      4757 1.99439E+01 0.00000E+00 3.60712E+00
 -1      4758 2.00183E+01 0.00000E+00 3.48911E+00
 -1      4759 1.98939E+01 0.00000E+00 3.70116E+00
 -1      4760 1.98351E+01 0.00000E+00 3.57858E+00
 -1      4761 1.99163E+01 0.00000E+00 3.78506E+00
 -1      4762 1.98074E+01 0.00000E+00 3.75652E+00
 -1      4763 1.98864E+01 0.00000E+00 3.86902E+00
 -1      4764 1.99558E+01 0.00000E+00 3.37618E+00
 -1      4765 2.00890E+01 0.00000E+00 3.38075E+00
 -1      4766 2.01652E+01 0.00000E+00 3.22390E+00
 -1      4767 2.02277E+01 0.00000E+00 3.33683E+00
 -1      4768 2.03677E+01 0.00000E+00 3.33665E+00
 -1      4769 1.96444E+01 0.00000E+00 3.72279E+00
 -1      4770 1.96246E+01 0.00000E+00 3.77373E+00
 -1      4771 1.96332E+01 0.00000E+00 3.81866E+00
 -1      4772 1.98454E+01 0.00000E+00 3.37506E+00
 -1      4773 1.99162E+01 0.00000E+00 3.26670E+00
 -1      4774 1.97984E+01 0.00000E+00 3.45279E+00
 -1      4775 1.97588E+01 0.00000E+00 3.34331E+00
 -1      4776 1.97474E+01 0.00000E+00 3.60998E+00
 -1      4777 1.97974E+01 0.00000E+00 3.51594E+00
 -1      4778 1.97107E+01 0.00000E+00 3.48418E+00
 -1      4779 2.01989E+01 0.00000E+00 3.09228E+00
 -1      4780 2.00602E+01 0.00000E+00 3.13620E+00
 -1      4781 1.99604E+01 0.00000E+00 3.17000E+00
 -1      4782 1.99941E+01 0.00000E+00 3.03838E+00
 -1      4783 1.98501E+01 0.00000E+00 3.16888E+00
 -1      4784 2.03131E+01 0.00000E+00 3.00822E+00
 -1      4785 2.04379E+01 0.00000E+00 2.88999E+00
 -1      4786 2.04287E+01 0.00000E+00 3.06174E+00
 -1      4787 2.04611E+01 0.00000E+00 3.19975E+00
 -1      4788 2.04814E+01 0.00000E+00 2.72636E+00
 -1      4789 1.98203E+01 0.00000E+00 7.10547E+00
 -1      4790 1.99131E+01 0.00000E+00 7.04346E+00
 -1      4791 1.98939E+01 0.00000E+00 6.93262E+00
 -1      4792 2.07619E+01 0.00000E+00 9.20175E+00
 -1      4793 2.05891E+01 0.00000E+00 9.26811E+00
 -1      4794 2.04123E+01 0.00000E+00 9.31675E+00
 -1      4795 2.02625E+01 0.00000E+00 9.37549E+00
 -1      4796 2.10336E+01 0.00000E+00 8.90020E+00
 -1      4797 2.09959E+01 0.00000E+00 9.16556E+00
 -1      4798 2.09372E+01 0.00000E+00 9.35480E+00
 -1      4799 2.00636E+01 0.00000E+00 9.30833E+00
 -1      4800 1.99617E+01 0.00000E+00 9.24077E+00
 -1      4801 2.01398E+01 0.00000E+00 9.38365E+00
 -1      4802 2.00281E+01 0.00000E+00 9.42927E+00
 -1      4803 2.02270E+01 0.00000E+00 9.49643E+00
 -1      4804 1.98794E+01 0.00000E+00 9.29385E+00
 -1      4805 1.98893E+01 0.00000E+00 9.18067E+00
 -1      4806 1.98078E+01 0.00000E+00 9.13945E+00
 -1      4807 1.98901E+01 0.00000E+00 9.08638E+00
 -1      4808 1.98675E+01 0.00000E+00 8.97790E+00
 -1      4809 1.98647E+01 0.00000E+00 9.38925E+00
 -1      4810 1.97923E+01 0.00000E+00 9.32915E+00
 -1      4811 1.99299E+01 0.00000E+00 9.44798E+00
 -1      4812 1.98428E+01 0.00000E+00 9.48328E+00
 -1      4813 2.00062E+01 0.00000E+00 9.52330E+00
 -1      4814 2.00007E+01 0.00000E+00 6.02577E+00
 -1      4815 2.01291E+01 0.00000E+00 6.06365E+00
 -1      4816 2.02210E+01 0.00000E+00 5.96488E+00
 -1      4817 1.98927E+01 0.00000E+00 6.00372E+00
 -1      4818 1.99757E+01 0.00000E+00 5.91881E+00
 -1      4819 1.98164E+01 0.00000E+00 6.06580E+00
 -1      4820 1.97915E+01 0.00000E+00 5.95884E+00
 -1      4821 1.97270E+01 0.00000E+00 6.10372E+00
 -1      4822 1.98282E+01 0.00000E+00 6.14860E+00
 -1      4823 1.97964E+01 0.00000E+00 6.21810E+00
 -1      4824 1.97657E+01 0.00000E+00 4.02391E+00
 -1      4825 1.97697E+01 0.00000E+00 3.87544E+00
 -1      4826 1.98349E+01 0.00000E+00 3.92631E+00
 -1      4827 1.97748E+01 0.00000E+00 3.96132E+00
 -1      4828 2.01014E+01 0.00000E+00 5.43466E+00
 -1      4829 2.02451E+01 0.00000E+00 5.29533E+00
 -1      4830 2.02878E+01 0.00000E+00 5.40647E+00
 -1      4831 2.02812E+01 0.00000E+00 5.53572E+00
 -1      4832 2.01060E+01 0.00000E+00 5.19536E+00
 -1      4833 2.02925E+01 0.00000E+00 5.16718E+00
 -1      4834 2.02688E+01 0.00000E+00 5.02883E+00
 -1      4835 2.04079E+01 0.00000E+00 5.12879E+00
 -1      4836 1.99565E+01 0.00000E+00 5.62676E+00
 -1      4837 2.00318E+01 0.00000E+00 5.53486E+00
 -1      4838 2.00688E+01 0.00000E+00 5.63771E+00
 -1      4839 2.01997E+01 0.00000E+00 5.64775E+00
 -1      4840 2.01245E+01 0.00000E+00 5.73966E+00
 -1      4841 1.99890E+01 0.00000E+00 5.42371E+00
 -1      4842 1.99306E+01 0.00000E+00 5.81319E+00
 -1      4843 2.00386E+01 0.00000E+00 5.83523E+00
 -1      4844 2.01695E+01 0.00000E+00 5.84528E+00
 -1      4845 1.97897E+01 0.00000E+00 5.88183E+00
 -1      4846 1.97540E+01 0.00000E+00 5.78812E+00
 -1      4847 1.98320E+01 0.00000E+00 5.80305E+00
 -1      4848 1.98949E+01 0.00000E+00 5.71947E+00
 -1      4849 1.96255E+01 0.00000E+00 5.70028E+00
 -1      4850 1.96667E+01 0.00000E+00 5.70994E+00
 -1      4851 1.96290E+01 0.00000E+00 5.75404E+00
 -1      4852 1.96315E+01 0.00000E+00 5.80330E+00
 -1      4853 1.97459E+01 0.00000E+00 6.68012E+00
 -1      4854 1.97624E+01 0.00000E+00 6.56582E+00
 -1      4855 1.97523E+01 0.00000E+00 6.48638E+00
 -1      4856 1.97338E+01 0.00000E+00 6.39247E+00
 -1      4857 1.96873E+01 0.00000E+00 6.52571E+00
 -1      4858 1.98024E+01 0.00000E+00 6.87629E+00
 -1      4859 1.97521E+01 0.00000E+00 6.94875E+00
 -1      4860 1.97441E+01 0.00000E+00 6.82754E+00
 -1      4861 1.96820E+01 0.00000E+00 6.84828E+00
 -1      4862 1.97323E+01 0.00000E+00 6.77582E+00
 -1      4863 1.97315E+01 0.00000E+00 6.73363E+00
 -1      4864 1.96694E+01 0.00000E+00 6.75436E+00
 -1      4865 1.97457E+01 0.00000E+00 7.35619E+00
 -1      4866 1.97619E+01 0.00000E+00 7.25409E+00
 -1      4867 1.97557E+01 0.00000E+00 7.17525E+00
 -1      4868 1.97458E+01 0.00000E+00 7.06727E+00
 -1      4869 1.97491E+01 0.00000E+00 7.55410E+00
 -1      4870 1.97452E+01 0.00000E+00 7.45882E+00
 -1      4871 1.98019E+01 0.00000E+00 7.51293E+00
 -1      4872 1.97356E+01 0.00000E+00 7.41011E+00
 -1      4873 1.96833E+01 0.00000E+00 7.34866E+00
 -1      4874 1.96828E+01 0.00000E+00 7.45129E+00
 -1      4875 1.96773E+01 0.00000E+00 7.07121E+00
 -1      4876 1.97419E+01 0.00000E+00 7.00143E+00
 -1      4877 1.97452E+01 0.00000E+00 9.19091E+00
 -1      4878 1.97461E+01 0.00000E+00 9.09661E+00
 -1      4879 1.97262E+01 0.00000E+00 9.37929E+00
 -1      4880 1.97409E+01 0.00000E+00 9.28389E+00
 -1      4881 1.96791E+01 0.00000E+00 9.24105E+00
 -1      4882 1.97811E+01 0.00000E+00 8.95415E+00
 -1      4883 1.97461E+01 0.00000E+00 9.02811E+00
 -1      4884 1.97186E+01 0.00000E+00 8.93711E+00
 -1      4885 1.96835E+01 0.00000E+00 9.07957E+00
 -1      4886 2.12641E+01 0.00000E+00 1.33685E+00
 -1      4887 2.15639E+01 0.00000E+00 1.32772E+00
 -1      4888 2.19135E+01 0.00000E+00 1.32153E+00
 -1      4889 2.10723E+01 0.00000E+00 1.42053E+00
 -1      4890 2.11785E+01 0.00000E+00 1.16603E+00
 -1      4891 2.08339E+01 0.00000E+00 1.73750E+00
 -1      4892 2.09593E+01 0.00000E+00 1.54998E+00
 -1      4893 2.08737E+01 0.00000E+00 1.37916E+00
 -1      4894 2.55692E+01 0.00000E+00 5.00014E+00
 -1      4895 2.60354E+01 0.00000E+00 5.78950E+00
 -1      4896 2.65087E+01 0.00000E+00 6.46124E+00
 -1      4897 2.41161E+01 0.00000E+00 3.98351E+00
 -1      4898 2.37492E+01 0.00000E+00 4.37495E+00
 -1      4899 2.37753E+01 0.00000E+00 4.81775E+00
 -1      4900 2.31545E+01 0.00000E+00 4.36536E+00
 -1      4901 2.48812E+01 0.00000E+00 4.07786E+00
 -1      4902 2.60805E+01 0.00000E+00 4.25066E+00
 -1      4903 2.11205E+01 0.00000E+00 9.91181E-01
 -1      4904 2.09965E+01 0.00000E+00 7.39672E-01
 -1      4905 2.08884E+01 0.00000E+00 5.88359E-01
 -1      4906 2.07627E+01 0.00000E+00 7.48709E-01
 -1      4907 2.27408E+01 0.00000E+00 4.20258E+00
 -1      4908 1.97482E+01 0.00000E+00 8.15904E+00
 -1      4909 1.97464E+01 0.00000E+00 8.05059E+00
 -1      4910 1.97277E+01 0.00000E+00 8.37886E+00
 -1      4911 1.97375E+01 0.00000E+00 8.27853E+00
 -1      4912 1.97361E+01 0.00000E+00 8.21563E+00
 -1      4913 1.96813E+01 0.00000E+00 8.15659E+00
 -1      4914 1.97824E+01 0.00000E+00 7.91502E+00
 -1      4915 1.98539E+01 0.00000E+00 7.85180E+00
 -1      4916 1.97386E+01 0.00000E+00 7.95113E+00
 -1      4917 1.97216E+01 0.00000E+00 7.86498E+00
 -1      4918 1.97345E+01 0.00000E+00 8.00099E+00
 -1      4919 1.96737E+01 0.00000E+00 7.95095E+00
 -1      4920 2.01638E+01 0.00000E+00 9.60341E+00
 -1      4921 2.01205E+01 0.00000E+00 9.68987E+00
 -1      4922 2.00610E+01 0.00000E+00 9.59105E+00
 -1      4923 2.01909E+01 0.00000E+00 5.77274E-01
 -1      4924 2.01229E+01 0.00000E+00 4.45839E-01
 -1      4925 2.00123E+01 0.00000E+00 4.45704E-01
 -1      4926 2.00879E+01 0.00000E+00 3.26442E-01
 -1      4927 2.02608E+01 0.00000E+00 7.07942E-01
 -1      4928 2.01173E+01 0.00000E+00 6.95768E-01
 -1      4929 2.04137E+01 0.00000E+00 7.25466E-01
 -1      4930 2.03400E+01 0.00000E+00 8.43959E-01
 -1      4931 2.05738E+01 0.00000E+00 7.29440E-01
 -1      4932 2.00818E+01 0.00000E+00 7.99598E-01
 -1      4933 2.00119E+01 0.00000E+00 6.68930E-01
 -1      4934 1.99545E+01 0.00000E+00 5.12889E-01
 -1      4935 1.99194E+01 0.00000E+00 3.93493E-01
 -1      4936 1.99380E+01 0.00000E+00 5.95268E-01
 -1      4937 1.98450E+01 0.00000E+00 5.43057E-01
 -1      4938 1.99025E+01 0.00000E+00 6.99098E-01
 -1      4939 2.03947E+01 0.00000E+00 9.82659E-01
 -1      4940 2.02418E+01 0.00000E+00 9.65136E-01
 -1      4941 2.01529E+01 0.00000E+00 1.07396E+00
 -1      4942 2.00982E+01 0.00000E+00 9.35260E-01
 -1      4943 1.99929E+01 0.00000E+00 9.08422E-01
 -1      4944 2.05564E+01 0.00000E+00 1.00610E+00
 -1      4945 2.04582E+01 0.00000E+00 1.12727E+00
 -1      4946 2.06818E+01 0.00000E+00 8.80753E-01
 -1      4947 2.07453E+01 0.00000E+00 1.02537E+00
 -1      4948 2.02022E+01 0.00000E+00 1.21711E+00
 -1      4949 2.00586E+01 0.00000E+00 1.18724E+00
 -1      4950 2.03451E+01 0.00000E+00 1.24403E+00
 -1      4951 2.02508E+01 0.00000E+00 1.35731E+00
 -1      4952 2.05068E+01 0.00000E+00 1.26747E+00
 -1      4953 1.99814E+01 0.00000E+00 1.31263E+00
 -1      4954 1.99321E+01 0.00000E+00 1.16947E+00
 -1      4955 1.98069E+01 0.00000E+00 1.19053E+00
 -1      4956 1.98841E+01 0.00000E+00 1.06514E+00
 -1      4957 1.97993E+01 0.00000E+00 9.96858E-01
 -1      4958 1.99245E+01 0.00000E+00 9.75805E-01
 -1      4959 1.99080E+01 0.00000E+00 8.40142E-01
 -1      4960 2.02903E+01 0.00000E+00 1.48958E+00
 -1      4961 2.01474E+01 0.00000E+00 1.46266E+00
 -1      4962 2.00564E+01 0.00000E+00 1.56692E+00
 -1      4963 2.00169E+01 0.00000E+00 1.43465E+00
 -1      4964 1.98904E+01 0.00000E+00 1.41689E+00
 -1      4965 2.04434E+01 0.00000E+00 1.54934E+00
 -1      4966 2.03401E+01 0.00000E+00 1.65469E+00
 -1      4967 2.06903E+01 0.00000E+00 1.32966E+00
 -1      4968 2.05771E+01 0.00000E+00 1.44642E+00
 -1      4969 2.06270E+01 0.00000E+00 1.61153E+00
 -1      4970 2.00924E+01 0.00000E+00 1.69297E+00
 -1      4971 1.99619E+01 0.00000E+00 1.66496E+00
 -1      4972 2.02214E+01 0.00000E+00 1.72888E+00
 -1      4973 2.01268E+01 0.00000E+00 1.82692E+00
 -1      4974 2.03745E+01 0.00000E+00 1.78865E+00
 -1      4975 1.98945E+01 0.00000E+00 1.77133E+00
 -1      4976 1.98585E+01 0.00000E+00 1.64528E+00
 -1      4977 1.98590E+01 0.00000E+00 1.50016E+00
 -1      4978 1.98235E+01 0.00000E+00 1.37814E+00
 -1      4979 1.97576E+01 0.00000E+00 1.67136E+00
 -1      4980 1.98249E+01 0.00000E+00 1.56499E+00
 -1      4981 1.97580E+01 0.00000E+00 1.52624E+00
 -1      4982 2.01511E+01 0.00000E+00 1.94756E+00
 -1      4983 2.00222E+01 0.00000E+00 1.91165E+00
 -1      4984 1.99335E+01 0.00000E+00 1.99756E+00
 -1      4985 1.99093E+01 0.00000E+00 1.87692E+00
 -1      4986 1.98059E+01 0.00000E+00 1.85723E+00
 -1      4987 2.02738E+01 0.00000E+00 1.99745E+00
 -1      4988 2.01691E+01 0.00000E+00 2.08218E+00
 -1      4989 2.03955E+01 0.00000E+00 1.94604E+00
 -1      4990 2.04136E+01 0.00000E+00 2.08066E+00
 -1      4991 2.05143E+01 0.00000E+00 1.87186E+00
 -1      4992 1.99450E+01 0.00000E+00 2.10645E+00
 -1      4993 1.98321E+01 0.00000E+00 2.07171E+00
 -1      4994 2.00574E+01 0.00000E+00 2.15093E+00
 -1      4995 1.99560E+01 0.00000E+00 2.22508E+00
 -1      4996 2.01801E+01 0.00000E+00 2.20082E+00
 -1      4997 1.97740E+01 0.00000E+00 1.24743E+00
 -1      4998 1.97260E+01 0.00000E+00 1.14310E+00
 -1      4999 1.96891E+01 0.00000E+00 1.34947E+00
 -1      5000 1.97699E+01 0.00000E+00 1.29690E+00
 -1      5001 1.97741E+01 0.00000E+00 1.34743E+00
 -1      5002 1.97427E+01 0.00000E+00 1.43071E+00
 -1      5003 1.97277E+01 0.00000E+00 1.02576E+00
 -1      5004 1.97681E+01 0.00000E+00 9.36425E-01
 -1      5005 1.96839E+01 0.00000E+00 1.11619E+00
 -1      5006 1.96840E+01 0.00000E+00 1.06378E+00
 -1      5007 1.97651E+01 0.00000E+00 8.74768E-01
 -1      5008 1.97510E+01 0.00000E+00 8.05232E-01
 -1      5009 1.98256E+01 0.00000E+00 8.37987E-01
 -1      5010 1.98940E+01 0.00000E+00 7.70605E-01
 -1      5011 1.97686E+01 0.00000E+00 2.14030E+00
 -1      5012 1.97571E+01 0.00000E+00 2.03141E+00
 -1      5013 1.97571E+01 0.00000E+00 1.93141E+00
 -1      5014 1.97424E+01 0.00000E+00 1.82582E+00
 -1      5015 1.96859E+01 0.00000E+00 2.04620E+00
 -1      5016 1.97494E+01 0.00000E+00 1.97761E+00
 -1      5017 1.96859E+01 0.00000E+00 1.94620E+00
 -1      5018 1.99657E+01 0.00000E+00 2.33512E+00
 -1      5019 1.98533E+01 0.00000E+00 2.29064E+00
 -1      5020 1.97986E+01 0.00000E+00 2.34891E+00
 -1      5021 1.97890E+01 0.00000E+00 2.23887E+00
 -1      5022 1.97047E+01 0.00000E+00 2.24857E+00
 -1      5023 1.97594E+01 0.00000E+00 2.19030E+00
 -1      5024 2.00762E+01 0.00000E+00 2.38449E+00
 -1      5025 1.99735E+01 0.00000E+00 2.45004E+00
 -1      5026 2.01630E+01 0.00000E+00 2.31184E+00
 -1      5027 2.01708E+01 0.00000E+00 2.42676E+00
 -1      5028 2.02748E+01 0.00000E+00 2.24309E+00
 -1      5029 1.99800E+01 0.00000E+00 2.56635E+00
 -1      5030 1.98695E+01 0.00000E+00 2.51698E+00
 -1      5031 1.97987E+01 0.00000E+00 2.57520E+00
 -1      5032 1.97922E+01 0.00000E+00 2.45889E+00
 -1      5033 1.97095E+01 0.00000E+00 2.45939E+00
 -1      5034 1.97803E+01 0.00000E+00 2.40118E+00
 -1      5035 2.00934E+01 0.00000E+00 2.61627E+00
 -1      5036 1.99894E+01 0.00000E+00 2.68321E+00
 -1      5037 2.02011E+01 0.00000E+00 2.54208E+00
 -1      5038 2.02105E+01 0.00000E+00 2.65894E+00
 -1      5039 2.02880E+01 0.00000E+00 2.46944E+00
 -1      5040 2.00107E+01 0.00000E+00 2.79220E+00
 -1      5041 1.98973E+01 0.00000E+00 2.74228E+00
 -1      5042 1.98278E+01 0.00000E+00 2.81363E+00
 -1      5043 1.98065E+01 0.00000E+00 2.70464E+00
 -1      5044 1.97876E+01 0.00000E+00 2.63950E+00
 -1      5045 1.97103E+01 0.00000E+00 2.58140E+00
 -1      5046 1.97181E+01 0.00000E+00 2.71085E+00
 -1      5047 2.00984E+01 0.00000E+00 2.86885E+00
 -1      5048 2.00063E+01 0.00000E+00 2.92793E+00
 -1      5049 2.03203E+01 0.00000E+00 2.71061E+00
 -1      5050 2.02126E+01 0.00000E+00 2.78479E+00
 -1      5051 2.02081E+01 0.00000E+00 2.92052E+00
 -1      5052 1.99064E+01 0.00000E+00 2.96173E+00
 -1      5053 1.98342E+01 0.00000E+00 2.88845E+00
 -1      5054 1.97435E+01 0.00000E+00 2.85081E+00
 -1      5055 1.98221E+01 0.00000E+00 2.99890E+00
 -1      5056 1.97344E+01 0.00000E+00 1.72848E+00
 -1      5057 1.97299E+01 0.00000E+00 1.77135E+00
 -1      5058 1.96731E+01 0.00000E+00 1.74819E+00
 -1      5059 2.03703E+01 0.00000E+00 2.33575E+00
 -1      5060 2.04006E+01 0.00000E+00 2.45107E+00
 -1      5061 2.04794E+01 0.00000E+00 2.60051E+00
 -1      5062 1.96980E+01 0.00000E+00 3.36369E+00
 -1      5063 1.97450E+01 0.00000E+00 3.28597E+00
 -1      5064 1.97633E+01 0.00000E+00 3.17888E+00
 -1      5065 1.98076E+01 0.00000E+00 3.08217E+00
 -1      5066 1.97437E+01 0.00000E+00 3.23984E+00
 -1      5067 1.97012E+01 0.00000E+00 3.15313E+00
 -1      5068 1.97333E+01 0.00000E+00 6.32656E+00
 -1      5069 1.97646E+01 0.00000E+00 6.26260E+00
 -1      5070 1.96766E+01 0.00000E+00 6.38036E+00
 -1      5071 1.96971E+01 0.00000E+00 3.66544E+00
 -1      5072 1.97324E+01 0.00000E+00 3.72997E+00
 -1      5073 1.97548E+01 0.00000E+00 3.81387E+00
 -1      5074 1.97829E+01 0.00000E+00 8.54845E+00
 -1      5075 1.97437E+01 0.00000E+00 8.48509E+00
 -1      5076 1.96930E+01 0.00000E+00 8.50176E+00
 -1      5077 1.97327E+01 0.00000E+00 8.43541E+00
 -1      5078 1.98240E+01 0.00000E+00 9.56460E+00
 -1      5079 1.97588E+01 0.00000E+00 9.50588E+00
 -1      5080 1.97097E+01 0.00000E+00 9.53937E+00
 -1      5081 1.97286E+01 0.00000E+00 9.45805E+00
 -1      5082 1.98824E+01 0.00000E+00 9.60860E+00
 -1      5083 1.97984E+01 0.00000E+00 9.63120E+00
 -1      5084 1.99628E+01 0.00000E+00 9.60976E+00
 -1      5085 1.96613E+01 0.00000E+00 2.53889E+00
 -1      5086 1.96608E+01 0.00000E+00 2.48494E+00
 -1      5087 1.96754E+01 0.00000E+00 2.81262E+00
 -1      5088 1.96672E+01 0.00000E+00 2.75829E+00
 -1      5089 1.96492E+01 0.00000E+00 3.43552E+00
 -1      5090 1.96545E+01 0.00000E+00 3.38839E+00
 -1      5091 1.96683E+01 0.00000E+00 6.07542E+00
 -1      5092 2.03874E+01 0.00000E+00 2.22472E+00
 -1      5093 2.07003E+01 0.00000E+00 1.84043E+00
 -1      5094 2.19881E+01 0.00000E+00 6.78773E+00
 -1      5095 2.24137E+01 0.00000E+00 6.70837E+00
 -1      5096 2.16598E+01 0.00000E+00 7.11449E+00
 -1      5097 2.17487E+01 0.00000E+00 6.52237E+00
 -1      5098 2.16817E+01 0.00000E+00 6.86532E+00
 -1      5099 2.14204E+01 0.00000E+00 6.84913E+00
 -1      5100 2.14952E+01 0.00000E+00 8.22318E+00
 -1      5101 2.14012E+01 0.00000E+00 7.88357E+00
 -1      5102 2.11302E+01 0.00000E+00 7.89963E+00
 -1      5103 2.14754E+01 0.00000E+00 8.56285E+00
 -1      5104 1.97013E+01 0.00000E+00 1.54064E+00
 -1      5105 1.97354E+01 0.00000E+00 1.47582E+00
 -1      5106 1.96998E+01 0.00000E+00 8.74818E+00
 -1      5107 1.96351E+01 0.00000E+00 8.98053E+00
 -1      5108 1.96338E+01 0.00000E+00 7.09556E+00
 -1      5109 1.97391E+01 0.00000E+00 4.33552E+00
 -1      5110 1.97240E+01 0.00000E+00 4.24070E+00
 -1      5111 1.97625E+01 0.00000E+00 4.53169E+00
 -1      5112 1.97417E+01 0.00000E+00 4.43552E+00
 -1      5113 1.98098E+01 0.00000E+00 4.46721E+00
 -1      5114 1.96824E+01 0.00000E+00 4.44705E+00
 -1      5115 1.97298E+01 0.00000E+00 4.38257E+00
 -1      5116 1.97354E+01 0.00000E+00 3.00890E+00
 -1      5117 1.96984E+01 0.00000E+00 3.04609E+00
 -1      5118 1.96603E+01 0.00000E+00 3.12050E+00
 -1      5119 1.96589E+01 0.00000E+00 3.07070E+00
 -1      5120 2.09287E+01 0.00000E+00 1.07487E+00
 -1      5121 2.08033E+01 0.00000E+00 1.20022E+00
 -1      5122 1.98173E+01 0.00000E+00 7.78705E+00
 -1      5123 1.96596E+01 0.00000E+00 7.73899E+00
 -1      5124 1.97350E+01 0.00000E+00 7.76501E+00
 -1      5125 1.96899E+01 0.00000E+00 7.80285E+00
 -1      5126 1.97870E+01 0.00000E+00 7.72319E+00
 -1      5127 1.96913E+01 0.00000E+00 7.65198E+00
 -1      5128 1.97418E+01 0.00000E+00 7.60551E+00
 -1      5129 1.97553E+01 0.00000E+00 7.65468E+00
 -1      5130 1.96311E+01 0.00000E+00 9.29117E+00
 -1      5131 1.97416E+01 0.00000E+00 2.71145E-01
 -1      5132 1.98345E+01 0.00000E+00 3.73141E-01
 -1      5133 1.97825E+01 0.00000E+00 4.21820E-01
 -1      5134 1.97554E+01 0.00000E+00 3.34282E-01
 -1      5135 1.96541E+01 0.00000E+00 4.80225E-01
 -1      5136 1.96516E+01 0.00000E+00 5.31557E-01
 -1      5137 1.97086E+01 0.00000E+00 4.48165E-01
 -1      5138 1.96994E+01 0.00000E+00 5.61158E-01
 -1      5139 1.97712E+01 0.00000E+00 5.69402E-01
 -1      5140 1.97877E+01 0.00000E+00 4.87023E-01
 -1      5141 1.97568E+01 0.00000E+00 6.17192E-01
 -1      5142 1.96967E+01 0.00000E+00 7.74252E-01
 -1      5143 1.96386E+01 0.00000E+00 7.96006E-01
 -1      5144 1.97572E+01 0.00000E+00 7.37472E-01
 -1      5145 1.98200E+01 0.00000E+00 6.96943E-01
 -1      5146 1.97657E+01 0.00000E+00 6.65964E-01
 -1      5147 1.96351E+01 0.00000E+00 9.03053E+00
 -1      5148 1.96346E+01 0.00000E+00 1.97119E+00
 -1      5149 1.96350E+01 0.00000E+00 2.02121E+00
 -1      5150 1.96909E+01 0.00000E+00 5.81530E+00
 -1      5151 1.97332E+01 0.00000E+00 5.73651E+00
 -1      5152 1.98578E+01 0.00000E+00 5.61662E+00
 -1      5153 1.97594E+01 0.00000E+00 5.61369E+00
 -1      5154 1.98210E+01 0.00000E+00 5.52098E+00
 -1      5155 1.97297E+01 0.00000E+00 5.68275E+00
 -1      5156 1.98637E+01 0.00000E+00 5.43159E+00
 -1      5157 1.99333E+01 0.00000E+00 5.33139E+00
 -1      5158 1.97652E+01 0.00000E+00 5.42866E+00
 -1      5159 1.96493E+01 0.00000E+00 5.27379E+00
 -1      5160 1.96425E+01 0.00000E+00 5.32499E+00
 -1      5161 1.96347E+01 0.00000E+00 5.37188E+00
 -1      5162 1.96327E+01 0.00000E+00 5.42190E+00
 -1      5163 1.96866E+01 0.00000E+00 5.34690E+00
 -1      5164 1.98516E+01 0.00000E+00 5.23512E+00
 -1      5165 1.99769E+01 0.00000E+00 5.22724E+00
 -1      5166 2.00243E+01 0.00000E+00 5.09909E+00
 -1      5167 1.97701E+01 0.00000E+00 5.26688E+00
 -1      5168 1.98138E+01 0.00000E+00 5.16273E+00
 -1      5169 1.97007E+01 0.00000E+00 5.45592E+00
 -1      5170 1.97434E+01 0.00000E+00 5.36653E+00
 -1      5171 1.97512E+01 0.00000E+00 5.31964E+00
 -1      5172 1.97133E+01 0.00000E+00 5.24725E+00
 -1      5173 1.99373E+01 0.00000E+00 5.03141E+00
 -1      5174 2.00663E+01 0.00000E+00 4.99953E+00
 -1      5175 1.98448E+01 0.00000E+00 5.03811E+00
 -1      5176 1.98868E+01 0.00000E+00 4.93855E+00
 -1      5177 1.98034E+01 0.00000E+00 5.09754E+00
 -1      5178 1.97530E+01 0.00000E+00 5.00468E+00
 -1      5179 1.96584E+01 0.00000E+00 4.88966E+00
 -1      5180 1.97427E+01 0.00000E+00 4.88656E+00
 -1      5181 1.97100E+01 0.00000E+00 4.94835E+00
 -1      5182 1.96686E+01 0.00000E+00 5.00779E+00
 -1      5183 2.00613E+01 0.00000E+00 4.85291E+00
 -1      5184 2.01483E+01 0.00000E+00 4.92059E+00
 -1      5185 1.98280E+01 0.00000E+00 4.85267E+00
 -1      5186 1.99205E+01 0.00000E+00 4.84597E+00
 -1      5187 1.97764E+01 0.00000E+00 4.79398E+00
 -1      5188 1.97761E+01 0.00000E+00 4.71586E+00
 -1      5189 1.97606E+01 0.00000E+00 4.61750E+00
 -1      5190 1.96501E+01 0.00000E+00 7.67779E+00
 -1      5191 1.96321E+01 0.00000E+00 7.37628E+00
 -1      5192 1.96320E+01 0.00000E+00 7.42630E+00
 -1      5193 1.96305E+01 0.00000E+00 6.82329E+00
 -1      5194 1.96292E+01 0.00000E+00 6.77328E+00
 -1      5195 1.96947E+01 0.00000E+00 3.84888E+00
 -1      5196 2.64146E+01 0.00000E+00 2.93260E+00
 -1      5197 3.10000E+01 1.00000E+00 7.50000E+00
 -1      5198 3.10000E+01 1.00000E+00 2.50568E+00
 -1      5199 3.15000E+01 1.50000E+00 1.25284E+00
 -1      5200 3.05000E+01 5.00000E-01 1.25284E+00
 -1      5201 3.05000E+01 5.00000E-01 3.75284E+00
 -1      5202 3.15000E+01 1.50000E+00 3.75284E+00
 -1      5203 3.05000E+01 5.00000E-01 8.75000E+00
 -1      5204 3.15000E+01 1.50000E+00 8.75000E+00
 -1      5205 3.05000E+01 5.00000E-01 6.25000E+00
 -1      5206 3.15000E+01 1.50000E+00 6.25000E+00
 -1      5207 3.10000E+01 1.00000E+00 5.00000E+00
 -1      5208 3.91413E+01 2.00000E+00 6.22429E+00
 -1      5209 4.30308E+01 2.00000E+00 3.81412E+00
 -1      5210 4.68670E+01 2.00000E+00 3.21012E+00
 -1      5211 3.51837E+01 2.00000E+00 6.79972E+00
 -1      5212 3.88405E+01 2.00000E+00 2.65527E+00
 -1      5213 4.30704E+01 2.00000E+00 7.32916E+00
 -1      5214 3.53814E+01 2.00000E+00 3.23293E+00
 -1      5215 4.66186E+01 2.00000E+00 6.76707E+00
 -1      5216 3.59407E+01 2.00000E+00 1.61647E+00
 -1      5217 3.36907E+01 2.00000E+00 1.61647E+00
 -1      5218 3.36907E+01 2.00000E+00 4.11647E+00
 -1      5219 4.84335E+01 2.00000E+00 1.60506E+00
 -1      5220 4.61835E+01 2.00000E+00 1.60506E+00
 -1      5221 4.84335E+01 2.00000E+00 4.10506E+00
 -1      5222 3.35919E+01 2.00000E+00 8.39986E+00
 -1      5223 3.58419E+01 2.00000E+00 8.39986E+00
 -1      5224 3.35919E+01 2.00000E+00 5.89986E+00
 -1      5225 4.60593E+01 2.00000E+00 8.38353E+00
 -1      5226 4.83093E+01 2.00000E+00 8.38353E+00
 -1      5227 4.83093E+01 2.00000E+00 5.88353E+00
 -1      5228 3.99203E+01 2.00000E+00 1.32763E+00
 -1      5229 3.76703E+01 2.00000E+00 1.32763E+00
 -1      5230 3.71109E+01 2.00000E+00 2.94410E+00
 -1      5231 4.42654E+01 2.00000E+00 1.90706E+00
 -1      5232 4.20154E+01 2.00000E+00 1.90706E+00
 -1      5233 4.09357E+01 2.00000E+00 3.23469E+00
 -1      5234 4.49489E+01 2.00000E+00 3.51212E+00
 -1      5235 3.78207E+01 2.00000E+00 8.11214E+00
 -1      5236 4.00707E+01 2.00000E+00 8.11214E+00
 -1      5237 3.71625E+01 2.00000E+00 6.51200E+00
 -1      5238 4.20352E+01 2.00000E+00 8.66458E+00
 -1      5239 4.42852E+01 2.00000E+00 8.66458E+00
 -1      5240 4.11059E+01 2.00000E+00 6.77672E+00
 -1      5241 4.48445E+01 2.00000E+00 7.04811E+00
 -1      5242 3.52825E+01 2.00000E+00 5.01633E+00
 -1      5243 4.67428E+01 2.00000E+00 4.98860E+00
 -1      5244 3.89909E+01 2.00000E+00 4.43978E+00
 -1      5245 4.10861E+01 2.00000E+00 5.01920E+00
 -1      5246 4.30506E+01 2.00000E+00 5.57164E+00
 -1      5247 3.72613E+01 2.00000E+00 4.72861E+00
 -1      5248 4.48247E+01 2.00000E+00 5.29060E+00
 -1      5249 5.00000E+01 9.70080E+00 4.77827E+00
 -1      5250 5.00000E+01 1.61798E+01 5.21605E+00
 -1      5251 5.00000E+01 5.89778E+00 6.01373E+00
 -1      5252 5.00000E+01 1.98472E+01 4.04308E+00
 -1      5253 5.00000E+01 2.07581E+01 7.17875E+00
 -1      5254 5.00000E+01 5.07285E+00 2.72790E+00
 -1      5255 5.00000E+01 6.28643E+00 1.36395E+00
 -1      5256 5.00000E+01 3.53642E+00 1.36395E+00
 -1      5257 5.00000E+01 3.53642E+00 3.86395E+00
 -1      5258 5.00000E+01 2.19236E+01 2.02154E+00
 -1      5259 5.00000E+01 1.91736E+01 2.02154E+00
 -1      5260 5.00000E+01 2.19236E+01 4.52154E+00
 -1      5261 5.00000E+01 3.94889E+00 8.00686E+00
 -1      5262 5.00000E+01 6.69889E+00 8.00686E+00
 -1      5263 5.00000E+01 3.94889E+00 5.50686E+00
 -1      5264 5.00000E+01 1.96290E+01 8.58938E+00
 -1      5265 5.00000E+01 2.23790E+01 8.58938E+00
 -1      5266 5.00000E+01 2.23790E+01 6.08938E+00
 -1      5267 5.00000E+01 1.13504E+01 2.38913E+00
 -1      5268 5.00000E+01 8.60040E+00 2.38913E+00
 -1      5269 5.00000E+01 7.38682E+00 3.75308E+00
 -1      5270 5.00000E+01 1.73399E+01 2.60802E+00
 -1      5271 5.00000E+01 1.45899E+01 2.60802E+00
 -1      5272 5.00000E+01 1.29403E+01 4.99716E+00
 -1      5273 5.00000E+01 1.80135E+01 4.62956E+00
 -1      5274 5.00000E+01 8.60040E+00 7.38913E+00
 -1      5275 5.00000E+01 1.13504E+01 7.38913E+00
 -1      5276 5.00000E+01 7.79929E+00 5.39600E+00
 -1      5277 5.00000E+01 1.45899E+01 7.60802E+00
 -1      5278 5.00000E+01 1.73399E+01 7.60802E+00
 -1      5279 5.00000E+01 1.84690E+01 6.19740E+00
 -1      5280 5.00000E+01 5.48531E+00 4.37081E+00
 -1      5281 5.00000E+01 2.03026E+01 5.61092E+00
 -1      5282 4.12641E+01 2.40000E+01 4.98324E+00
 -1      5283 3.05310E+01 2.40000E+01 4.85583E+00
 -1      5284 1.94459E+01 2.40000E+01 5.03613E+00
 -1      5285 8.73367E+00 2.40000E+01 5.01479E+00
 -1      5286 1.40245E+01 2.40000E+01 5.00399E+00
 -1      5287 3.60046E+01 2.40000E+01 4.95812E+00
 -1      5288 2.50250E+01 2.40000E+01 4.94988E+00
 -1      5289 3.64005E+00 2.40000E+01 4.90976E+00
 -1      5290 4.63605E+01 2.40000E+01 5.08967E+00
 -1      5291 4.54025E+01 2.40000E+01 2.54483E+00
 -1      5292 4.81802E+01 2.40000E+01 2.54483E+00
 -1      5293 4.81802E+01 2.40000E+01 5.04483E+00
 -1      5294 1.82003E+00 2.40000E+01 2.45488E+00
 -1      5295 4.59781E+00 2.40000E+01 2.45488E+00
 -1      5296 1.82003E+00 2.40000E+01 4.95488E+00
 -1      5297 4.81802E+01 2.40000E+01 7.54483E+00
 -1      5298 4.54025E+01 2.40000E+01 7.54483E+00
 -1      5299 4.59781E+00 2.40000E+01 7.45488E+00
 -1      5300 1.82003E+00 2.40000E+01 7.45488E+00
 -1      5301 4.00765E+01 2.40000E+01 2.49162E+00
 -1      5302 4.28543E+01 2.40000E+01 2.49162E+00
 -1      5303 4.38123E+01 2.40000E+01 5.03645E+00
 -1      5304 3.46690E+01 2.40000E+01 2.47906E+00
 -1      5305 3.74468E+01 2.40000E+01 2.47906E+00
 -1      5306 3.86344E+01 2.40000E+01 4.97068E+00
 -1      5307 2.91544E+01 2.40000E+01 2.42792E+00
 -1      5308 3.19322E+01 2.40000E+01 2.42792E+00
 -1      5309 3.32678E+01 2.40000E+01 4.90697E+00
 -1      5310 2.36236E+01 2.40000E+01 2.47494E+00
 -1      5311 2.64014E+01 2.40000E+01 2.47494E+00
 -1      5312 2.77780E+01 2.40000E+01 4.90286E+00
 -1      5313 1.80563E+01 2.40000E+01 2.51806E+00
 -1      5314 2.08341E+01 2.40000E+01 2.51806E+00
 -1      5315 2.22355E+01 2.40000E+01 4.99300E+00
 -1      5316 1.25678E+01 2.40000E+01 2.50200E+00
 -1      5317 1.53456E+01 2.40000E+01 2.50200E+00
 -1      5318 1.67352E+01 2.40000E+01 5.02006E+00
 -1      5319 7.14461E+00 2.40000E+01 2.50739E+00
 -1      5320 9.92239E+00 2.40000E+01 2.50739E+00
 -1      5321 1.13791E+01 2.40000E+01 5.00939E+00
 -1      5322 6.18686E+00 2.40000E+01 4.96227E+00
 -1      5323 4.28543E+01 2.40000E+01 7.49162E+00
 -1      5324 4.00765E+01 2.40000E+01 7.49162E+00
 -1      5325 3.74468E+01 2.40000E+01 7.47906E+00
 -1      5326 3.46690E+01 2.40000E+01 7.47906E+00
 -1      5327 3.19322E+01 2.40000E+01 7.42792E+00
 -1      5328 2.91544E+01 2.40000E+01 7.42792E+00
 -1      5329 2.64014E+01 2.40000E+01 7.47494E+00
 -1      5330 2.36236E+01 2.40000E+01 7.47494E+00
 -1      5331 2.08341E+01 2.40000E+01 7.51806E+00
 -1      5332 1.80563E+01 2.40000E+01 7.51806E+00
 -1      5333 1.53456E+01 2.40000E+01 7.50200E+00
 -1      5334 1.25678E+01 2.40000E+01 7.50200E+00
 -1      5335 9.92239E+00 2.40000E+01 7.50739E+00
 -1      5336 7.14461E+00 2.40000E+01 7.50739E+00
 -1      5337 0.00000E+00 7.86460E+00 4.75158E+00
 -1      5338 0.00000E+00 1.47518E+01 5.01762E+00
 -1      5339 0.00000E+00 1.94634E+01 5.53013E+00
 -1      5340 0.00000E+00 4.05816E+00 5.91716E+00
 -1      5341 0.00000E+00 3.69920E+00 3.18027E+00
 -1      5342 0.00000E+00 1.84960E+00 1.59013E+00
 -1      5343 0.00000E+00 4.27876E+00 1.59013E+00
 -1      5344 0.00000E+00 1.84960E+00 4.09014E+00
 -1      5345 0.00000E+00 1.89937E+01 2.76506E+00
 -1      5346 0.00000E+00 2.17317E+01 2.76506E+00
 -1      5347 0.00000E+00 2.17317E+01 5.26506E+00
 -1      5348 0.00000E+00 4.45824E+00 7.95858E+00
 -1      5349 0.00000E+00 2.02908E+00 7.95858E+00
 -1      5350 0.00000E+00 2.02908E+00 5.45858E+00
 -1      5351 0.00000E+00 2.17317E+01 7.76506E+00
 -1      5352 0.00000E+00 1.89937E+01 7.76506E+00
 -1      5353 0.00000E+00 1.30406E+01 2.50881E+00
 -1      5354 0.00000E+00 1.66379E+01 2.50881E+00
 -1      5355 0.00000E+00 1.71076E+01 5.27387E+00
 -1      5356 0.00000E+00 6.36146E+00 2.37579E+00
 -1      5357 0.00000E+00 9.59702E+00 2.37579E+00
 -1      5358 0.00000E+00 1.13082E+01 4.88460E+00
 -1      5359 0.00000E+00 5.78190E+00 3.96592E+00
 -1      5360 0.00000E+00 1.66379E+01 7.50881E+00
 -1      5361 0.00000E+00 1.30406E+01 7.50881E+00
 -1      5362 0.00000E+00 9.59702E+00 7.37579E+00
 -1      5363 0.00000E+00 6.36146E+00 7.37579E+00
 -1      5364 0.00000E+00 5.96138E+00 5.33437E+00
 -1      5365 0.00000E+00 3.87868E+00 4.54871E+00
 -1      5366 4.43578E+01 8.54851E+00 7.20231E+00
 -1      5367 4.34971E+01 7.42640E+00 3.90827E+00
 -1      5368 4.25073E+01 6.67411E+00 7.22766E+00
 -1      5369 4.35163E+01 7.44538E+00 1.95414E+00
 -1      5370 4.46090E+01 9.06161E+00 1.95414E+00
 -1      5371 4.46090E+01 9.06161E+00 4.45414E+00
 -1      5372 4.18884E+01 6.37031E+00 1.95414E+00
 -1      5373 4.18884E+01 6.37031E+00 4.45414E+00
 -1      5374 4.48368E+01 9.73289E+00 8.60116E+00
 -1      5375 4.39837E+01 7.97839E+00 8.60116E+00
 -1      5376 4.48368E+01 9.73289E+00 6.10116E+00
 -1      5377 4.30472E+01 7.03581E+00 8.61383E+00
 -1      5378 4.12982E+01 6.17147E+00 8.61383E+00
 -1      5379 4.12982E+01 6.17147E+00 6.11383E+00
 -1      5380 4.35582E+01 7.48727E+00 7.21499E+00
 -1      5381 4.39673E+01 7.95687E+00 5.55529E+00
 -1      5382 4.30257E+01 7.01938E+00 5.56797E+00
 -1      5383 3.75485E+01 6.64223E+00 7.20231E+00
 -1      5384 3.64264E+01 7.50295E+00 3.90827E+00
 -1      5385 3.56741E+01 8.49267E+00 7.22766E+00
 -1      5386 3.53703E+01 9.11162E+00 1.95414E+00
 -1      5387 3.64454E+01 7.48366E+00 1.95414E+00
 -1      5388 3.53703E+01 9.11162E+00 4.45414E+00
 -1      5389 3.80616E+01 6.39103E+00 1.95414E+00
 -1      5390 3.80616E+01 6.39103E+00 4.45414E+00
 -1      5391 3.87329E+01 6.16322E+00 8.60116E+00
 -1      5392 3.69784E+01 7.01630E+00 8.60116E+00
 -1      5393 3.87329E+01 6.16322E+00 6.10116E+00
 -1      5394 3.60358E+01 7.95283E+00 8.61383E+00
 -1      5395 3.51715E+01 9.70181E+00 8.61383E+00
 -1      5396 3.51715E+01 9.70181E+00 6.11383E+00
 -1      5397 3.64873E+01 7.44180E+00 7.21499E+00
 -1      5398 3.69569E+01 7.03272E+00 5.55529E+00
 -1      5399 3.60194E+01 7.97434E+00 5.56797E+00
 -1      5400 3.56422E+01 1.34515E+01 7.20231E+00
 -1      5401 3.65029E+01 1.45736E+01 3.90827E+00
 -1      5402 3.74927E+01 1.53259E+01 7.22766E+00
 -1      5403 3.81116E+01 1.56297E+01 1.95414E+00
 -1      5404 3.64837E+01 1.45546E+01 1.95414E+00
 -1      5405 3.81116E+01 1.56297E+01 4.45414E+00
 -1      5406 3.53910E+01 1.29384E+01 1.95414E+00
 -1      5407 3.53910E+01 1.29384E+01 4.45414E+00
 -1      5408 3.51632E+01 1.22671E+01 8.60116E+00
 -1      5409 3.60163E+01 1.40216E+01 8.60116E+00
 -1      5410 3.51632E+01 1.22671E+01 6.10116E+00
 -1      5411 3.69528E+01 1.49642E+01 8.61383E+00
 -1      5412 3.87018E+01 1.58285E+01 8.61383E+00
 -1      5413 3.87018E+01 1.58285E+01 6.11383E+00
 -1      5414 3.64418E+01 1.45127E+01 7.21499E+00
 -1      5415 3.60327E+01 1.40431E+01 5.55529E+00
 -1      5416 3.69743E+01 1.49806E+01 5.56797E+00
 -1      5417 4.24515E+01 1.53578E+01 7.20231E+00
 -1      5418 4.35736E+01 1.44971E+01 3.90827E+00
 -1      5419 4.43259E+01 1.35073E+01 7.22766E+00
 -1      5420 4.46297E+01 1.28884E+01 1.95414E+00
 -1      5421 4.35546E+01 1.45163E+01 1.95414E+00
 -1      5422 4.46297E+01 1.28884E+01 4.45414E+00
 -1      5423 4.19384E+01 1.56090E+01 1.95414E+00
 -1      5424 4.19384E+01 1.56090E+01 4.45414E+00
 -1      5425 4.39642E+01 1.40472E+01 8.61383E+00
 -1      5426 4.48285E+01 1.22982E+01 8.61383E+00
 -1      5427 4.48285E+01 1.22982E+01 6.11383E+00
 -1      5428 4.12671E+01 1.58368E+01 8.60116E+00
 -1      5429 4.30216E+01 1.49837E+01 8.60116E+00
 -1      5430 4.12671E+01 1.58368E+01 6.10116E+00
 -1      5431 4.35127E+01 1.45582E+01 7.21499E+00
 -1      5432 4.39806E+01 1.40257E+01 5.56797E+00
 -1      5433 4.30431E+01 1.49673E+01 5.55529E+00
 -1      5434 1.89545E+01 1.77225E-01 1.00000E+01
 -1      5435 1.73964E+01 4.77292E-01 1.00000E+01
 -1      5436 1.45773E+01 1.12444E+00 1.00000E+01
 -1      5437 2.16765E+01 5.95512E-01 1.00000E+01
 -1      5438 2.01141E+01 2.14713E-01 1.00000E+01
 -1      5439 1.94379E+01 1.00939E-01 1.00000E+01
 -1      5440 2.58954E+01 1.61947E+00 1.00000E+01
 -1      5441 1.13788E+01 1.60028E+00 1.00000E+01
 -1      5442 1.83595E+01 2.89000E-01 1.00000E+01
 -1      5443 1.94131E+01 1.88897E+01 1.00000E+01
 -1      5444 1.96710E+01 1.14518E-01 1.00000E+01
 -1      5445 1.95918E+01 3.29145E-01 1.00000E+01
 -1      5446 3.28569E+01 1.47957E+01 1.00000E+01
 -1      5447 3.11184E+01 1.09423E+01 1.00000E+01
 -1      5448 2.88049E+01 1.35641E+01 1.00000E+01
 -1      5449 2.73320E+01 1.02879E+01 1.00000E+01
 -1      5450 4.22126E+00 8.34430E+00 1.00000E+01
 -1      5451 8.63891E+00 1.84317E+01 1.00000E+01
 -1      5452 2.52478E+01 1.31260E+01 1.00000E+01
 -1      5453 2.40397E+01 9.89756E+00 1.00000E+01
 -1      5454 2.58309E+01 7.51548E+00 1.00000E+01
 -1      5455 2.29729E+01 7.22879E+00 1.00000E+01
 -1      5456 2.13541E+01 9.43911E+00 1.00000E+01
 -1      5457 2.04715E+01 6.64850E+00 1.00000E+01
 -1      5458 1.87927E+01 8.80029E+00 1.00000E+01
 -1      5459 1.79420E+01 6.12630E+00 1.00000E+01
 -1      5460 1.60796E+01 8.51853E+00 1.00000E+01
 -1      5461 1.95652E+01 4.83298E+00 1.00000E+01
 -1      5462 1.50298E+01 5.89036E+00 1.00000E+01
 -1      5463 1.30484E+01 8.27533E+00 1.00000E+01
 -1      5464 1.42230E+01 1.13793E+01 1.00000E+01
 -1      5465 1.93633E+01 1.18053E+01 1.00000E+01
 -1      5466 2.44388E+01 5.27254E+00 1.00000E+01
 -1      5467 2.69842E+01 5.26830E+00 1.00000E+01
 -1      5468 1.07513E+01 1.09556E+01 1.00000E+01
 -1      5469 2.64543E+01 1.65844E+01 1.00000E+01
 -1      5470 2.39113E+01 1.11659E+00 1.00000E+01
 -1      5471 2.22690E+01 5.10481E+00 1.00000E+01
 -1      5472 1.19097E+01 5.51515E+00 1.00000E+01
 -1      5473 6.05718E+00 2.50480E+00 1.00000E+01
 -1      5474 2.78980E+01 1.69507E+00 1.00000E+01
 -1      5475 2.34339E+01 3.42657E+00 1.00000E+01
 -1      5476 2.15227E+01 3.16490E+00 1.00000E+01
 -1      5477 2.26113E+01 1.96899E+00 1.00000E+01
 -1      5478 1.68049E+01 4.09522E+00 1.00000E+01
 -1      5479 1.86663E+01 2.67277E+00 1.00000E+01
 -1      5480 1.49360E+01 3.53693E+00 1.00000E+01
 -1      5481 2.10086E+01 4.36178E-01 1.00000E+01
 -1      5482 2.12252E+01 1.16160E+00 1.00000E+01
 -1      5483 2.05262E+01 9.56956E-01 1.00000E+01
 -1      5484 2.06571E+01 1.60043E+00 1.00000E+01
 -1      5485 1.98579E+01 1.53903E+00 1.00000E+01
 -1      5486 2.02968E+01 2.51165E+00 1.00000E+01
 -1      5487 3.62076E+01 1.89833E+01 1.00000E+01
 -1      5488 1.64920E+01 2.57649E+00 1.00000E+01
 -1      5489 2.94361E+01 7.49765E+00 1.00000E+01
 -1      5490 2.95673E+01 4.82936E+00 1.00000E+01
 -1      5491 3.22913E+01 6.19594E+00 1.00000E+01
 -1      5492 1.20731E+01 1.47295E+01 1.00000E+01
 -1      5493 1.57699E+01 8.91914E-01 1.00000E+01
 -1      5494 4.31386E+01 1.84370E+01 1.00000E+01
 -1      5495 1.92187E+01 3.50287E-01 1.00000E+01
 -1      5496 1.93865E+01 6.15523E-01 1.00000E+01
 -1      5497 1.89910E+01 6.98160E-01 1.00000E+01
 -1      5498 2.25804E+01 8.32014E-01 1.00000E+01
 -1      5499 4.93811E+00 1.40718E+01 1.00000E+01
 -1      5500 1.66170E+01 1.43777E+01 1.00000E+01
 -1      5501 1.92527E+01 1.09032E+00 1.00000E+01
 -1      5502 1.85641E+01 1.05196E+00 1.00000E+01
 -1      5503 1.89698E+01 1.76459E+00 1.00000E+01
 -1      5504 1.81826E+01 1.77100E+00 1.00000E+01
 -1      5505 1.40866E+01 1.90714E+01 1.00000E+01
 -1      5506 3.20691E+01 1.89126E+01 1.00000E+01
 -1      5507 9.01914E+00 1.99267E+00 1.00000E+01
 -1      5508 8.01754E+00 5.29471E+00 1.00000E+01
 -1      5509 1.79333E+01 3.59863E-01 1.00000E+01
 -1      5510 1.77853E+01 9.46867E-01 1.00000E+01
 -1      5511 1.71615E+01 1.08073E+00 1.00000E+01
 -1      5512 1.31906E+01 1.41754E+00 1.00000E+01
 -1      5513 1.86928E+01 2.26126E-01 1.00000E+01
 -1      5514 1.98831E+01 6.11863E-01 1.00000E+01
 -1      5515 1.85934E+01 5.53059E-01 1.00000E+01
 -1      5516 2.53921E+01 3.57149E+00 1.00000E+01
 -1      5517 2.29591E+01 1.58888E+01 1.00000E+01
 -1      5518 2.04237E+01 3.69952E-01 1.00000E+01
 -1      5519 1.28228E+01 3.28461E+00 1.00000E+01
 -1      5520 1.98369E+01 2.11706E-01 1.00000E+01
 -1      5521 2.43008E+01 1.99388E+01 1.00000E+01
 -1      5522 2.14855E+01 1.94876E+00 1.00000E+01
 -1      5523 2.03159E+01 3.76802E+00 1.00000E+01
 -1      5524 1.66929E+01 6.78790E-01 1.00000E+01
 -1      5525 2.22768E+01 1.24026E+01 1.00000E+01
 -1      5526 3.42500E+01 4.08572E+00 1.00000E+01
 -1      5527 1.82341E+01 6.44650E-01 1.00000E+01
 -1      5528 1.53079E+01 2.04318E+00 1.00000E+01
 -1      5529 1.02576E+01 7.99819E+00 1.00000E+01
 -1      5530 2.90293E+00 2.62043E+00 1.00000E+01
 -1      5531 1.06296E+01 3.53748E+00 1.00000E+01
 -1      5532 4.65560E+01 1.68631E+01 1.00000E+01
 -1      5533 1.91591E+01 1.38784E-01 1.00000E+01
 -1      5534 2.07719E+01 5.02836E+00 1.00000E+01
 -1      5535 1.76706E+01 2.83319E+00 1.00000E+01
 -1      5536 2.01259E+01 1.46728E+01 1.00000E+01
 -1      5537 4.08017E+00 1.99407E+01 1.00000E+01
 -1      5538 2.83708E+01 2.01025E+01 1.00000E+01
 -1      5539 3.33333E+01 8.76287E+00 1.00000E+01
 -1      5540 2.19270E+01 1.31099E+00 1.00000E+01
 -1      5541 1.88698E+01 4.24197E-01 1.00000E+01
 -1      5542 2.71357E+01 3.41167E+00 1.00000E+01
 -1      5543 2.97422E+01 2.67880E+00 1.00000E+01
 -1      5544 4.31721E+01 4.53331E+00 1.00000E+01
 -1      5545 4.64668E+01 5.29447E+00 1.00000E+01
 -1      5546 4.65932E+01 8.26902E+00 1.00000E+01
 -1      5547 1.70151E+01 1.09762E+01 1.00000E+01
 -1      5548 2.44645E+01 2.43038E+00 1.00000E+01
 -1      5549 4.66039E+01 2.04264E+01 1.00000E+01
 -1      5550 4.00000E+01 2.04609E+01 1.00000E+01
 -1      5551 4.62729E+01 1.38497E+01 1.00000E+01
 -1      5552 1.64711E+01 1.51633E+00 1.00000E+01
 -1      5553 1.93954E+01 2.41563E+00 1.00000E+01
 -1      5554 1.73743E+01 1.81662E+00 1.00000E+01
 -1      5555 7.80874E+00 1.00841E+01 1.00000E+01
 -1      5556 2.97818E+01 1.66506E+01 1.00000E+01
 -1      5557 1.41669E+01 2.28134E+00 1.00000E+01
 -1      5558 8.73056E+00 1.37724E+01 1.00000E+01
 -1      5559 1.94070E+01 3.43768E+00 1.00000E+01
 -1      5560 1.83427E+01 3.99969E+00 1.00000E+01
 -1      5561 3.18521E+01 4.13670E+00 1.00000E+01
 -1      5562 3.74063E+01 4.73824E+00 1.00000E+01
 -1      5563 4.39825E+00 4.94403E+00 1.00000E+01
 -1      5564 1.36746E+01 4.55676E+00 1.00000E+01
 -1      5565 3.60945E+00 1.31021E+00 1.00000E+01
 -1      5566 1.45147E+00 1.31021E+00 1.00000E+01
 -1      5567 1.45147E+00 3.73937E+00 1.00000E+01
 -1      5568 1.94689E+01 5.04695E-02 1.00000E+01
 -1      5569 1.94138E+01 5.04695E-02 1.00000E+01
 -1      5570 1.95257E+01 5.04695E-02 1.00000E+01
 -1      5571 3.08711E+01 2.33940E+00 1.00000E+01
 -1      5572 2.98711E+01 1.33940E+00 1.00000E+01
 -1      5573 2.89490E+01 8.47533E-01 1.00000E+01
 -1      5574 2.74402E+01 8.47533E-01 1.00000E+01
 -1      5575 2.88201E+01 2.18693E+00 1.00000E+01
 -1      5576 3.53750E+01 3.04286E+00 1.00000E+01
 -1      5577 3.31250E+01 3.04286E+00 1.00000E+01
 -1      5578 3.30510E+01 4.11121E+00 1.00000E+01
 -1      5579 3.19260E+01 3.06835E+00 1.00000E+01
 -1      5580 3.07971E+01 3.40775E+00 1.00000E+01
 -1      5581 4.82334E+01 3.64723E+00 1.00000E+01
 -1      5582 4.59834E+01 3.64723E+00 1.00000E+01
 -1      5583 4.82334E+01 6.39723E+00 1.00000E+01
 -1      5584 4.83020E+01 2.22132E+01 1.00000E+01
 -1      5585 4.83020E+01 1.94632E+01 1.00000E+01
 -1      5586 4.55242E+01 2.22132E+01 1.00000E+01
 -1      5587 2.04009E+00 2.19703E+01 1.00000E+01
 -1      5588 4.81786E+00 2.19703E+01 1.00000E+01
 -1      5589 2.04009E+00 1.92324E+01 1.00000E+01
 -1      5590 4.75000E+01 1.20000E+01 1.00000E+01
 -1      5591 4.57966E+01 9.63451E+00 1.00000E+01
 -1      5592 4.82966E+01 1.06345E+01 1.00000E+01
 -1      5593 4.81364E+01 1.34248E+01 1.00000E+01
 -1      5594 4.56364E+01 1.24248E+01 1.00000E+01
 -1      5595 4.50644E+01 7.86674E+00 1.00000E+01
 -1      5596 4.49042E+01 1.41926E+01 1.00000E+01
 -1      5597 4.05000E+01 4.00000E+00 1.00000E+01
 -1      5598 4.20860E+01 3.26666E+00 1.00000E+01
 -1      5599 4.15860E+01 5.26666E+00 1.00000E+01
 -1      5600 3.87031E+01 5.36912E+00 1.00000E+01
 -1      5601 3.92031E+01 3.36912E+00 1.00000E+01
 -1      5602 4.33538E+01 5.99889E+00 1.00000E+01
 -1      5603 3.69354E+01 6.10135E+00 1.00000E+01
 -1      5604 3.41667E+01 9.88143E+00 1.00000E+01
 -1      5605 3.48989E+01 8.11367E+00 1.00000E+01
 -1      5606 3.46607E+01 1.46656E+01 1.00000E+01
 -1      5607 3.39285E+01 1.28978E+01 1.00000E+01
 -1      5608 3.19876E+01 1.28690E+01 1.00000E+01
 -1      5609 3.30592E+01 1.09712E+01 1.00000E+01
 -1      5610 3.22259E+01 9.85260E+00 1.00000E+01
 -1      5611 3.81038E+01 1.74916E+01 1.00000E+01
 -1      5612 3.63360E+01 1.67594E+01 1.00000E+01
 -1      5613 4.33371E+01 1.64863E+01 1.00000E+01
 -1      5614 4.15693E+01 1.72185E+01 1.00000E+01
 -1      5615 4.00000E+01 1.82304E+01 1.00000E+01
 -1      5616 3.81038E+01 1.97221E+01 1.00000E+01
 -1      5617 4.15693E+01 1.94489E+01 1.00000E+01
 -1      5618 6.87648E+00 1.25240E+00 1.00000E+01
 -1      5619 5.18657E+00 1.25240E+00 1.00000E+01
 -1      5620 4.48006E+00 2.56262E+00 1.00000E+01
 -1      5621 9.68082E+00 9.96337E-01 1.00000E+01
 -1      5622 8.35746E+00 9.96337E-01 1.00000E+01
 -1      5623 7.53816E+00 2.24874E+00 1.00000E+01
 -1      5624 1.18970E+01 8.00141E-01 1.00000E+01
 -1      5625 1.08607E+01 8.00141E-01 1.00000E+01
 -1      5626 1.01990E+01 1.79648E+00 1.00000E+01
 -1      5627 1.36144E+01 7.08771E-01 1.00000E+01
 -1      5628 1.28028E+01 7.08771E-01 1.00000E+01
 -1      5629 1.22847E+01 1.50891E+00 1.00000E+01
 -1      5630 1.49433E+01 5.62219E-01 1.00000E+01
 -1      5631 1.43078E+01 5.62219E-01 1.00000E+01
 -1      5632 1.38839E+01 1.27099E+00 1.00000E+01
 -1      5633 1.60372E+01 4.45957E-01 1.00000E+01
 -1      5634 1.55395E+01 4.45957E-01 1.00000E+01
 -1      5635 1.51736E+01 1.00818E+00 1.00000E+01
 -1      5636 1.68884E+01 3.39395E-01 1.00000E+01
 -1      5637 1.64987E+01 3.39395E-01 1.00000E+01
 -1      5638 1.62314E+01 7.85352E-01 1.00000E+01
 -1      5639 1.75454E+01 2.38646E-01 1.00000E+01
 -1      5640 1.72402E+01 2.38646E-01 1.00000E+01
 -1      5641 1.70447E+01 5.78041E-01 1.00000E+01
 -1      5642 1.80528E+01 1.79931E-01 1.00000E+01
 -1      5643 1.78138E+01 1.79931E-01 1.00000E+01
 -1      5644 1.76649E+01 4.18577E-01 1.00000E+01
 -1      5645 1.84530E+01 1.44500E-01 1.00000E+01
 -1      5646 1.82659E+01 1.44500E-01 1.00000E+01
 -1      5647 1.81464E+01 3.24431E-01 1.00000E+01
 -1      5648 1.87663E+01 1.13063E-01 1.00000E+01
 -1      5649 1.86197E+01 1.13063E-01 1.00000E+01
 -1      5650 1.85261E+01 2.57563E-01 1.00000E+01
 -1      5651 1.90119E+01 8.86127E-02 1.00000E+01
 -1      5652 1.88971E+01 8.86127E-02 1.00000E+01
 -1      5653 1.88236E+01 2.01676E-01 1.00000E+01
 -1      5654 1.92041E+01 6.93921E-02 1.00000E+01
 -1      5655 1.91142E+01 6.93921E-02 1.00000E+01
 -1      5656 1.90568E+01 1.58005E-01 1.00000E+01
 -1      5657 1.93434E+01 5.04695E-02 1.00000E+01
 -1      5658 1.92985E+01 1.19862E-01 1.00000E+01
 -1      5659 1.97212E+01 5.72588E-02 1.00000E+01
 -1      5660 1.96423E+01 5.72588E-02 1.00000E+01
 -1      5661 1.95544E+01 1.07728E-01 1.00000E+01
 -1      5662 1.99136E+01 1.05853E-01 1.00000E+01
 -1      5663 1.98041E+01 1.05853E-01 1.00000E+01
 -1      5664 1.97540E+01 1.63112E-01 1.00000E+01
 -1      5665 2.02041E+01 1.07356E-01 1.00000E+01
 -1      5666 2.00521E+01 1.07356E-01 1.00000E+01
 -1      5667 1.99755E+01 2.13210E-01 1.00000E+01
 -1      5668 2.05698E+01 1.84976E-01 1.00000E+01
 -1      5669 2.03589E+01 1.84976E-01 1.00000E+01
 -1      5670 2.02689E+01 2.92332E-01 1.00000E+01
 -1      5671 2.11550E+01 2.18089E-01 1.00000E+01
 -1      5672 2.08622E+01 2.18089E-01 1.00000E+01
 -1      5673 2.07161E+01 4.03065E-01 1.00000E+01
 -1      5674 2.18953E+01 2.97756E-01 1.00000E+01
 -1      5675 2.14890E+01 2.97756E-01 1.00000E+01
 -1      5676 2.13426E+01 5.15845E-01 1.00000E+01
 -1      5677 2.29114E+01 4.16007E-01 1.00000E+01
 -1      5678 2.23473E+01 4.16007E-01 1.00000E+01
 -1      5679 2.21285E+01 7.13763E-01 1.00000E+01
 -1      5680 2.43598E+01 5.58297E-01 1.00000E+01
 -1      5681 2.35768E+01 5.58297E-01 1.00000E+01
 -1      5682 2.32458E+01 9.74305E-01 1.00000E+01
 -1      5683 2.64389E+01 8.09734E-01 1.00000E+01
 -1      5684 2.53519E+01 8.09734E-01 1.00000E+01
 -1      5685 2.49033E+01 1.36803E+00 1.00000E+01
 -1      5686 2.68967E+01 1.65727E+00 1.00000E+01
 -1      5687 3.69531E+01 3.36912E+00 1.00000E+01
 -1      5688 3.58281E+01 4.41198E+00 1.00000E+01
 -1      5689 4.43360E+01 3.26666E+00 1.00000E+01
 -1      5690 4.48194E+01 4.91389E+00 1.00000E+01
 -1      5691 4.82966E+01 7.88451E+00 1.00000E+01
 -1      5692 4.65300E+01 6.78174E+00 1.00000E+01
 -1      5693 4.82780E+01 1.76816E+01 1.00000E+01
 -1      5694 4.82780E+01 1.49316E+01 1.00000E+01
 -1      5695 4.64144E+01 1.53564E+01 1.00000E+01
 -1      5696 4.65800E+01 1.86448E+01 1.00000E+01
 -1      5697 3.94444E+01 2.22304E+01 1.00000E+01
 -1      5698 4.22222E+01 2.22304E+01 1.00000E+01
 -1      5699 4.37915E+01 2.12185E+01 1.00000E+01
 -1      5700 4.48713E+01 1.94317E+01 1.00000E+01
 -1      5701 3.47704E+01 2.14916E+01 1.00000E+01
 -1      5702 3.75482E+01 2.14916E+01 1.00000E+01
 -1      5703 2.80743E+01 2.20513E+01 1.00000E+01
 -1      5704 3.08521E+01 2.20513E+01 1.00000E+01
 -1      5705 3.27012E+01 2.14563E+01 1.00000E+01
 -1      5706 3.41383E+01 1.89479E+01 1.00000E+01
 -1      5707 3.02199E+01 1.95076E+01 1.00000E+01
 -1      5708 2.32615E+01 2.19694E+01 1.00000E+01
 -1      5709 2.60393E+01 2.19694E+01 1.00000E+01
 -1      5710 2.63358E+01 2.00207E+01 1.00000E+01
 -1      5711 1.80399E+01 2.14449E+01 1.00000E+01
 -1      5712 2.08176E+01 2.14449E+01 1.00000E+01
 -1      5713 2.18569E+01 1.94143E+01 1.00000E+01
 -1      5714 1.25989E+01 2.15357E+01 1.00000E+01
 -1      5715 1.53767E+01 2.15357E+01 1.00000E+01
 -1      5716 1.67498E+01 1.89806E+01 1.00000E+01
 -1      5717 7.09723E+00 2.12159E+01 1.00000E+01
 -1      5718 9.87501E+00 2.12159E+01 1.00000E+01
 -1      5719 1.13628E+01 1.87516E+01 1.00000E+01
 -1      5720 6.35954E+00 1.91862E+01 1.00000E+01
 -1      5721 2.46906E+00 1.27006E+01 1.00000E+01
 -1      5722 2.46906E+00 1.62979E+01 1.00000E+01
 -1      5723 4.50914E+00 1.70062E+01 1.00000E+01
 -1      5724 2.11063E+00 6.60131E+00 1.00000E+01
 -1      5725 2.11063E+00 9.83686E+00 1.00000E+01
 -1      5726 4.57969E+00 1.12080E+01 1.00000E+01
 -1      5727 2.19913E+00 4.90118E+00 1.00000E+01
 -1      5728 4.30976E+00 6.64416E+00 1.00000E+01
 -1      5729 3.65059E+00 3.78223E+00 1.00000E+01
 -1      5730 4.50012E+01 6.37947E+00 1.00000E+01
 -1      5731 3.43779E+01 6.83020E+00 1.00000E+01
 -1      5732 3.32706E+01 5.14083E+00 1.00000E+01
 -1      5733 3.53572E+01 5.77509E+00 1.00000E+01
 -1      5734 3.28123E+01 7.47940E+00 1.00000E+01
 -1      5735 3.45322E+01 1.68895E+01 1.00000E+01
 -1      5736 4.50458E+01 1.56993E+01 1.00000E+01
 -1      5737 4.48473E+01 1.76500E+01 1.00000E+01
 -1      5738 1.90866E+01 2.63756E-01 1.00000E+01
 -1      5739 1.91889E+01 2.44536E-01 1.00000E+01
 -1      5740 1.90443E+01 3.87242E-01 1.00000E+01
 -1      5741 1.89121E+01 3.00711E-01 1.00000E+01
 -1      5742 1.87813E+01 3.25162E-01 1.00000E+01
 -1      5743 1.78593E+01 6.53365E-01 1.00000E+01
 -1      5744 1.75909E+01 7.12079E-01 1.00000E+01
 -1      5745 1.74734E+01 1.01380E+00 1.00000E+01
 -1      5746 1.72790E+01 7.79012E-01 1.00000E+01
 -1      5747 1.69272E+01 8.79762E-01 1.00000E+01
 -1      5748 1.55389E+01 1.46755E+00 1.00000E+01
 -1      5749 1.49426E+01 1.58381E+00 1.00000E+01
 -1      5750 1.43721E+01 1.70289E+00 1.00000E+01
 -1      5751 1.36787E+01 1.84944E+00 1.00000E+01
 -1      5752 1.47374E+01 2.16226E+00 1.00000E+01
 -1      5753 2.14509E+01 8.78555E-01 1.00000E+01
 -1      5754 2.11169E+01 7.98887E-01 1.00000E+01
 -1      5755 2.18017E+01 9.53250E-01 1.00000E+01
 -1      5756 2.15761E+01 1.23629E+00 1.00000E+01
 -1      5757 2.22537E+01 1.07150E+00 1.00000E+01
 -1      5758 1.99986E+01 4.13288E-01 1.00000E+01
 -1      5759 2.01534E+01 4.90907E-01 1.00000E+01
 -1      5760 1.98600E+01 4.11785E-01 1.00000E+01
 -1      5761 1.96314E+01 2.21831E-01 1.00000E+01
 -1      5762 1.95148E+01 2.15042E-01 1.00000E+01
 -1      5763 1.94053E+01 3.39716E-01 1.00000E+01
 -1      5764 1.93283E+01 2.25613E-01 1.00000E+01
 -1      5765 2.51799E+01 2.02492E+00 1.00000E+01
 -1      5766 2.41879E+01 1.77349E+00 1.00000E+01
 -1      5767 2.75168E+01 2.55337E+00 1.00000E+01
 -1      5768 2.65156E+01 2.51557E+00 1.00000E+01
 -1      5769 2.56437E+01 2.59548E+00 1.00000E+01
 -1      5770 2.62639E+01 3.49158E+00 1.00000E+01
 -1      5771 2.49283E+01 3.00093E+00 1.00000E+01
 -1      5772 1.10042E+01 2.56888E+00 1.00000E+01
 -1      5773 9.82436E+00 2.76508E+00 1.00000E+01
 -1      5774 1.30067E+01 2.35108E+00 1.00000E+01
 -1      5775 1.21008E+01 2.44245E+00 1.00000E+01
 -1      5776 1.17262E+01 3.41105E+00 1.00000E+01
 -1      5777 1.82968E+01 4.66825E-01 1.00000E+01
 -1      5778 1.80837E+01 5.02256E-01 1.00000E+01
 -1      5779 1.86431E+01 3.89593E-01 1.00000E+01
 -1      5780 1.84765E+01 4.21029E-01 1.00000E+01
 -1      5781 1.84138E+01 5.98855E-01 1.00000E+01
 -1      5782 1.80150E+01 1.66337E+01 1.00000E+01
 -1      5783 1.53518E+01 1.67246E+01 1.00000E+01
 -1      5784 1.83714E+01 1.45253E+01 1.00000E+01
 -1      5785 1.97695E+01 1.67813E+01 1.00000E+01
 -1      5786 2.11861E+01 1.73893E+01 1.00000E+01
 -1      5787 2.36299E+01 1.79138E+01 1.00000E+01
 -1      5788 2.15425E+01 1.52808E+01 1.00000E+01
 -1      5789 1.97144E+01 2.70426E-01 1.00000E+01
 -1      5790 1.94891E+01 4.72334E-01 1.00000E+01
 -1      5791 1.93026E+01 4.82905E-01 1.00000E+01
 -1      5792 1.97375E+01 4.70504E-01 1.00000E+01
 -1      5793 1.96348E+01 6.13693E-01 1.00000E+01
 -1      5794 3.08309E+01 1.41799E+01 1.00000E+01
 -1      5795 2.99616E+01 1.22532E+01 1.00000E+01
 -1      5796 3.13193E+01 1.57231E+01 1.00000E+01
 -1      5797 2.92933E+01 1.51073E+01 1.00000E+01
 -1      5798 3.24630E+01 1.68541E+01 1.00000E+01
 -1      5799 3.09254E+01 1.77816E+01 1.00000E+01
 -1      5800 2.80685E+01 1.19260E+01 1.00000E+01
 -1      5801 2.92252E+01 1.06151E+01 1.00000E+01
 -1      5802 2.83841E+01 8.89280E+00 1.00000E+01
 -1      5803 3.02772E+01 9.22000E+00 1.00000E+01
 -1      5804 3.13847E+01 8.13026E+00 1.00000E+01
 -1      5805 2.70263E+01 1.33450E+01 1.00000E+01
 -1      5806 2.62899E+01 1.17070E+01 1.00000E+01
 -1      5807 2.76296E+01 1.50742E+01 1.00000E+01
 -1      5808 2.58510E+01 1.48552E+01 1.00000E+01
 -1      5809 2.81180E+01 1.66175E+01 1.00000E+01
 -1      5810 2.46438E+01 1.15118E+01 1.00000E+01
 -1      5811 2.56859E+01 1.00928E+01 1.00000E+01
 -1      5812 2.49353E+01 8.70652E+00 1.00000E+01
 -1      5813 2.65815E+01 8.90171E+00 1.00000E+01
 -1      5814 2.76335E+01 7.50657E+00 1.00000E+01
 -1      5815 6.01500E+00 9.21420E+00 1.00000E+01
 -1      5816 6.37343E+00 1.20779E+01 1.00000E+01
 -1      5817 6.11940E+00 6.81950E+00 1.00000E+01
 -1      5818 7.91314E+00 7.68941E+00 1.00000E+01
 -1      5819 6.20790E+00 5.11937E+00 1.00000E+01
 -1      5820 1.03560E+01 1.65806E+01 1.00000E+01
 -1      5821 1.30799E+01 1.69004E+01 1.00000E+01
 -1      5822 8.68473E+00 1.61021E+01 1.00000E+01
 -1      5823 1.04018E+01 1.42509E+01 1.00000E+01
 -1      5824 6.78851E+00 1.62518E+01 1.00000E+01
 -1      5825 6.83434E+00 1.39221E+01 1.00000E+01
 -1      5826 2.37623E+01 1.27643E+01 1.00000E+01
 -1      5827 2.31583E+01 1.11501E+01 1.00000E+01
 -1      5828 2.47067E+01 1.62366E+01 1.00000E+01
 -1      5829 2.41035E+01 1.45074E+01 1.00000E+01
 -1      5830 2.26180E+01 1.41457E+01 1.00000E+01
 -1      5831 2.35063E+01 8.56317E+00 1.00000E+01
 -1      5832 2.44019E+01 7.37213E+00 1.00000E+01
 -1      5833 2.26969E+01 9.66834E+00 1.00000E+01
 -1      5834 2.21635E+01 8.33395E+00 1.00000E+01
 -1      5835 2.18155E+01 1.09209E+01 1.00000E+01
 -1      5836 2.37059E+01 6.25066E+00 1.00000E+01
 -1      5837 2.51349E+01 6.39401E+00 1.00000E+01
 -1      5838 2.57115E+01 5.27042E+00 1.00000E+01
 -1      5839 2.64076E+01 6.39189E+00 1.00000E+01
 -1      5840 2.82101E+01 6.38298E+00 1.00000E+01
 -1      5841 2.09128E+01 8.04381E+00 1.00000E+01
 -1      5842 2.17222E+01 6.93864E+00 1.00000E+01
 -1      5843 2.13702E+01 5.87666E+00 1.00000E+01
 -1      5844 2.26209E+01 6.16680E+00 1.00000E+01
 -1      5845 2.33539E+01 5.18868E+00 1.00000E+01
 -1      5846 2.00734E+01 9.11970E+00 1.00000E+01
 -1      5847 1.96321E+01 7.72439E+00 1.00000E+01
 -1      5848 2.03587E+01 1.06222E+01 1.00000E+01
 -1      5849 1.90780E+01 1.03028E+01 1.00000E+01
 -1      5850 2.08200E+01 1.21039E+01 1.00000E+01
 -1      5851 1.83674E+01 7.46330E+00 1.00000E+01
 -1      5852 1.92067E+01 6.38740E+00 1.00000E+01
 -1      5853 1.87536E+01 5.47964E+00 1.00000E+01
 -1      5854 2.00184E+01 5.74074E+00 1.00000E+01
 -1      5855 2.01686E+01 4.93067E+00 1.00000E+01
 -1      5856 2.06217E+01 5.83843E+00 1.00000E+01
 -1      5857 2.15204E+01 5.06659E+00 1.00000E+01
 -1      5858 1.74362E+01 8.65941E+00 1.00000E+01
 -1      5859 1.70108E+01 7.32242E+00 1.00000E+01
 -1      5860 1.79039E+01 9.88825E+00 1.00000E+01
 -1      5861 1.65474E+01 9.74737E+00 1.00000E+01
 -1      5862 1.81892E+01 1.13907E+01 1.00000E+01
 -1      5863 1.55547E+01 7.20444E+00 1.00000E+01
 -1      5864 1.64859E+01 6.00833E+00 1.00000E+01
 -1      5865 1.81423E+01 5.06300E+00 1.00000E+01
 -1      5866 1.89540E+01 4.41634E+00 1.00000E+01
 -1      5867 1.59173E+01 4.99279E+00 1.00000E+01
 -1      5868 1.73734E+01 5.11076E+00 1.00000E+01
 -1      5869 1.75738E+01 4.04746E+00 1.00000E+01
 -1      5870 1.45640E+01 8.39693E+00 1.00000E+01
 -1      5871 1.40391E+01 7.08284E+00 1.00000E+01
 -1      5872 1.51513E+01 9.94890E+00 1.00000E+01
 -1      5873 1.36357E+01 9.82730E+00 1.00000E+01
 -1      5874 1.56191E+01 1.11777E+01 1.00000E+01
 -1      5875 1.99406E+01 4.30050E+00 1.00000E+01
 -1      5876 2.05439E+01 4.39819E+00 1.00000E+01
 -1      5877 1.94861E+01 4.13533E+00 1.00000E+01
 -1      5878 1.98614E+01 3.60285E+00 1.00000E+01
 -1      5879 1.88748E+01 3.71869E+00 1.00000E+01
 -1      5880 1.24790E+01 6.89524E+00 1.00000E+01
 -1      5881 1.34697E+01 5.70275E+00 1.00000E+01
 -1      5882 1.27921E+01 5.03595E+00 1.00000E+01
 -1      5883 1.43522E+01 5.22356E+00 1.00000E+01
 -1      5884 1.49829E+01 4.71364E+00 1.00000E+01
 -1      5885 1.58705E+01 3.81608E+00 1.00000E+01
 -1      5886 1.43053E+01 4.04684E+00 1.00000E+01
 -1      5887 1.24871E+01 1.11674E+01 1.00000E+01
 -1      5888 1.18998E+01 9.61547E+00 1.00000E+01
 -1      5889 1.05044E+01 9.47690E+00 1.00000E+01
 -1      5890 1.16530E+01 8.13676E+00 1.00000E+01
 -1      5891 1.10836E+01 6.75667E+00 1.00000E+01
 -1      5892 1.31481E+01 1.30544E+01 1.00000E+01
 -1      5893 1.14122E+01 1.28425E+01 1.00000E+01
 -1      5894 1.54200E+01 1.28785E+01 1.00000E+01
 -1      5895 1.43451E+01 1.45536E+01 1.00000E+01
 -1      5896 1.68161E+01 1.26770E+01 1.00000E+01
 -1      5897 1.79902E+01 1.30915E+01 1.00000E+01
 -1      5898 1.97446E+01 1.32390E+01 1.00000E+01
 -1      5899 2.12013E+01 1.35377E+01 1.00000E+01
 -1      5900 2.49155E+01 4.42201E+00 1.00000E+01
 -1      5901 2.61881E+01 4.41990E+00 1.00000E+01
 -1      5902 2.28514E+01 4.26569E+00 1.00000E+01
 -1      5903 2.39364E+01 4.34956E+00 1.00000E+01
 -1      5904 2.44130E+01 3.49903E+00 1.00000E+01
 -1      5905 2.82758E+01 5.04883E+00 1.00000E+01
 -1      5906 2.95017E+01 6.16351E+00 1.00000E+01
 -1      5907 2.70600E+01 4.33999E+00 1.00000E+01
 -1      5908 2.83515E+01 4.12052E+00 1.00000E+01
 -1      5909 9.74091E+00 1.23640E+01 1.00000E+01
 -1      5910 9.28000E+00 1.05199E+01 1.00000E+01
 -1      5911 9.03318E+00 9.04115E+00 1.00000E+01
 -1      5912 8.26965E+00 1.19283E+01 1.00000E+01
 -1      5913 2.53775E+01 1.82616E+01 1.00000E+01
 -1      5914 2.74125E+01 1.83435E+01 1.00000E+01
 -1      5915 2.90763E+01 1.83765E+01 1.00000E+01
 -1      5916 2.32613E+01 1.54279E+00 1.00000E+01
 -1      5917 2.25959E+01 1.40050E+00 1.00000E+01
 -1      5918 2.35379E+01 2.19969E+00 1.00000E+01
 -1      5919 2.18958E+01 4.13485E+00 1.00000E+01
 -1      5920 2.24783E+01 3.29573E+00 1.00000E+01
 -1      5921 2.11473E+01 4.09663E+00 1.00000E+01
 -1      5922 9.96360E+00 5.40493E+00 1.00000E+01
 -1      5923 9.13758E+00 6.64645E+00 1.00000E+01
 -1      5924 9.32356E+00 4.41610E+00 1.00000E+01
 -1      5925 1.12696E+01 4.52632E+00 1.00000E+01
 -1      5926 1.23662E+01 4.39988E+00 1.00000E+01
 -1      5927 1.32487E+01 3.92069E+00 1.00000E+01
 -1      5928 8.51834E+00 3.64369E+00 1.00000E+01
 -1      5929 7.03736E+00 3.89976E+00 1.00000E+01
 -1      5930 5.22772E+00 3.72442E+00 1.00000E+01
 -1      5931 2.84390E+01 3.04524E+00 1.00000E+01
 -1      5932 2.20670E+01 2.56694E+00 1.00000E+01
 -1      5933 2.30226E+01 2.69778E+00 1.00000E+01
 -1      5934 2.39492E+01 2.92848E+00 1.00000E+01
 -1      5935 2.15041E+01 2.55683E+00 1.00000E+01
 -1      5936 2.20484E+01 1.95888E+00 1.00000E+01
 -1      5937 2.09097E+01 2.83827E+00 1.00000E+01
 -1      5938 2.08911E+01 2.23021E+00 1.00000E+01
 -1      5939 2.09193E+01 3.46646E+00 1.00000E+01
 -1      5940 2.03063E+01 3.13984E+00 1.00000E+01
 -1      5941 2.22691E+01 1.63999E+00 1.00000E+01
 -1      5942 2.17062E+01 1.62987E+00 1.00000E+01
 -1      5943 1.57140E+01 3.05671E+00 1.00000E+01
 -1      5944 1.66485E+01 3.33586E+00 1.00000E+01
 -1      5945 1.70813E+01 2.70484E+00 1.00000E+01
 -1      5946 1.72377E+01 3.46421E+00 1.00000E+01
 -1      5947 1.80066E+01 3.41644E+00 1.00000E+01
 -1      5948 1.88181E+01 2.21868E+00 1.00000E+01
 -1      5949 1.84245E+01 2.22189E+00 1.00000E+01
 -1      5950 1.85762E+01 1.76780E+00 1.00000E+01
 -1      5951 1.91826E+01 2.09011E+00 1.00000E+01
 -1      5952 1.90309E+01 2.54420E+00 1.00000E+01
 -1      5953 1.81685E+01 2.75298E+00 1.00000E+01
 -1      5954 1.79266E+01 2.30210E+00 1.00000E+01
 -1      5955 1.85045E+01 3.33623E+00 1.00000E+01
 -1      5956 1.94012E+01 2.92665E+00 1.00000E+01
 -1      5957 1.90367E+01 3.05522E+00 1.00000E+01
 -1      5958 1.51220E+01 2.79005E+00 1.00000E+01
 -1      5959 1.59000E+01 2.30983E+00 1.00000E+01
 -1      5960 1.38794E+01 3.41077E+00 1.00000E+01
 -1      5961 1.34948E+01 2.78297E+00 1.00000E+01
 -1      5962 1.45515E+01 2.90913E+00 1.00000E+01
 -1      5963 2.08757E+01 1.05928E+00 1.00000E+01
 -1      5964 2.07674E+01 6.96567E-01 1.00000E+01
 -1      5965 2.04749E+01 6.63454E-01 1.00000E+01
 -1      5966 2.09412E+01 1.38101E+00 1.00000E+01
 -1      5967 2.05916E+01 1.27869E+00 1.00000E+01
 -1      5968 2.13554E+01 1.55518E+00 1.00000E+01
 -1      5969 2.10713E+01 1.77459E+00 1.00000E+01
 -1      5970 2.02575E+01 1.56973E+00 1.00000E+01
 -1      5971 2.01920E+01 1.24800E+00 1.00000E+01
 -1      5972 1.98705E+01 1.07545E+00 1.00000E+01
 -1      5973 2.02046E+01 7.84410E-01 1.00000E+01
 -1      5974 2.04769E+01 2.05604E+00 1.00000E+01
 -1      5975 2.00773E+01 2.02534E+00 1.00000E+01
 -1      5976 1.98461E+01 2.46364E+00 1.00000E+01
 -1      5977 1.96266E+01 1.97733E+00 1.00000E+01
 -1      5978 1.95553E+01 1.31468E+00 1.00000E+01
 -1      5979 1.94138E+01 1.65181E+00 1.00000E+01
 -1      5980 1.91113E+01 1.42746E+00 1.00000E+01
 -1      5981 1.95679E+01 8.51093E-01 1.00000E+01
 -1      5982 1.98519E+01 2.97467E+00 1.00000E+01
 -1      5983 1.58895E+01 1.77975E+00 1.00000E+01
 -1      5984 1.64816E+01 2.04641E+00 1.00000E+01
 -1      5985 1.69332E+01 2.19655E+00 1.00000E+01
 -1      5986 1.75225E+01 2.32491E+00 1.00000E+01
 -1      5987 1.69227E+01 1.66647E+00 1.00000E+01
 -1      5988 3.09293E+01 5.51265E+00 1.00000E+01
 -1      5989 3.08637E+01 6.84680E+00 1.00000E+01
 -1      5990 3.07097E+01 4.48303E+00 1.00000E+01
 -1      5991 3.20717E+01 5.16632E+00 1.00000E+01
 -1      5992 2.96548E+01 3.75408E+00 1.00000E+01
 -1      5993 1.65820E+01 1.09756E+00 1.00000E+01
 -1      5994 1.61205E+01 1.20412E+00 1.00000E+01
 -1      5995 1.91887E+01 6.56842E-01 1.00000E+01
 -1      5996 1.91049E+01 5.24224E-01 1.00000E+01
 -1      5997 1.89304E+01 5.61178E-01 1.00000E+01
 -1      5998 1.93196E+01 8.52923E-01 1.00000E+01
 -1      5999 1.91219E+01 8.94241E-01 1.00000E+01
 -1      6000 1.89084E+01 1.07114E+00 1.00000E+01
 -1      6001 1.87776E+01 8.75061E-01 1.00000E+01
 -1      6002 1.85788E+01 8.02511E-01 1.00000E+01
 -1      6003 1.87922E+01 6.25610E-01 1.00000E+01
 -1      6004 1.87316E+01 4.88628E-01 1.00000E+01
 -1      6005 1.87669E+01 1.40828E+00 1.00000E+01
 -1      6006 1.83734E+01 1.41148E+00 1.00000E+01
 -1      6007 1.79840E+01 1.35894E+00 1.00000E+01
 -1      6008 1.81747E+01 9.99415E-01 1.00000E+01
 -1      6009 1.80097E+01 7.95759E-01 1.00000E+01
 -1      6010 1.83991E+01 8.48306E-01 1.00000E+01
 -1      6011 1.77785E+01 1.79381E+00 1.00000E+01
 -1      6012 1.75798E+01 1.38174E+00 1.00000E+01
 -1      6013 1.72679E+01 1.44868E+00 1.00000E+01
 -1      6014 1.68163E+01 1.29853E+00 1.00000E+01
 -1      6015 1.94701E+01 4.10462E+00 5.95000E+00
 -1      6016 1.94657E+01 2.88932E+00 2.85000E+00
 -1      6017 1.94684E+01 2.35127E+00 7.65000E+00
 -1      6018 1.95170E+01 2.02615E+00 5.65000E+00
 -1      6019 1.93875E+01 1.65605E+00 1.59982E+00
 -1      6020 1.95272E+01 1.64404E+00 4.05000E+00
 -1      6021 1.94378E+01 1.32787E+00 8.70521E+00
 -1      6022 1.95193E+01 9.06655E-01 8.50000E-01
 -1      6023 1.94680E+01 1.16546E+00 7.55000E+00
 -1      6024 1.94423E+01 1.14896E+00 6.40000E+00
 -1      6025 1.94657E+01 1.26000E+00 2.85000E+00
 -1      6026 1.94449E+01 1.01074E+00 5.39724E+00
 -1      6027 1.94643E+01 8.58787E-01 4.55000E+00
 -1      6028 1.94411E+01 8.47399E-01 3.70095E+00
 -1      6029 1.61482E+01 3.67548E+00 4.29659E+00
 -1      6030 1.94721E+01 7.67979E-01 9.25000E+00
 -1      6031 1.78965E+01 1.67706E+00 5.29883E+00
 -1      6032 1.75681E+01 2.02833E+00 2.74918E+00
 -1      6033 1.95323E+01 8.84319E-01 2.05000E+00
 -1      6034 2.23593E+01 3.07439E+00 4.94872E+00
 -1      6035 1.95317E+01 7.37409E-01 8.15000E+00
 -1      6036 2.11704E+01 1.86049E+00 6.60634E+00
 -1      6037 1.79284E+01 1.58498E+00 7.38551E+00
 -1      6038 1.95618E+01 6.43063E-01 3.10009E+00
 -1      6039 1.95310E+01 6.43750E-01 1.45000E+00
 -1      6040 1.95314E+01 7.08062E-01 6.95000E+00
 -1      6041 1.94405E+01 5.71052E-01 7.50009E+00
 -1      6042 1.95561E+01 5.67179E-01 6.39829E+00
 -1      6043 1.94656E+01 5.52577E-01 5.85000E+00
 -1      6044 1.86349E+01 9.10296E-01 6.94661E+00
 -1      6045 2.06636E+01 1.24069E+00 7.93938E+00
 -1      6046 1.95315E+01 5.03275E-01 5.35000E+00
 -1      6047 2.10167E+01 1.66185E+00 2.21358E+00
 -1      6048 1.94758E+01 5.60164E-01 2.55000E+00
 -1      6049 2.06287E+01 1.25612E+00 3.42722E+00
 -1      6050 1.84449E+01 1.10665E+00 2.22744E+00
 -1      6051 2.03923E+01 1.03048E+00 5.83255E+00
 -1      6052 1.88460E+01 7.26779E-01 2.89253E+00
 -1      6053 1.81690E+01 1.25659E+00 8.74078E+00
 -1      6054 1.95643E+01 5.63256E-01 8.68863E+00
 -1      6055 2.03879E+01 9.29420E-01 2.44322E+00
 -1      6056 1.84418E+01 1.04372E+00 4.33483E+00
 -1      6057 1.87006E+01 8.13687E-01 7.78154E+00
 -1      6058 2.04146E+01 9.53252E-01 8.95765E+00
 -1      6059 1.86707E+01 8.25213E-01 5.83599E+00
 -1      6060 1.94375E+01 4.64990E-01 4.89187E+00
 -1      6061 1.84431E+01 1.09375E+00 1.11976E+00
 -1      6062 1.95339E+01 4.71726E-01 4.50000E-01
 -1      6063 1.95604E+01 5.23357E-01 4.09884E+00
 -1      6064 1.94406E+01 4.55897E-01 8.99898E-01
 -1      6065 1.58263E+01 2.42767E+00 6.40914E+00
 -1      6066 2.01271E+01 7.21156E-01 4.92132E+00
 -1      6067 1.99703E+01 5.87151E-01 7.77356E+00
 -1      6068 1.95314E+01 4.22543E-01 2.15000E+00
 -1      6069 1.94462E+01 4.37058E-01 9.59867E+00
 -1      6070 1.95187E+01 3.95593E-01 7.85000E+00
 -1      6071 1.89520E+01 6.48913E-01 8.46274E+00
 -1      6072 1.89634E+01 5.69043E-01 5.24571E+00
 -1      6073 1.95585E+01 4.10765E-01 4.49870E+00
 -1      6074 1.95603E+01 3.53221E-01 8.20340E+00
 -1      6075 1.93874E+01 3.85976E-01 6.69968E+00
 -1      6076 1.89080E+01 5.94420E-01 6.39344E+00
 -1      6077 2.04464E+01 9.79913E-01 1.20895E+00
 -1      6078 1.93453E+01 4.17522E-01 3.75106E+00
 -1      6079 2.14680E+01 1.57327E+00 4.78857E+00
 -1      6080 1.94483E+01 3.60837E-01 7.20238E+00
 -1      6081 1.95593E+01 3.53533E-01 1.79934E+00
 -1      6082 1.89364E+01 6.25724E-01 4.28272E+00
 -1      6083 1.89857E+01 5.98470E-01 1.94453E+00
 -1      6084 1.94717E+01 4.02225E-01 9.05000E+00
 -1      6085 2.01490E+01 6.37327E-01 1.74748E+00
 -1      6086 1.94405E+01 3.16214E-01 8.49972E+00
 -1      6087 1.93497E+01 3.64954E-01 6.14665E+00
 -1      6088 1.94402E+01 3.59786E-01 3.40362E+00
 -1      6089 2.24027E+01 8.19904E+00 5.00000E+00
 -1      6090 1.92854E+01 3.60792E-01 1.55634E+00
 -1      6091 1.89976E+01 5.30343E-01 5.95626E-01
 -1      6092 1.89932E+01 4.50850E-01 7.20367E+00
 -1      6093 1.88519E+01 5.64304E-01 9.44020E+00
 -1      6094 1.94695E+01 3.52695E-01 1.25000E+00
 -1      6095 1.99149E+01 5.31683E-01 3.62106E+00
 -1      6096 1.87695E+01 5.93471E-01 3.63531E+00
 -1      6097 1.78970E+01 1.03595E+00 3.23756E+00
 -1      6098 2.02945E+01 7.96641E-01 6.66708E+00
 -1      6099 2.00005E+01 5.17087E-01 2.38965E+00
 -1      6100 1.96501E+01 3.22257E-01 7.45774E+00
 -1      6101 2.01068E+01 6.27277E-01 7.01355E-01
 -1      6102 1.88595E+01 5.77500E-01 1.19736E+00
 -1      6103 1.01288E+01 5.22116E+00 5.00000E+00
 -1      6104 1.98436E+01 4.60462E-01 9.33702E+00
 -1      6105 1.67588E+01 1.42889E+00 8.36786E+00
 -1      6106 1.95170E+01 3.12352E-01 5.65000E+00
 -1      6107 2.00177E+01 5.34842E-01 5.60471E+00
 -1      6108 1.92332E+01 3.87632E-01 3.06481E+00
 -1      6109 1.96526E+01 3.23547E-01 6.94665E+00
 -1      6110 1.70854E+01 1.38909E+00 1.44267E+00
 -1      6111 1.72565E+01 8.64314E+00 5.00000E+00
 -1      6112 1.93587E+01 3.19708E-01 4.25006E+00
 -1      6113 1.76902E+01 1.11713E+00 6.34119E+00
 -1      6114 1.92721E+01 3.25009E-01 1.96430E+00
 -1      6115 1.90588E+01 4.50733E-01 7.92480E+00
 -1      6116 1.81202E+01 8.10955E-01 5.20640E+00
 -1      6117 1.90354E+01 4.50358E-01 2.46961E+00
 -1      6118 2.37652E+01 2.84096E+00 2.64132E+00
 -1      6119 1.95459E+01 3.60687E-01 2.85000E+00
 -1      6120 2.69679E+01 4.98202E+00 5.01989E+00
 -1      6121 1.93862E+01 3.04618E-01 2.39730E+00
 -1      6122 1.65872E+01 1.54956E+00 4.37360E+00
 -1      6123 1.44638E+01 2.13793E+00 4.12840E+00
 -1      6124 1.94711E+01 2.78504E-01 6.45000E+00
 -1      6125 2.01294E+01 6.09739E-01 8.41425E+00
 -1      6126 1.93480E+01 2.72545E-01 6.95715E+00
 -1      6127 1.92505E+01 3.42765E-01 9.32515E+00
 -1      6128 1.94689E+01 2.91824E-01 5.15000E+00
 -1      6129 1.96217E+01 2.91526E-01 1.49774E+00
 -1      6130 1.94390E+01 2.55888E-01 5.89486E+00
 -1      6131 1.91156E+01 4.04447E-01 5.68479E+00
 -1      6132 1.27449E+01 3.03106E+00 6.60758E+00
 -1      6133 1.97048E+01 3.39166E-01 6.10687E+00
 -1      6134 1.95608E+01 2.88356E-01 3.90526E+00
 -1      6135 1.95374E+01 2.76999E-01 3.15000E+00
 -1      6136 1.91292E+01 3.96884E-01 8.75715E+00
 -1      6137 1.99960E+01 4.82328E-01 1.20881E+00
 -1      6138 1.91622E+01 3.03493E-01 6.39897E+00
 -1      6139 1.93802E+01 2.71680E-01 7.49990E+00
 -1      6140 1.96501E+01 2.58337E-01 5.34082E+00
 -1      6141 2.21807E+01 1.54599E+00 8.41761E+00
 -1      6142 2.44681E+01 2.87230E+00 7.06141E+00
 -1      6143 2.01171E+01 5.61846E-01 7.20515E+00
 -1      6144 1.99705E+01 4.26987E-01 2.96878E+00
 -1      6145 2.01619E+01 1.06573E+00 4.18417E+00
 -1      6146 1.95566E+01 2.59408E-01 2.59586E+00
 -1      6147 2.00209E+01 4.91278E-01 4.30779E+00
 -1      6148 1.95170E+01 2.71785E-01 9.35000E+00
 -1      6149 1.94389E+01 2.72729E-01 8.80447E+00
 -1      6150 1.84626E+01 6.08306E-01 8.86737E+00
 -1      6151 1.96537E+01 2.64272E-01 6.65075E+00
 -1      6152 1.97609E+01 3.13820E-01 8.77561E+00
 -1      6153 1.86183E+01 3.23175E+00 4.51066E+00
 -1      6154 1.96112E+01 6.28978E+00 3.30492E+00
 -1      6155 2.05119E+01 3.18843E+00 4.53314E+00
 -1      6156 1.76537E+01 4.03035E+00 7.62570E+00
 -1      6157 1.92305E+01 3.40498E-01 4.63974E+00
 -1      6158 1.93361E+01 2.85315E-01 5.41722E+00
 -1      6159 1.97766E+01 3.40116E-01 9.66020E+00
 -1      6160 1.85553E+01 1.84072E+00 6.31362E+00
 -1      6161 1.97343E+01 3.32274E-01 7.77657E-01
 -1      6162 2.12392E+01 4.10656E+00 7.70803E+00
 -1      6163 1.92386E+01 3.11939E-01 2.74998E+00
 -1      6164 2.11452E+01 9.05894E-01 7.05572E+00
 -1      6165 1.88148E+01 4.01961E-01 6.82477E+00
 -1      6166 1.84563E+01 5.73352E-01 1.65248E+00
 -1      6167 1.92591E+01 2.95384E-01 8.25451E+00
 -1      6168 1.95289E+01 2.59525E-01 4.75000E+00
 -1      6169 1.98820E+01 3.73783E-01 4.87231E+00
 -1      6170 1.56684E+01 1.68846E+00 2.84574E+00
 -1      6171 1.95579E+01 2.24680E-01 8.00196E+00
 -1      6172 1.94732E+01 2.78758E-01 6.50000E-01
 -1      6173 2.36287E+01 1.33131E+01 5.00000E+00
 -1      6174 1.88323E+01 1.49353E+00 3.47076E+00
 -1      6175 1.95434E+01 2.50083E-01 3.65000E+00
 -1      6176 2.16848E+01 1.21081E+00 1.23239E+00
 -1      6177 1.93507E+01 2.37580E-01 4.94171E+00
 -1      6178 1.93623E+01 2.64087E-01 4.00405E-01
 -1      6179 1.90717E+01 3.36801E-01 4.04685E+00
 -1      6180 1.94005E+01 2.54879E-01 9.79309E+00
 -1      6181 1.75619E+01 9.27256E-01 8.06442E+00
 -1      6182 1.97657E+01 2.87926E-01 3.34745E+00
 -1      6183 1.97817E+01 2.90043E-01 7.74283E+00
 -1      6184 2.08966E+01 7.39295E-01 5.09452E+00
 -1      6185 2.04480E+01 5.69706E-01 3.30397E+00
 -1      6186 1.89934E+01 1.63398E+00 4.83762E+00
 -1      6187 1.94406E+01 2.09706E-01 7.69992E+00
 -1      6188 1.43192E+01 1.90333E+00 7.57874E+00
 -1      6189 1.88085E+01 4.39285E-01 4.80965E+00
 -1      6190 1.95594E+01 2.28860E-01 2.00024E+00
 -1      6191 1.94700E+01 2.07290E-01 9.15000E+00
 -1      6192 1.82962E+01 5.86077E-01 6.36008E+00
 -1      6193 1.65796E+01 1.17962E+00 6.90535E+00
 -1      6194 2.00847E+01 1.81287E+00 6.95149E+00
 -1      6195 2.15634E+01 4.06778E+00 2.29729E+00
 -1      6196 1.94643E+01 2.07583E-01 4.55000E+00
 -1      6197 1.95308E+01 2.02478E-01 4.35000E+00
 -1      6198 1.76818E+01 4.30765E+00 2.72907E+00
 -1      6199 1.94457E+01 2.14579E-01 2.20404E+00
 -1      6200 1.96721E+01 2.53901E-01 2.33402E+00
 -1      6201 1.98974E+01 3.37517E-01 2.06480E+00
 -1      6202 1.97321E+01 2.64305E-01 9.07961E+00
 -1      6203 1.74937E+01 8.70845E-01 2.43721E+00
 -1      6204 1.91577E+01 2.83952E-01 9.63057E+00
 -1      6205 1.89768E+01 3.57376E-01 6.06564E+00
 -1      6206 1.48762E+01 5.60244E+00 6.69026E+00
 -1      6207 1.94420E+01 1.91889E-01 6.79956E+00
 -1      6208 2.30655E+01 1.59874E+00 5.22012E+00
 -1      6209 1.97559E+01 2.65715E-01 5.78914E+00
 -1      6210 1.94711E+01 2.14596E-01 1.65000E+00
 -1      6211 1.81705E+01 6.43790E-01 2.62817E+00
 -1      6212 1.98861E+01 1.58117E+00 4.86761E+00
 -1      6213 1.90500E+01 3.67895E-01 3.40665E+00
 -1      6214 2.93593E+01 9.83920E+00 5.00000E+00
 -1      6215 1.93474E+01 2.20558E-01 3.95644E+00
 -1      6216 1.23715E+01 9.68416E+00 5.24955E+00
 -1      6217 1.88423E+01 3.61267E-01 2.78452E+00
 -1      6218 1.97220E+01 2.49518E-01 6.37999E+00
 -1      6219 1.35512E+01 6.03747E+00 3.32548E+00
 -1      6220 1.94682E+01 2.04875E-01 8.50000E-01
 -1      6221 1.92675E+01 2.66693E-01 1.03282E+00
 -1      6222 1.98796E+01 3.59957E-01 3.59182E-01
 -1      6223 1.94684E+01 2.04797E-01 6.25000E+00
 -1      6224 2.16798E+01 1.02303E+00 5.79330E+00
 -1      6225 1.94732E+01 1.87212E-01 7.35000E+00
 -1      6226 1.81640E+01 2.56518E+00 1.44360E+00
 -1      6227 1.93800E+01 1.97195E-01 7.90285E+00
 -1      6228 1.96306E+01 2.12915E-01 7.19075E+00
 -1      6229 1.87623E+01 3.97847E-01 7.55005E+00
 -1      6230 1.81479E+01 5.82632E-01 3.68415E+00
 -1      6231 1.73364E+01 8.71014E-01 4.08655E+00
 -1      6232 1.96233E+01 2.64989E-01 2.95778E-01
 -1      6233 1.91375E+01 3.11420E-01 5.16814E+00
 -1      6234 1.97645E+01 2.50537E-01 3.01399E+00
 -1      6235 1.80536E+01 6.44339E-01 7.60585E+00
 -1      6236 1.85033E+01 4.75816E-01 6.44440E-01
 -1      6237 1.81324E+01 5.63675E-01 1.10020E+00
 -1      6238 1.94719E+01 2.07167E-01 9.55000E+00
 -1      6239 1.99441E+01 1.16868E+00 3.34543E+00
 -1      6240 2.81282E+01 1.61036E+01 5.00000E+00
 -1      6241 2.03622E+01 4.84629E-01 9.29842E+00
 -1      6242 1.90592E+01 3.09840E-01 2.95583E-01
 -1      6243 2.22517E+01 1.43830E+00 3.10272E+00
 -1      6244 2.04480E+01 4.77793E-01 2.16222E+00
 -1      6245 2.12304E+01 8.32955E-01 1.91108E+00
 -1      6246 1.92601E+01 2.10034E-01 3.75313E+00
 -1      6247 1.70026E+01 1.01170E+00 5.51824E+00
 -1      6248 1.98809E+01 3.29509E-01 8.07295E+00
 -1      6249 1.95434E+01 2.03156E-01 1.05000E+00
 -1      6250 1.97184E+01 2.55273E-01 8.39187E+00
 -1      6251 1.95312E+01 1.69724E-01 7.55000E+00
 -1      6252 1.56354E+01 1.35650E+00 5.40242E+00
 -1      6253 1.79067E+01 6.72857E-01 9.30353E+00
 -1      6254 1.97822E+01 2.48293E-01 4.27490E+00
 -1      6255 1.98988E+01 3.37285E-01 3.96140E+00
 -1      6256 1.19053E+01 2.85413E+00 2.79472E+00
 -1      6257 1.85535E+01 1.35558E+01 5.29039E+00
 -1      6258 1.93779E+01 1.89069E-01 6.60077E+00
 -1      6259 1.95164E+01 1.98289E-01 8.35000E+00
 -1      6260 1.93521E+01 1.88029E-01 6.05765E+00
 -1      6261 2.03397E+01 2.91959E+00 1.52964E+00
 -1      6262 1.74214E+01 7.86020E-01 7.58713E-01
 -1      6263 1.90958E+01 2.63479E-01 7.51284E+00
 -1      6264 2.03724E+01 2.23520E+00 8.72906E+00
 -1      6265 2.04836E+01 5.08350E-01 7.93593E+00
 -1      6266 1.93073E+01 1.87726E-01 7.24107E+00
 -1      6267 1.89406E+01 3.30088E-01 1.59770E+00
 -1      6268 1.95604E+01 2.02830E-01 4.09884E+00
 -1      6269 1.89771E+01 3.34149E-01 9.08850E+00
 -1      6270 2.42445E+01 5.50978E+00 3.07332E+00
 -1      6271 1.85949E+01 4.28799E-01 2.31877E+00
 -1      6272 1.95321E+01 1.90923E-01 1.35000E+00
 -1      6273 1.93546E+01 1.89543E-01 1.26207E+00
 -1      6274 1.94696E+01 1.73865E-01 1.85000E+00
 -1      6275 2.00014E+01 3.41317E-01 7.47240E+00
 -1      6276 1.94729E+01 1.64863E-01 5.75000E+00
 -1      6277 1.94409E+01 1.77541E-01 3.80019E+00
 -1      6278 2.05365E+01 2.11804E+00 4.13346E+00
 -1      6279 1.96533E+01 2.24154E-01 5.01944E+00
 -1      6280 1.84153E+01 5.45974E-01 8.21574E+00
 -1      6281 1.78412E+01 2.03507E+00 3.94214E+00
 -1      6282 1.78517E+01 6.44969E-01 5.84715E+00
 -1      6283 2.37267E+01 6.00306E+00 6.94653E+00
 -1      6284 1.98085E+01 3.74855E+00 8.43984E+00
 -1      6285 2.01467E+01 4.26101E-01 6.35876E+00
 -1      6286 1.77096E+01 5.51074E+00 4.90281E+00
 -1      6287 1.97591E+01 7.30607E+00 6.81539E+00
 -1      6288 1.91050E+01 2.79234E-01 6.70735E+00
 -1      6289 1.88636E+01 1.72097E+00 8.04549E+00
 -1      6290 1.85734E+01 4.13803E-01 3.14153E+00
 -1      6291 1.99121E+01 3.12762E-01 1.67919E+00
 -1      6292 1.84418E+01 4.81226E-01 4.33483E+00
 -1      6293 2.04036E+01 5.20302E-01 3.86384E+00
 -1      6294 2.12351E+01 8.82407E-01 4.13120E+00
 -1      6295 1.64347E+01 3.06824E+00 1.76030E+00
 -1      6296 1.91947E+01 2.61940E-01 7.09201E-01
 -1      6297 1.94711E+01 1.70440E-01 8.15000E+00
 -1      6298 1.95418E+01 1.91723E-01 8.65000E+00
 -1      6299 2.14770E+01 9.01010E-01 9.09134E+00
 -1      6300 2.15123E+01 5.62142E+00 5.08309E+00
 -1      6301 1.94797E+01 1.72905E-01 8.95000E+00
 -1      6302 1.95314E+01 1.66667E-01 6.95000E+00
 -1      6303 1.97483E+01 5.43807E-01 7.20324E+00
 -1      6304 1.86788E+01 4.14754E-01 5.55748E+00
 -1      6305 1.89748E+01 9.03289E-01 8.98868E+00
 -1      6306 1.92769E+01 1.92808E-01 5.67799E+00
 -1      6307 2.00370E+01 4.16755E-01 6.77546E+00
 -1      6308 1.94711E+01 1.70214E-01 5.55000E+00
 -1      6309 1.94627E+01 1.84981E-01 2.75000E+00
 -1      6310 1.94447E+01 1.79278E-01 5.29814E+00
 -1      6311 1.95359E+01 1.91355E-01 3.35000E+00
 -1      6312 1.55000E+01 1.27549E+00 1.27665E+00
 -1      6313 2.62552E+01 2.69572E+00 2.67421E+00
 -1      6314 2.04703E+01 4.67557E-01 1.04391E+00
 -1      6315 1.89443E+01 3.06359E-01 8.34450E+00
 -1      6316 1.95298E+01 1.69114E-01 6.05000E+00
 -1      6317 1.95526E+01 1.70742E-01 1.23645E-01
 -1      6318 1.96144E+01 1.62656E-01 6.79939E+00
 -1      6319 1.88725E+01 2.07466E+00 2.45493E+00
 -1      6320 1.93691E+01 1.69537E-01 9.29615E+00
 -1      6321 1.92285E+01 2.21310E-01 9.11113E+00
 -1      6322 1.94422E+01 1.85966E-01 2.95000E+00
 -1      6323 1.92621E+01 2.11757E-01 4.45398E+00
 -1      6324 1.89578E+01 3.01827E-01 4.39514E+00
 -1      6325 2.11643E+01 6.87660E-01 8.71259E-01
 -1      6326 1.91365E+01 2.85000E-01 2.23016E+00
 -1      6327 1.96565E+01 2.10103E-01 5.48189E-01
 -1      6328 1.75773E+01 3.31353E+00 5.97657E+00
 -1      6329 1.92742E+01 1.84129E-01 6.24061E+00
 -1      6330 1.98890E+01 8.76596E-01 6.05327E+00
 -1      6331 1.83748E+01 4.83797E-01 7.08786E+00
 -1      6332 1.92908E+01 1.69484E-01 6.44439E+00
 -1      6333 1.78761E+01 5.79175E-01 1.89693E+00
 -1      6334 1.99274E+01 1.59898E+00 2.23823E+00
 -1      6335 1.77373E+01 2.71074E+00 8.43101E+00
 -1      6336 1.58280E+01 3.16177E+00 8.23864E+00
 -1      6337 2.06142E+01 5.05522E-01 8.62808E+00
 -1      6338 1.96433E+01 1.87004E-01 1.74508E+00
 -1      6339 1.96731E+01 1.89444E-01 5.57863E+00
 -1      6340 5.78007E+00 4.16568E+00 4.37622E+00
 -1      6341 2.01283E+01 3.31676E-01 9.62481E+00
 -1      6342 1.92150E+01 2.35554E-01 8.57761E+00
 -1      6343 1.98459E+01 8.68588E-01 2.73369E+00
 -1      6344 1.99057E+01 1.10854E+00 7.16195E+00
 -1      6345 1.83592E+01 4.88845E-01 9.53546E+00
 -1      6346 1.97689E+01 2.42204E-01 1.25608E+00
 -1      6347 2.23093E+01 1.09770E+00 6.85044E+00
 -1      6348 1.90603E+01 1.65113E+00 6.97676E+00
 -1      6349 7.55222E+00 1.21076E+01 5.00000E+00
 -1      6350 2.29819E+01 1.24496E+00 1.61235E+00
 -1      6351 1.90502E+01 1.07941E+00 2.40927E+00
 -1      6352 1.89441E+01 3.11049E-01 3.74150E+00
 -1      6353 1.96548E+01 1.72147E-01 8.15090E+00
 -1      6354 1.75268E+01 6.48957E-01 7.13377E+00
 -1      6355 2.56582E+01 9.25008E+00 6.63355E+00
 -1      6356 1.94419E+01 1.60950E-01 7.09577E+00
 -1      6357 1.92841E+01 2.71467E+00 6.55943E+00
 -1      6358 1.40837E+01 3.19565E+00 2.11511E+00
 -1      6359 1.89376E+01 3.28561E-01 9.36156E-01
 -1      6360 1.98257E+01 2.80126E-01 2.72333E+00
 -1      6361 1.78323E+01 6.43030E-01 8.63599E+00
 -1      6362 1.93860E+01 1.67707E-01 1.50265E+00
 -1      6363 2.07077E+01 2.15254E+00 5.53506E+00
 -1      6364 1.90958E+01 2.47444E-01 1.33790E+00
 -1      6365 2.01946E+01 4.36625E-01 8.82873E+00
 -1      6366 1.64457E+01 9.92120E-01 2.23462E+00
 -1      6367 1.93586E+01 1.90758E-01 3.20375E+00
 -1      6368 1.93338E+01 2.09636E-01 3.52994E+00
 -1      6369 1.91587E+01 5.78759E-01 6.90630E+00
 -1      6370 1.91509E+01 2.19392E-01 7.07060E+00
 -1      6371 1.87689E+01 2.05514E+00 9.02380E+00
 -1      6372 1.40155E+01 1.58586E+00 5.91992E+00
 -1      6373 1.95289E+01 1.52784E-01 6.55000E+00
 -1      6374 1.93338E+01 2.15788E-01 1.70496E-01
 -1      6375 1.95561E+01 1.43836E-01 6.39829E+00
 -1      6376 1.96391E+01 1.72574E-01 7.84260E+00
 -1      6377 1.93773E+01 1.58381E-01 5.09910E+00
 -1      6378 1.97369E+01 2.42190E-01 4.58678E+00
 -1      6379 1.93496E+01 1.60338E-01 8.35424E+00
 -1      6380 1.89491E+01 2.76084E-01 9.41828E+00
 -1      6381 1.96169E+01 1.46924E-01 7.40008E+00
 -1      6382 1.91397E+01 2.20072E-01 5.93818E+00
 -1      6383 2.34893E+01 1.85608E+01 5.00000E+00
 -1      6384 1.69593E+01 8.93976E-01 3.21842E+00
 -1      6385 1.92523E+01 8.10484E-01 6.16014E+00
 -1      6386 1.90616E+01 1.44690E+00 5.84704E+00
 -1      6387 2.02321E+01 3.70672E-01 5.90142E+00
 -1      6388 1.92701E+01 1.72281E-01 9.45439E+00
 -1      6389 2.93153E+01 3.72648E+00 3.04719E+00
 -1      6390 3.07734E+01 5.82339E+00 6.23015E+00
 -1      6391 1.93873E+01 1.50838E-01 4.29953E+00
 -1      6392 1.99410E+01 9.71249E+00 3.12785E+00
 -1      6393 1.91648E+01 9.02958E-01 7.27140E+00
 -1      6394 1.93294E+01 1.85674E-01 4.74920E+00
 -1      6395 1.90692E+01 1.09357E+00 1.53198E+00
 -1      6396 1.94717E+01 1.50813E-01 2.35000E+00
 -1      6397 1.93320E+01 1.69211E-01 2.07062E+00
 -1      6398 1.87392E+01 3.05833E-01 6.51668E+00
 -1      6399 1.86942E+01 2.88789E-01 9.68835E+00
 -1      6400 2.06083E+01 1.08322E+01 6.73438E+00
 -1      6401 1.91426E+01 8.18545E-01 3.26172E+00
 -1      6402 1.95683E+01 1.75715E-01 9.70923E+00
 -1      6403 2.08504E+01 6.26713E-01 6.15053E+00
 -1      6404 1.93495E+01 1.88150E-01 2.55716E+00
 -1      6405 1.99843E+01 3.42086E-01 5.22099E+00
 -1      6406 1.99318E+01 1.39343E+00 8.11952E+00
 -1      6407 1.96201E+01 1.43464E-01 5.79212E+00
 -1      6408 1.35016E+01 1.47538E+01 5.00000E+00
 -1      6409 1.96600E+01 1.84928E-01 2.78666E+00
 -1      6410 1.85326E+01 1.75649E+00 1.66581E+00
 -1      6411 1.90781E+01 2.41263E-01 5.41628E+00
 -1      6412 1.91569E+01 1.16988E+00 4.12932E+00
 -1      6413 2.25993E+01 2.91547E+00 7.20724E+00
 -1      6414 1.98572E+01 1.19891E+00 1.57496E+00
 -1      6415 2.11060E+01 5.67670E-01 7.91774E+00
 -1      6416 1.92556E+01 2.19110E-01 1.73615E+00
 -1      6417 2.07708E+01 5.17171E-01 6.82210E+00
 -1      6418 1.97227E+01 2.07466E+00 3.23914E+00
 -1      6419 2.08763E+01 2.85081E+00 2.97016E+00
 -1      6420 1.90291E+01 4.07300E+00 1.63837E+00
 -1      6421 1.97468E+01 2.00513E-01 3.83626E+00
 -1      6422 1.92579E+01 1.74514E-01 7.65676E+00
 -1      6423 1.92967E+01 4.42605E-01 7.69685E+00
 -1      6424 2.00560E+01 3.10540E-01 9.00774E-01
 -1      6425 1.89562E+01 2.74093E-01 3.05411E+00
 -1      6426 1.92139E+01 8.98270E-01 4.97463E+00
 -1      6427 1.86786E+01 1.17346E+00 5.26550E+00
 -1      6428 1.96430E+01 1.72320E-01 3.50522E+00
 -1      6429 1.95572E+01 1.47853E-01 8.49474E+00
 -1      6430 1.96572E+01 1.56756E-01 7.66128E+00
 -1      6431 1.93310E+01 6.61460E-01 1.78996E+00
 -1      6432 2.05199E+01 5.35568E-01 4.56381E+00
 -1      6433 1.53575E+01 1.39478E+00 8.71163E+00
 -1      6434 1.68402E+01 2.42921E+00 7.42391E+00
 -1      6435 2.02470E+01 3.55436E-01 2.71180E+00
 -1      6436 1.93300E+01 1.55641E-01 4.13905E+00
 -1      6437 1.90513E+01 1.55800E+00 8.77765E-01
 -1      6438 1.92321E+01 2.65083E+00 1.09111E+00
 -1      6439 1.87017E+01 3.58999E-01 8.68831E+00
 -1      6440 1.92198E+01 7.02822E-01 3.99831E+00
 -1      6441 1.89857E+01 2.69674E-01 1.94453E+00
 -1      6442 2.11499E+01 8.42508E-01 2.86129E+00
 -1      6443 2.47323E+01 3.20192E+00 4.53335E+00
 -1      6444 1.92694E+01 1.89194E-01 8.88652E+00
 -1      6445 1.69418E+01 7.07071E+00 2.62923E+00
 -1      6446 1.98862E+01 2.44499E-01 3.60577E+00
 -1      6447 1.25026E+01 1.75276E+00 8.20582E+00
 -1      6448 1.92259E+01 4.24471E-01 7.34048E+00
 -1      6449 1.95659E+01 1.48869E-01 5.19355E+00
 -1      6450 1.95584E+01 1.44417E-01 5.39878E+00
 -1      6451 2.53648E+01 8.56763E+00 3.25855E+00
 -1      6452 1.95054E+01 2.58644E+00 4.62203E+00
 -1      6453 1.92787E+01 1.60761E-01 6.74696E+00
 -1      6454 1.92149E+01 8.86492E-01 7.83390E+00
 -1      6455 1.96342E+01 1.60157E-01 8.91808E-01
 -1      6456 2.47045E+01 1.61574E+00 1.54528E+00
 -1      6457 1.84855E+01 4.23727E-01 5.13867E+00
 -1      6458 1.78588E+01 5.44828E-01 4.21295E+00
 -1      6459 1.93808E+01 1.39438E-01 8.50034E+00
 -1      6460 9.97648E+00 2.77643E+00 7.31287E+00
 -1      6461 1.86212E+01 3.51885E-01 7.90840E+00
 -1      6462 2.09329E+01 5.84496E-01 1.43084E+00
 -1      6463 2.39325E+01 1.64149E+00 8.20993E+00
 -1      6464 1.99617E+01 2.54555E-01 5.98763E+00
 -1      6465 1.92508E+01 1.70834E-01 5.26334E+00
 -1      6466 1.98926E+01 8.08733E-01 8.97863E+00
 -1      6467 2.86154E+01 3.09385E+00 7.02427E+00
 -1      6468 1.98250E+01 2.07378E-01 7.31726E+00
 -1      6469 2.01411E+01 1.99658E+00 9.23132E-01
 -1      6470 1.96301E+01 1.58171E-01 9.19296E+00
 -1      6471 1.88251E+01 1.20929E+00 6.36963E+00
 -1      6472 1.92478E+01 1.42511E+00 9.37831E+00
 -1      6473 2.04686E+01 4.52051E-01 5.11840E+00
 -1      6474 1.93306E+01 1.44343E-01 5.82748E+00
 -1      6475 3.15414E+01 1.35212E+01 5.76137E+00
 -1      6476 3.26345E+01 1.84005E+01 5.00000E+00
 -1      6477 1.95339E+01 1.55023E-01 4.50000E-01
 -1      6478 1.93571E+01 1.58350E-01 8.70528E+00
 -1      6479 2.19089E+01 2.75051E+00 1.49892E+00
 -1      6480 1.70285E+01 8.23220E-01 8.94770E+00
 -1      6481 1.91536E+01 8.59351E-01 5.71604E+00
 -1      6482 1.96511E+01 1.69774E-01 2.14389E+00
 -1      6483 1.95289E+01 1.37056E-01 5.05000E+00
 -1      6484 1.87266E+01 3.04251E-01 3.37583E-01
 -1      6485 2.70525E+01 1.28153E+01 6.63830E+00
 -1      6486 2.01782E+01 4.43048E+00 3.32659E+00
 -1      6487 1.96488E+01 1.40984E-01 3.26119E+00
 -1      6488 1.77123E+01 5.30711E-01 6.46105E+00
 -1      6489 1.96912E+01 8.21775E-01 5.05031E+00
 -1      6490 1.92668E+01 5.93209E-01 2.27044E+00
 -1      6491 1.96973E+01 1.90625E-01 9.41217E+00
 -1      6492 1.86081E+01 3.78477E-01 3.97134E+00
 -1      6493 1.80607E+01 4.81653E-01 3.10800E+00
 -1      6494 2.01308E+01 3.17844E-01 4.63937E+00
 -1      6495 2.04970E+01 4.40691E-01 4.95317E-01
 -1      6496 1.96529E+01 1.55078E-01 4.45367E+00
 -1      6497 1.52947E+01 1.20537E+00 7.08402E+00
 -1      6498 1.84886E+01 3.10615E-01 2.80721E+00
 -1      6499 1.70124E+01 2.14972E+00 6.06974E+00
 -1      6500 1.71503E+01 1.88537E+01 5.00000E+00
 -1      6501 1.84291E+01 4.35495E-01 5.94480E+00
 -1      6502 2.21209E+01 6.67549E+00 2.47167E+00
 -1      6503 2.04766E+01 3.12364E+00 7.11563E+00
 -1      6504 2.16420E+01 6.83796E-01 4.95295E+00
 -1      6505 1.84680E+01 2.52195E+00 7.25449E+00
 -1      6506 1.90648E+01 2.90271E-01 4.88099E+00
 -1      6507 1.96193E+01 1.59363E-01 8.79703E+00
 -1      6508 1.95289E+01 1.42606E-01 4.85000E+00
 -1      6509 1.87638E+01 2.68591E-01 6.95427E-01
 -1      6510 1.99821E+01 1.53424E+00 9.19944E+00
 -1      6511 1.71255E+01 2.64432E+00 4.85882E+00
 -1      6512 1.85864E+01 3.29083E-01 1.95408E+00
 -1      6513 2.01995E+01 2.73249E-01 2.00740E+00
 -1      6514 1.95490E+01 1.63722E-01 9.88543E+00
 -1      6515 2.00141E+01 1.66219E+00 6.16554E+00
 -1      6516 2.13328E+01 2.38549E+00 7.81913E+00
 -1      6517 1.75049E+01 5.77932E-01 3.34766E+00
 -1      6518 1.93848E+01 1.22274E-01 6.90059E+00
 -1      6519 1.91499E+01 2.03193E-01 2.93233E+00
 -1      6520 1.95170E+01 1.10205E-01 5.65000E+00
 -1      6521 1.96530E+01 5.09085E-01 5.08429E+00
 -1      6522 1.94804E+01 1.12743E-01 7.25000E+00
 -1      6523 1.94401E+01 1.21085E-01 7.80189E+00
 -1      6524 1.95593E+01 1.46438E-01 1.50077E+00
 -1      6525 1.79316E+01 5.68813E-01 5.48584E-01
 -1      6526 1.97878E+01 1.72813E-01 7.51351E+00
 -1      6527 2.06667E+01 5.74724E-01 7.38970E+00
 -1      6528 1.75332E+01 5.66624E-01 5.24179E+00
 -1      6529 1.81874E+01 3.13480E+00 3.22891E+00
 -1      6530 1.95356E+01 1.42216E-01 3.95000E+00
 -1      6531 1.89151E+01 1.30828E+00 7.58919E+00
 -1      6532 1.84962E+01 1.08837E+00 9.36708E+00
 -1      6533 2.23428E+01 1.08032E+00 4.16616E+00
 -1      6534 1.75912E+01 5.63005E-01 1.36587E+00
 -1      6535 1.72489E+01 6.61415E+00 7.25772E+00
 -1      6536 1.96250E+01 1.85935E+00 3.64457E+00
 -1      6537 1.92775E+01 1.78410E+00 3.35495E+00
 -1      6538 1.91798E+01 1.56879E+00 3.76038E+00
 -1      6539 1.95163E+01 2.11524E+00 4.33601E+00
 -1      6540 1.91688E+01 2.03998E+00 4.04639E+00
 -1      6541 1.96140E+01 2.33055E+00 3.93058E+00
 -1      6542 2.05327E+01 2.42315E-01 9.34470E+00
 -1      6543 2.05914E+01 2.42315E-01 9.15546E+00
 -1      6544 2.07667E+01 2.42315E-01 9.30851E+00
 -1      6545 1.93946E+01 1.35840E-01 7.47475E+00
 -1      6546 1.93944E+01 1.35840E-01 7.52515E+00
 -1      6547 1.93513E+01 1.35840E-01 7.50186E+00
 -1      6548 1.37059E+01 7.08771E-01 1.01612E+00
 -1      6549 1.43993E+01 5.62219E-01 1.01612E+00
 -1      6550 1.43453E+01 1.34652E+00 6.38326E-01
 -1      6551 1.50386E+01 1.19996E+00 6.38326E-01
 -1      6552 1.48606E+01 6.37746E-01 1.65445E+00
 -1      6553 1.96265E+01 1.14430E-01 1.95012E+00
 -1      6554 1.96900E+01 1.14430E-01 1.98153E+00
 -1      6555 1.96685E+01 9.35022E-02 1.82254E+00
 -1      6556 1.97319E+01 9.35022E-02 1.85395E+00
 -1      6557 1.96013E+01 2.07932E-01 1.87266E+00
 -1      6558 1.93005E+01 8.63858E-01 6.65315E+00
 -1      6559 1.93451E+01 6.43410E-01 6.92815E+00
 -1      6560 1.94868E+01 9.28509E-01 6.67500E+00
 -1      6561 1.93035E+01 1.02596E+00 6.83570E+00
 -1      6562 1.93481E+01 8.05510E-01 7.11070E+00
 -1      6563 1.91618E+01 7.40858E-01 7.08885E+00
 -1      6564 1.98346E+01 1.56910E-01 8.74725E+00
 -1      6565 1.99096E+01 1.56910E-01 8.66551E+00
 -1      6566 1.99232E+01 1.56910E-01 8.77276E+00
 -1      6567 1.93427E+01 1.35840E-01 7.44886E+00
 -1      6568 1.92921E+01 1.35840E-01 7.50761E+00
 -1      6569 1.92945E+01 6.11372E-02 6.95572E+00
 -1      6570 1.93031E+01 6.11372E-02 6.90002E+00
 -1      6571 1.93428E+01 6.11372E-02 6.94814E+00
 -1      6572 1.48140E+01 9.16365E+00 5.12477E+00
 -1      6573 1.42255E+01 9.10135E+00 2.62477E+00
 -1      6574 1.66681E+01 8.58083E+00 2.50000E+00
 -1      6575 1.70992E+01 7.85692E+00 3.81462E+00
 -1      6576 1.65107E+01 7.79462E+00 1.31462E+00
 -1      6577 1.46566E+01 8.37744E+00 3.93939E+00
 -1      6578 1.97897E+01 4.51021E-01 4.40324E+00
 -1      6579 1.97426E+01 6.75032E-01 4.42889E+00
 -1      6580 1.95114E+01 6.34776E-01 4.52435E+00
 -1      6581 1.97202E+01 3.92274E-01 4.68551E+00
 -1      6582 1.96732E+01 6.16285E-01 4.71115E+00
 -1      6583 1.99514E+01 4.32531E-01 4.59005E+00
 -1      6584 1.89526E+01 2.25425E-01 7.16724E+00
 -1      6585 1.88713E+01 2.25425E-01 7.23935E+00
 -1      6586 1.88458E+01 2.25425E-01 7.12990E+00
 -1      6587 1.68649E+01 7.14443E-01 8.00691E+00
 -1      6588 1.68355E+01 7.14443E-01 8.21597E+00
 -1      6589 1.72665E+01 4.63628E-01 7.85519E+00
 -1      6590 1.72370E+01 4.63628E-01 8.06425E+00
 -1      6591 1.71603E+01 1.17807E+00 8.21614E+00
 -1      6592 1.87313E+01 2.88750E-01 1.12243E+00
 -1      6593 1.88003E+01 2.88750E-01 1.24653E+00
 -1      6594 1.86574E+01 2.88750E-01 1.24615E+00
 -1      6595 1.66641E+01 5.05849E-01 5.11708E+00
 -1      6596 1.70047E+01 5.05849E-01 4.99492E+00
 -1      6597 1.69547E+01 5.05849E-01 5.33908E+00
 -1      6598 1.96188E+01 1.14430E-01 1.99632E+00
 -1      6599 1.85503E+01 3.04153E-01 9.06328E+00
 -1      6600 1.84029E+01 3.04153E-01 9.03769E+00
 -1      6601 1.85208E+01 3.04153E-01 8.94035E+00
 -1      6602 1.94701E+01 2.75208E-01 8.05312E+00
 -1      6603 1.94689E+01 2.10938E-01 7.95241E+00
 -1      6604 1.95591E+01 2.88951E-01 8.10268E+00
 -1      6605 1.95157E+01 2.61831E-01 8.17670E+00
 -1      6606 1.95145E+01 1.97560E-01 8.07598E+00
 -1      6607 1.94256E+01 1.83817E-01 8.02643E+00
 -1      6608 1.95303E+01 8.69324E-02 1.79957E+00
 -1      6609 1.94848E+01 8.69324E-02 1.82500E+00
 -1      6610 1.94848E+01 8.69324E-02 1.77500E+00
 -1      6611 1.79262E+01 3.22484E-01 5.76662E+00
 -1      6612 1.79571E+01 3.22484E-01 5.62514E+00
 -1      6613 1.80827E+01 3.22484E-01 5.69648E+00
 -1      6614 4.08017E+00 1.99407E+01 5.00000E+00
 -1      6615 6.35954E+00 1.91862E+01 5.00000E+00
 -1      6616 5.81620E+00 1.60241E+01 7.50000E+00
 -1      6617 8.09556E+00 1.52697E+01 2.50000E+00
 -1      6618 5.81620E+00 1.60241E+01 2.50000E+00
 -1      6619 1.96775E+01 4.45734E-01 3.51234E+00
 -1      6620 1.96301E+01 4.74602E-01 3.68606E+00
 -1      6621 1.93928E+01 3.88654E-01 3.57734E+00
 -1      6622 1.94918E+01 3.04935E-01 3.52681E+00
 -1      6623 1.94444E+01 3.33803E-01 3.70053E+00
 -1      6624 1.97292E+01 3.90883E-01 3.63553E+00
 -1      6625 1.94822E+01 1.03792E-01 4.57500E+00
 -1      6626 1.95188E+01 1.03792E-01 4.60509E+00
 -1      6627 1.94822E+01 1.03792E-01 4.62500E+00
 -1      6628 1.67175E+01 6.94543E-01 1.16708E+00
 -1      6629 1.69412E+01 6.94543E-01 1.36807E+00
 -1      6630 1.65249E+01 6.94543E-01 1.40200E+00
 -1      6631 1.94423E+01 1.07298E-01 1.65000E+00
 -1      6632 1.93917E+01 1.07298E-01 1.67036E+00
 -1      6633 1.94011E+01 1.07298E-01 1.62500E+00
 -1      6634 1.98114E+01 1.56910E-01 8.66053E+00
 -1      6635 1.98883E+01 1.27637E-01 8.47364E+00
 -1      6636 1.97396E+01 2.84547E-01 8.58374E+00
 -1      6637 1.97901E+01 1.27637E-01 8.46866E+00
 -1      6638 1.90287E+01 1.50914E-01 4.27034E+00
 -1      6639 1.90919E+01 1.50914E-01 4.33428E+00
 -1      6640 1.90008E+01 1.50914E-01 4.35737E+00
 -1      6641 1.95299E+01 1.39379E-01 7.00000E-01
 -1      6642 1.94866E+01 1.39379E-01 6.75000E-01
 -1      6643 1.95317E+01 1.39379E-01 6.50013E-01
 -1      6644 1.57398E+01 1.00112E+01 2.50000E+00
 -1      6645 1.71358E+01 9.80967E+00 2.50000E+00
 -1      6646 1.63883E+01 1.24675E+01 2.64520E+00
 -1      6647 1.77843E+01 1.22660E+01 2.64520E+00
 -1      6648 1.79050E+01 1.10995E+01 5.14520E+00
 -1      6649 1.95480E+01 6.50332E-01 8.41932E+00
 -1      6650 1.98468E+01 5.86497E-01 8.55144E+00
 -1      6651 1.98305E+01 6.73574E-01 8.28212E+00
 -1      6652 1.97121E+01 7.73071E-01 8.56431E+00
 -1      6653 2.00110E+01 7.09236E-01 8.69644E+00
 -1      6654 1.97285E+01 6.85995E-01 8.83363E+00
 -1      6655 1.68891E+01 1.03394E+00 7.21334E-01
 -1      6656 1.65213E+01 3.39395E-01 4.45749E-01
 -1      6657 1.70571E+01 7.32405E-01 3.79357E-01
 -1      6658 1.68855E+01 3.93010E-01 8.25106E-01
 -1      6659 1.72534E+01 1.08755E+00 1.10069E+00
 -1      6660 1.68310E+01 4.35507E-01 4.40124E+00
 -1      6661 1.68971E+01 4.35507E-01 4.02461E+00
 -1      6662 1.71715E+01 4.35507E-01 4.27908E+00
 -1      6663 2.53063E+01 1.08468E+01 1.62927E+00
 -1      6664 2.63484E+01 9.42779E+00 1.62927E+00
 -1      6665 2.61502E+01 1.29706E+01 3.31915E+00
 -1      6666 2.71923E+01 1.15516E+01 3.31915E+00
 -1      6667 2.62086E+01 1.06914E+01 4.94842E+00
 -1      6668 1.96722E+01 1.12077E-01 4.92365E+00
 -1      6669 1.95911E+01 2.41839E-01 4.88472E+00
 -1      6670 1.96100E+01 1.29762E-01 4.78893E+00
 -1      6671 1.96100E+01 7.13031E-02 4.83893E+00
 -1      6672 1.95289E+01 2.01065E-01 4.80000E+00
 -1      6673 1.95911E+01 1.83380E-01 4.93472E+00
 -1      6674 1.54779E+01 7.06049E+00 8.34513E+00
 -1      6675 1.60664E+01 7.12279E+00 5.84513E+00
 -1      6676 1.66681E+01 8.58083E+00 7.50000E+00
 -1      6677 1.66643E+01 7.56634E+00 8.62886E+00
 -1      6678 1.72527E+01 7.62864E+00 6.12886E+00
 -1      6679 1.60626E+01 6.10830E+00 6.97399E+00
 -1      6680 1.48334E+01 1.77842E+00 6.38326E-01
 -1      6681 1.92419E+01 1.09555E-01 1.65966E+00
 -1      6682 1.91514E+01 1.09555E-01 1.68411E+00
 -1      6683 1.91777E+01 1.09555E-01 1.59790E+00
 -1      6684 1.94718E+01 4.76578E-01 6.54899E+00
 -1      6685 1.94594E+01 5.47019E-01 6.82484E+00
 -1      6686 1.95438E+01 6.37620E-01 6.67414E+00
 -1      6687 1.93574E+01 5.72969E-01 6.65229E+00
 -1      6688 1.92731E+01 4.82367E-01 6.80299E+00
 -1      6689 9.36150E+00 2.61058E+00 3.87748E+00
 -1      6690 9.78716E+00 2.61058E+00 4.70083E+00
 -1      6691 1.02497E+01 1.42707E+00 2.77484E+00
 -1      6692 1.06754E+01 1.42707E+00 3.59819E+00
 -1      6693 1.10171E+01 4.03765E+00 3.89736E+00
 -1      6694 4.45277E+01 1.78921E+01 8.60116E+00
 -1      6695 4.45037E+01 1.61104E+01 8.60116E+00
 -1      6696 4.62257E+01 1.76025E+01 5.62270E+00
 -1      6697 4.82780E+01 1.83552E+01 7.02154E+00
 -1      6698 4.83020E+01 2.01368E+01 7.02154E+00
 -1      6699 1.72142E+01 1.79231E+00 4.15787E+00
 -1      6700 1.77046E+01 2.03170E+00 3.34566E+00
 -1      6701 1.70776E+01 1.78894E+00 3.56139E+00
 -1      6702 1.68563E+01 2.09694E+00 4.61621E+00
 -1      6703 1.73468E+01 2.33632E+00 3.80400E+00
 -1      6704 1.74833E+01 2.33969E+00 4.40048E+00
 -1      6705 1.97054E+01 5.79102E-01 7.63683E+00
 -1      6706 1.97510E+01 6.62280E-01 7.96178E+00
 -1      6707 1.94861E+01 6.54231E-01 7.82505E+00
 -1      6708 1.94796E+01 4.83323E-01 7.67505E+00
 -1      6709 1.95252E+01 5.66501E-01 8.00000E+00
 -1      6710 1.97445E+01 4.91372E-01 7.81178E+00
 -1      6711 1.93794E+01 1.32043E-01 3.30941E-01
 -1      6712 1.94312E+01 1.32043E-01 3.50203E-01
 -1      6713 1.93893E+01 1.32043E-01 3.77151E-01
 -1      6714 1.93545E+01 4.73898E-01 2.80741E+00
 -1      6715 1.95109E+01 4.60425E-01 2.70000E+00
 -1      6716 1.93895E+01 3.74160E-01 2.95741E+00
 -1      6717 1.92359E+01 3.49786E-01 2.90740E+00
 -1      6718 1.93923E+01 3.36313E-01 2.79999E+00
 -1      6719 1.93572E+01 4.36051E-01 2.64999E+00
 -1      6720 1.96097E+01 7.13031E-02 4.76082E+00
 -1      6721 1.95577E+01 7.13031E-02 4.80000E+00
 -1      6722 2.44382E+01 1.32195E+01 2.50000E+00
 -1      6723 2.44967E+01 1.09404E+01 4.12927E+00
 -1      6724 2.53406E+01 1.30642E+01 5.81915E+00
 -1      6725 1.98633E+01 5.36162E-01 9.66851E+00
 -1      6726 1.96578E+01 6.14220E-01 9.29351E+00
 -1      6727 1.96776E+01 6.89921E-01 9.62500E+00
 -1      6728 1.98879E+01 7.10298E-01 9.48931E+00
 -1      6729 1.96823E+01 7.88356E-01 9.11431E+00
 -1      6730 1.98681E+01 6.34597E-01 9.15783E+00
 -1      6731 1.96848E+01 7.04922E-02 3.17668E+00
 -1      6732 1.96243E+01 7.04922E-02 3.20501E+00
 -1      6733 1.96228E+01 7.04922E-02 3.15520E+00
 -1      6734 1.92769E+01 9.85974E-02 8.01159E+00
 -1      6735 1.92845E+01 9.85974E-02 7.90989E+00
 -1      6736 1.93504E+01 9.85974E-02 7.97150E+00
 -1      6737 1.89073E+01 1.68401E-01 4.13082E+00
 -1      6738 1.89186E+01 1.68401E-01 4.03284E+00
 -1      6739 1.89960E+01 1.68401E-01 4.10857E+00
 -1      6740 1.94656E+01 9.56775E-02 3.39669E+00
 -1      6741 1.95179E+01 9.56775E-02 3.37500E+00
 -1      6742 1.95179E+01 9.56775E-02 3.42500E+00
 -1      6743 1.92320E+01 5.80800E-01 6.39586E+00
 -1      6744 1.91477E+01 4.90198E-01 6.54656E+00
 -1      6745 1.90333E+01 5.86589E-01 6.64987E+00
 -1      6746 1.61440E+01 7.74779E-01 4.29273E+00
 -1      6747 1.62164E+01 7.74779E-01 3.89051E+00
 -1      6748 1.65225E+01 7.74779E-01 4.16814E+00
 -1      6749 1.94866E+01 1.39379E-01 6.25000E-01
 -1      6750 1.85868E+01 2.53624E+00 5.41214E+00
 -1      6751 1.90361E+01 1.93344E+00 5.98181E+00
 -1      6752 1.90676E+01 2.62895E+00 5.08033E+00
 -1      6753 1.89512E+01 2.97321E+00 5.53505E+00
 -1      6754 1.94005E+01 2.37041E+00 6.10471E+00
 -1      6755 1.89197E+01 2.27770E+00 6.43653E+00
 -1      6756 1.80914E+01 4.05477E-01 5.30476E+00
 -1      6757 1.82169E+01 4.05477E-01 5.37610E+00
 -1      6758 1.82740E+01 2.11863E-01 5.27089E+00
 -1      6759 1.83996E+01 2.11863E-01 5.34223E+00
 -1      6760 1.83028E+01 6.17341E-01 5.17254E+00
 -1      6761 1.92165E+01 1.47692E-01 8.18742E+00
 -1      6762 1.91368E+01 1.47692E-01 8.25326E+00
 -1      6763 1.91258E+01 1.47692E-01 8.14584E+00
 -1      6764 1.94400E+01 9.85974E-02 7.95143E+00
 -1      6765 1.94026E+01 9.85974E-02 7.97506E+00
 -1      6766 1.93967E+01 9.85974E-02 7.92643E+00
 -1      6767 1.94845E+01 4.84132E-01 5.12093E+00
 -1      6768 1.94532E+01 3.78407E-01 5.02093E+00
 -1      6769 1.95002E+01 3.97550E-01 5.25000E+00
 -1      6770 1.93345E+01 4.07348E-01 5.25907E+00
 -1      6771 1.93032E+01 3.01622E-01 5.15907E+00
 -1      6772 1.92875E+01 3.88205E-01 5.03000E+00
 -1      6773 1.89676E+01 2.25425E-01 7.25189E+00
 -1      6774 1.95752E+01 1.14430E-01 1.97511E+00
 -1      6775 1.95748E+01 1.14430E-01 1.92513E+00
 -1      6776 1.56846E+01 8.44232E-01 3.52880E+00
 -1      6777 1.52630E+01 8.44232E-01 3.26957E+00
 -1      6778 1.57570E+01 8.44232E-01 3.12658E+00
 -1      6779 1.94841E+01 1.02438E-01 8.25000E-01
 -1      6780 1.94841E+01 1.02438E-01 7.75000E-01
 -1      6781 1.95274E+01 1.02438E-01 8.00000E-01
 -1      6782 8.63891E+00 1.84317E+01 5.00000E+00
 -1      6783 8.09556E+00 1.52697E+01 7.50000E+00
 -1      6784 1.92148E+01 7.78206E-02 4.14230E+00
 -1      6785 1.92780E+01 7.78206E-02 4.20623E+00
 -1      6786 1.91439E+01 2.28734E-01 4.26710E+00
 -1      6787 1.90396E+01 5.57206E-01 2.97867E+00
 -1      6788 1.91609E+01 6.43471E-01 2.72127E+00
 -1      6789 1.90423E+01 5.19359E-01 2.82126E+00
 -1      6790 1.65665E+01 7.14443E-01 8.04452E+00
 -1      6791 1.87744E+01 1.73735E+00 5.57562E+00
 -1      6792 1.92552E+01 1.83007E+00 5.24381E+00
 -1      6793 1.92893E+01 1.73652E+00 5.74852E+00
 -1      6794 1.90275E+01 1.54044E+00 5.34233E+00
 -1      6795 1.88085E+01 1.64381E+00 6.08033E+00
 -1      6796 1.41525E+01 1.59782E+00 2.07368E+00
 -1      6797 1.40256E+01 1.59782E+00 2.58626E+00
 -1      6798 1.33689E+01 1.59782E+00 2.27412E+00
 -1      6799 1.94858E+01 5.49823E-01 1.17495E+00
 -1      6800 1.94551E+01 4.04296E-01 1.07495E+00
 -1      6801 1.95003E+01 4.98222E-01 1.35000E+00
 -1      6802 1.91952E+01 6.10625E-01 1.32368E+00
 -1      6803 1.91645E+01 4.65097E-01 1.22368E+00
 -1      6804 1.91501E+01 5.16698E-01 1.04863E+00
 -1      6805 4.44060E+01 1.96789E+01 6.14599E+00
 -1      6806 4.64822E+01 2.22132E+01 7.54483E+00
 -1      6807 4.81802E+01 2.19236E+01 4.56637E+00
 -1      6808 1.93685E+01 3.09694E-01 1.14141E+00
 -1      6809 1.93541E+01 3.61295E-01 9.66358E-01
 -1      6810 1.90635E+01 4.22096E-01 1.11509E+00
 -1      6811 1.95289E+01 1.12340E-01 8.00098E+00
 -1      6812 1.95289E+01 1.12340E-01 7.95098E+00
 -1      6813 1.95722E+01 1.12340E-01 7.97679E+00
 -1      6814 1.94992E+01 8.58068E-01 6.39914E+00
 -1      6815 1.99130E+01 7.52351E-01 6.80854E+00
 -1      6816 1.98684E+01 9.72799E-01 6.53354E+00
 -1      6817 1.99253E+01 6.81910E-01 6.53268E+00
 -1      6818 4.06321E+01 2.00000E+01 4.99162E+00
 -1      6819 4.18578E+01 1.96789E+01 6.09278E+00
 -1      6820 4.27950E+01 1.68974E+01 3.60116E+00
 -1      6821 4.22014E+01 2.12185E+01 2.49162E+00
 -1      6822 4.15693E+01 1.72185E+01 2.50000E+00
 -1      6823 1.97203E+01 1.25268E-01 3.00699E+00
 -1      6824 1.96807E+01 1.25268E-01 3.03161E+00
 -1      6825 1.96805E+01 1.25268E-01 2.98352E+00
 -1      6826 3.08033E+01 4.96121E+00 1.52360E+00
 -1      6827 3.05837E+01 3.93159E+00 1.52360E+00
 -1      6828 3.15324E+01 6.00966E+00 3.11508E+00
 -1      6829 3.13128E+01 4.98005E+00 3.11508E+00
 -1      6830 3.00443E+01 4.77493E+00 4.63867E+00
 -1      6831 1.93728E+01 1.04818E-01 3.58986E+00
 -1      6832 1.93202E+01 1.04818E-01 3.61512E+00
 -1      6833 1.93282E+01 1.04818E-01 3.56787E+00
 -1      6834 1.93593E+01 1.52309E-01 2.33168E+00
 -1      6835 1.93576E+01 1.52309E-01 2.39275E+00
 -1      6836 1.94003E+01 7.54065E-02 2.36910E+00
 -1      6837 1.94289E+01 2.27716E-01 2.37365E+00
 -1      6838 1.94020E+01 7.54065E-02 2.30803E+00
 -1      6839 1.84931E+01 2.37908E-01 7.20198E-01
 -1      6840 1.85532E+01 2.37908E-01 8.45968E-01
 -1      6841 1.84020E+01 2.37908E-01 8.30701E-01
 -1      6842 1.95179E+01 9.56775E-02 3.32500E+00
 -1      6843 1.94775E+01 9.56775E-02 3.30053E+00
 -1      6844 1.95179E+01 9.56775E-02 3.27500E+00
 -1      6845 1.94711E+01 7.63921E-02 6.59999E+00
 -1      6846 1.95144E+01 7.63921E-02 6.57500E+00
 -1      6847 1.95144E+01 7.63921E-02 6.62500E+00
 -1      6848 1.90937E+01 1.51746E-01 6.39349E+00
 -1      6849 1.90116E+01 1.51746E-01 6.34248E+00
 -1      6850 1.91076E+01 1.51746E-01 6.28749E+00
 -1      6851 1.91394E+01 1.55970E-01 2.70899E+00
 -1      6852 1.91808E+01 1.55970E-01 2.63185E+00
 -1      6853 1.92281E+01 1.55970E-01 2.70774E+00
 -1      6854 1.88075E+01 1.67075E-01 9.17385E+00
 -1      6855 1.87199E+01 4.71228E-01 8.97793E+00
 -1      6856 1.87780E+01 1.67075E-01 9.05092E+00
 -1      6857 1.93711E+01 1.04818E-01 3.53868E+00
 -1      6858 1.94169E+01 1.04818E-01 3.51497E+00
 -1      6859 1.94169E+01 1.04818E-01 3.56497E+00
 -1      6860 1.85987E+01 2.86676E-01 1.47409E+00
 -1      6861 1.85457E+01 2.86676E-01 1.61539E+00
 -1      6862 1.84558E+01 2.86676E-01 1.47371E+00
 -1      6863 2.30970E+01 7.99368E-01 4.57134E+00
 -1      6864 2.34639E+01 7.99368E-01 4.17989E+00
 -1      6865 2.27356E+01 5.40162E-01 4.04436E+00
 -1      6866 2.31025E+01 5.40162E-01 3.65292E+00
 -1      6867 2.27042E+01 1.33953E+00 4.69314E+00
 -1      6868 1.94509E+01 6.61888E-01 4.72093E+00
 -1      6869 1.94980E+01 4.37877E-01 4.69528E+00
 -1      6870 1.96598E+01 4.19387E-01 4.88209E+00
 -1      6871 1.88055E+01 1.98924E-01 7.49919E+00
 -1      6872 1.87558E+01 1.98924E-01 7.41254E+00
 -1      6873 1.88522E+01 1.98924E-01 7.42508E+00
 -1      6874 1.91239E+01 2.25366E-01 7.92086E+00
 -1      6875 1.91163E+01 2.25366E-01 8.02256E+00
 -1      6876 1.92194E+01 3.23964E-01 7.91382E+00
 -1      6877 1.98342E+01 1.61774E-01 7.01804E+00
 -1      6878 1.97315E+01 1.61774E-01 6.97207E+00
 -1      6879 1.99204E+01 1.03689E-01 7.20334E+00
 -1      6880 1.98177E+01 1.03689E-01 7.15738E+00
 -1      6881 1.97388E+01 2.65463E-01 7.13196E+00
 -1      6882 1.71358E+01 9.80967E+00 7.50000E+00
 -1      6883 1.57398E+01 1.00112E+01 7.50000E+00
 -1      6884 1.77843E+01 1.22660E+01 7.64520E+00
 -1      6885 1.63883E+01 1.24675E+01 7.64520E+00
 -1      6886 1.35932E+01 1.59782E+00 2.76803E+00
 -1      6887 4.47495E+01 2.12185E+01 7.54483E+00
 -1      6888 4.27950E+01 1.68974E+01 8.60116E+00
 -1      6889 1.95284E+01 8.52199E-02 8.20410E+00
 -1      6890 1.94856E+01 8.52199E-02 8.22500E+00
 -1      6891 1.94856E+01 8.52199E-02 8.17500E+00
 -1      6892 1.95085E+01 1.35892E-01 9.32500E+00
 -1      6893 1.95433E+01 1.35892E-01 9.34731E+00
 -1      6894 1.95085E+01 1.35892E-01 9.37500E+00
 -1      6895 1.94160E+01 8.46054E-02 2.08531E+00
 -1      6896 1.93639E+01 8.46054E-02 2.06587E+00
 -1      6897 1.94160E+01 8.46054E-02 2.03531E+00
 -1      6898 1.98518E+01 1.32152E-01 9.10361E+00
 -1      6899 1.98419E+01 1.32152E-01 9.21678E+00
 -1      6900 1.97695E+01 1.32152E-01 9.15668E+00
 -1      6901 1.92039E+01 6.84921E-01 2.99631E+00
 -1      6902 1.95188E+01 6.01613E-01 2.82505E+00
 -1      6903 1.93975E+01 5.15348E-01 3.08245E+00
 -1      6904 1.94529E+01 4.70440E-01 3.92495E+00
 -1      6905 1.93932E+01 6.32461E-01 3.72600E+00
 -1      6906 1.95007E+01 6.85378E-01 3.89990E+00
 -1      6907 1.95606E+01 4.05857E-01 4.00205E+00
 -1      6908 1.95009E+01 5.67878E-01 3.80311E+00
 -1      6909 1.94531E+01 3.52939E-01 3.82816E+00
 -1      6910 1.86371E+01 1.26863E+00 3.90279E+00
 -1      6911 1.89128E+01 1.56376E+00 4.15419E+00
 -1      6912 1.87176E+01 1.33885E+00 4.58623E+00
 -1      6913 1.87994E+01 1.10680E+00 4.23208E+00
 -1      6914 1.90752E+01 1.40193E+00 4.48347E+00
 -1      6915 1.89946E+01 1.33171E+00 3.80004E+00
 -1      6916 2.03252E+01 1.85336E-01 5.71353E+00
 -1      6917 2.03966E+01 1.85336E-01 5.84201E+00
 -1      6918 2.05149E+01 2.26026E-01 5.45050E+00
 -1      6919 2.03503E+01 4.11362E-01 5.50991E+00
 -1      6920 2.04434E+01 2.26026E-01 5.32201E+00
 -1      6921 1.39969E+01 3.23005E+00 8.78937E+00
 -1      6922 1.35320E+01 2.46720E+00 7.09316E+00
 -1      6923 1.32097E+01 3.79391E+00 8.30379E+00
 -1      6924 1.47513E+01 3.85926E+00 9.11932E+00
 -1      6925 1.42864E+01 3.09641E+00 7.42311E+00
 -1      6926 1.50736E+01 2.53255E+00 7.90869E+00
 -1      6927 1.93926E+01 1.03645E-01 9.12409E+00
 -1      6928 1.94408E+01 1.03645E-01 9.14926E+00
 -1      6929 1.94020E+01 1.03645E-01 9.17500E+00
 -1      6930 1.91455E+01 1.30970E-01 6.81345E-01
 -1      6931 1.90444E+01 1.30970E-01 6.76660E-01
 -1      6932 1.91050E+01 1.30970E-01 5.95917E-01
 -1      6933 1.92854E+01 1.35840E-01 7.44553E+00
 -1      6934 1.64024E+01 4.46988E-01 3.31292E+00
 -1      6935 1.67085E+01 4.46988E-01 3.59055E+00
 -1      6936 1.67733E+01 1.22177E+00 3.79601E+00
 -1      6937 1.82409E+01 2.11863E-01 4.90974E+00
 -1      6938 1.84034E+01 2.11863E-01 5.01849E+00
 -1      6939 1.82130E+01 2.11863E-01 5.12320E+00
 -1      6940 1.14692E+01 1.42707E+00 3.93984E+00
 -1      6941 9.71098E+00 1.38821E+00 5.85727E+00
 -1      6942 1.09409E+01 2.81528E+00 5.05379E+00
 -1      6943 1.05048E+01 1.38821E+00 6.19892E+00
 -1      6944 2.48852E+01 1.43615E+00 6.73374E+00
 -1      6945 2.53586E+01 1.43615E+00 7.40548E+00
 -1      6946 2.69589E+01 1.54692E+00 6.71517E+00
 -1      6947 2.74322E+01 1.54692E+00 7.38691E+00
 -1      6948 2.65417E+01 2.98308E+00 7.04284E+00
 -1      6949 1.27099E+01 8.97974E+00 2.62477E+00
 -1      6950 1.49951E+01 7.67302E+00 1.31462E+00
 -1      6951 1.95065E+01 2.77925E-01 1.15000E+00
 -1      6952 1.94920E+01 3.29526E-01 9.74949E-01
 -1      6953 1.96048E+01 3.49051E-01 1.07799E+00
 -1      6954 1.96562E+01 2.22680E-01 1.15304E+00
 -1      6955 1.96192E+01 2.97450E-01 1.25304E+00
 -1      6956 1.86386E+01 1.30009E+00 2.84910E+00
 -1      6957 1.88392E+01 1.11016E+00 3.18164E+00
 -1      6958 1.86455E+01 9.16716E-01 2.55999E+00
 -1      6959 1.87476E+01 1.09303E+00 2.31836E+00
 -1      6960 1.89481E+01 9.03092E-01 2.65090E+00
 -1      6961 1.89412E+01 1.28647E+00 2.94001E+00
 -1      6962 1.81457E+01 2.72987E-01 8.33017E+00
 -1      6963 1.81237E+01 2.72987E-01 8.11991E+00
 -1      6964 1.83111E+01 2.72987E-01 8.21063E+00
 -1      6965 1.88528E+01 2.00981E-01 6.87587E+00
 -1      6966 1.88634E+01 2.00981E-01 6.97779E+00
 -1      6967 1.90208E+01 1.09696E-01 6.99879E+00
 -1      6968 1.90314E+01 1.09696E-01 7.10070E+00
 -1      6969 1.89828E+01 3.10677E-01 6.94769E+00
 -1      6970 1.39080E+01 5.62219E-01 5.81749E-01
 -1      6971 1.32146E+01 7.08771E-01 5.81749E-01
 -1      6972 1.90793E+01 2.25179E-01 2.49167E+00
 -1      6973 1.90378E+01 2.25179E-01 2.56881E+00
 -1      6974 1.89894E+01 2.25179E-01 2.48641E+00
 -1      6975 1.82065E+01 2.81838E-01 1.33581E+00
 -1      6976 1.80742E+01 2.81838E-01 1.32997E+00
 -1      6977 1.81299E+01 2.81838E-01 1.19409E+00
 -1      6978 1.67753E+01 5.89808E-01 7.27565E+00
 -1      6979 1.70707E+01 1.05344E+00 7.48488E+00
 -1      6980 1.72490E+01 3.24479E-01 7.38986E+00
 -1      6981 1.75444E+01 7.88107E-01 7.59909E+00
 -1      6982 1.70532E+01 9.14286E-01 7.01956E+00
 -1      6983 1.95395E+01 3.74407E-01 8.02670E+00
 -1      6984 1.95383E+01 3.10137E-01 7.92598E+00
 -1      6985 1.94494E+01 2.96394E-01 7.87643E+00
 -1      6986 1.97378E+01 4.10020E-01 3.76316E+00
 -1      6987 1.95521E+01 2.69220E-01 3.77763E+00
 -1      6988 1.36612E+01 1.59782E+00 1.63930E+00
 -1      6989 1.93793E+01 7.91749E-02 8.73065E+00
 -1      6990 1.94285E+01 7.91749E-02 8.75264E+00
 -1      6991 1.93838E+01 7.91749E-02 8.78202E+00
 -1      6992 2.04009E+00 1.97020E+01 2.76506E+00
 -1      6993 2.04009E+00 1.97020E+01 7.76506E+00
 -1      6994 3.77611E+00 1.57855E+01 5.26506E+00
 -1      6995 1.92748E+01 3.44734E-01 6.54933E+00
 -1      6996 1.93592E+01 4.35336E-01 6.39863E+00
 -1      6997 1.90351E+01 4.48956E-01 6.39620E+00
 -1      6998 4.49670E+01 1.92485E+01 4.49897E+00
 -1      6999 4.33561E+01 1.64670E+01 1.95414E+00
 -1      7000 4.47495E+01 2.12185E+01 2.54483E+00
 -1      7001 1.94247E+01 9.40750E-02 2.57858E+00
 -1      7002 1.93849E+01 9.40750E-02 2.55358E+00
 -1      7003 1.94247E+01 9.40750E-02 2.52858E+00
 -1      7004 1.95784E+01 1.29704E-01 2.52432E+00
 -1      7005 1.95789E+01 1.29704E-01 2.57827E+00
 -1      7006 1.95283E+01 1.29704E-01 2.54793E+00
 -1      7007 2.73620E+01 9.20341E+00 4.12927E+00
 -1      7008 2.83457E+01 1.00636E+01 2.50000E+00
 -1      7009 2.82059E+01 1.13272E+01 5.81915E+00
 -1      7010 1.96796E+01 1.05052E-01 6.27341E-01
 -1      7011 1.96215E+01 1.05052E-01 6.49094E-01
 -1      7012 1.96233E+01 1.05052E-01 5.99107E-01
 -1      7013 1.94402E+01 1.07298E-01 1.69979E+00
 -1      7014 1.90295E+01 4.20226E-01 7.62345E+00
 -1      7015 1.91962E+01 3.53042E-01 7.60485E+00
 -1      7016 1.89290E+01 3.30663E-01 7.53145E+00
 -1      7017 1.89941E+01 4.11159E-01 7.44526E+00
 -1      7018 1.91608E+01 3.43975E-01 7.42666E+00
 -1      7019 1.92613E+01 4.33538E-01 7.51866E+00
 -1      7020 1.94115E+01 5.89247E-01 4.40003E+00
 -1      7021 1.94586E+01 3.65236E-01 4.37438E+00
 -1      7022 1.93945E+01 3.75631E-01 4.56922E+00
 -1      7023 1.92946E+01 3.30103E-01 4.44490E+00
 -1      7024 1.93474E+01 5.99642E-01 4.59487E+00
 -1      7025 9.57400E+00 3.60692E+00 2.50000E+00
 -1      7026 8.80665E+00 9.96337E-01 1.37748E+00
 -1      7027 1.04622E+01 2.42340E+00 1.39736E+00
 -1      7028 1.90724E+01 4.69146E-01 1.37685E+00
 -1      7029 1.93774E+01 3.56743E-01 1.40317E+00
 -1      7030 1.91906E+01 3.04118E-01 1.44712E+00
 -1      7031 1.92827E+01 3.00069E-01 1.29395E+00
 -1      7032 1.89777E+01 4.12472E-01 1.26763E+00
 -1      7033 2.00520E+01 2.41164E-01 1.26960E+00
 -1      7034 2.01948E+01 2.41164E-01 1.29652E+00
 -1      7035 2.00914E+01 2.41164E-01 1.40187E+00
 -1      7036 1.89636E+01 6.50403E-01 7.41072E+00
 -1      7037 1.92307E+01 6.72782E-01 7.48413E+00
 -1      7038 1.91954E+01 6.63714E-01 7.30594E+00
 -1      7039 1.83707E+01 3.04153E-01 8.88320E+00
 -1      7040 1.82303E+01 3.04153E-01 8.98253E+00
 -1      7041 1.82204E+01 3.04153E-01 8.81734E+00
 -1      7042 1.93000E+01 1.52309E-01 2.38328E+00
 -1      7043 1.87311E+01 3.88945E+00 8.03277E+00
 -1      7044 1.96393E+01 3.92659E+00 7.19492E+00
 -1      7045 1.85619E+01 4.06748E+00 6.78785E+00
 -1      7046 1.87064E+01 5.66821E+00 7.22054E+00
 -1      7047 1.96146E+01 5.70534E+00 6.38269E+00
 -1      7048 1.97838E+01 5.52731E+00 7.62762E+00
 -1      7049 1.93327E+01 1.33346E-01 1.04282E+00
 -1      7050 1.93010E+01 1.33346E-01 1.01087E+00
 -1      7051 1.93385E+01 1.33346E-01 9.91618E-01
 -1      7052 1.95510E+01 1.35892E-01 9.39547E+00
 -1      7053 1.82165E+01 2.81838E-01 1.05858E+00
 -1      7054 1.83678E+01 2.81838E-01 1.07385E+00
 -1      7055 1.82938E+01 2.81838E-01 1.19758E+00
 -1      7056 2.11719E+01 8.95576E+00 4.06393E+00
 -1      7057 2.17849E+01 1.15128E+01 4.06393E+00
 -1      7058 2.30157E+01 1.07561E+01 5.00000E+00
 -1      7059 2.38837E+01 8.38334E+00 4.12927E+00
 -1      7060 2.26529E+01 9.14006E+00 3.19320E+00
 -1      7061 1.92490E+01 9.38630E-02 7.31611E+00
 -1      7062 1.93063E+01 9.38630E-02 7.31945E+00
 -1      7063 1.93438E+01 2.29703E-01 7.37048E+00
 -1      7064 1.94264E+01 8.87704E-02 3.72498E+00
 -1      7065 1.94250E+01 8.87704E-02 3.77532E+00
 -1      7066 1.93738E+01 8.87704E-02 3.75025E+00
 -1      7067 1.87566E+01 2.00981E-01 6.94044E+00
 -1      7068 1.92603E+01 1.63901E+00 4.44381E+00
 -1      7069 1.93421E+01 1.40696E+00 4.08966E+00
 -1      7070 4.67868E+01 1.71721E+01 3.97568E+00
 -1      7071 2.79287E+01 1.31897E+01 3.31915E+00
 -1      7072 1.32972E+01 1.05317E+01 2.62477E+00
 -1      7073 1.38623E+01 1.30666E+01 2.50000E+00
 -1      7074 1.53791E+01 1.16985E+01 5.00000E+00
 -1      7075 1.29365E+01 1.22190E+01 5.12477E+00
 -1      7076 1.90966E+01 1.31739E-01 7.37444E+00
 -1      7077 1.90773E+01 1.31739E-01 7.46198E+00
 -1      7078 1.90189E+01 1.31739E-01 7.40648E+00
 -1      7079 1.95740E+01 1.12340E-01 8.02599E+00
 -1      7080 1.95289E+01 1.12340E-01 8.05098E+00
 -1      7081 1.93946E+01 1.39379E-01 5.75335E-01
 -1      7082 1.94433E+01 1.39379E-01 6.00000E-01
 -1      7083 1.93824E+01 1.39379E-01 6.50576E-01
 -1      7084 1.48497E+01 4.85648E+00 3.81104E+00
 -1      7085 1.56165E+01 5.17256E+00 3.02727E+00
 -1      7086 1.69150E+01 3.99156E+00 3.51283E+00
 -1      7087 1.62915E+01 3.37186E+00 3.02845E+00
 -1      7088 1.70583E+01 3.68794E+00 2.24468E+00
 -1      7089 1.49930E+01 4.55286E+00 2.54289E+00
 -1      7090 1.94814E+01 9.24907E-02 2.67500E+00
 -1      7091 1.95195E+01 9.24907E-02 2.69954E+00
 -1      7092 1.94814E+01 9.24907E-02 2.72500E+00
 -1      7093 7.61278E+00 2.08284E+00 4.38894E+00
 -1      7094 6.61012E+00 2.08284E+00 4.65289E+00
 -1      7095 7.18711E+00 2.08284E+00 3.56559E+00
 -1      7096 1.95454E+01 3.88038E-01 1.97467E+00
 -1      7097 1.95458E+01 6.18926E-01 1.92467E+00
 -1      7098 1.95318E+01 6.53431E-01 2.10000E+00
 -1      7099 1.97144E+01 3.80030E-01 2.10740E+00
 -1      7100 1.97148E+01 6.10918E-01 2.05740E+00
 -1      7101 1.97284E+01 3.45525E-01 1.93207E+00
 -1      7102 1.93893E+01 9.36059E-02 7.37391E+00
 -1      7103 1.94102E+01 9.36059E-02 7.32082E+00
 -1      7104 1.94449E+01 9.36059E-02 7.34990E+00
 -1      7105 1.29613E+01 7.86082E+00 4.28751E+00
 -1      7106 1.32998E+01 7.15640E+00 1.66274E+00
 -1      7107 1.52465E+01 6.55409E+00 2.97736E+00
 -1      7108 1.96390E+01 1.29704E-01 2.55648E+00
 -1      7109 1.94711E+01 9.29830E-02 2.97500E+00
 -1      7110 1.95196E+01 9.29830E-02 2.99961E+00
 -1      7111 1.94711E+01 9.29830E-02 3.02500E+00
 -1      7112 2.00344E+01 2.58544E-01 2.32961E+00
 -1      7113 2.01291E+01 2.58544E-01 2.37188E+00
 -1      7114 2.00422E+01 2.58544E-01 2.44453E+00
 -1      7115 1.97192E+01 8.76304E-01 7.66178E+00
 -1      7116 1.94543E+01 8.68254E-01 7.52505E+00
 -1      7117 1.96082E+01 8.54632E-01 7.37662E+00
 -1      7118 1.95944E+01 5.57430E-01 7.35167E+00
 -1      7119 1.98593E+01 5.65479E-01 7.48840E+00
 -1      7120 1.48179E+01 8.44232E-01 2.95158E+00
 -1      7121 1.53792E+01 8.44232E-01 2.79046E+00
 -1      7122 1.77283E+01 8.40984E-01 4.64648E+00
 -1      7123 1.78891E+01 9.57367E-01 4.21069E+00
 -1      7124 1.82810E+01 9.27337E-01 4.77062E+00
 -1      7125 1.79895E+01 6.77892E-01 4.70968E+00
 -1      7126 1.81503E+01 7.94274E-01 4.27389E+00
 -1      7127 1.75976E+01 7.07921E-01 4.14975E+00
 -1      7128 1.72612E+01 4.63628E-01 8.35320E+00
 -1      7129 1.75005E+01 4.63628E-01 8.18652E+00
 -1      7130 4.50648E+01 1.56801E+01 6.95414E+00
 -1      7131 1.42856E+01 2.72936E+00 6.50836E+00
 -1      7132 1.36043E+01 2.58449E+00 5.36799E+00
 -1      7133 1.51450E+01 2.28280E+00 5.26877E+00
 -1      7134 1.49209E+01 2.00677E+00 6.16453E+00
 -1      7135 1.42396E+01 1.86189E+00 5.02416E+00
 -1      7136 1.33802E+01 2.30846E+00 6.26375E+00
 -1      7137 2.05412E+01 4.98693E-01 6.02598E+00
 -1      7138 2.07058E+01 3.13357E-01 5.96657E+00
 -1      7139 2.06595E+01 5.39382E-01 5.63447E+00
 -1      7140 1.35532E+01 1.06896E+00 4.28336E+00
 -1      7141 1.31845E+01 2.49603E+00 3.46156E+00
 -1      7142 1.22740E+01 1.42707E+00 3.61651E+00
 -1      7143 1.33291E+01 7.92931E-01 5.17911E+00
 -1      7144 1.29604E+01 2.22000E+00 4.35732E+00
 -1      7145 1.42255E+01 9.10135E+00 7.62477E+00
 -1      7146 1.36238E+01 7.64330E+00 5.96990E+00
 -1      7147 1.97881E+01 1.24759E-01 6.31483E+00
 -1      7148 1.98471E+01 1.24759E-01 6.37163E+00
 -1      7149 1.99669E+01 1.27278E-01 6.17546E+00
 -1      7150 1.98418E+01 2.52036E-01 6.18381E+00
 -1      7151 1.99079E+01 1.27278E-01 6.11865E+00
 -1      7152 1.13145E+01 8.84118E+00 7.62477E+00
 -1      7153 1.12501E+01 7.45266E+00 5.12477E+00
 -1      7154 1.01932E+01 6.60967E+00 7.50000E+00
 -1      7155 8.90492E+00 1.00529E+01 7.50000E+00
 -1      7156 8.84053E+00 8.66437E+00 5.00000E+00
 -1      7157 9.96183E+00 1.08959E+01 5.12477E+00
 -1      7158 1.90589E+01 1.31739E-01 7.55248E+00
 -1      7159 1.90501E+01 1.31739E-01 7.65950E+00
 -1      7160 1.89529E+01 1.31739E-01 7.59377E+00
 -1      7161 1.96631E+01 1.69583E-01 6.11840E+00
 -1      7162 1.97218E+01 1.69583E-01 6.14670E+00
 -1      7163 1.96457E+01 1.69583E-01 6.17844E+00
 -1      7164 2.66880E+01 1.46148E+01 2.50000E+00
 -1      7165 2.58785E+01 1.47084E+01 5.00000E+00
 -1      7166 2.75904E+01 1.44594E+01 5.81915E+00
 -1      7167 7.95446E+00 4.69342E+00 4.68811E+00
 -1      7168 6.79441E+00 7.12490E+00 7.18811E+00
 -1      7169 8.96880E+00 7.65263E+00 7.50000E+00
 -1      7170 7.68048E+00 1.10958E+01 7.50000E+00
 -1      7171 6.66614E+00 8.13663E+00 4.68811E+00
 -1      7172 1.94449E+01 1.39379E-01 6.50162E-01
 -1      7173 1.83816E+01 2.40613E-01 4.61658E+00
 -1      7174 1.82191E+01 2.40613E-01 4.50783E+00
 -1      7175 1.84636E+01 4.52476E-01 4.73675E+00
 -1      7176 1.96869E+01 4.29077E+00 9.21992E+00
 -1      7177 1.86095E+01 4.43167E+00 8.81285E+00
 -1      7178 1.84071E+01 5.72357E+00 8.62886E+00
 -1      7179 1.74513E+01 5.32225E+00 7.44171E+00
 -1      7180 1.85287E+01 5.18135E+00 7.84878E+00
 -1      7181 2.00589E+01 1.64754E-01 8.18568E+00
 -1      7182 1.99522E+01 1.64754E-01 8.07414E+00
 -1      7183 2.00853E+01 1.64754E-01 8.00682E+00
 -1      7184 1.83536E+01 3.04153E-01 8.71553E+00
 -1      7185 1.94400E+01 9.85974E-02 7.90143E+00
 -1      7186 1.98487E+01 1.27637E-01 8.37864E+00
 -1      7187 1.95217E+01 1.01578E-01 1.07500E+00
 -1      7188 1.95217E+01 1.01578E-01 1.12500E+00
 -1      7189 1.94735E+01 1.01578E-01 1.10107E+00
 -1      7190 1.81313E+01 8.70471E-01 7.92298E+00
 -1      7191 1.78078E+01 7.85797E-01 7.83514E+00
 -1      7192 1.83771E+01 7.29013E-01 7.69369E+00
 -1      7193 1.85580E+01 6.79830E-01 7.99864E+00
 -1      7194 1.82345E+01 5.95156E-01 7.91080E+00
 -1      7195 1.79886E+01 7.36615E-01 8.14008E+00
 -1      7196 1.13145E+01 8.84118E+00 2.62477E+00
 -1      7197 1.01932E+01 6.60967E+00 2.50000E+00
 -1      7198 8.90492E+00 1.00529E+01 2.50000E+00
 -1      7199 1.93762E+01 9.47713E-02 1.15744E+00
 -1      7200 1.93791E+01 9.47713E-02 1.20710E+00
 -1      7201 1.93174E+01 9.47713E-02 1.18694E+00
 -1      7202 1.94860E+01 1.03584E-01 9.52500E+00
 -1      7203 1.94860E+01 1.03584E-01 9.47500E+00
 -1      7204 1.95285E+01 1.03584E-01 9.49547E+00
 -1      7205 1.65886E+01 7.14443E-01 8.36604E+00
 -1      7206 1.66089E+01 7.14443E-01 8.67806E+00
 -1      7207 1.67235E+01 4.11610E-01 8.65596E+00
 -1      7208 1.67437E+01 4.11610E-01 8.96798E+00
 -1      7209 1.68936E+01 1.12605E+00 8.65778E+00
 -1      7210 2.02373E+01 2.84853E-01 3.28589E+00
 -1      7211 2.01068E+01 4.28816E-01 3.32571E+00
 -1      7212 1.98961E+01 1.43963E-01 3.30763E+00
 -1      7213 1.99563E+01 1.22250E-01 3.43679E+00
 -1      7214 1.98259E+01 2.66213E-01 3.47661E+00
 -1      7215 2.01671E+01 4.07102E-01 3.45487E+00
 -1      7216 1.88263E+01 7.31300E-01 8.12214E+00
 -1      7217 1.85605E+01 9.52750E-01 8.60176E+00
 -1      7218 1.84348E+01 1.03514E+00 8.26116E+00
 -1      7219 1.82921E+01 9.01280E-01 8.47826E+00
 -1      7220 1.86836E+01 5.97444E-01 8.33924E+00
 -1      7221 1.89185E+01 1.23722E-01 1.31680E+00
 -1      7222 1.89995E+01 1.23722E-01 1.19384E+00
 -1      7223 1.90411E+01 1.23722E-01 1.31119E+00
 -1      7224 1.89884E+01 1.83947E-01 3.39854E+00
 -1      7225 1.88661E+01 1.83947E-01 3.45754E+00
 -1      7226 1.88931E+01 1.83947E-01 3.30866E+00
 -1      7227 1.83355E+01 5.34937E-01 6.72397E+00
 -1      7228 1.85048E+01 6.97047E-01 7.01723E+00
 -1      7229 1.84656E+01 7.48186E-01 6.65334E+00
 -1      7230 1.80042E+01 5.58394E-01 6.41056E+00
 -1      7231 1.81736E+01 7.20503E-01 6.70383E+00
 -1      7232 1.80435E+01 5.07254E-01 6.77445E+00
 -1      7233 1.95577E+01 1.29762E-01 4.75000E+00
 -1      7234 1.95511E+01 1.29762E-01 4.70509E+00
 -1      7235 1.96097E+01 1.29762E-01 4.71082E+00
 -1      7236 1.98508E+01 1.40063E-01 2.67831E+00
 -1      7237 1.98444E+01 1.40063E-01 2.56200E+00
 -1      7238 1.99549E+01 1.40063E-01 2.61137E+00
 -1      7239 1.96013E+01 8.13282E-02 6.77469E+00
 -1      7240 1.95572E+01 8.13282E-02 6.74969E+00
 -1      7241 1.96024E+01 8.13282E-02 6.72468E+00
 -1      7242 1.95623E+01 4.58239E-01 8.44602E+00
 -1      7243 1.95460E+01 5.45315E-01 8.17670E+00
 -1      7244 1.96250E+01 4.96341E-01 8.27093E+00
 -1      7245 1.96393E+01 3.04247E-01 8.29763E+00
 -1      7246 1.96413E+01 4.09265E-01 8.54025E+00
 -1      7247 1.95926E+01 4.86167E-01 6.80038E+00
 -1      7248 1.96049E+01 4.15726E-01 6.52452E+00
 -1      7249 1.97966E+01 4.91967E-01 6.58688E+00
 -1      7250 1.98454E+01 3.40514E-01 6.71311E+00
 -1      7251 1.97842E+01 5.62408E-01 6.86273E+00
 -1      7252 1.92899E+01 1.47692E-01 8.14733E+00
 -1      7253 1.93196E+01 2.46289E-01 8.07868E+00
 -1      7254 9.07320E+00 5.25793E+00 7.50000E+00
 -1      7255 6.89881E+00 4.73020E+00 7.18811E+00
 -1      7256 1.94383E+01 1.02399E-01 6.19983E+00
 -1      7257 1.94388E+01 1.02399E-01 6.25023E+00
 -1      7258 1.93973E+01 1.02399E-01 6.22514E+00
 -1      7259 2.11709E+01 1.40562E+00 6.16193E-01
 -1      7260 2.10656E+01 1.09536E+00 1.22067E+00
 -1      7261 2.05518E+01 1.29017E+00 6.04474E-01
 -1      7262 2.09107E+01 1.14404E+00 4.35629E-01
 -1      7263 2.08053E+01 8.33787E-01 1.04010E+00
 -1      7264 2.14245E+01 9.49237E-01 1.05182E+00
 -1      7265 2.05119E+01 7.30225E-01 5.00792E+00
 -1      7266 2.05293E+01 9.02512E-01 4.63934E+00
 -1      7267 2.01445E+01 8.93443E-01 4.55275E+00
 -1      7268 2.00066E+01 1.15116E+00 4.89447E+00
 -1      7269 2.00240E+01 1.32345E+00 4.52589E+00
 -1      7270 2.03914E+01 1.16023E+00 4.98106E+00
 -1      7271 1.93956E+01 9.45343E-02 6.62538E+00
 -1      7272 1.93946E+01 9.45343E-02 6.67555E+00
 -1      7273 1.93548E+01 9.45343E-02 6.65296E+00
 -1      7274 1.56682E+01 6.78250E-01 4.80714E+00
 -1      7275 1.59805E+01 6.78250E-01 5.05918E+00
 -1      7276 1.56097E+01 6.78250E-01 5.20319E+00
 -1      7277 2.08553E+01 5.37753E+00 8.85401E+00
 -1      7278 2.10056E+01 4.56746E+00 8.85401E+00
 -1      7279 2.01400E+01 5.19853E+00 9.21992E+00
 -1      7280 2.02902E+01 4.38846E+00 9.21992E+00
 -1      7281 2.05238E+01 3.92756E+00 8.07394E+00
 -1      7282 1.93645E+01 1.04818E-01 3.48666E+00
 -1      7283 1.93200E+01 1.04818E-01 3.44870E+00
 -1      7284 1.93736E+01 1.04818E-01 3.43997E+00
 -1      7285 1.72700E+01 2.83312E-01 4.85669E+00
 -1      7286 1.72200E+01 2.83312E-01 5.20085E+00
 -1      7287 1.72679E+01 7.89161E-01 5.38001E+00
 -1      7288 1.91751E+01 1.42500E-01 2.29970E+00
 -1      7289 1.91298E+01 1.42500E-01 2.37194E+00
 -1      7290 1.92816E+01 9.40750E-02 2.46320E+00
 -1      7291 1.92363E+01 9.40750E-02 2.53544E+00
 -1      7292 1.92430E+01 2.36575E-01 2.39366E+00
 -1      7293 1.94097E+01 3.24303E-01 8.22895E+00
 -1      7294 1.93889E+01 3.45488E-01 8.05225E+00
 -1      7295 1.50823E+01 1.06896E+00 4.17013E+00
 -1      7296 1.46339E+01 1.06896E+00 4.36748E+00
 -1      7297 1.46607E+01 1.06896E+00 3.91090E+00
 -1      7298 1.14102E+01 2.15357E+01 2.50739E+00
 -1      7299 1.40556E+01 2.15357E+01 2.50200E+00
 -1      7300 1.11176E+01 1.93769E+01 5.00739E+00
 -1      7301 1.37631E+01 1.93769E+01 5.00200E+00
 -1      7302 1.37941E+01 1.69126E+01 2.50000E+00
 -1      7303 2.57262E+01 4.07030E+00 8.53071E+00
 -1      7304 2.49301E+01 3.22190E+00 8.53071E+00
 -1      7305 2.53555E+01 5.63568E+00 8.47326E+00
 -1      7306 2.45594E+01 4.78727E+00 8.47326E+00
 -1      7307 2.40974E+01 4.43768E+00 7.00397E+00
 -1      7308 1.40556E+01 2.15357E+01 7.50200E+00
 -1      7309 1.14102E+01 2.15357E+01 7.50739E+00
 -1      7310 1.37941E+01 1.69126E+01 7.50000E+00
 -1      7311 2.01658E+01 6.06698E-01 6.72127E+00
 -1      7312 1.95149E+01 8.45572E-02 6.02500E+00
 -1      7313 1.94708E+01 8.45572E-02 5.99985E+00
 -1      7314 1.95149E+01 8.45572E-02 5.97500E+00
 -1      7315 1.92836E+01 9.40750E-02 2.61133E+00
 -1      7316 1.92940E+01 2.50045E-01 2.65357E+00
 -1      7317 1.87204E+01 4.02189E-01 7.90298E-01
 -1      7318 1.87704E+01 1.64280E-01 9.91826E-01
 -1      7319 1.86835E+01 1.34296E-01 8.71461E-01
 -1      7320 1.88507E+01 2.98576E-01 8.15791E-01
 -1      7321 1.86335E+01 3.72204E-01 6.69933E-01
 -1      7322 1.46276E+01 2.72013E+00 8.78937E+00
 -1      7323 1.53820E+01 3.34935E+00 9.11932E+00
 -1      7324 1.96728E+01 1.45763E-01 1.54440E+00
 -1      7325 1.96502E+01 1.45763E-01 1.49398E+00
 -1      7326 1.97069E+01 1.45763E-01 1.47957E+00
 -1      7327 1.95539E+01 5.01875E-01 2.97505E+00
 -1      7328 1.94246E+01 6.05423E-02 7.72573E+00
 -1      7329 1.94248E+01 6.05423E-02 7.77615E+00
 -1      7330 1.93807E+01 6.05423E-02 7.75183E+00
 -1      7331 1.97359E+01 8.48870E-02 2.05335E+00
 -1      7332 1.96647E+01 8.48870E-02 2.06814E+00
 -1      7333 1.96053E+01 1.99317E-01 2.07206E+00
 -1      7334 1.91764E+01 1.09555E-01 1.83130E+00
 -1      7335 1.92293E+01 1.09555E-01 1.78852E+00
 -1      7336 1.92303E+01 1.09555E-01 1.84057E+00
 -1      7337 1.95765E+01 7.75390E-02 4.42684E+00
 -1      7338 1.96219E+01 7.75390E-02 4.45185E+00
 -1      7339 1.95765E+01 7.75390E-02 4.47684E+00
 -1      7340 1.95283E+01 1.29704E-01 2.59793E+00
 -1      7341 1.95756E+01 8.48870E-02 2.12194E+00
 -1      7342 1.96208E+01 8.48870E-02 2.14693E+00
 -1      7343 1.95756E+01 8.48870E-02 2.17194E+00
 -1      7344 1.71092E+01 3.93010E-01 1.02609E+00
 -1      7345 1.94985E+01 5.27926E-01 5.60000E+00
 -1      7346 1.94882E+01 7.57006E-01 5.37362E+00
 -1      7347 1.94552E+01 7.81657E-01 5.62362E+00
 -1      7348 1.97416E+01 5.43710E-01 5.72736E+00
 -1      7349 1.97313E+01 7.72789E-01 5.50098E+00
 -1      7350 1.97746E+01 5.19059E-01 5.47736E+00
 -1      7351 1.94153E+01 7.21715E-02 5.86374E+00
 -1      7352 1.93713E+01 7.21715E-02 5.88859E+00
 -1      7353 1.93679E+01 7.21715E-02 5.83569E+00
 -1      7354 1.88408E+01 1.65044E-01 1.44670E+00
 -1      7355 1.87878E+01 1.65044E-01 1.58800E+00
 -1      7356 1.86985E+01 4.51720E-01 1.62509E+00
 -1      7357 1.94860E+01 6.39557E-01 7.22505E+00
 -1      7358 1.94898E+01 5.34449E-01 7.07619E+00
 -1      7359 1.94444E+01 4.65945E-01 7.35123E+00
 -1      7360 1.93332E+01 4.97762E-01 7.42029E+00
 -1      7361 1.93371E+01 3.92654E-01 7.27143E+00
 -1      7362 1.93787E+01 5.66266E-01 7.14524E+00
 -1      7363 1.94591E+01 6.02519E-01 9.42433E+00
 -1      7364 1.92186E+01 5.67609E-01 9.79933E+00
 -1      7365 1.92315E+01 7.33069E-01 9.62500E+00
 -1      7366 1.91620E+01 6.66142E-01 9.34510E+00
 -1      7367 1.89215E+01 6.31232E-01 9.72010E+00
 -1      7368 1.91490E+01 5.00681E-01 9.51944E+00
 -1      7369 1.93163E+01 3.58400E-01 5.66739E+00
 -1      7370 1.93235E+01 4.53861E-01 5.51739E+00
 -1      7371 1.95242E+01 4.07814E-01 5.50000E+00
 -1      7372 1.94265E+01 2.98834E-01 5.53361E+00
 -1      7373 1.94338E+01 3.94295E-01 5.38361E+00
 -1      7374 1.92258E+01 3.44881E-01 5.55100E+00
 -1      7375 2.03235E+01 6.28362E-01 4.74256E+00
 -1      7376 2.07083E+01 6.37432E-01 4.82916E+00
 -1      7377 2.03409E+01 8.00649E-01 4.37399E+00
 -1      7378 2.84666E+01 1.48338E+01 2.50000E+00
 -1      7379 1.95299E+01 8.69324E-02 1.85001E+00
 -1      7380 3.06576E+01 2.86324E+00 4.02360E+00
 -1      7381 3.19260E+01 3.06835E+00 2.50000E+00
 -1      7382 3.13867E+01 3.91169E+00 5.61508E+00
 -1      7383 1.90465E+01 1.09696E-01 7.18536E+00
 -1      7384 1.91242E+01 1.09696E-01 7.15332E+00
 -1      7385 1.95144E+01 1.29762E-01 4.72500E+00
 -1      7386 3.67486E+01 1.96629E+01 6.09289E+00
 -1      7387 3.80023E+01 2.00000E+01 4.97906E+00
 -1      7388 3.63173E+01 1.72002E+01 5.00000E+00
 -1      7389 3.43196E+01 2.12002E+01 4.97906E+00
 -1      7390 3.50636E+01 1.68632E+01 6.11383E+00
 -1      7391 1.91597E+01 1.05017E-01 3.75337E+00
 -1      7392 1.91732E+01 1.05017E-01 3.63932E+00
 -1      7393 1.92371E+01 1.05017E-01 3.69514E+00
 -1      7394 1.94847E+01 1.03264E+00 8.42761E+00
 -1      7395 1.92418E+01 6.93161E-01 8.30637E+00
 -1      7396 1.91949E+01 9.88391E-01 8.58397E+00
 -1      7397 1.93263E+01 1.10718E+00 8.26956E+00
 -1      7398 1.90834E+01 7.67703E-01 8.14832E+00
 -1      7399 1.93733E+01 8.11950E-01 7.99195E+00
 -1      7400 2.38342E+01 1.16053E+01 2.50000E+00
 -1      7401 2.19904E+01 9.80502E+00 1.56393E+00
 -1      7402 2.47022E+01 9.23259E+00 1.62927E+00
 -1      7403 2.00114E+01 8.35195E-01 7.18355E+00
 -1      7404 1.99380E+01 8.47848E-01 7.46776E+00
 -1      7405 2.00437E+01 5.74499E-01 7.48936E+00
 -1      7406 2.03919E+01 5.68285E-01 7.29742E+00
 -1      7407 2.03185E+01 5.80938E-01 7.58163E+00
 -1      7408 2.02862E+01 8.41635E-01 7.27583E+00
 -1      7409 1.94501E+01 9.24907E-02 2.70000E+00
 -1      7410 1.82219E+01 3.21895E-01 2.38024E+00
 -1      7411 1.81519E+01 3.21895E-01 2.53560E+00
 -1      7412 1.84341E+01 2.14400E-01 2.22553E+00
 -1      7413 1.83640E+01 2.14400E-01 2.38090E+00
 -1      7414 1.83827E+01 5.36295E-01 2.47347E+00
 -1      7415 1.93325E+01 9.53792E-02 3.28560E+00
 -1      7416 1.92543E+01 9.53792E-02 3.26827E+00
 -1      7417 1.92419E+01 1.04818E-01 3.43137E+00
 -1      7418 1.93462E+01 2.00197E-01 3.36684E+00
 -1      7419 1.94777E+01 1.25042E-01 3.64989E+00
 -1      7420 1.95217E+01 1.25042E-01 3.62500E+00
 -1      7421 1.95217E+01 1.25042E-01 3.67500E+00
 -1      7422 1.88503E+01 1.50914E-01 4.30497E+00
 -1      7423 1.90147E+01 3.19314E-01 4.22100E+00
 -1      7424 1.89390E+01 1.50914E-01 4.28272E+00
 -1      7425 1.95156E+01 8.48619E-02 7.52500E+00
 -1      7426 1.94700E+01 8.48619E-02 7.55019E+00
 -1      7427 1.94701E+01 8.48619E-02 7.49980E+00
 -1      7428 1.52197E+01 6.78250E-01 5.00449E+00
 -1      7429 1.87809E+01 1.80634E-01 2.61856E+00
 -1      7430 1.88928E+01 1.80634E-01 2.64386E+00
 -1      7431 1.88368E+01 1.80634E-01 2.72583E+00
 -1      7432 1.95010E+01 9.45563E-01 8.69692E+00
 -1      7433 1.96652E+01 1.06830E+00 8.84192E+00
 -1      7434 1.89082E+01 1.67075E-01 9.09638E+00
 -1      7435 1.90421E+01 2.25179E-01 2.42102E+00
 -1      7436 1.46646E+01 5.62219E-01 4.77544E-01
 -1      7437 1.51259E+01 6.37746E-01 1.11587E+00
 -1      7438 2.06172E+01 2.60151E-01 3.67024E+00
 -1      7439 2.06777E+01 2.60151E-01 3.90393E+00
 -1      7440 2.05175E+01 2.60151E-01 3.79941E+00
 -1      7441 1.69895E+01 5.05849E-01 5.70325E+00
 -1      7442 1.69162E+01 5.05849E-01 6.05237E+00
 -1      7443 1.66039E+01 5.05849E-01 5.85762E+00
 -1      7444 1.95156E+01 8.48619E-02 7.57500E+00
 -1      7445 1.94702E+01 8.48619E-02 7.59978E+00
 -1      7446 2.02997E+01 2.84853E-01 3.39883E+00
 -1      7447 2.00188E+01 1.22250E-01 3.54973E+00
 -1      7448 1.98167E+01 1.70058E-01 9.66770E+00
 -1      7449 1.98971E+01 1.70058E-01 9.66886E+00
 -1      7450 1.98287E+01 1.70058E-01 9.74856E+00
 -1      7451 1.85847E+01 1.89238E-01 3.89244E+00
 -1      7452 1.84702E+01 1.89238E-01 3.76569E+00
 -1      7453 1.86451E+01 1.89238E-01 3.73989E+00
 -1      7454 1.84962E+01 2.07377E-01 5.55164E+00
 -1      7455 1.83995E+01 6.12855E-01 5.38194E+00
 -1      7456 1.83714E+01 2.17748E-01 5.74530E+00
 -1      7457 1.82746E+01 6.23225E-01 5.57560E+00
 -1      7458 1.85540E+01 4.25125E-01 5.75114E+00
 -1      7459 1.93587E+01 8.46620E-01 4.11408E+00
 -1      7460 1.92990E+01 1.00864E+00 3.91513E+00
 -1      7461 1.93305E+01 7.75111E-01 3.84963E+00
 -1      7462 1.91884E+01 9.36352E-01 4.06382E+00
 -1      7463 1.93901E+01 6.13090E-01 4.04858E+00
 -1      7464 1.81710E+01 1.07130E+00 2.73250E+00
 -1      7465 1.83715E+01 8.81365E-01 3.06505E+00
 -1      7466 1.83647E+01 1.26474E+00 3.35416E+00
 -1      7467 1.99430E+01 1.45021E-01 7.78924E+00
 -1      7468 1.98621E+01 1.45021E-01 7.80878E+00
 -1      7469 1.99926E+01 1.64754E-01 7.95430E+00
 -1      7470 1.99117E+01 1.64754E-01 7.97384E+00
 -1      7471 1.98313E+01 3.09776E-01 7.90789E+00
 -1      7472 1.93954E+01 5.16397E-01 8.20226E+00
 -1      7473 1.90256E+01 2.25366E-01 7.98098E+00
 -1      7474 1.92474E+01 5.36159E-01 5.29785E+00
 -1      7475 1.92005E+01 5.17016E-01 5.06879E+00
 -1      7476 1.90504E+01 4.40231E-01 5.20693E+00
 -1      7477 1.73443E+01 2.65355E-01 6.17466E+00
 -1      7478 1.72710E+01 2.65355E-01 6.52378E+00
 -1      7479 1.73575E+01 7.71205E-01 5.98964E+00
 -1      7480 1.85821E+01 4.19240E-01 5.34807E+00
 -1      7481 1.50727E+01 2.16550E+00 6.99394E+00
 -1      7482 1.58271E+01 2.79472E+00 7.32389E+00
 -1      7483 2.90821E+01 1.17016E+01 2.50000E+00
 -1      7484 1.92901E+01 8.72568E-02 7.58029E+00
 -1      7485 1.93333E+01 8.72568E-02 7.60357E+00
 -1      7486 1.92844E+01 8.72568E-02 7.62838E+00
 -1      7487 1.85621E+01 2.41899E-01 7.18144E+00
 -1      7488 1.85366E+01 2.41899E-01 7.07199E+00
 -1      7489 1.86840E+01 4.67324E-01 7.14576E+00
 -1      7490 1.96144E+01 2.56655E-01 2.46494E+00
 -1      7491 1.95740E+01 4.07032E-01 2.44201E+00
 -1      7492 1.95162E+01 4.09786E-01 2.57293E+00
 -1      7493 1.96912E+01 2.69767E-01 2.65960E+00
 -1      7494 1.96508E+01 4.20145E-01 2.63667E+00
 -1      7495 1.97489E+01 2.67014E-01 2.52868E+00
 -1      7496 1.93116E+01 8.47418E-02 6.42219E+00
 -1      7497 1.92936E+01 8.47418E-02 6.37349E+00
 -1      7498 1.93521E+01 8.47418E-02 6.39719E+00
 -1      7499 1.84732E+01 1.79500E-01 8.62600E+00
 -1      7500 1.86271E+01 1.79500E-01 8.69607E+00
 -1      7501 1.84902E+01 1.79500E-01 8.79367E+00
 -1      7502 2.03547E+01 4.10559E+00 6.82901E+00
 -1      7503 2.04991E+01 5.70631E+00 7.26171E+00
 -1      7504 6.40692E+00 2.19703E+01 7.50739E+00
 -1      7505 8.68629E+00 2.12159E+01 2.50739E+00
 -1      7506 6.40692E+00 2.19703E+01 2.50739E+00
 -1      7507 1.90926E+01 1.42500E-01 2.30129E+00
 -1      7508 1.96575E+01 1.45763E-01 1.44887E+00
 -1      7509 4.22014E+01 2.12185E+01 7.49162E+00
 -1      7510 1.93892E+01 1.02438E-01 8.70924E-01
 -1      7511 1.94386E+01 1.02438E-01 8.49824E-01
 -1      7512 1.94388E+01 1.02438E-01 9.00209E-01
 -1      7513 1.82142E+01 5.64068E-01 7.34685E+00
 -1      7514 1.83443E+01 7.77317E-01 7.27623E+00
 -1      7515 1.80809E+01 7.79627E-01 7.04019E+00
 -1      7516 1.77902E+01 6.46648E-01 7.36981E+00
 -1      7517 1.79508E+01 5.66377E-01 7.11081E+00
 -1      7518 2.51817E+01 2.24589E+00 8.53071E+00
 -1      7519 2.60722E+01 8.09734E-01 8.87478E+00
 -1      7520 2.72554E+01 2.35666E+00 8.51214E+00
 -1      7521 1.91122E+01 1.83947E-01 3.27009E+00
 -1      7522 1.91000E+01 1.83947E-01 3.36972E+00
 -1      7523 1.92043E+01 2.79327E-01 3.30520E+00
 -1      7524 1.92666E+01 9.53792E-02 3.16864E+00
 -1      7525 1.91053E+01 7.20435E-01 3.66813E+00
 -1      7526 1.92918E+01 8.32972E-01 3.48133E+00
 -1      7527 1.89560E+01 7.06008E-01 3.44851E+00
 -1      7528 1.89632E+01 8.81677E-01 3.88231E+00
 -1      7529 1.91497E+01 9.94213E-01 3.69552E+00
 -1      7530 1.96128E+01 8.62872E-02 7.89711E+00
 -1      7531 1.95695E+01 8.62872E-02 7.87130E+00
 -1      7532 1.96051E+01 8.62872E-02 7.85138E+00
 -1      7533 1.89722E+01 1.31739E-01 7.48059E+00
 -1      7534 1.98789E+01 3.66734E-01 4.44729E+00
 -1      7535 1.96477E+01 3.26477E-01 4.54274E+00
 -1      7536 1.98094E+01 3.07987E-01 4.72955E+00
 -1      7537 1.61278E+01 1.61901E+00 3.60967E+00
 -1      7538 1.86665E+01 2.00981E-01 6.74916E+00
 -1      7539 1.87512E+01 2.00981E-01 6.82812E+00
 -1      7540 1.86617E+01 2.00981E-01 6.89006E+00
 -1      7541 2.29527E+01 1.28579E+01 2.50000E+00
 -1      7542 2.11089E+01 1.10576E+01 1.56393E+00
 -1      7543 1.83848E+01 1.55530E+00 2.84624E+00
 -1      7544 1.86587E+01 1.59065E+00 2.34118E+00
 -1      7545 1.88524E+01 1.78410E+00 2.96284E+00
 -1      7546 1.94433E+01 1.39379E-01 7.00000E-01
 -1      7547 1.49448E+01 8.44232E-01 2.43899E+00
 -1      7548 1.48761E+01 2.44206E+00 2.48043E+00
 -1      7549 2.17541E+01 4.60569E+00 8.85401E+00
 -1      7550 2.29979E+01 5.55394E+00 8.47326E+00
 -1      7551 2.20991E+01 6.32578E+00 8.47326E+00
 -1      7552 2.24830E+01 5.05481E+00 7.32728E+00
 -1      7553 1.98907E+01 1.45021E-01 7.70784E+00
 -1      7554 2.00529E+01 1.70659E-01 7.65402E+00
 -1      7555 1.98916E+01 3.15680E-01 7.60762E+00
 -1      7556 2.00005E+01 1.70659E-01 7.57263E+00
 -1      7557 1.92100E+01 1.04818E-01 3.52773E+00
 -1      7558 1.92740E+01 1.04818E-01 3.58355E+00
 -1      7559 1.92969E+01 2.09835E-01 3.64153E+00
 -1      7560 1.94266E+01 2.27269E+00 2.22491E+00
 -1      7561 1.91691E+01 2.48199E+00 2.65246E+00
 -1      7562 1.91300E+01 1.86536E+00 2.02737E+00
 -1      7563 1.96575E+01 1.62752E+00 1.91903E+00
 -1      7564 1.94000E+01 1.83682E+00 2.34658E+00
 -1      7565 1.96966E+01 2.24415E+00 2.54412E+00
 -1      7566 2.18784E+01 8.81908E+00 2.50000E+00
 -1      7567 2.06476E+01 9.57580E+00 1.56393E+00
 -1      7568 2.17375E+01 8.05730E+00 1.23584E+00
 -1      7569 2.10309E+01 8.19399E+00 2.79976E+00
 -1      7570 2.22618E+01 7.43726E+00 3.73584E+00
 -1      7571 2.94954E+01 5.00000E-01 7.55149E+00
 -1      7572 1.85083E+01 6.85285E-01 2.76035E+00
 -1      7573 1.83077E+01 8.75221E-01 2.42780E+00
 -1      7574 1.80338E+01 8.39870E-01 2.93287E+00
 -1      7575 1.94856E+01 8.52199E-02 8.12500E+00
 -1      7576 1.94481E+01 8.52199E-02 8.09863E+00
 -1      7577 1.94856E+01 8.52199E-02 8.07500E+00
 -1      7578 2.58019E+01 3.14199E+00 8.53071E+00
 -1      7579 1.90802E+01 7.02452E-01 6.27679E+00
 -1      7580 1.94042E+01 6.88831E-01 6.27922E+00
 -1      7581 1.92055E+01 6.94621E-01 6.53322E+00
 -1      7582 1.93651E+01 2.32912E-01 8.20226E+00
 -1      7583 1.93876E+01 8.69324E-02 1.87649E+00
 -1      7584 1.93854E+01 8.69324E-02 1.82140E+00
 -1      7585 1.94404E+01 8.69324E-02 1.85020E+00
 -1      7586 1.96388E+01 2.67715E-01 9.13829E-01
 -1      7587 1.95874E+01 3.94085E-01 8.38778E-01
 -1      7588 1.97516E+01 2.87239E-01 1.01687E+00
 -1      7589 1.67655E+01 3.39395E-01 2.61911E-01
 -1      7590 1.71297E+01 3.93010E-01 6.41268E-01
 -1      7591 1.99508E+01 1.68643E-01 3.84555E+00
 -1      7592 2.00941E+01 1.68643E-01 3.85307E+00
 -1      7593 1.99445E+01 1.22250E-01 3.66773E+00
 -1      7594 2.00879E+01 1.22250E-01 3.67526E+00
 -1      7595 1.98925E+01 2.90892E-01 3.78358E+00
 -1      7596 2.06226E+01 2.42315E-01 9.48508E+00
 -1      7597 2.04383E+01 2.42315E-01 9.50248E+00
 -1      7598 1.90728E+01 1.98442E-01 8.65475E+00
 -1      7599 1.90744E+01 1.98442E-01 8.75120E+00
 -1      7600 1.89858E+01 1.98442E-01 8.69672E+00
 -1      7601 1.95178E+01 7.11080E-02 4.02500E+00
 -1      7602 1.94643E+01 7.11080E-02 4.00138E+00
 -1      7603 1.95178E+01 7.11080E-02 3.97500E+00
 -1      7604 1.91817E+01 2.57068E-01 1.18536E+00
 -1      7605 1.91337E+01 1.17912E+00 6.38482E+00
 -1      7606 1.89949E+01 1.05613E+00 6.82052E+00
 -1      7607 1.89919E+01 8.94026E-01 6.63797E+00
 -1      7608 1.93106E+01 1.01433E+00 4.33966E+00
 -1      7609 1.95124E+01 6.91072E-01 4.32442E+00
 -1      7610 1.93421E+01 7.80804E-01 4.27416E+00
 -1      7611 2.13941E+01 1.77817E+00 3.61809E+00
 -1      7612 2.10022E+01 1.84566E+00 4.46102E+00
 -1      7613 2.18599E+01 1.50578E+00 3.94565E+00
 -1      7614 2.15640E+01 2.14455E+00 3.03644E+00
 -1      7615 2.11722E+01 2.21204E+00 3.87937E+00
 -1      7616 2.07064E+01 2.48443E+00 3.55181E+00
 -1      7617 1.94346E+01 8.47687E-02 9.34808E+00
 -1      7618 1.93843E+01 8.47687E-02 9.37195E+00
 -1      7619 1.93879E+01 8.47687E-02 9.32263E+00
 -1      7620 1.84049E+01 2.11863E-01 5.18153E+00
 -1      7621 1.93982E+01 7.54188E-02 4.32499E+00
 -1      7622 1.94436E+01 7.54188E-02 4.34977E+00
 -1      7623 1.94003E+01 7.54188E-02 4.37477E+00
 -1      7624 2.05180E+01 1.73795E+00 8.33422E+00
 -1      7625 2.02286E+01 2.02404E+00 7.84028E+00
 -1      7626 2.03741E+01 1.52678E+00 7.44544E+00
 -1      7627 2.02977E+01 1.31706E+00 8.02945E+00
 -1      7628 2.00082E+01 1.60315E+00 7.53550E+00
 -1      7629 2.01521E+01 1.81432E+00 8.42429E+00
 -1      7630 1.94411E+01 9.36059E-02 7.39980E+00
 -1      7631 1.89575E+01 2.25179E-01 2.37321E+00
 -1      7632 1.81142E+01 1.02031E+00 5.59881E-01
 -1      7633 1.79322E+01 9.39883E-01 9.39238E-01
 -1      7634 1.76033E+01 8.66443E-01 3.79357E-01
 -1      7635 1.78585E+01 7.57840E-01 2.74292E-01
 -1      7636 1.76765E+01 6.77416E-01 6.53648E-01
 -1      7637 1.81874E+01 8.31280E-01 8.34173E-01
 -1      7638 3.86011E+00 2.19703E+01 2.45488E+00
 -1      7639 3.86011E+00 2.19703E+01 7.45488E+00
 -1      7640 2.33498E+01 6.61592E+00 8.47326E+00
 -1      7641 2.30647E+01 7.10105E+00 5.97326E+00
 -1      7642 2.26878E+01 7.71391E+00 7.50000E+00
 -1      7643 2.43156E+01 8.23943E+00 8.31678E+00
 -1      7644 2.40304E+01 8.72456E+00 5.81677E+00
 -1      7645 2.46925E+01 7.62657E+00 6.79004E+00
 -1      7646 1.97848E+01 1.29168E-01 5.43237E+00
 -1      7647 1.97290E+01 1.29168E-01 5.34005E+00
 -1      7648 1.97963E+01 9.47220E-02 5.55127E+00
 -1      7649 1.97405E+01 9.47220E-02 5.45895E+00
 -1      7650 1.96616E+01 2.23890E-01 5.45973E+00
 -1      7651 1.96878E+01 2.56895E-01 6.51537E+00
 -1      7652 1.96390E+01 4.08348E-01 6.38914E+00
 -1      7653 1.98795E+01 3.33136E-01 6.57772E+00
 -1      7654 2.10809E+01 7.75256E+00 5.90769E+00
 -1      7655 2.13660E+01 7.26743E+00 8.40769E+00
 -1      7656 2.17429E+01 6.65456E+00 6.88096E+00
 -1      7657 2.14550E+01 1.18621E+00 6.16193E-01
 -1      7658 2.11948E+01 9.24629E-01 4.35629E-01
 -1      7659 1.93424E+01 8.61405E-02 9.50465E+00
 -1      7660 1.93097E+01 8.61405E-02 9.55414E+00
 -1      7661 1.92925E+01 8.61405E-02 9.48253E+00
 -1      7662 1.78852E+01 2.89588E-01 2.02013E+00
 -1      7663 1.80747E+01 2.89588E-01 2.01462E+00
 -1      7664 1.80046E+01 2.89588E-01 2.16998E+00
 -1      7665 1.39623E+01 6.93889E+00 8.34513E+00
 -1      7666 1.27099E+01 8.97974E+00 7.62477E+00
 -1      7667 1.94390E+01 8.24315E-02 5.79695E+00
 -1      7668 1.94864E+01 8.24315E-02 5.77500E+00
 -1      7669 1.94864E+01 8.24315E-02 5.82500E+00
 -1      7670 1.95206E+01 3.25124E-01 6.67522E+00
 -1      7671 1.95217E+01 1.01578E-01 1.02500E+00
 -1      7672 1.94706E+01 1.01578E-01 1.05141E+00
 -1      7673 1.94764E+01 1.01578E-01 1.00021E+00
 -1      7674 1.93937E+01 1.03792E-01 4.52180E+00
 -1      7675 1.94336E+01 1.03792E-01 4.54890E+00
 -1      7676 1.93699E+01 1.03792E-01 4.56343E+00
 -1      7677 1.33929E+01 5.55880E+00 8.34513E+00
 -1      7678 1.21406E+01 7.59965E+00 7.62477E+00
 -1      7679 1.83090E+01 2.72987E-01 8.01170E+00
 -1      7680 1.32972E+01 1.05317E+01 7.62477E+00
 -1      7681 1.64564E+01 7.74779E-01 4.54476E+00
 -1      7682 2.57180E+01 3.92716E+00 6.04065E+00
 -1      7683 2.69761E+01 5.12516E+00 7.50994E+00
 -1      7684 2.53473E+01 5.49254E+00 5.98321E+00
 -1      7685 1.99910E+01 3.64652E+00 5.24157E+00
 -1      7686 2.10121E+01 4.40492E+00 4.80812E+00
 -1      7687 2.04912E+01 4.86302E+00 5.51655E+00
 -1      7688 1.99734E+01 3.61413E+00 6.53281E+00
 -1      7689 2.09945E+01 4.37253E+00 6.09936E+00
 -1      7690 2.04942E+01 3.15603E+00 5.82439E+00
 -1      7691 1.23251E+01 2.94260E+00 4.70115E+00
 -1      7692 1.26938E+01 1.51553E+00 5.52294E+00
 -1      7693 6.79441E+00 7.12489E+00 2.18811E+00
 -1      7694 8.96880E+00 7.65263E+00 2.50000E+00
 -1      7695 7.68048E+00 1.10958E+01 2.50000E+00
 -1      7696 1.92806E+01 1.09555E-01 1.81956E+00
 -1      7697 1.89837E+01 2.02224E-01 5.61680E+00
 -1      7698 1.90771E+01 2.02224E-01 5.70285E+00
 -1      7699 1.89727E+01 2.02224E-01 5.75579E+00
 -1      7700 8.70832E+00 1.38821E+00 6.12121E+00
 -1      7701 9.48369E+00 1.38821E+00 6.73393E+00
 -1      7702 1.94913E+01 4.32465E-01 5.75000E+00
 -1      7703 1.97673E+01 4.23597E-01 5.62736E+00
 -1      7704 1.10703E+01 1.65928E+01 2.50000E+00
 -1      7705 8.68629E+00 2.12159E+01 7.50739E+00
 -1      7706 1.10703E+01 1.65928E+01 7.50000E+00
 -1      7707 1.86987E+01 1.98924E-01 7.52995E+00
 -1      7708 1.85756E+01 1.98924E-01 7.56720E+00
 -1      7709 1.86221E+01 1.98924E-01 7.39640E+00
 -1      7710 1.94847E+01 7.19181E-02 6.42414E+00
 -1      7711 1.94847E+01 7.19181E-02 6.37414E+00
 -1      7712 1.95280E+01 7.19181E-02 6.39914E+00
 -1      7713 1.94357E+01 1.03584E-01 9.49887E+00
 -1      7714 1.83090E+01 2.41899E-01 6.80935E+00
 -1      7715 1.83023E+01 2.41899E-01 7.02348E+00
 -1      7716 1.81115E+01 2.41899E-01 6.89077E+00
 -1      7717 1.89413E+01 1.80634E-01 2.72626E+00
 -1      7718 1.97153E+01 1.32494E-01 2.90691E-01
 -1      7719 1.96495E+01 1.32494E-01 2.76232E-01
 -1      7720 1.96786E+01 1.32494E-01 2.21251E-01
 -1      7721 1.99186E+01 1.02061E+00 5.61489E+00
 -1      7722 2.02050E+01 7.82661E-01 5.71863E+00
 -1      7723 1.95680E+01 9.16255E-01 5.22378E+00
 -1      7724 1.98545E+01 6.78308E-01 5.32751E+00
 -1      7725 2.00418E+01 9.26127E-01 5.44143E+00
 -1      7726 2.08480E+01 3.13357E-01 5.75787E+00
 -1      7727 2.06571E+01 2.26026E-01 5.24180E+00
 -1      7728 1.93473E+01 9.79720E-01 6.28007E+00
 -1      7729 1.74570E+01 3.24479E-01 7.25600E+00
 -1      7730 1.74799E+01 3.24479E-01 7.47857E+00
 -1      7731 1.38175E+01 4.61656E+00 2.72029E+00
 -1      7732 1.51160E+01 3.43556E+00 3.20585E+00
 -1      7733 1.52592E+01 3.13194E+00 1.93770E+00
 -1      7734 1.94399E+01 8.52199E-02 8.19981E+00
 -1      7735 1.92906E+01 4.78512E-01 5.76739E+00
 -1      7736 1.95756E+01 1.14430E-01 2.02513E+00
 -1      7737 1.95297E+01 1.14430E-01 2.05012E+00
 -1      7738 1.95297E+01 1.14430E-01 2.00012E+00
 -1      7739 1.18890E+01 1.51553E+00 5.84627E+00
 -1      7740 1.26422E+01 1.51553E+00 6.18751E+00
 -1      7741 2.02826E+01 1.77718E-01 2.64828E+00
 -1      7742 2.02523E+01 1.77718E-01 2.53296E+00
 -1      7743 2.03650E+01 1.77718E-01 2.51459E+00
 -1      7744 2.46906E+00 1.44118E+01 2.50881E+00
 -1      7745 2.04009E+00 1.73462E+01 2.50881E+00
 -1      7746 3.77611E+00 1.34297E+01 5.00881E+00
 -1      7747 6.24516E+00 1.30897E+01 2.50000E+00
 -1      7748 1.94531E+01 1.83957E+00 8.17761E+00
 -1      7749 1.91660E+01 2.03612E+00 7.84774E+00
 -1      7750 1.91507E+01 1.52442E+00 8.37535E+00
 -1      7751 1.91034E+01 1.69150E+00 8.86451E+00
 -1      7752 1.88163E+01 1.88805E+00 8.53464E+00
 -1      7753 1.91187E+01 2.20320E+00 8.33690E+00
 -1      7754 2.46906E+00 1.44118E+01 7.50881E+00
 -1      7755 2.04009E+00 1.73462E+01 7.50881E+00
 -1      7756 6.24516E+00 1.30897E+01 7.50000E+00
 -1      7757 1.36372E+01 2.30660E+00 1.05755E+00
 -1      7758 1.47918E+01 2.23557E+00 1.69588E+00
 -1      7759 1.92016E+01 2.25602E-01 7.37696E+00
 -1      7760 1.92024E+01 9.38630E-02 7.23855E+00
 -1      7761 1.91233E+01 2.41436E-01 7.29172E+00
 -1      7762 1.92291E+01 2.03559E-01 7.15584E+00
 -1      7763 1.84959E+01 5.70587E-01 1.14878E+00
 -1      7764 2.50415E+01 1.49487E+01 7.50000E+00
 -1      7765 2.72913E+01 1.63440E+01 7.50000E+00
 -1      7766 2.67534E+01 1.46998E+01 8.31915E+00
 -1      7767 1.32775E+01 7.92931E-01 5.84368E+00
 -1      7768 1.95331E+01 8.64524E-02 9.00000E+00
 -1      7769 1.94898E+01 8.64524E-02 9.02500E+00
 -1      7770 1.94898E+01 8.64524E-02 8.97500E+00
 -1      7771 1.94363E+01 1.03792E-01 4.59880E+00
 -1      7772 2.18784E+01 8.81908E+00 7.50000E+00
 -1      7773 2.05566E+01 8.37259E+00 8.40769E+00
 -1      7774 2.00100E+01 1.56381E-01 1.50479E+00
 -1      7775 1.99540E+01 3.97545E-01 1.44400E+00
 -1      7776 2.00495E+01 1.56381E-01 1.63706E+00
 -1      7777 2.32212E+01 9.04830E+00 7.50000E+00
 -1      7778 1.92311E+01 1.05017E-01 3.81884E+00
 -1      7779 1.91424E+01 1.05017E-01 3.85437E+00
 -1      7780 2.34154E+01 2.21985E+00 3.93072E+00
 -1      7781 2.38137E+01 1.42048E+00 2.89050E+00
 -1      7782 2.30540E+01 1.96064E+00 3.40374E+00
 -1      7783 1.60276E+01 1.41548E+01 5.14520E+00
 -1      7784 1.96532E+01 2.93910E-01 6.79870E+00
 -1      7785 1.95920E+01 5.15804E-01 6.94833E+00
 -1      7786 1.98448E+01 3.70151E-01 6.86106E+00
 -1      7787 1.99005E+01 4.55068E+00 8.19186E-01
 -1      7788 2.02962E+01 4.07039E+00 1.96783E+00
 -1      7789 2.11677E+01 4.54807E+00 1.14864E+00
 -1      7790 2.04750E+01 4.72942E+00 1.66329E+00
 -1      7791 2.08708E+01 4.24913E+00 2.81194E+00
 -1      7792 1.96036E+01 4.25174E+00 2.48248E+00
 -1      7793 1.88417E+01 1.38042E-01 9.44555E+00
 -1      7794 1.87935E+01 1.38042E-01 9.33874E+00
 -1      7795 1.87143E+01 1.44395E-01 9.58058E+00
 -1      7796 1.86660E+01 1.44395E-01 9.47377E+00
 -1      7797 1.88216E+01 2.82437E-01 9.55332E+00
 -1      7798 1.05269E+01 1.34307E+01 5.00000E+00
 -1      7799 2.02977E+01 8.08620E-01 1.47822E+00
 -1      7800 2.02684E+01 7.83373E-01 2.09535E+00
 -1      7801 2.04171E+01 9.54666E-01 1.82608E+00
 -1      7802 2.01518E+01 1.08941E+00 1.39195E+00
 -1      7803 2.01226E+01 1.06416E+00 2.00909E+00
 -1      7804 2.00031E+01 9.18117E-01 1.66122E+00
 -1      7805 1.85712E+01 1.44395E-01 9.56489E+00
 -1      7806 1.94998E+01 9.51432E-01 7.85000E+00
 -1      7807 2.05998E+01 2.38897E-01 2.21425E+00
 -1      7808 2.07663E+01 2.38897E-01 2.31873E+00
 -1      7809 2.05443E+01 2.38897E-01 2.38924E+00
 -1      7810 1.37832E+01 1.06896E+00 3.77468E+00
 -1      7811 1.42156E+01 1.06896E+00 3.59291E+00
 -1      7812 1.42738E+01 2.66679E+00 3.12175E+00
 -1      7813 1.96990E+01 1.24759E-01 6.34722E+00
 -1      7814 1.96543E+01 1.24759E-01 6.31499E+00
 -1      7815 1.97304E+01 1.24759E-01 6.28326E+00
 -1      7816 2.56183E+01 1.43615E+00 6.11717E+00
 -1      7817 2.76919E+01 1.54692E+00 6.09860E+00
 -1      7818 1.88864E+01 1.38042E-01 9.53833E+00
 -1      7819 1.89424E+01 1.38042E-01 9.47360E+00
 -1      7820 1.89756E+01 1.38042E-01 9.56607E+00
 -1      7821 1.94708E+01 9.10081E-01 2.70000E+00
 -1      7822 1.95138E+01 9.51531E-01 2.97505E+00
 -1      7823 1.91559E+01 9.93389E-01 2.87127E+00
 -1      7824 3.68501E+01 1.71546E+01 8.61383E+00
 -1      7825 3.81038E+01 1.74916E+01 7.50000E+00
 -1      7826 3.61061E+01 2.14916E+01 7.47906E+00
 -1      7827 1.67199E+01 5.89808E-01 7.05154E+00
 -1      7828 1.71935E+01 3.24479E-01 7.16575E+00
 -1      7829 1.95297E+01 1.14430E-01 1.95012E+00
 -1      7830 1.87028E+01 1.75943E-01 7.90896E+00
 -1      7831 1.87156E+01 1.75943E-01 7.79155E+00
 -1      7832 1.88128E+01 1.75943E-01 7.85728E+00
 -1      7833 1.89947E+01 6.48147E-01 3.81681E+00
 -1      7834 1.90531E+01 1.37046E-01 3.19345E+00
 -1      7835 1.89694E+01 1.37046E-01 3.11306E+00
 -1      7836 1.90653E+01 1.37046E-01 3.09382E+00
 -1      7837 1.94997E+01 9.36759E-01 7.25000E+00
 -1      7838 1.96399E+01 6.25934E-01 7.07662E+00
 -1      7839 1.98255E+01 1.45021E-01 7.74404E+00
 -1      7840 1.71695E+01 9.41356E-01 4.80239E+00
 -1      7841 1.74348E+01 7.18819E-01 4.66417E+00
 -1      7842 1.78654E+01 1.09192E+00 8.40260E+00
 -1      7843 1.86492E+01 2.11863E-01 5.22285E+00
 -1      7844 1.85739E+01 2.11863E-01 5.11618E+00
 -1      7845 1.86980E+01 2.11863E-01 5.13893E+00
 -1      7846 2.93977E+01 8.66842E+00 2.50000E+00
 -1      7847 2.81636E+01 7.41061E+00 5.00994E+00
 -1      7848 2.82020E+01 6.23983E+00 2.50994E+00
 -1      7849 2.93757E+01 5.61206E+00 1.52360E+00
 -1      7850 2.81416E+01 4.35425E+00 4.03354E+00
 -1      7851 2.93373E+01 6.78284E+00 4.02360E+00
 -1      7852 2.00322E+01 2.13494E-01 2.98668E+00
 -1      7853 2.01373E+01 2.13494E-01 3.07438E+00
 -1      7854 1.99985E+01 2.13494E-01 3.11830E+00
 -1      7855 1.95360E+01 7.54065E-02 2.40139E+00
 -1      7856 1.94859E+01 7.54065E-02 2.42500E+00
 -1      7857 1.94859E+01 7.54065E-02 2.37500E+00
 -1      7858 1.90862E+01 1.39617E-01 6.76171E+00
 -1      7859 1.89979E+01 1.39617E-01 6.81716E+00
 -1      7860 1.91279E+01 2.49313E-01 6.88898E+00
 -1      7861 1.91091E+01 1.09696E-01 6.94334E+00
 -1      7862 1.03792E+01 4.37932E+00 2.50000E+00
 -1      7863 1.12674E+01 3.19581E+00 1.39736E+00
 -1      7864 2.87438E+01 1.29714E+01 5.00000E+00
 -1      7865 2.40828E+01 5.63780E+00 8.47326E+00
 -1      7866 1.96416E+01 2.68231E-01 7.06871E+00
 -1      7867 1.97205E+01 1.06457E-01 7.09412E+00
 -1      7868 1.97278E+01 2.10146E-01 7.25401E+00
 -1      7869 1.93860E+01 9.53792E-02 3.17687E+00
 -1      7870 1.94293E+01 9.53792E-02 3.15187E+00
 -1      7871 1.94293E+01 9.53792E-02 3.20187E+00
 -1      7872 1.91775E+01 1.09696E-01 7.04073E+00
 -1      7873 1.92258E+01 1.09696E-01 7.03314E+00
 -1      7874 1.92678E+01 1.70833E-01 6.98560E+00
 -1      7875 2.39510E+01 3.14944E+00 8.53071E+00
 -1      7876 2.35803E+01 4.71482E+00 8.47326E+00
 -1      7877 2.35337E+01 2.89389E+00 7.13433E+00
 -1      7878 2.31630E+01 4.45927E+00 7.07688E+00
 -1      7879 2.30166E+01 3.17102E+00 8.60362E+00
 -1      7880 1.89001E+01 4.53794E-01 1.39753E+00
 -1      7881 1.91130E+01 3.45440E-01 1.57702E+00
 -1      7882 1.90952E+01 6.19480E-01 1.49366E+00
 -1      7883 1.93082E+01 5.11126E-01 1.67315E+00
 -1      7884 1.91358E+01 4.95774E-01 1.69383E+00
 -1      7885 1.95142E+01 2.05111E-01 2.47293E+00
 -1      7886 1.84159E+01 1.55307E-01 2.75591E+00
 -1      7887 1.83109E+01 1.55307E-01 2.62513E+00
 -1      7888 1.84668E+01 1.55307E-01 2.61543E+00
 -1      7889 1.91099E+01 2.56792E-01 4.42456E+00
 -1      7890 1.92441E+01 1.05879E-01 4.36369E+00
 -1      7891 1.92961E+01 1.83699E-01 4.29651E+00
 -1      7892 1.86814E+01 5.26658E-01 9.20898E-01
 -1      7893 1.88985E+01 4.53030E-01 1.06676E+00
 -1      7894 1.97765E+01 2.08207E+00 7.30075E+00
 -1      7895 1.99204E+01 2.29324E+00 8.18953E+00
 -1      7896 1.97001E+01 1.87235E+00 7.88476E+00
 -1      7897 1.89040E+01 4.26406E-01 7.01422E+00
 -1      7898 1.62051E+01 4.96060E-01 1.79798E+00
 -1      7899 1.67655E+01 1.19060E+00 1.83865E+00
 -1      7900 1.66213E+01 4.96060E-01 1.76405E+00
 -1      7901 3.13463E+01 9.30103E+00 2.50000E+00
 -1      7902 3.08253E+01 8.01757E+00 2.50000E+00
 -1      7903 3.20534E+01 7.29313E+00 3.11508E+00
 -1      7904 3.00664E+01 7.83129E+00 5.61508E+00
 -1      7905 1.70665E+01 1.62275E+00 9.18393E+00
 -1      7906 1.74639E+01 1.34274E+00 8.55432E+00
 -1      7907 1.77717E+01 1.53660E+00 9.37039E+00
 -1      7908 1.72014E+01 1.31992E+00 9.47385E+00
 -1      7909 1.75987E+01 1.03990E+00 8.84424E+00
 -1      7910 1.98802E+01 1.68758E-01 2.23274E+00
 -1      7911 1.98705E+01 1.68758E-01 2.12270E+00
 -1      7912 1.99829E+01 1.68758E-01 2.16718E+00
 -1      7913 1.95744E+01 7.04922E-02 3.23059E+00
 -1      7914 1.96205E+01 7.04922E-02 3.25654E+00
 -1      7915 1.95744E+01 7.04922E-02 3.28059E+00
 -1      7916 1.98977E+01 2.30231E-01 9.34548E+00
 -1      7917 1.99075E+01 2.30231E-01 9.23231E+00
 -1      7918 2.00094E+01 2.30231E-01 9.29986E+00
 -1      7919 1.99317E+01 2.58544E-01 2.39516E+00
 -1      7920 1.94434E+01 1.03584E-01 9.55246E+00
 -1      7921 1.94525E+01 1.03584E-01 9.60043E+00
 -1      7922 1.94106E+01 1.03584E-01 9.60195E+00
 -1      7923 1.94394E+01 8.69324E-02 1.79979E+00
 -1      7924 1.87809E+01 7.91153E-01 2.97813E-01
 -1      7925 1.87204E+01 8.12045E-01 8.57694E-01
 -1      7926 1.85036E+01 1.07285E+00 5.59881E-01
 -1      7927 1.85337E+01 7.63889E-01 3.22220E-01
 -1      7928 1.84732E+01 7.84782E-01 8.82101E-01
 -1      7929 1.87505E+01 5.03080E-01 6.20033E-01
 -1      7930 1.92112E+01 1.17777E-01 8.53331E+00
 -1      7931 1.91299E+01 1.17777E-01 8.49023E+00
 -1      7932 1.92077E+01 1.17777E-01 8.44226E+00
 -1      7933 1.86891E+01 8.34722E-01 4.30878E+00
 -1      7934 1.86252E+01 7.41503E-01 4.57224E+00
 -1      7935 1.88725E+01 5.32505E-01 4.54619E+00
 -1      7936 1.90751E+01 7.61997E-01 4.62868E+00
 -1      7937 1.90112E+01 6.68778E-01 4.89214E+00
 -1      7938 1.88278E+01 9.70995E-01 4.65473E+00
 -1      7939 1.81596E+01 8.36461E-01 1.50835E+00
 -1      7940 1.74807E+01 9.84130E-01 1.66980E+00
 -1      7941 1.77642E+01 1.24142E+00 1.28121E+00
 -1      7942 1.80172E+01 8.28376E-01 1.24281E+00
 -1      7943 1.73383E+01 9.76045E-01 1.40427E+00
 -1      7944 1.77336E+01 5.71090E-01 1.63140E+00
 -1      7945 1.93336E+01 8.72568E-02 7.65316E+00
 -1      7946 1.94082E+01 5.02271E-01 1.50317E+00
 -1      7947 1.93642E+01 7.78206E-02 4.14504E+00
 -1      7948 1.94150E+01 7.78206E-02 4.11952E+00
 -1      7949 1.94150E+01 7.78206E-02 4.16953E+00
 -1      7950 1.95310E+01 8.52199E-02 8.15065E+00
 -1      7951 1.93914E+01 1.02438E-01 8.24826E-01
 -1      7952 2.78756E+01 3.25276E+00 8.51214E+00
 -1      7953 1.43185E+01 9.51667E-01 8.12173E+00
 -1      7954 1.44483E+01 1.51389E+00 8.78937E+00
 -1      7955 1.44476E+01 5.62219E-01 9.33236E+00
 -1      7956 1.48377E+01 6.97390E-01 8.68818E+00
 -1      7957 1.49674E+01 1.25961E+00 9.35581E+00
 -1      7958 1.48384E+01 1.64906E+00 8.14518E+00
 -1      7959 3.04503E+01 1.16802E+01 5.38068E+00
 -1      7960 2.98348E+01 1.48124E+01 5.38068E+00
 -1      7961 2.92969E+01 1.31682E+01 6.19983E+00
 -1      7962 1.96137E+01 1.12340E-01 8.00138E+00
 -1      7963 1.96657E+01 1.01278E+00 6.22663E+00
 -1      7964 1.95707E+01 8.43540E-01 6.10671E+00
 -1      7965 1.92979E+01 1.00415E+00 6.05802E+00
 -1      7966 1.92030E+01 8.34917E-01 5.93809E+00
 -1      7967 1.95213E+01 8.67974E-01 5.88465E+00
 -1      7968 1.91222E+01 1.39617E-01 6.59191E+00
 -1      7969 1.91613E+01 1.39617E-01 6.63237E+00
 -1      7970 1.92542E+01 8.47418E-02 6.50089E+00
 -1      7971 1.91979E+01 2.24359E-01 6.57587E+00
 -1      7972 1.92151E+01 8.47418E-02 6.46043E+00
 -1      7973 1.82810E+01 6.46090E-01 4.77062E+00
 -1      7974 1.80583E+01 4.05477E-01 4.94361E+00
 -1      7975 1.64017E+01 4.96060E-01 2.03342E+00
 -1      7976 2.01679E+01 3.18664E-01 1.67121E+00
 -1      7977 2.02713E+01 3.18664E-01 1.56586E+00
 -1      7978 2.03211E+01 3.18664E-01 1.73097E+00
 -1      7979 1.91530E+01 1.05879E-01 4.38679E+00
 -1      7980 1.95138E+01 8.87704E-02 3.82510E+00
 -1      7981 1.94705E+01 8.87704E-02 3.80010E+00
 -1      7982 1.95052E+01 8.87704E-02 3.78017E+00
 -1      7983 1.66692E+01 1.30425E+00 7.63660E+00
 -1      7984 1.95735E+01 1.01415E-01 4.17442E+00
 -1      7985 1.96596E+01 1.01415E-01 4.14012E+00
 -1      7986 1.96248E+01 1.01415E-01 4.19942E+00
 -1      7987 1.93686E+01 5.06829E-01 7.59847E+00
 -1      7988 1.93027E+01 7.37005E-01 7.38575E+00
 -1      7989 1.96088E+01 7.90857E-02 9.22064E+00
 -1      7990 1.95998E+01 7.90857E-02 9.26879E+00
 -1      7991 1.95650E+01 7.90857E-02 9.24648E+00
 -1      7992 1.95303E+01 8.69324E-02 1.89999E+00
 -1      7993 1.94848E+01 8.69324E-02 1.87500E+00
 -1      7994 1.95004E+01 3.34718E-01 8.35156E+00
 -1      7995 1.94861E+01 5.26811E-01 8.32486E+00
 -1      7996 1.93498E+01 3.05799E-01 8.37712E+00
 -1      7997 1.46700E+01 3.87019E+00 5.40933E+00
 -1      7998 1.55122E+01 4.63896E+00 5.49343E+00
 -1      7999 1.53060E+01 2.90670E+00 4.21250E+00
 -1      8000 1.40075E+01 4.08770E+00 3.72694E+00
 -1      8001 1.42137E+01 5.81996E+00 5.00787E+00
 -1      8002 1.89857E+01 1.39617E-01 6.60520E+00
 -1      8003 1.90849E+01 1.39617E-01 6.65344E+00
 -1      8004 1.89930E+01 1.39617E-01 6.71165E+00
 -1      8005 1.85650E+01 2.19643E-01 4.85398E+00
 -1      8006 1.86163E+01 2.19643E-01 4.66755E+00
 -1      8007 1.87329E+01 2.19643E-01 4.79494E+00
 -1      8008 1.91432E+01 1.31739E-01 7.45200E+00
 -1      8009 1.94346E+01 8.47687E-02 9.29808E+00
 -1      8010 1.90395E+01 4.86745E-01 5.46525E+00
 -1      8011 1.91497E+01 4.27179E-01 5.33147E+00
 -1      8012 2.50415E+01 1.49487E+01 2.50000E+00
 -1      8013 2.72913E+01 1.63440E+01 2.50000E+00
 -1      8014 1.83684E+01 2.86676E-01 1.61195E+00
 -1      8015 1.82870E+01 2.86676E-01 1.74916E+00
 -1      8016 1.82362E+01 2.86676E-01 1.60611E+00
 -1      8017 1.79859E+01 7.27962E-01 5.52678E+00
 -1      8018 1.95160E+01 9.54616E-02 1.27500E+00
 -1      8019 1.95612E+01 9.54616E-02 1.29999E+00
 -1      8020 1.95160E+01 9.54616E-02 1.32500E+00
 -1      8021 2.82020E+01 6.23983E+00 7.50994E+00
 -1      8022 2.63212E+01 7.25919E+00 8.31678E+00
 -1      8023 2.63131E+01 7.11605E+00 5.82672E+00
 -1      8024 2.75471E+01 8.37387E+00 8.31678E+00
 -1      8025 1.59248E+01 6.37746E-01 1.08408E+00
 -1      8026 1.60964E+01 9.77141E-01 6.38326E-01
 -1      8027 1.62927E+01 1.33229E+00 1.35966E+00
 -1      8028 1.74974E+01 4.63628E-01 7.94390E+00
 -1      8029 1.90759E+01 1.70249E-01 4.67218E+00
 -1      8030 1.91068E+01 1.70249E-01 4.57330E+00
 -1      8031 1.91926E+01 1.70249E-01 4.64687E+00
 -1      8032 1.94902E+01 5.63713E-02 7.17500E+00
 -1      8033 1.95256E+01 5.63713E-02 7.19867E+00
 -1      8034 1.94902E+01 5.63713E-02 7.22500E+00
 -1      8035 1.94273E+01 9.47713E-02 1.28103E+00
 -1      8036 1.93828E+01 9.47713E-02 1.25630E+00
 -1      8037 1.94273E+01 9.47713E-02 1.23103E+00
 -1      8038 1.92451E+01 3.63840E-01 3.40513E+00
 -1      8039 1.91977E+01 3.92709E-01 3.57885E+00
 -1      8040 1.92914E+01 5.89165E-01 3.33267E+00
 -1      8041 1.92440E+01 6.18033E-01 3.50639E+00
 -1      8042 1.90963E+01 5.93220E-01 3.33418E+00
 -1      8043 1.97676E+01 1.26950E-01 2.36735E+00
 -1      8044 1.96968E+01 1.26950E-01 2.42556E+00
 -1      8045 1.97736E+01 1.40063E-01 2.62021E+00
 -1      8046 1.89098E+01 1.78688E-01 6.06513E+00
 -1      8047 1.87782E+01 1.78688E-01 6.01620E+00
 -1      8048 1.89033E+01 1.78688E-01 5.94622E+00
 -1      8049 1.91590E+01 3.73058E-01 8.08965E+00
 -1      8050 1.92888E+01 4.23163E-01 7.88740E+00
 -1      8051 1.83710E+01 2.17748E-01 5.89577E+00
 -1      8052 1.82149E+01 2.17748E-01 5.81544E+00
 -1      8053 2.24341E+01 4.01014E+00 8.60362E+00
 -1      8054 1.86579E+01 5.75426E-01 1.42492E+00
 -1      8055 1.69703E+01 4.11610E-01 8.50589E+00
 -1      8056 1.69945E+01 4.11610E-01 8.79483E+00
 -1      8057 1.96263E+01 7.32188E-02 1.45038E+00
 -1      8058 1.95905E+01 2.18982E-01 1.49925E+00
 -1      8059 1.96190E+01 7.32188E-02 1.49550E+00
 -1      8060 1.73118E+01 5.68918E+00 2.67915E+00
 -1      8061 1.66883E+01 5.06948E+00 2.19477E+00
 -1      8062 1.93749E+01 1.27440E-01 9.72349E+00
 -1      8063 1.94167E+01 1.27440E-01 9.72198E+00
 -1      8064 1.94119E+01 1.27440E-01 9.76849E+00
 -1      8065 1.98423E+01 1.70058E-01 9.60110E+00
 -1      8066 2.05359E+01 1.27684E+00 9.47882E+00
 -1      8067 2.03935E+01 1.59423E+00 8.84336E+00
 -1      8068 2.05148E+01 1.91781E+00 9.36453E+00
 -1      8069 2.10671E+01 1.25072E+00 9.54567E+00
 -1      8070 2.09247E+01 1.56811E+00 8.91020E+00
 -1      8071 2.09458E+01 9.27131E-01 9.02450E+00
 -1      8072 1.95594E+01 4.67061E-01 4.29877E+00
 -1      8073 1.97906E+01 5.07318E-01 4.20331E+00
 -1      8074 4.50888E+01 1.74618E+01 1.95414E+00
 -1      8075 4.64822E+01 2.22132E+01 2.54483E+00
 -1      8076 2.04690E+01 1.84976E-01 9.85327E+00
 -1      8077 2.06533E+01 1.84976E-01 9.83587E+00
 -1      8078 2.03929E+01 4.27290E-01 9.64921E+00
 -1      8079 1.92519E+01 1.29793E+00 6.12352E+00
 -1      8080 1.90610E+01 1.54901E+00 6.41190E+00
 -1      8081 1.92513E+01 1.40005E+00 6.68838E+00
 -1      8082 1.97282E+01 1.40557E+00 6.28277E+00
 -1      8083 1.95372E+01 1.65666E+00 6.57115E+00
 -1      8084 1.95379E+01 1.55454E+00 6.00629E+00
 -1      8085 1.96000E+01 1.32494E-01 2.72771E-01
 -1      8086 1.96049E+01 1.32494E-01 3.22889E-01
 -1      8087 1.95616E+01 1.32494E-01 2.97889E-01
 -1      8088 1.83300E+01 2.72987E-01 8.38972E+00
 -1      8089 1.94426E+01 1.07298E-01 1.59999E+00
 -1      8090 1.94856E+01 1.07298E-01 1.62500E+00
 -1      8091 1.91370E+01 3.81149E-01 2.60980E+00
 -1      8092 1.94867E+01 7.32188E-02 1.52538E+00
 -1      8093 1.95296E+01 7.32188E-02 1.50038E+00
 -1      8094 1.95296E+01 7.32188E-02 1.55038E+00
 -1      8095 1.93521E+01 8.47418E-02 6.44719E+00
 -1      8096 1.88775E+01 2.25179E-01 2.46111E+00
 -1      8097 1.93934E+01 9.40750E-02 2.60358E+00
 -1      8098 1.95844E+01 3.58925E-01 7.65387E+00
 -1      8099 1.95453E+01 4.46655E-01 7.47891E+00
 -1      8100 1.96502E+01 3.42818E-01 7.79642E+00
 -1      8101 1.96111E+01 4.30548E-01 7.62146E+00
 -1      8102 1.97159E+01 3.06150E-01 7.60029E+00
 -1      8103 1.90065E+01 4.36827E-01 6.55039E+00
 -1      8104 1.92462E+01 3.32605E-01 6.70351E+00
 -1      8105 1.91336E+01 2.91363E-01 6.55316E+00
 -1      8106 1.95307E+01 8.52199E-02 8.10001E+00
 -1      8107 2.02937E+01 1.48824E+00 1.06604E+00
 -1      8108 2.03991E+01 1.79850E+00 4.61566E-01
 -1      8109 2.09129E+01 1.60370E+00 1.07776E+00
 -1      8110 1.97377E+01 5.27520E-01 3.85995E+00
 -1      8111 1.96780E+01 6.89541E-01 3.66100E+00
 -1      8112 1.98015E+01 9.56565E-01 3.94256E+00
 -1      8113 2.00384E+01 7.98706E-01 3.90262E+00
 -1      8114 1.98612E+01 7.94543E-01 4.14151E+00
 -1      8115 2.02955E+01 1.70659E-01 7.43472E+00
 -1      8116 2.01342E+01 1.70659E-01 7.54428E+00
 -1      8117 2.01316E+01 1.70659E-01 7.36497E+00
 -1      8118 1.83576E+01 1.76375E+00 8.32904E-01
 -1      8119 1.84878E+01 1.42512E+00 1.39278E+00
 -1      8120 1.83129E+01 1.43238E+00 5.59881E-01
 -1      8121 1.86170E+01 1.66450E+00 4.38882E-01
 -1      8122 1.87472E+01 1.32587E+00 9.98763E-01
 -1      8123 1.87919E+01 1.65724E+00 1.27179E+00
 -1      8124 1.95327E+01 7.54065E-02 2.29987E+00
 -1      8125 1.94859E+01 7.54065E-02 2.32500E+00
 -1      8126 1.94859E+01 7.54065E-02 2.27500E+00
 -1      8127 3.44210E+01 1.86919E+01 7.50000E+00
 -1      8128 1.94595E+01 4.21532E-01 4.17445E+00
 -1      8129 2.61663E+01 6.77482E+00 4.13922E+00
 -1      8130 2.74004E+01 8.03264E+00 1.62927E+00
 -1      8131 1.95255E+01 1.03792E-01 4.55000E+00
 -1      8132 2.19192E+01 3.51102E+00 7.45763E+00
 -1      8133 1.89039E+01 1.50914E-01 4.37576E+00
 -1      8134 1.87944E+01 1.50914E-01 4.37921E+00
 -1      8135 1.89983E+01 1.67075E-01 8.91688E+00
 -1      8136 1.90017E+01 1.67075E-01 9.02375E+00
 -1      8137 1.88951E+01 1.67075E-01 8.97312E+00
 -1      8138 1.80083E+01 1.24401E+00 5.25262E+00
 -1      8139 1.81692E+01 1.36039E+00 4.81683E+00
 -1      8140 1.76165E+01 1.27404E+00 4.69269E+00
 -1      8141 1.93668E+01 6.41042E-01 7.84195E+00
 -1      8142 1.93277E+01 7.28772E-01 7.66700E+00
 -1      8143 3.01731E+01 1.35426E+01 2.88068E+00
 -1      8144 1.98681E+01 3.57457E-01 3.15811E+00
 -1      8145 2.02093E+01 4.98347E-01 3.13637E+00
 -1      8146 1.91962E+01 4.82564E-01 8.48123E+00
 -1      8147 1.91056E+01 4.72149E-01 8.35862E+00
 -1      8148 2.26643E+01 3.45437E+00 2.46931E+00
 -1      8149 2.24986E+01 3.74718E+00 1.14864E+00
 -1      8150 2.35996E+01 3.13377E+00 1.32066E+00
 -1      8151 2.28371E+01 2.79574E+00 2.07012E+00
 -1      8152 2.26714E+01 3.08854E+00 7.49460E-01
 -1      8153 2.17361E+01 3.40915E+00 1.89810E+00
 -1      8154 4.83020E+01 2.01368E+01 2.02154E+00
 -1      8155 1.98400E+01 6.40539E-01 1.59874E+00
 -1      8156 1.98542E+01 4.95430E-01 1.77341E+00
 -1      8157 1.95452E+01 4.98641E-01 1.62467E+00
 -1      8158 1.97215E+01 4.78256E-01 1.56459E+00
 -1      8159 1.97357E+01 3.33147E-01 1.73926E+00
 -1      8160 2.00305E+01 4.75045E-01 1.71334E+00
 -1      8161 1.86573E+01 5.86305E-01 9.15378E+00
 -1      8162 1.87449E+01 2.82152E-01 9.34970E+00
 -1      8163 1.89145E+01 4.49227E-01 9.26435E+00
 -1      8164 1.27838E+01 3.15783E+00 8.30379E+00
 -1      8165 1.35710E+01 2.59397E+00 8.78937E+00
 -1      8166 1.92846E+01 1.47692E-01 8.22448E+00
 -1      8167 1.99396E+01 1.27278E-01 6.04915E+00
 -1      8168 1.54039E+01 7.34031E+00 4.16274E+00
 -1      8169 1.41253E+01 2.73849E+00 1.05755E+00
 -1      8170 1.94408E+01 1.02438E-01 8.00000E-01
 -1      8171 1.78460E+01 8.09862E-01 9.65176E+00
 -1      8172 1.80379E+01 9.64722E-01 9.02215E+00
 -1      8173 1.79772E+01 1.10173E+00 9.37039E+00
 -1      8174 1.81408E+01 1.01762E+00 9.68354E+00
 -1      8175 1.83326E+01 1.17248E+00 9.05393E+00
 -1      8176 1.82015E+01 8.80611E-01 9.33530E+00
 -1      8177 1.96229E+01 9.58613E-02 8.60072E+00
 -1      8178 1.96301E+01 2.23498E-01 8.52093E+00
 -1      8179 1.97112E+01 1.27637E-01 8.47165E+00
 -1      8180 1.96306E+01 7.39267E-02 8.52309E+00
 -1      8181 1.96378E+01 2.01563E-01 8.44330E+00
 -1      8182 1.95495E+01 1.69788E-01 8.57237E+00
 -1      8183 1.91880E+01 1.30970E-01 6.01609E-01
 -1      8184 1.89078E+01 1.18494E+00 8.25411E+00
 -1      8185 1.92063E+01 1.11558E+00 8.84695E+00
 -1      8186 1.89634E+01 7.76101E-01 8.72571E+00
 -1      8187 1.89192E+01 1.31213E+00 8.51708E+00
 -1      8188 1.94404E+01 6.97190E-02 8.55017E+00
 -1      8189 1.93911E+01 6.97190E-02 8.57741E+00
 -1      8190 1.93950E+01 6.97190E-02 8.52539E+00
 -1      8191 1.96034E+01 7.90857E-02 9.17050E+00
 -1      8192 1.95650E+01 7.90857E-02 9.14648E+00
 -1      8193 1.96083E+01 7.90857E-02 9.12148E+00
 -1      8194 1.94498E+01 7.54065E-02 2.30271E+00
 -1      8195 1.88999E+01 9.06627E-01 7.10900E+00
 -1      8196 1.88968E+01 7.44527E-01 6.92645E+00
 -1      8197 1.87300E+01 1.05979E+00 6.65812E+00
 -1      8198 2.50173E+01 1.60096E+00 5.46971E+00
 -1      8199 2.57503E+01 1.60096E+00 4.85314E+00
 -1      8200 2.46002E+01 3.03711E+00 5.79738E+00
 -1      8201 1.95170E+01 7.75113E-02 4.25000E-01
 -1      8202 1.94751E+01 7.75113E-02 4.01948E-01
 -1      8203 1.95170E+01 7.75113E-02 3.75000E-01
 -1      8204 2.01153E+01 6.97728E+00 8.40769E+00
 -1      8205 1.96655E+01 1.29595E+00 5.13243E+00
 -1      8206 2.01392E+01 1.30582E+00 5.35008E+00
 -1      8207 1.97887E+01 1.20147E+00 4.95896E+00
 -1      8208 1.94915E+01 1.12340E-01 8.02461E+00
 -1      8209 1.89005E+01 4.20194E-01 9.42924E+00
 -1      8210 1.89631E+01 3.05117E-01 9.25339E+00
 -1      8211 1.99082E+01 6.47788E-01 2.85124E+00
 -1      8212 2.01469E+01 7.19147E-01 3.01883E+00
 -1      8213 2.01087E+01 3.91212E-01 2.84029E+00
 -1      8214 2.03475E+01 4.62571E-01 3.00788E+00
 -1      8215 2.00464E+01 6.12012E-01 2.72275E+00
 -1      8216 4.54409E+01 1.51852E+01 8.61383E+00
 -1      8217 2.45787E+01 3.20623E+00 1.32066E+00
 -1      8218 2.50483E+01 2.59361E+00 7.72642E-01
 -1      8219 2.40692E+01 2.52116E+00 7.72642E-01
 -1      8220 2.42349E+01 2.22835E+00 2.09330E+00
 -1      8221 1.87862E+01 1.98924E-01 7.61237E+00
 -1      8222 1.88834E+01 1.98924E-01 7.67811E+00
 -1      8223 1.97419E+01 1.56910E-01 8.73598E+00
 -1      8224 1.97324E+01 1.56910E-01 8.66352E+00
 -1      8225 2.01029E+01 4.72545E-01 9.31772E+00
 -1      8226 2.01227E+01 5.48246E-01 9.64921E+00
 -1      8227 2.00057E+01 4.71770E-01 9.81240E+00
 -1      8228 2.02453E+01 4.08153E-01 9.46161E+00
 -1      8229 1.99859E+01 3.96069E-01 9.48092E+00
 -1      8230 1.83720E+01 5.28796E-01 2.88485E+00
 -1      8231 1.87097E+01 5.70291E-01 3.01703E+00
 -1      8232 1.81156E+01 5.62721E-01 2.86808E+00
 -1      8233 1.84534E+01 6.04216E-01 3.00027E+00
 -1      8234 1.83171E+01 4.47728E-01 3.12476E+00
 -1      8235 1.99068E+01 4.34484E-01 3.79123E+00
 -1      8236 1.97296E+01 4.30321E-01 4.03012E+00
 -1      8237 2.00304E+01 7.01508E-01 4.07279E+00
 -1      8238 2.02597E+01 8.75818E-01 5.37693E+00
 -1      8239 2.06444E+01 8.84887E-01 5.46353E+00
 -1      8240 1.92249E+01 1.05017E-01 3.75500E+00
 -1      8241 1.95665E+01 1.29704E-01 2.62247E+00
 -1      8242 2.77998E+01 4.18108E+00 8.51214E+00
 -1      8243 1.97579E+01 1.26950E-01 2.25731E+00
 -1      8244 1.97847E+01 2.95709E-01 2.19941E+00
 -1      8245 1.92924E+01 9.45971E-02 8.99235E+00
 -1      8246 1.92986E+01 9.45971E-02 8.91493E+00
 -1      8247 1.93420E+01 9.45971E-02 8.96518E+00
 -1      8248 2.03760E+01 2.84853E-01 3.24197E+00
 -1      8249 1.91583E+01 3.12623E-01 7.79078E+00
 -1      8250 1.92235E+01 8.72568E-02 7.78684E+00
 -1      8251 1.93189E+01 1.85854E-01 7.77980E+00
 -1      8252 1.96131E+01 7.75390E-02 4.55692E+00
 -1      8253 1.95586E+01 1.81330E-01 4.50184E+00
 -1      8254 1.96198E+01 7.75390E-02 4.50184E+00
 -1      8255 1.97368E+01 1.24147E-01 4.15526E+00
 -1      8256 1.98112E+01 1.24147E-01 4.14355E+00
 -1      8257 1.96259E+01 1.01415E-01 4.06723E+00
 -1      8258 1.97002E+01 1.01415E-01 4.05552E+00
 -1      8259 1.96713E+01 2.25562E-01 4.18687E+00
 -1      8260 2.01952E+01 1.55270E-01 7.45111E-01
 -1      8261 2.02745E+01 1.55270E-01 8.81129E-01
 -1      8262 2.01216E+01 1.55270E-01 8.63605E-01
 -1      8263 1.95463E+01 3.23161E+00 7.49964E+00
 -1      8264 1.93762E+01 2.53297E+00 7.10471E+00
 -1      8265 1.96384E+01 3.04991E+00 8.04492E+00
 -1      8266 1.91382E+01 3.13525E+00 7.84717E+00
 -1      8267 1.89682E+01 2.43661E+00 7.45225E+00
 -1      8268 1.88761E+01 2.61831E+00 6.90696E+00
 -1      8269 2.45845E+01 2.02306E+00 7.72642E-01
 -1      8270 1.91192E+01 1.09696E-01 7.04611E+00
 -1      8271 2.66738E+01 3.14788E+00 5.77881E+00
 -1      8272 1.89407E+01 5.88569E-01 2.68107E+00
 -1      8273 1.92556E+01 5.05261E-01 2.50981E+00
 -1      8274 9.07320E+00 5.25793E+00 2.50000E+00
 -1      8275 1.92585E+01 7.18499E-01 7.22813E-01
 -1      8276 1.89286E+01 5.53921E-01 8.96491E-01
 -1      8277 1.91894E+01 7.42077E-01 1.02368E+00
 -1      8278 1.92853E+01 1.23233E+00 8.63882E-01
 -1      8279 1.89554E+01 1.06775E+00 1.03756E+00
 -1      8280 1.90245E+01 1.04417E+00 7.36696E-01
 -1      8281 1.91173E+01 1.17777E-01 8.66144E+00
 -1      8282 1.91721E+01 3.16219E-01 8.66738E+00
 -1      8283 1.91157E+01 1.17777E-01 8.56499E+00
 -1      8284 1.97384E+01 5.87373E-01 3.36058E+00
 -1      8285 1.97662E+01 5.35025E-01 3.03444E+00
 -1      8286 1.99427E+01 4.79335E-01 3.29492E+00
 -1      8287 1.98403E+01 4.09804E-01 3.48425E+00
 -1      8288 1.96637E+01 4.65495E-01 3.22377E+00
 -1      8289 1.88076E+01 1.78688E-01 6.12949E+00
 -1      8290 2.00232E+01 4.87422E-01 1.90614E+00
 -1      8291 1.99047E+01 3.25139E-01 1.87199E+00
 -1      8292 2.04258E+01 5.45004E-01 3.58390E+00
 -1      8293 2.06393E+01 2.84853E-01 3.39030E+00
 -1      8294 2.08416E+01 7.26056E-01 3.71759E+00
 -1      8295 2.10329E+01 4.41204E-01 3.80392E+00
 -1      8296 2.08194E+01 7.01355E-01 3.99752E+00
 -1      8297 1.95572E+01 8.13282E-02 6.79969E+00
 -1      8298 1.81404E+01 5.40232E-01 5.89598E+00
 -1      8299 1.90467E+01 8.97803E-01 4.20602E+00
 -1      8300 1.92004E+01 7.42255E-01 4.41636E+00
 -1      8301 1.93391E+01 8.78528E-01 4.76232E+00
 -1      8302 1.91854E+01 1.03408E+00 4.55198E+00
 -1      8303 1.50496E+01 1.74721E+00 4.76541E+00
 -1      8304 1.55842E+01 1.48198E+00 2.06120E+00
 -1      8305 1.55874E+01 2.14269E+01 5.00200E+00
 -1      8306 1.56185E+01 1.89626E+01 2.50000E+00
 -1      8307 1.53259E+01 1.68038E+01 5.00000E+00
 -1      8308 1.84781E+01 1.03443E+01 1.56393E+00
 -1      8309 1.85988E+01 9.17781E+00 4.06393E+00
 -1      8310 1.92473E+01 1.16341E+01 4.20912E+00
 -1      8311 1.99306E+01 1.86892E-01 4.90208E+00
 -1      8312 2.00126E+01 1.86892E-01 4.82314E+00
 -1      8313 2.00177E+01 1.86892E-01 4.96976E+00
 -1      8314 1.56185E+01 1.89626E+01 7.50000E+00
 -1      8315 1.94423E+01 1.03645E-01 9.09692E+00
 -1      8316 1.95642E+01 8.45572E-02 5.99892E+00
 -1      8317 1.96225E+01 8.45572E-02 6.03546E+00
 -1      8318 1.96093E+01 7.17318E-02 5.86998E+00
 -1      8319 1.96676E+01 7.17318E-02 5.90652E+00
 -1      8320 1.95749E+01 1.56289E-01 5.92106E+00
 -1      8321 1.89216E+01 2.25366E-01 7.91716E+00
 -1      8322 1.90316E+01 2.25366E-01 7.86548E+00
 -1      8323 1.90720E+01 3.35121E-01 7.13714E+00
 -1      8324 2.19162E+01 4.58630E+00 1.14864E+00
 -1      8325 2.30011E+01 4.67016E+00 1.14864E+00
 -1      8326 1.94267E+01 2.29446E-01 7.42495E+00
 -1      8327 2.69761E+01 5.12516E+00 2.50994E+00
 -1      8328 2.61745E+01 6.91797E+00 1.62927E+00
 -1      8329 2.01448E+01 2.08378E-01 6.81312E+00
 -1      8330 2.01547E+01 2.08378E-01 6.62771E+00
 -1      8331 2.03323E+01 2.08378E-01 6.69746E+00
 -1      8332 1.96105E+01 8.61599E-02 3.52762E+00
 -1      8333 1.95715E+01 8.61599E-02 3.55261E+00
 -1      8334 1.95715E+01 8.61599E-02 3.50261E+00
 -1      8335 1.94690E+01 8.45572E-02 6.09983E+00
 -1      8336 1.95149E+01 8.45572E-02 6.07500E+00
 -1      8337 1.95149E+01 8.45572E-02 6.12500E+00
 -1      8338 1.91465E+01 1.41976E-01 9.74342E+00
 -1      8339 1.90799E+01 1.41976E-01 9.67221E+00
 -1      8340 1.91514E+01 1.41976E-01 9.66734E+00
 -1      8341 1.96279E+01 1.29704E-01 2.62079E+00
 -1      8342 1.91312E+01 8.72568E-02 7.73146E+00
 -1      8343 1.76405E+01 1.24474E+00 9.65176E+00
 -1      8344 1.74676E+01 7.48039E-01 9.12561E+00
 -1      8345 1.97836E+01 9.68804E-01 8.55973E+00
 -1      8346 1.89820E+01 1.83947E-01 3.49419E+00
 -1      8347 6.89881E+00 4.73020E+00 2.18811E+00
 -1      8348 1.94285E+01 7.91749E-02 8.70264E+00
 -1      8349 1.84986E+01 2.44422E-01 9.39733E+00
 -1      8350 1.83512E+01 2.44422E-01 9.37174E+00
 -1      8351 1.84109E+01 5.48576E-01 9.20141E+00
 -1      8352 2.05391E+01 1.09697E+00 8.44851E+00
 -1      8353 2.10703E+01 1.07085E+00 8.51536E+00
 -1      8354 1.96659E+01 7.17318E-02 5.82951E+00
 -1      8355 1.84587E+01 5.88052E-01 3.65973E+00
 -1      8356 1.80225E+01 8.09291E-01 3.46086E+00
 -1      8357 1.83333E+01 8.14711E-01 3.43644E+00
 -1      8358 1.86715E+01 5.03637E-01 3.38842E+00
 -1      8359 1.82352E+01 7.24876E-01 3.18954E+00
 -1      8360 1.83607E+01 4.98217E-01 3.41284E+00
 -1      8361 1.89002E+01 1.37046E-01 3.03147E+00
 -1      8362 1.87639E+01 1.37046E-01 3.00940E+00
 -1      8363 1.88483E+01 1.37046E-01 2.94897E+00
 -1      8364 1.97906E+01 1.45021E-01 7.87200E+00
 -1      8365 1.97735E+01 1.45021E-01 7.78585E+00
 -1      8366 2.41839E+01 7.99368E-01 5.81309E+00
 -1      8367 2.37668E+01 2.23552E+00 6.14076E+00
 -1      8368 2.38989E+01 2.40033E+00 4.87673E+00
 -1      8369 1.96622E+01 6.06953E+00 8.40769E+00
 -1      8370 1.85040E+01 6.96011E+00 7.03655E+00
 -1      8371 1.93959E+01 8.52199E-02 8.09508E+00
 -1      8372 1.93906E+01 8.52199E-02 8.17223E+00
 -1      8373 2.00914E+01 7.78504E-01 4.24598E+00
 -1      8374 1.99598E+01 4.14282E-01 4.13459E+00
 -1      8375 1.95064E+01 8.04748E-02 7.12156E+00
 -1      8376 1.94709E+01 8.04748E-02 7.09788E+00
 -1      8377 1.95141E+01 8.04748E-02 7.07491E+00
 -1      8378 1.84440E+01 1.10020E+00 1.67360E+00
 -1      8379 1.84497E+01 8.33549E-01 1.38612E+00
 -1      8380 1.84506E+01 8.40002E-01 1.93996E+00
 -1      8381 1.81605E+01 8.42914E-01 2.06218E+00
 -1      8382 1.81662E+01 5.76264E-01 1.77470E+00
 -1      8383 2.03466E+01 2.60151E-01 3.80429E+00
 -1      8384 2.02776E+01 2.60151E-01 3.67876E+00
 -1      8385 2.01449E+01 3.82401E-01 3.73480E+00
 -1      8386 1.85098E+01 2.31417E+00 3.34983E+00
 -1      8387 1.89550E+01 2.60473E+00 3.23402E+00
 -1      8388 1.88464E+01 2.86062E+00 3.92547E+00
 -1      8389 1.92071E+01 1.41976E-01 9.69161E+00
 -1      8390 1.93032E+01 8.47418E-02 6.47219E+00
 -1      8391 1.93506E+01 8.47418E-02 6.49703E+00
 -1      8392 1.96622E+01 8.60733E-02 8.07585E+00
 -1      8393 1.97271E+01 8.60733E-02 8.07603E+00
 -1      8394 1.97193E+01 8.62872E-02 7.92188E+00
 -1      8395 1.96469E+01 1.72360E-01 7.99675E+00
 -1      8396 1.96543E+01 8.62872E-02 7.92170E+00
 -1      8397 1.99190E+01 1.56381E-01 1.60905E+00
 -1      8398 1.99384E+01 1.21102E-01 1.29324E+00
 -1      8399 1.98405E+01 2.77483E-01 1.46763E+00
 -1      8400 1.98474E+01 1.21102E-01 1.39749E+00
 -1      8401 2.01916E+01 5.65907E+00 1.65246E+00
 -1      8402 1.93202E+01 5.18139E+00 2.47165E+00
 -1      8403 1.98947E+01 5.36013E+00 3.31575E+00
 -1      8404 1.95280E+01 7.19181E-02 6.44914E+00
 -1      8405 1.96848E+01 1.26950E-01 2.36785E+00
 -1      8406 1.96362E+01 1.26950E-01 2.39340E+00
 -1      8407 1.66151E+01 5.05849E-01 5.48551E+00
 -1      8408 1.52374E+01 6.78250E-01 5.37276E+00
 -1      8409 1.44097E+01 7.92931E-01 5.26324E+00
 -1      8410 1.48255E+01 1.47118E+00 5.66117E+00
 -1      8411 1.44274E+01 7.92931E-01 5.63151E+00
 -1      8412 1.94557E+01 2.20702E-01 7.52495E+00
 -1      8413 1.95200E+01 3.54762E-01 6.82317E+00
 -1      8414 1.90951E+01 1.01596E-01 2.80017E+00
 -1      8415 1.91429E+01 1.01596E-01 2.87878E+00
 -1      8416 1.90490E+01 1.01596E-01 2.88450E+00
 -1      8417 2.03278E+01 3.34380E+00 7.64818E-01
 -1      8418 2.09515E+01 3.49368E+00 1.91346E+00
 -1      8419 2.09396E+01 3.91790E+00 1.14864E+00
 -1      8420 1.96725E+01 3.92051E+00 8.19186E-01
 -1      8421 1.96844E+01 3.49629E+00 1.58400E+00
 -1      8422 1.82367E+01 2.44422E-01 9.46328E+00
 -1      8423 1.81786E+01 2.44422E-01 9.31657E+00
 -1      8424 1.75341E+01 8.76795E-01 9.65176E+00
 -1      8425 1.70950E+01 9.51977E-01 9.47385E+00
 -1      8426 2.00264E+01 2.08378E-01 6.93244E+00
 -1      8427 1.99310E+01 3.12067E-01 7.04636E+00
 -1      8428 1.94406E+01 6.03593E-01 3.55229E+00
 -1      8429 1.95010E+01 5.01424E-01 3.25186E+00
 -1      8430 1.95014E+01 7.45231E-01 3.40052E+00
 -1      8431 1.94898E+01 8.64524E-02 8.92500E+00
 -1      8432 1.94451E+01 8.64524E-02 8.90438E+00
 -1      8433 1.94898E+01 8.64524E-02 8.87500E+00
 -1      8434 2.15335E+01 2.61347E+00 5.24189E+00
 -1      8435 2.09391E+01 2.00652E+00 6.07070E+00
 -1      8436 2.17648E+01 2.46744E+00 5.77753E+00
 -1      8437 2.14179E+01 3.09901E+00 6.03218E+00
 -1      8438 2.08235E+01 2.49206E+00 6.86098E+00
 -1      8439 2.05922E+01 2.63809E+00 6.32534E+00
 -1      8440 1.96416E+01 7.32188E-02 1.54592E+00
 -1      8441 1.93032E+01 1.04818E-01 3.50673E+00
 -1      8442 1.84418E+01 7.62473E-01 4.33483E+00
 -1      8443 1.86252E+01 4.60256E-01 4.57224E+00
 -1      8444 1.84636E+01 7.33723E-01 4.73675E+00
 -1      8445 1.86470E+01 4.31506E-01 4.97416E+00
 -1      8446 1.25025E+01 5.41180E+00 5.84513E+00
 -1      8447 1.10193E+01 5.36815E+00 7.50000E+00
 -1      8448 1.86986E+01 6.54072E-01 7.24833E+00
 -1      8449 1.88778E+01 4.24349E-01 7.37686E+00
 -1      8450 1.88141E+01 6.80573E-01 7.07514E+00
 -1      8451 1.90790E+01 6.76904E-01 7.23754E+00
 -1      8452 1.92276E+01 1.33346E-01 9.27417E-01
 -1      8453 1.92889E+01 1.33346E-01 9.62333E-01
 -1      8454 1.92424E+01 1.33346E-01 1.00173E+00
 -1      8455 2.01463E+01 2.41164E-01 1.15632E+00
 -1      8456 1.92524E+01 1.30970E-01 8.00524E-01
 -1      8457 1.91912E+01 1.30970E-01 7.65609E-01
 -1      8458 1.92546E+01 1.30970E-01 7.54427E-01
 -1      8459 1.94670E+01 7.13031E-02 4.79906E+00
 -1      8460 1.95144E+01 7.13031E-02 4.77500E+00
 -1      8461 1.95144E+01 7.13031E-02 4.82500E+00
 -1      8462 1.79429E+01 3.22169E-01 7.81497E+00
 -1      8463 1.77433E+01 3.22169E-01 7.71462E+00
 -1      8464 1.79282E+01 3.22169E-01 7.60256E+00
 -1      8465 1.96029E+01 3.23856E-01 3.37554E+00
 -1      8466 2.13241E+01 4.50505E-01 9.20497E+00
 -1      8467 2.09196E+01 6.92820E-01 9.19488E+00
 -1      8468 2.11488E+01 4.50505E-01 9.05193E+00
 -1      8469 2.20697E+01 6.05407E-01 1.41669E+00
 -1      8470 2.19611E+01 6.05407E-01 1.73206E+00
 -1      8471 2.17212E+01 6.05407E-01 1.40274E+00
 -1      8472 2.42015E+01 1.43615E+00 6.78930E+00
 -1      8473 2.35002E+01 7.99368E-01 5.86865E+00
 -1      8474 1.87821E+01 1.26733E+00 7.91351E+00
 -1      8475 1.89577E+01 8.50089E-01 7.80772E+00
 -1      8476 1.90392E+01 1.30373E+00 7.93969E+00
 -1      8477 2.00725E+01 5.59827E-01 1.47815E+00
 -1      8478 1.95510E+01 9.91443E-02 8.30410E+00
 -1      8479 1.95942E+01 9.91443E-02 8.34449E+00
 -1      8480 1.95427E+01 9.91443E-02 8.34925E+00
 -1      8481 2.14356E+01 3.13141E+00 4.74093E+00
 -1      8482 2.06098E+01 2.67048E+00 5.03410E+00
 -1      8483 1.90356E+01 1.20632E-01 5.38855E+00
 -1      8484 1.89944E+01 1.20632E-01 5.27774E+00
 -1      8485 1.90762E+01 1.20632E-01 5.30954E+00
 -1      8486 1.95145E+01 2.01362E-01 1.92512E+00
 -1      8487 2.77917E+01 4.03793E+00 6.02208E+00
 -1      8488 3.48799E+01 8.13291E+00 1.95414E+00
 -1      8489 3.28929E+01 8.67107E+00 4.45414E+00
 -1      8490 3.35999E+01 6.66317E+00 5.06921E+00
 -1      8491 2.00181E+01 1.65838E-01 9.58341E+00
 -1      8492 2.00401E+01 1.65838E-01 9.48938E+00
 -1      8493 1.98245E+01 9.53127E-02 9.38306E+00
 -1      8494 1.99128E+01 2.61151E-01 9.51849E+00
 -1      8495 1.98026E+01 9.53127E-02 9.47709E+00
 -1      8496 1.97574E+01 1.70058E-01 9.69626E+00
 -1      8497 1.97554E+01 1.70058E-01 9.75854E+00
 -1      8498 1.55255E+01 1.84374E+00 4.25100E+00
 -1      8499 1.61113E+01 1.45303E+00 4.88801E+00
 -1      8500 1.92889E+01 1.62505E-01 1.93364E+00
 -1      8501 1.92386E+01 1.62505E-01 1.95465E+00
 -1      8502 1.93188E+01 8.46054E-02 1.98680E+00
 -1      8503 1.92685E+01 8.46054E-02 2.00781E+00
 -1      8504 1.93021E+01 2.47110E-01 2.01746E+00
 -1      8505 1.91096E+01 4.37660E-01 7.27208E+00
 -1      8506 1.96517E+01 2.41245E-01 5.18013E+00
 -1      8507 1.96928E+01 1.12077E-01 5.10696E+00
 -1      8508 1.96912E+01 1.29168E-01 5.26766E+00
 -1      8509 1.96080E+01 2.03603E-01 5.26719E+00
 -1      8510 1.96491E+01 7.44346E-02 5.19402E+00
 -1      8511 1.96096E+01 1.86511E-01 5.10649E+00
 -1      8512 1.94832E+01 3.62257E-01 4.82093E+00
 -1      8513 1.95437E+01 3.35145E-01 4.62435E+00
 -1      8514 1.97054E+01 3.16654E-01 4.81115E+00
 -1      8515 1.94490E+01 1.96349E-01 1.15603E+00
 -1      8516 1.50661E+01 1.91320E+00 3.48707E+00
 -1      8517 1.78267E+01 6.88789E-01 5.22409E+00
 -1      8518 1.76960E+01 5.55726E-01 4.72737E+00
 -1      8519 1.97705E+01 1.24147E-01 4.22815E+00
 -1      8520 1.91476E+01 4.72716E-01 4.26639E+00
 -1      8521 1.90835E+01 4.83111E-01 4.46123E+00
 -1      8522 1.85484E+01 5.14438E-01 3.22220E-01
 -1      8523 1.87955E+01 5.41701E-01 2.97813E-01
 -1      8524 1.88621E+01 4.17297E-01 4.66605E-01
 -1      8525 1.86600E+01 4.28655E-01 1.68792E-01
 -1      8526 1.86149E+01 3.90034E-01 4.91011E-01
 -1      8527 1.94695E+01 8.45572E-02 6.05022E+00
 -1      8528 1.84283E+01 2.41899E-01 7.16531E+00
 -1      8529 1.97635E+01 5.63039E-01 1.32941E+00
 -1      8530 1.97183E+01 4.69112E-01 1.05435E+00
 -1      8531 1.97327E+01 4.17511E-01 1.22941E+00
 -1      8532 2.89550E+01 1.63771E+01 2.50000E+00
 -1      8533 3.06616E+01 1.50859E+01 2.88068E+00
 -1      8534 1.63677E+01 2.61252E+00 4.33510E+00
 -1      8535 1.68582E+01 2.85190E+00 3.52289E+00
 -1      8536 1.66182E+01 1.85840E+00 2.79746E+00
 -1      8537 1.59083E+01 2.68197E+00 3.57117E+00
 -1      8538 1.97747E+01 1.24759E-01 6.45324E+00
 -1      8539 1.97405E+01 1.32136E-01 6.58862E+00
 -1      8540 1.99322E+01 2.08378E-01 6.65098E+00
 -1      8541 1.95817E+01 8.64524E-02 8.98053E+00
 -1      8542 1.95331E+01 8.64524E-02 8.95000E+00
 -1      8543 1.98406E+01 7.60823E-01 1.89874E+00
 -1      8544 2.88707E+01 5.40270E+00 5.62502E+00
 -1      8545 1.92582E+01 6.06085E-01 8.57569E+00
 -1      8546 1.38106E+01 4.31675E+00 6.64892E+00
 -1      8547 1.42754E+01 5.07960E+00 8.34513E+00
 -1      8548 1.53521E+01 4.38211E+00 7.46445E+00
 -1      8549 1.53738E+01 6.02684E-01 6.85734E+00
 -1      8550 1.49691E+01 6.02684E-01 6.59598E+00
 -1      8551 1.54013E+01 6.02684E-01 6.43373E+00
 -1      8552 1.93953E+01 7.91906E-02 5.07455E+00
 -1      8553 1.93545E+01 7.91906E-02 5.05002E+00
 -1      8554 1.93948E+01 7.91906E-02 5.02437E+00
 -1      8555 1.93314E+01 2.33408E-01 7.79600E-01
 -1      8556 2.04437E+01 1.77718E-01 2.66403E+00
 -1      8557 2.04002E+01 1.77718E-01 2.82765E+00
 -1      8558 2.08952E+01 4.21254E-01 2.73878E+00
 -1      8559 2.08516E+01 4.21254E-01 2.90240E+00
 -1      8560 2.06984E+01 5.98972E-01 2.78654E+00
 -1      8561 2.49139E+01 1.63048E+00 9.10496E+00
 -1      8562 2.50908E+01 8.20744E-01 7.97974E+00
 -1      8563 2.42003E+01 2.25690E+00 7.63567E+00
 -1      8564 2.09108E+01 3.13357E-01 6.02143E+00
 -1      8565 1.89204E+01 1.64280E-01 9.92969E-01
 -1      8566 1.88393E+01 1.64280E-01 1.11593E+00
 -1      8567 1.97133E+01 1.00256E-01 3.81179E+00
 -1      8568 1.96667E+01 1.00256E-01 3.84313E+00
 -1      8569 1.96581E+01 1.00256E-01 3.79820E+00
 -1      8570 1.90195E+01 3.89891E-01 4.72470E+00
 -1      8571 1.92222E+01 6.19384E-01 4.80719E+00
 -1      8572 2.81497E+01 4.49739E+00 1.52360E+00
 -1      8573 1.95882E+01 5.56138E+00 1.65246E+00
 -1      8574 1.92972E+01 4.45299E+00 8.19186E-01
 -1      8575 1.93414E+01 1.02597E+00 7.69195E+00
 -1      8576 1.93104E+01 2.65732E-01 4.35202E+00
 -1      8577 1.92463E+01 2.76127E-01 4.54686E+00
 -1      8578 1.91582E+01 3.10767E-01 4.32260E+00
 -1      8579 1.90941E+01 3.21162E-01 4.51744E+00
 -1      8580 2.48490E+01 9.57382E+00 8.31678E+00
 -1      8581 1.96559E+01 1.06457E-01 7.16390E+00
 -1      8582 1.96520E+01 1.06457E-01 7.09806E+00
 -1      8583 1.90891E+01 1.10036E-01 5.82954E+00
 -1      8584 1.89847E+01 1.10036E-01 5.88248E+00
 -1      8585 1.91276E+01 3.12259E-01 5.81148E+00
 -1      8586 1.95597E+01 7.63921E-02 6.59999E+00
 -1      8587 1.91861E+01 1.09696E-01 6.98503E+00
 -1      8588 1.91730E+01 8.03804E-02 6.78152E+00
 -1      8589 1.92500E+01 8.03804E-02 6.82321E+00
 -1      8590 1.92148E+01 1.90077E-01 6.90878E+00
 -1      8591 1.88058E+01 2.43287E+00 4.67414E+00
 -1      8592 1.90619E+01 2.90909E+00 4.56635E+00
 -1      8593 1.92494E+01 2.11021E+00 4.72982E+00
 -1      8594 1.95112E+01 2.30629E+00 5.13601E+00
 -1      8595 1.94243E+01 9.29830E-02 2.89389E+00
 -1      8596 1.94077E+01 9.29830E-02 2.93370E+00
 -1      8597 1.93652E+01 9.29830E-02 2.88572E+00
 -1      8598 1.91623E+01 1.51746E-01 6.35857E+00
 -1      8599 1.94711E+01 7.63921E-02 6.50000E+00
 -1      8600 1.95144E+01 7.63921E-02 6.52500E+00
 -1      8601 1.94697E+01 7.63921E-02 6.54984E+00
 -1      8602 1.77149E+01 1.12184E+00 5.27031E+00
 -1      8603 1.94389E+01 1.03792E-01 4.50000E+00
 -1      8604 2.00724E+01 6.27999E-01 5.26302E+00
 -1      8605 1.99092E+01 7.71465E-01 4.98582E+00
 -1      8606 3.13463E+01 9.30103E+00 7.50000E+00
 -1      8607 3.25167E+01 9.16593E+00 6.11383E+00
 -1      8608 3.45037E+01 8.62777E+00 8.61383E+00
 -1      8609 3.20534E+01 7.29313E+00 8.11508E+00
 -1      8610 3.32238E+01 7.15803E+00 6.72891E+00
 -1      8611 1.96216E+01 9.35022E-02 1.69494E+00
 -1      8612 1.96171E+01 9.35022E-02 1.74710E+00
 -1      8613 1.95716E+01 9.35022E-02 1.72254E+00
 -1      8614 1.80904E+01 2.41899E-01 7.12887E+00
 -1      8615 1.97022E+01 8.62872E-02 7.83573E+00
 -1      8616 1.97104E+01 2.31308E-01 7.79271E+00
 -1      8617 1.93758E+01 9.40750E-02 2.50508E+00
 -1      8618 1.94234E+01 1.56660E-01 6.42134E+00
 -1      8619 2.04882E+01 4.95076E-01 8.96325E+00
 -1      8620 2.07174E+01 2.52761E-01 8.82030E+00
 -1      8621 2.10456E+01 7.03266E-01 8.85971E+00
 -1      8622 1.79625E+01 2.81838E-01 1.19472E+00
 -1      8623 2.58237E+01 3.13361E+00 1.33710E+00
 -1      8624 2.50102E+01 2.76834E+00 2.65777E+00
 -1      8625 2.54799E+01 2.15573E+00 2.10975E+00
 -1      8626 5.00067E+00 6.25499E+00 7.18811E+00
 -1      8627 5.88674E+00 1.02259E+01 7.50000E+00
 -1      8628 1.94472E+01 8.64524E-02 8.99692E+00
 -1      8629 1.91924E+01 1.41976E-01 9.61703E+00
 -1      8630 1.92535E+01 1.41976E-01 9.64223E+00
 -1      8631 7.39961E+00 3.07918E+00 2.18811E+00
 -1      8632 1.91751E+01 8.71689E-01 6.39672E+00
 -1      8633 1.75861E+01 2.65355E-01 6.41391E+00
 -1      8634 1.89417E+01 8.86127E-02 9.92391E+00
 -1      8635 1.89783E+01 8.86127E-02 9.85693E+00
 -1      8636 1.88481E+01 1.44395E-01 9.70110E+00
 -1      8637 1.88243E+01 2.33007E-01 9.84417E+00
 -1      8638 1.88116E+01 1.44395E-01 9.76808E+00
 -1      8639 1.95006E+01 8.78575E-02 9.68005E+00
 -1      8640 1.95341E+01 8.78575E-02 9.70461E+00
 -1      8641 1.94958E+01 8.78575E-02 9.72656E+00
 -1      8642 1.73274E+01 3.93010E-01 8.26654E-01
 -1      8643 1.86057E+01 8.18596E-01 3.98507E+00
 -1      8644 1.88009E+01 1.04350E+00 3.55303E+00
 -1      8645 1.84901E+01 1.03808E+00 3.57745E+00
 -1      8646 1.82949E+01 8.13176E-01 4.00949E+00
 -1      8647 1.94247E+01 1.04853E-01 7.62515E+00
 -1      8648 1.94249E+01 1.04853E-01 7.67474E+00
 -1      8649 1.94859E+01 1.89715E-01 7.62496E+00
 -1      8650 1.64769E+01 5.89808E-01 7.31326E+00
 -1      8651 1.79693E+01 9.88748E-01 2.33232E+00
 -1      8652 1.75309E+01 1.44959E+00 2.59319E+00
 -1      8653 1.80065E+01 1.56749E+00 2.48831E+00
 -1      8654 1.84888E+01 1.43157E+00 1.94662E+00
 -1      8655 1.80503E+01 1.89241E+00 2.20749E+00
 -1      8656 1.80131E+01 1.31367E+00 2.05151E+00
 -1      8657 1.94424E+01 6.11372E-02 6.90029E+00
 -1      8658 1.93991E+01 6.11372E-02 6.87529E+00
 -1      8659 1.94424E+01 6.11372E-02 6.85029E+00
 -1      8660 1.93791E+01 8.01688E-02 8.30194E+00
 -1      8661 1.94248E+01 8.01688E-02 8.32712E+00
 -1      8662 1.93794E+01 8.01688E-02 8.35234E+00
 -1      8663 1.39464E+01 7.92931E-01 5.01284E+00
 -1      8664 1.39616E+01 7.92931E-01 5.59661E+00
 -1      8665 1.93666E+01 8.46054E-02 2.01304E+00
 -1      8666 1.93392E+01 9.40145E-02 6.12897E+00
 -1      8667 1.93329E+01 9.40145E-02 6.07905E+00
 -1      8668 1.93802E+01 9.40145E-02 6.10365E+00
 -1      8669 1.94705E+01 8.87704E-02 3.75010E+00
 -1      8670 1.88497E+01 2.19643E-01 4.87475E+00
 -1      8671 1.88596E+01 2.19643E-01 4.97442E+00
 -1      8672 1.89877E+01 1.45136E-01 5.01009E+00
 -1      8673 1.89367E+01 3.64778E-01 4.84532E+00
 -1      8674 1.89779E+01 1.45136E-01 4.91041E+00
 -1      8675 2.10911E+01 1.34344E+01 5.14520E+00
 -1      8676 2.04151E+01 1.29792E+01 2.64520E+00
 -1      8677 2.14402E+01 1.34721E+00 3.26497E+00
 -1      8678 2.05826E+01 1.68708E+00 3.78034E+00
 -1      8679 2.09319E+01 1.06926E+00 3.77921E+00
 -1      8680 2.08858E+01 1.50022E+00 4.13233E+00
 -1      8681 2.17434E+01 1.16035E+00 3.61696E+00
 -1      8682 1.80303E+01 4.05477E-01 5.15707E+00
 -1      8683 1.80246E+01 8.72171E+00 7.50000E+00
 -1      8684 1.80208E+01 7.70722E+00 8.62886E+00
 -1      8685 1.94746E+01 9.56775E-02 3.35000E+00
 -1      8686 1.13607E+01 2.90374E+00 6.96022E+00
 -1      8687 2.14940E+01 4.16477E-01 1.74209E+00
 -1      8688 2.14576E+01 1.02188E+00 1.57173E+00
 -1      8689 2.17340E+01 4.16477E-01 2.07141E+00
 -1      8690 2.13758E+01 4.86399E+00 6.39556E+00
 -1      8691 2.08579E+01 3.61510E+00 7.41183E+00
 -1      8692 1.95939E+01 1.89027E-01 3.81823E+00
 -1      8693 1.63038E+01 3.39395E-01 9.69329E+00
 -1      8694 1.65759E+01 3.39395E-01 9.49413E+00
 -1      8695 1.68607E+01 7.51005E-01 9.47385E+00
 -1      8696 1.64716E+01 4.11610E-01 9.16714E+00
 -1      8697 1.96364E+01 2.89034E-01 5.71957E+00
 -1      8698 1.96107E+01 4.09146E-01 5.81957E+00
 -1      8699 1.98868E+01 4.00278E-01 5.69693E+00
 -1      8700 2.04176E+01 2.60151E-01 3.67858E+00
 -1      8701 1.86403E+01 1.79500E-01 8.85083E+00
 -1      8702 1.85509E+01 2.96736E-01 3.59768E+00
 -1      8703 1.87258E+01 2.96736E-01 3.57187E+00
 -1      8704 1.84529E+01 2.06901E-01 3.35078E+00
 -1      8705 1.86278E+01 2.06901E-01 3.32498E+00
 -1      8706 1.95251E+01 7.75202E-01 1.15000E+00
 -1      8707 1.94800E+01 6.81276E-01 8.74949E-01
 -1      8708 1.67911E+01 1.09566E+00 6.21179E+00
 -1      8709 1.67047E+01 5.89808E-01 6.74592E+00
 -1      8710 1.71459E+01 8.55163E-01 6.68320E+00
 -1      8711 2.03871E+01 2.13050E-01 6.48910E+00
 -1      8712 2.02095E+01 2.13050E-01 6.41936E+00
 -1      8713 2.00919E+01 4.21428E-01 6.56711E+00
 -1      8714 1.95024E+01 4.39735E-01 8.59418E+00
 -1      8715 2.00938E+01 3.04869E-01 8.48483E+00
 -1      8716 2.00542E+01 3.04869E-01 8.38983E+00
 -1      8717 1.99239E+01 4.32506E-01 8.40306E+00
 -1      8718 1.90773E+01 3.57106E-01 7.71882E+00
 -1      8719 1.91768E+01 2.18996E-01 7.58480E+00
 -1      8720 1.82043E+01 1.16783E+00 1.78137E+00
 -1      8721 1.84038E+01 2.44422E-01 9.48844E+00
 -1      8722 2.14051E+01 2.83835E-01 8.12778E+00
 -1      8723 2.13110E+01 2.83835E-01 7.78817E+00
 -1      8724 2.17192E+01 2.83835E-01 7.93828E+00
 -1      8725 1.95907E+01 2.45990E-01 7.50387E+00
 -1      8726 1.95454E+01 2.65981E-01 7.57883E+00
 -1      8727 1.95489E+01 1.83231E-01 7.68060E+00
 -1      8728 1.96536E+01 2.39506E-01 7.55951E+00
 -1      8729 1.95942E+01 1.63240E-01 7.60564E+00
 -1      8730 2.05255E+01 1.00722E+00 7.10884E+00
 -1      8731 2.01001E+01 9.52593E-01 6.91452E+00
 -1      8732 2.07198E+01 8.51267E-01 6.86140E+00
 -1      8733 2.09060E+01 7.40309E-01 7.22271E+00
 -1      8734 2.04806E+01 6.85683E-01 7.02839E+00
 -1      8735 1.96023E+01 3.46360E-01 5.46432E+00
 -1      8736 1.95951E+01 2.50898E-01 5.61432E+00
 -1      8737 1.98454E+01 3.62143E-01 5.59167E+00
 -1      8738 1.98112E+01 1.69583E-01 6.10877E+00
 -1      8739 1.97795E+01 1.69583E-01 6.17827E+00
 -1      8740 1.93948E+01 2.65055E+00 5.59073E+00
 -1      8741 1.95330E+01 7.44346E-02 5.19677E+00
 -1      8742 1.94880E+01 7.44346E-02 5.17202E+00
 -1      8743 1.95330E+01 7.44346E-02 5.14677E+00
 -1      8744 2.19358E+01 4.34790E+00 5.01591E+00
 -1      8745 1.96104E+01 8.00783E-02 8.20904E-01
 -1      8746 1.96035E+01 8.00783E-02 8.70086E-01
 -1      8747 1.95671E+01 8.00783E-02 8.45904E-01
 -1      8748 1.88068E+01 1.75943E-01 7.97279E+00
 -1      8749 1.87028E+01 1.75943E-01 8.04216E+00
 -1      8750 1.95782E+01 1.05052E-01 5.74094E-01
 -1      8751 1.96229E+01 1.05052E-01 5.48967E-01
 -1      8752 1.93891E+01 1.07290E-01 2.23505E+00
 -1      8753 1.94160E+01 2.59599E-01 2.30067E+00
 -1      8754 1.94587E+01 1.82696E-01 2.27702E+00
 -1      8755 1.88881E+01 2.84521E-01 5.27637E+00
 -1      8756 1.89370E+01 2.84521E-01 5.19245E+00
 -1      8757 1.87244E+01 4.96385E-01 5.19219E+00
 -1      8758 2.37177E+01 7.99368E-01 5.02373E+00
 -1      8759 2.45511E+01 1.60096E+00 4.68035E+00
 -1      8760 1.94155E+01 5.63713E-02 7.22167E+00
 -1      8761 1.94535E+01 5.63713E-02 7.24972E+00
 -1      8762 1.94138E+01 5.63713E-02 7.27082E+00
 -1      8763 1.85199E+01 2.14400E-01 2.37120E+00
 -1      8764 1.93397E+01 1.41143E+01 2.64520E+00
 -1      8765 2.18773E+01 1.39930E+01 2.50000E+00
 -1      8766 2.18076E+01 1.66168E+01 2.50000E+00
 -1      8767 2.35590E+01 1.59369E+01 5.00000E+00
 -1      8768 2.10214E+01 1.60583E+01 5.14520E+00
 -1      8769 1.94721E+01 7.11080E-02 3.89980E+00
 -1      8770 1.95178E+01 7.11080E-02 3.92500E+00
 -1      8771 1.94733E+01 7.11080E-02 3.95014E+00
 -1      8772 1.93977E+01 1.55720E+00 8.08250E+00
 -1      8773 1.96848E+01 1.36065E+00 8.41236E+00
 -1      8774 1.86028E+01 2.53100E+00 8.04050E+00
 -1      8775 1.83005E+01 2.21585E+00 8.23825E+00
 -1      8776 1.82531E+01 2.38294E+00 8.72740E+00
 -1      8777 1.82318E+01 1.44500E-01 1.66638E-01
 -1      8778 1.83571E+01 1.44500E-01 1.38761E-01
 -1      8779 1.84314E+01 3.82408E-01 3.22220E-01
 -1      8780 1.84290E+01 2.37908E-01 4.60980E-01
 -1      8781 1.83037E+01 2.37908E-01 4.88858E-01
 -1      8782 1.15578E+01 1.42707E+00 3.02292E+00
 -1      8783 1.91550E+01 2.88965E-01 3.57989E+00
 -1      8784 1.90681E+01 1.83947E-01 3.46608E+00
 -1      8785 1.91919E+01 2.88765E-01 3.46829E+00
 -1      8786 1.95745E+01 7.22084E-02 5.37438E+00
 -1      8787 1.95813E+01 7.22084E-02 5.32318E+00
 -1      8788 1.96264E+01 7.22084E-02 5.34939E+00
 -1      8789 1.95848E+01 1.01415E-01 4.11666E+00
 -1      8790 1.94267E+01 9.59446E-02 6.77495E+00
 -1      8791 1.94710E+01 9.59446E-02 6.74978E+00
 -1      8792 1.94710E+01 9.59446E-02 6.79978E+00
 -1      8793 1.99999E+01 1.68643E-01 3.98227E+00
 -1      8794 1.57322E+01 6.37746E-01 1.31899E+00
 -1      8795 1.95600E+01 7.17318E-02 5.84606E+00
 -1      8796 1.96065E+01 7.17318E-02 5.81751E+00
 -1      8797 1.94319E+01 9.24907E-02 2.74544E+00
 -1      8798 1.93755E+01 9.24907E-02 2.78572E+00
 -1      8799 1.93902E+01 9.24907E-02 2.73179E+00
 -1      8800 1.96884E+01 9.53127E-02 9.45186E+00
 -1      8801 1.97186E+01 9.53127E-02 9.49968E+00
 -1      8802 1.96460E+01 9.53127E-02 9.48025E+00
 -1      8803 1.98437E+01 1.56910E-01 8.84313E+00
 -1      8804 1.95584E+01 7.34618E-02 7.45004E+00
 -1      8805 1.95584E+01 7.34618E-02 7.40004E+00
 -1      8806 1.96038E+01 7.34618E-02 7.42505E+00
 -1      8807 1.90952E+01 1.30970E-01 7.70972E-01
 -1      8808 1.95794E+01 2.85744E-01 8.44580E+00
 -1      8809 1.97226E+01 7.21887E-01 6.22578E+00
 -1      8810 2.00918E+01 8.36618E-01 6.36017E+00
 -1      8811 1.37542E+01 7.08771E-01 9.33236E+00
 -1      8812 1.37549E+01 1.66044E+00 8.78937E+00
 -1      8813 2.44663E+01 2.65134E+00 8.53071E+00
 -1      8814 2.41985E+01 2.03593E+00 9.10496E+00
 -1      8815 1.98675E+01 1.21095E-01 4.50827E+00
 -1      8816 1.98676E+01 1.21095E-01 4.59979E+00
 -1      8817 1.97838E+01 1.21095E-01 4.57508E+00
 -1      8818 1.95187E+01 1.38499E-01 3.12500E+00
 -1      8819 1.95671E+01 1.38499E-01 3.09961E+00
 -1      8820 1.94898E+01 2.31482E-01 3.05000E+00
 -1      8821 1.83178E+01 5.19746E-01 8.72322E-01
 -1      8822 3.14260E+01 2.56835E+00 8.75000E+00
 -1      8823 3.03711E+01 1.83940E+00 8.75000E+00
 -1      8824 3.02337E+01 3.61528E+00 8.51214E+00
 -1      8825 2.91788E+01 2.88632E+00 8.51214E+00
 -1      8826 2.98077E+01 2.04692E+00 7.26214E+00
 -1      8827 1.99237E+01 2.08378E-01 6.88648E+00
 -1      8828 1.99519E+01 1.71043E-01 5.37245E+00
 -1      8829 1.98287E+01 2.65765E-01 5.39981E+00
 -1      8830 1.98172E+01 3.00211E-01 5.28091E+00
 -1      8831 4.50648E+01 1.56801E+01 1.95414E+00
 -1      8832 4.82780E+01 1.83552E+01 2.02154E+00
 -1      8833 1.93729E+01 8.46054E-02 2.11528E+00
 -1      8834 1.93997E+01 8.38536E-02 1.57633E+00
 -1      8835 1.93585E+01 8.38536E-02 1.55133E+00
 -1      8836 1.94000E+01 8.38536E-02 1.52632E+00
 -1      8837 1.98243E+01 6.34954E-01 7.07757E+00
 -1      8838 1.99327E+01 5.52827E-01 7.20420E+00
 -1      8839 1.98927E+01 4.80281E-01 6.98935E+00
 -1      8840 2.00771E+01 4.89301E-01 6.99030E+00
 -1      8841 2.18639E+01 5.11513E-01 5.78854E+00
 -1      8842 2.21641E+01 5.11513E-01 5.55389E+00
 -1      8843 2.22646E+01 5.11513E-01 5.94378E+00
 -1      8844 1.80233E+01 6.11483E-01 2.26255E+00
 -1      8845 1.92280E+01 8.72568E-02 7.68151E+00
 -1      8846 1.95582E+01 8.45572E-02 6.15000E+00
 -1      8847 1.95756E+01 8.45572E-02 6.08996E+00
 -1      8848 1.95716E+01 1.57720E-01 6.67469E+00
 -1      8849 1.42430E+01 2.09234E+00 8.78937E+00
 -1      8850 2.02940E+01 2.54175E-01 7.88579E+00
 -1      8851 2.03753E+01 2.54175E-01 7.77604E+00
 -1      8852 2.02425E+01 4.24834E-01 7.70416E+00
 -1      8853 1.54078E+01 6.97390E-01 8.12361E+00
 -1      8854 1.58659E+01 6.97390E-01 8.21641E+00
 -1      8855 1.54896E+01 6.97390E-01 8.58164E+00
 -1      8856 2.00072E+01 2.08378E-01 6.82160E+00
 -1      8857 1.98221E+01 1.05853E-01 1.42802E-01
 -1      8858 1.97854E+01 1.05853E-01 7.33623E-02
 -1      8859 1.98611E+01 1.05853E-01 7.78037E-02
 -1      8860 1.92781E+01 1.55970E-01 2.73178E+00
 -1      8861 1.92634E+01 1.55970E-01 2.78571E+00
 -1      8862 1.94856E+01 1.07298E-01 1.67500E+00
 -1      8863 1.94430E+01 7.54065E-02 2.34833E+00
 -1      8864 1.96063E+01 1.98413E-01 8.07643E+00
 -1      8865 1.95985E+01 1.98627E-01 7.92228E+00
 -1      8866 1.87470E+01 1.53179E-01 8.35992E+00
 -1      8867 1.88643E+01 1.53179E-01 8.26020E+00
 -1      8868 1.85854E+01 1.75943E-01 8.14187E+00
 -1      8869 1.87827E+01 3.29122E-01 8.12645E+00
 -1      8870 2.06985E+01 9.74069E-01 4.15769E+00
 -1      8871 2.10659E+01 8.10851E-01 4.61286E+00
 -1      8872 2.08775E+01 7.08988E-01 4.34751E+00
 -1      8873 1.86234E+01 1.34296E-01 7.45692E-01
 -1      8874 1.94423E+01 8.51070E-02 5.55000E+00
 -1      8875 1.93929E+01 8.51070E-02 5.57603E+00
 -1      8876 1.94011E+01 8.51070E-02 5.52300E+00
 -1      8877 1.95650E+01 7.90857E-02 9.19648E+00
 -1      8878 1.94348E+01 2.00496E-01 3.43997E+00
 -1      8879 1.19044E+01 7.01783E+00 1.66274E+00
 -1      8880 1.18400E+01 5.62932E+00 4.16274E+00
 -1      8881 1.94850E+01 1.03645E-01 9.17500E+00
 -1      8882 1.94424E+01 1.03645E-01 9.20003E+00
 -1      8883 1.92191E+01 4.93120E-01 7.47762E-01
 -1      8884 1.91891E+01 3.92229E-01 9.18027E-01
 -1      8885 1.89676E+01 4.29452E-01 7.65891E-01
 -1      8886 1.99051E+01 1.78154E+00 8.71714E+00
 -1      8887 1.95707E+01 2.14517E+00 8.87643E+00
 -1      8888 1.89189E+01 1.78688E-01 6.17581E+00
 -1      8889 2.03866E+01 2.54175E-01 7.93831E+00
 -1      8890 2.01822E+01 4.18929E-01 8.00444E+00
 -1      8891 1.99131E+01 3.98607E-01 2.55649E+00
 -1      8892 1.63923E+01 5.89808E-01 6.55117E+00
 -1      8893 1.81694E+01 1.03983E+00 3.78620E+00
 -1      8894 1.77422E+01 7.26823E-01 3.88535E+00
 -1      8895 1.76167E+01 9.53482E-01 3.66206E+00
 -1      8896 2.23208E+01 5.48850E-01 7.40463E+00
 -1      8897 2.19126E+01 5.48850E-01 7.25452E+00
 -1      8898 2.17076E+01 8.32685E-01 7.38409E+00
 -1      8899 1.87730E+01 4.26547E-01 9.56427E+00
 -1      8900 1.90141E+01 4.29657E-01 5.06335E+00
 -1      8901 1.91011E+01 3.00845E-01 5.02456E+00
 -1      8902 1.92512E+01 3.77630E-01 4.88643E+00
 -1      8903 1.94248E+01 8.01688E-02 8.37712E+00
 -1      8904 1.93789E+01 8.01688E-02 8.40196E+00
 -1      8905 1.91490E+01 1.37677E+00 3.16038E+00
 -1      8906 1.92579E+01 1.16970E+00 2.62964E+00
 -1      8907 1.89943E+01 7.72662E-01 3.07713E+00
 -1      8908 1.93522E+01 7.30804E-01 3.18091E+00
 -1      8909 1.91879E+01 6.03088E-01 3.16327E+00
 -1      8910 1.93257E+01 6.81630E-01 4.93325E+00
 -1      8911 1.93340E+01 4.02744E-01 4.76580E+00
 -1      8912 1.91477E+01 3.15384E-01 4.76037E+00
 -1      8913 1.91393E+01 5.94271E-01 4.92781E+00
 -1      8914 1.93360E+01 1.05017E-01 3.70145E+00
 -1      8915 1.92834E+01 1.05017E-01 3.72672E+00
 -1      8916 1.93505E+01 1.93788E-01 3.77666E+00
 -1      8917 2.14547E+01 4.21254E-01 2.86490E+00
 -1      8918 2.16564E+01 4.21254E-01 3.25091E+00
 -1      8919 2.12695E+01 4.21254E-01 3.17357E+00
 -1      8920 1.94866E+01 9.36059E-02 7.37500E+00
 -1      8921 1.94866E+01 9.36059E-02 7.32500E+00
 -1      8922 1.95322E+01 9.36059E-02 7.34999E+00
 -1      8923 1.95646E+01 8.53712E-02 1.86705E-01
 -1      8924 1.95263E+01 8.53712E-02 2.11823E-01
 -1      8925 1.95263E+01 8.53712E-02 1.61823E-01
 -1      8926 1.81415E+01 1.53939E+00 4.13848E+00
 -1      8927 1.83367E+01 1.76430E+00 3.70645E+00
 -1      8928 1.84173E+01 1.83452E+00 4.38988E+00
 -1      8929 1.88942E+01 1.38042E-01 9.26127E+00
 -1      8930 1.89193E+01 1.38042E-01 9.37121E+00
 -1      8931 1.92784E+01 8.01688E-02 8.42163E+00
 -1      8932 1.92823E+01 1.97946E-01 8.46593E+00
 -1      8933 1.92750E+01 8.01688E-02 8.33057E+00
 -1      8934 1.94205E+01 1.88352E-01 9.42308E+00
 -1      8935 1.93751E+01 8.87704E-02 3.80191E+00
 -1      8936 1.93493E+01 1.92110E-01 7.67834E+00
 -1      8937 1.85078E+01 7.97460E+00 5.90769E+00
 -1      8938 1.92759E+01 8.05318E+00 8.40769E+00
 -1      8939 1.93467E+01 4.80070E-01 8.72289E+00
 -1      8940 1.93005E+01 3.99555E-01 8.90357E+00
 -1      8941 1.95180E+01 4.82740E-01 8.86932E+00
 -1      8942 1.92695E+01 7.33273E-01 8.83866E+00
 -1      8943 1.92233E+01 6.52757E-01 9.01934E+00
 -1      8944 1.90520E+01 6.50087E-01 8.87291E+00
 -1      8945 1.96685E+01 8.00783E-02 7.99150E-01
 -1      8946 1.96453E+01 1.85130E-01 7.19999E-01
 -1      8947 1.94703E+01 1.04853E-01 7.64996E+00
 -1      8948 1.94703E+01 1.04853E-01 7.69996E+00
 -1      8949 2.18450E+01 3.41898E-01 5.36837E+00
 -1      8950 2.17849E+01 3.41898E-01 5.03899E+00
 -1      8951 2.21452E+01 3.41898E-01 5.13371E+00
 -1      8952 2.20326E+01 6.05407E-01 9.25106E-01
 -1      8953 2.18771E+01 6.05407E-01 1.15117E+00
 -1      8954 2.16974E+01 6.05407E-01 8.97424E-01
 -1      8955 1.96654E+01 8.00783E-02 9.28567E-01
 -1      8956 1.97369E+01 8.00783E-02 8.99666E-01
 -1      8957 1.96966E+01 8.00783E-02 9.89000E-01
 -1      8958 1.31481E+01 4.53427E+00 4.96653E+00
 -1      8959 1.78090E+01 1.57279E+00 1.55424E+00
 -1      8960 1.92952E+01 5.94071E-01 8.03740E+00
 -1      8961 2.57446E+01 8.38278E+00 8.31678E+00
 -1      8962 1.63190E+01 1.18410E+00 5.46033E+00
 -1      8963 1.59315E+01 6.78250E-01 5.42760E+00
 -1      8964 2.43584E+01 8.20744E-01 7.98226E+00
 -1      8965 2.39337E+01 8.20744E-01 7.36356E+00
 -1      8966 2.46174E+01 8.20744E-01 7.30800E+00
 -1      8967 1.91777E+01 4.46669E-01 7.81082E+00
 -1      8968 1.89105E+01 4.24290E-01 7.73742E+00
 -1      8969 1.91368E+01 6.68612E-01 7.87935E+00
 -1      8970 1.89886E+01 6.42169E-01 7.69197E+00
 -1      8971 1.92558E+01 6.64548E-01 7.76537E+00
 -1      8972 2.53470E+01 3.98413E+00 1.33710E+00
 -1      8973 2.66197E+01 3.98201E+00 1.33710E+00
 -1      8974 1.90167E+01 2.88002E-01 1.13703E+00
 -1      8975 1.85081E+01 2.06901E-01 3.20107E+00
 -1      8976 1.97032E+01 1.26950E-01 2.31558E+00
 -1      8977 1.89584E+01 1.26805E+01 2.64520E+00
 -1      8978 1.96522E+01 1.07589E+01 1.56393E+00
 -1      8979 1.96026E+01 8.13282E-02 6.82471E+00
 -1      8980 1.95572E+01 8.13282E-02 6.84969E+00
 -1      8981 2.10934E+01 4.41204E-01 4.03762E+00
 -1      8982 1.94404E+01 6.97190E-02 8.45017E+00
 -1      8983 1.94404E+01 6.97190E-02 8.50017E+00
 -1      8984 1.93945E+01 6.97190E-02 8.47501E+00
 -1      8985 1.91791E+01 9.64040E-02 5.59786E+00
 -1      8986 1.92361E+01 9.64040E-02 5.66654E+00
 -1      8987 1.91578E+01 9.64040E-02 5.69945E+00
 -1      8988 1.88117E+01 1.09042E+01 8.36719E+00
 -1      8989 1.89324E+01 9.73766E+00 5.86719E+00
 -1      8990 1.97005E+01 9.81623E+00 8.36719E+00
 -1      8991 8.14139E+00 1.29400E+01 7.50000E+00
 -1      8992 1.11161E+01 1.42631E+01 7.50000E+00
 -1      8993 8.14139E+00 1.29400E+01 2.50000E+00
 -1      8994 1.11161E+01 1.42631E+01 2.50000E+00
 -1      8995 1.80941E+01 3.21895E-01 2.68356E+00
 -1      8996 1.79605E+01 3.21895E-01 2.57220E+00
 -1      8997 2.32939E+01 1.46010E+01 2.50000E+00
 -1      8998 2.32242E+01 1.72248E+01 2.50000E+00
 -1      8999 1.95040E+01 7.22241E-01 2.30000E+00
 -1      9000 1.95036E+01 4.91353E-01 2.35000E+00
 -1      9001 1.97664E+01 7.00703E-01 2.21982E+00
 -1      9002 1.97659E+01 4.69815E-01 2.26982E+00
 -1      9003 1.97381E+01 5.38625E-01 2.46982E+00
 -1      9004 1.59083E+01 6.97390E-01 8.84995E+00
 -1      9005 1.56361E+01 6.97390E-01 9.04911E+00
 -1      9006 1.61930E+01 1.10900E+00 8.82967E+00
 -1      9007 1.92309E+01 8.72568E-02 7.58604E+00
 -1      9008 1.93191E+01 2.23097E-01 7.57833E+00
 -1      9009 1.93218E+01 9.40750E-02 2.53473E+00
 -1      9010 1.95217E+01 1.25042E-01 3.57500E+00
 -1      9011 1.94386E+01 2.29860E-01 3.58997E+00
 -1      9012 1.87354E+01 2.19643E-01 4.95167E+00
 -1      9013 3.01048E+01 6.66052E+00 3.11508E+00
 -1      9014 1.92893E+01 5.11265E-01 4.12419E+00
 -1      9015 1.88001E+01 1.52916E-01 6.40133E+00
 -1      9016 1.86888E+01 1.52916E-01 6.35501E+00
 -1      9017 1.88580E+01 3.31604E-01 6.29116E+00
 -1      9018 1.92431E+01 1.30970E-01 6.80177E-01
 -1      9019 1.93040E+01 1.30970E-01 7.29600E-01
 -1      9020 1.99451E+01 4.61780E-01 8.59493E+00
 -1      9021 1.94873E+01 4.63812E-01 6.74949E-01
 -1      9022 1.95036E+01 3.75242E-01 5.50000E-01
 -1      9023 1.94569E+01 3.67328E-01 7.74949E-01
 -1      9024 1.93176E+01 3.58919E-01 8.04549E-01
 -1      9025 1.93339E+01 2.70349E-01 6.79600E-01
 -1      9026 1.93643E+01 3.66833E-01 5.79600E-01
 -1      9027 1.93688E+01 9.28369E-02 4.69841E+00
 -1      9028 1.94147E+01 9.28369E-02 4.72460E+00
 -1      9029 1.93673E+01 9.28369E-02 4.74866E+00
 -1      9030 1.96889E+01 1.21102E-01 1.20114E+00
 -1      9031 1.97311E+01 1.21102E-01 1.22804E+00
 -1      9032 1.96796E+01 1.21102E-01 1.25303E+00
 -1      9033 1.97427E+01 1.25268E-01 3.05308E+00
 -1      9034 2.02062E+01 2.18313E-01 8.88966E+00
 -1      9035 2.01850E+01 2.18313E-01 9.04572E+00
 -1      9036 2.00831E+01 2.18313E-01 8.97817E+00
 -1      9037 2.56143E+01 5.38904E+00 1.53666E+00
 -1      9038 2.56062E+01 5.24590E+00 4.04660E+00
 -1      9039 2.48046E+01 7.03870E+00 3.16593E+00
 -1      9040 1.77451E+01 1.25612E+00 7.72497E+00
 -1      9041 1.83145E+01 1.19933E+00 7.58352E+00
 -1      9042 1.79910E+01 1.11466E+00 7.49568E+00
 -1      9043 2.34137E+01 2.97335E+00 6.00507E+00
 -1      9044 2.30430E+01 4.53872E+00 5.94762E+00
 -1      9045 2.24793E+01 2.99493E+00 6.07798E+00
 -1      9046 1.88896E+01 1.34296E-01 5.89030E-01
 -1      9047 1.89792E+01 2.65266E-01 7.02314E-01
 -1      9048 1.88289E+01 1.34296E-01 6.69773E-01
 -1      9049 1.93024E+01 9.28369E-02 4.66304E+00
 -1      9050 1.93125E+01 9.28369E-02 4.71536E+00
 -1      9051 1.96624E+01 8.00783E-02 8.66910E-01
 -1      9052 1.97229E+01 8.00783E-02 8.30129E-01
 -1      9053 1.87729E+01 3.22965E+00 8.43542E+00
 -1      9054 1.92887E+01 2.90185E+00 8.73182E+00
 -1      9055 1.27283E+01 4.44580E+00 3.06010E+00
 -1      9056 1.92933E+01 7.91906E-02 5.13658E+00
 -1      9057 1.93037E+01 7.91906E-02 5.05320E+00
 -1      9058 1.93468E+01 7.91906E-02 5.09955E+00
 -1      9059 1.96723E+01 1.29168E-01 5.32041E+00
 -1      9060 1.86294E+01 2.17748E-01 5.88580E+00
 -1      9061 1.85044E+01 2.17748E-01 5.95578E+00
 -1      9062 1.85065E+01 2.17748E-01 5.82356E+00
 -1      9063 1.95355E+01 1.07298E-01 1.64740E+00
 -1      9064 1.93860E+01 9.53792E-02 3.27687E+00
 -1      9065 1.97957E+01 7.89971E-01 4.73566E+00
 -1      9066 2.00740E+01 6.06217E-01 4.61455E+00
 -1      9067 2.00046E+01 5.47470E-01 4.89681E+00
 -1      9068 1.69618E+01 1.21029E+00 4.23008E+00
 -1      9069 3.01048E+01 6.66052E+00 8.11508E+00
 -1      9070 2.82158E+01 7.53673E+00 6.43185E+00
 -1      9071 1.95193E+01 9.29830E-02 2.95153E+00
 -1      9072 1.96034E+01 2.18251E-01 2.98199E+00
 -1      9073 1.92343E+01 8.61405E-02 9.45819E+00
 -1      9074 1.91868E+01 8.61405E-02 9.51684E+00
 -1      9075 1.91645E+01 8.61405E-02 9.42712E+00
 -1      9076 1.94481E+01 2.09555E-01 4.25203E-01
 -1      9077 1.90860E+01 3.67679E-01 2.34988E+00
 -1      9078 1.97172E+01 9.35022E-02 1.74836E+00
 -1      9079 1.66369E+01 3.15990E+00 4.57771E+00
 -1      9080 1.94104E+01 2.40693E-01 7.59991E+00
 -1      9081 1.95151E+01 2.96969E-01 7.47882E+00
 -1      9082 1.59873E+01 3.05157E+00 5.35287E+00
 -1      9083 1.53513E+01 4.01506E+00 6.54970E+00
 -1      9084 1.67018E+01 2.87060E+00 6.19286E+00
 -1      9085 1.62268E+01 4.45799E+00 6.33342E+00
 -1      9086 1.68628E+01 3.49450E+00 5.13658E+00
 -1      9087 1.92894E+01 2.37980E-01 5.91652E+00
 -1      9088 1.92083E+01 2.06440E-01 5.80808E+00
 -1      9089 1.93580E+01 2.24348E-01 5.78643E+00
 -1      9090 1.93848E+01 2.00116E-01 5.86117E+00
 -1      9091 1.93038E+01 1.68575E-01 5.75274E+00
 -1      9092 1.92352E+01 1.82207E-01 5.88283E+00
 -1      9093 2.20610E+01 3.04018E+00 8.60362E+00
 -1      9094 2.23900E+01 2.23073E+00 7.81243E+00
 -1      9095 2.18517E+01 2.35544E+00 9.20881E+00
 -1      9096 2.14278E+01 2.77519E+00 8.90957E+00
 -1      9097 2.17568E+01 1.96574E+00 8.11837E+00
 -1      9098 2.19660E+01 2.65048E+00 7.51319E+00
 -1      9099 1.93098E+01 2.15344E+00 1.34547E+00
 -1      9100 1.93489E+01 2.77007E+00 1.97056E+00
 -1      9101 1.90523E+01 2.36274E+00 1.77302E+00
 -1      9102 1.94436E+01 7.54188E-02 4.29977E+00
 -1      9103 2.68682E+01 2.49101E+00 5.09641E+00
 -1      9104 2.66116E+01 3.83887E+00 3.84705E+00
 -1      9105 2.65118E+01 1.34786E+00 3.92357E+00
 -1      9106 2.54938E+01 2.94882E+00 3.60378E+00
 -1      9107 2.58501E+01 4.09197E+00 4.77662E+00
 -1      9108 1.97303E+01 3.02441E-01 5.94801E+00
 -1      9109 1.95852E+01 4.45872E-01 5.97844E+00
 -1      9110 1.97969E+01 6.07881E-01 6.08007E+00
 -1      9111 1.96773E+01 7.14586E-01 5.95163E+00
 -1      9112 1.98225E+01 5.71155E-01 5.92120E+00
 -1      9113 1.92553E+01 1.30970E-01 6.04936E-01
 -1      9114 1.95082E+01 9.91443E-02 8.32500E+00
 -1      9115 1.96733E+01 1.61774E-01 6.92333E+00
 -1      9116 1.96630E+01 1.61774E-01 6.97601E+00
 -1      9117 1.63139E+01 1.29122E+00 3.03208E+00
 -1      9118 1.95300E+01 9.24907E-02 2.74529E+00
 -1      9119 1.95136E+01 4.22842E-01 6.42414E+00
 -1      9120 1.94293E+01 3.32240E-01 6.57484E+00
 -1      9121 1.93167E+01 2.90998E-01 6.42449E+00
 -1      9122 1.65450E+01 5.37310E+00 3.46291E+00
 -1      9123 2.01339E+01 1.36625E-01 2.13849E+00
 -1      9124 2.02286E+01 1.36625E-01 2.18076E+00
 -1      9125 2.01000E+01 3.95168E-01 2.19852E+00
 -1      9126 3.47169E+01 3.04286E+00 8.39986E+00
 -1      9127 3.54289E+01 5.24633E+00 7.01369E+00
 -1      9128 3.49621E+01 6.28920E+00 8.61383E+00
 -1      9129 3.58993E+01 5.36398E+00 8.60116E+00
 -1      9130 3.63661E+01 4.32111E+00 7.00102E+00
 -1      9131 1.86064E+01 1.52916E-01 6.42731E+00
 -1      9132 1.85337E+01 2.17748E-01 6.06907E+00
 -1      9133 1.85842E+01 3.70664E-01 6.23074E+00
 -1      9134 1.84514E+01 2.17748E-01 6.14137E+00
 -1      9135 1.76220E+01 4.35423E-01 2.47672E+00
 -1      9136 1.76359E+01 4.35423E-01 2.69729E+00
 -1      9137 1.73970E+01 4.35423E-01 2.53040E+00
 -1      9138 2.23240E+01 1.03649E+01 8.36719E+00
 -1      9139 2.09812E+01 1.01356E+01 8.36719E+00
 -1      9140 2.15055E+01 9.51561E+00 5.86719E+00
 -1      9141 1.94298E+01 1.07290E-01 2.18199E+00
 -1      9142 1.94729E+01 1.07290E-01 2.15202E+00
 -1      9143 1.94729E+01 1.07290E-01 2.20202E+00
 -1      9144 1.89097E+01 4.80683E-01 3.52098E+00
 -1      9145 1.90574E+01 5.05497E-01 3.69318E+00
 -1      9146 2.26195E+01 5.81224E+00 6.01481E+00
 -1      9147 2.06357E+01 6.46374E+00 5.94924E+00
 -1      9148 3.45687E+01 1.64870E+01 4.45414E+00
 -1      9149 1.82355E+01 5.03987E-01 2.10785E+00
 -1      9150 1.84299E+01 1.64541E-01 2.04319E+00
 -1      9151 1.85906E+01 3.78941E-01 2.13642E+00
 -1      9152 1.82312E+01 4.54129E-01 1.92550E+00
 -1      9153 1.94248E+01 8.87704E-02 3.82490E+00
 -1      9154 1.93818E+01 8.87704E-02 3.84885E+00
 -1      9155 1.85163E+01 1.48878E+00 8.39313E+00
 -1      9156 1.85719E+01 1.07994E+00 8.86473E+00
 -1      9157 1.88530E+01 6.09598E-01 3.95902E+00
 -1      9158 1.90781E+01 6.64273E-01 4.14052E+00
 -1      9159 2.46434E+01 1.12816E+01 5.81677E+00
 -1      9160 2.38342E+01 1.16053E+01 7.50000E+00
 -1      9161 2.21185E+01 1.20726E+01 5.86719E+00
 -1      9162 2.31333E+01 1.00411E+01 6.68396E+00
 -1      9163 1.91925E+01 3.19254E-01 2.51339E+00
 -1      9164 1.89389E+01 4.05812E-01 2.62707E+00
 -1      9165 1.96167E+01 9.35022E-02 1.79755E+00
 -1      9166 1.87265E+01 1.80634E-01 2.73109E+00
 -1      9167 1.90080E+01 1.42500E-01 2.25348E+00
 -1      9168 3.25117E+01 4.95456E+00 8.11508E+00
 -1      9169 3.29786E+01 3.91169E+00 6.51494E+00
 -1      9170 1.97857E+01 1.43963E-01 3.30652E+00
 -1      9171 1.98300E+01 1.43963E-01 3.20981E+00
 -1      9172 1.91873E+01 1.55970E-01 2.78761E+00
 -1      9173 1.92212E+01 9.45971E-02 8.77127E+00
 -1      9174 1.92367E+01 9.45971E-02 8.86237E+00
 -1      9175 1.91445E+01 9.45971E-02 8.81589E+00
 -1      9176 1.95333E+01 1.03584E-01 9.54916E+00
 -1      9177 1.97630E+01 1.21095E-01 4.47891E+00
 -1      9178 1.94457E+01 1.99035E-01 2.03543E+00
 -1      9179 1.94628E+01 9.91443E-02 8.35021E+00
 -1      9180 1.95082E+01 9.91443E-02 8.37500E+00
 -1      9181 1.95705E+01 9.54616E-02 1.24810E+00
 -1      9182 1.96505E+01 2.16564E-01 1.30304E+00
 -1      9183 1.93611E+01 3.72495E-01 9.18758E+00
 -1      9184 1.91138E+01 3.38457E-01 9.20683E+00
 -1      9185 1.92244E+01 3.68187E-01 9.06925E+00
 -1      9186 1.93501E+01 3.11767E-01 9.08057E+00
 -1      9187 1.91028E+01 2.77730E-01 9.09982E+00
 -1      9188 1.92395E+01 2.82037E-01 9.21814E+00
 -1      9189 2.01163E+01 1.65838E-01 9.56470E+00
 -1      9190 2.01518E+01 1.65838E-01 9.44376E+00
 -1      9191 1.94707E+01 2.41817E-01 7.50000E-01
 -1      9192 2.44382E+01 1.32195E+01 7.50000E+00
 -1      9193 2.54530E+01 1.11880E+01 8.31678E+00
 -1      9194 2.70735E+01 8.47533E-01 8.87478E+00
 -1      9195 2.82567E+01 2.39446E+00 8.51214E+00
 -1      9196 1.94894E+01 7.22084E-02 5.37328E+00
 -1      9197 1.95292E+01 7.22084E-02 5.39939E+00
 -1      9198 1.94849E+01 7.22084E-02 5.41995E+00
 -1      9199 1.80034E+01 5.63730E-01 3.94855E+00
 -1      9200 2.45789E+01 1.42048E+00 2.98485E+00
 -1      9201 2.50624E+01 1.60096E+00 3.93087E+00
 -1      9202 2.42973E+01 1.60096E+00 3.83651E+00
 -1      9203 2.42487E+01 3.02144E+00 3.58734E+00
 -1      9204 1.98588E+01 2.60135E-01 5.88838E+00
 -1      9205 1.98333E+01 2.96860E-01 6.04725E+00
 -1      9206 1.99254E+01 5.65575E-01 6.02045E+00
 -1      9207 1.93035E+01 4.69798E-01 7.05434E+00
 -1      9208 1.91923E+01 5.01615E-01 7.12339E+00
 -1      9209 1.76849E+01 7.25010E-01 2.16707E+00
 -1      9210 1.74829E+01 2.89588E-01 1.83213E+00
 -1      9211 1.72917E+01 4.35423E-01 2.10227E+00
 -1      9212 1.75424E+01 7.16925E-01 1.90154E+00
 -1      9213 1.73405E+01 2.81503E-01 1.56660E+00
 -1      9214 1.87589E+01 1.44395E-01 9.67336E+00
 -1      9215 1.96740E+01 1.12875E+00 6.78098E+00
 -1      9216 1.97186E+01 9.08303E-01 7.05598E+00
 -1      9217 1.90462E+01 3.80912E-01 5.87521E+00
 -1      9218 1.90583E+01 2.88724E-01 6.00191E+00
 -1      9219 1.99643E+01 1.40063E-01 2.72823E+00
 -1      9220 2.52499E+01 4.10275E+00 2.87376E+00
 -1      9221 1.95634E+01 8.48619E-02 7.60221E+00
 -1      9222 1.95156E+01 8.48619E-02 7.62500E+00
 -1      9223 1.96085E+01 1.06457E-01 7.12241E+00
 -1      9224 1.96024E+01 8.33337E-02 6.97768E+00
 -1      9225 1.95810E+01 1.89791E-01 7.07038E+00
 -1      9226 1.95589E+01 8.33337E-02 7.00203E+00
 -1      9227 1.97878E+01 3.62383E-01 9.20832E+00
 -1      9228 2.00191E+01 4.48544E-01 9.08288E+00
 -1      9229 1.99634E+01 3.50465E-01 8.95417E+00
 -1      9230 1.96135E+01 7.11080E-02 3.99281E+00
 -1      9231 1.95662E+01 7.11080E-02 3.95224E+00
 -1      9232 1.96226E+01 7.11080E-02 3.93023E+00
 -1      9233 1.94990E+01 1.07216E+00 2.45000E+00
 -1      9234 1.96558E+01 1.06429E+00 2.79185E+00
 -1      9235 1.96891E+01 8.76454E-01 2.39185E+00
 -1      9236 1.96609E+01 7.14376E-01 2.64185E+00
 -1      9237 1.53763E+01 6.02684E-01 7.30981E+00
 -1      9238 1.58344E+01 6.02684E-01 7.40260E+00
 -1      9239 1.53261E+01 1.30007E+00 7.89783E+00
 -1      9240 1.96161E+01 7.19181E-02 6.35637E+00
 -1      9241 1.95713E+01 7.19181E-02 6.32414E+00
 -1      9242 1.96390E+01 1.96677E-01 6.38914E+00
 -1      9243 1.98760E+01 4.38597E-01 7.75820E+00
 -1      9244 1.82479E+01 8.10388E-01 2.74292E-01
 -1      9245 1.82174E+01 5.22315E-01 5.96512E-01
 -1      9246 1.92492E+01 7.78206E-02 4.07590E+00
 -1      9247 1.92975E+01 7.78206E-02 4.12651E+00
 -1      9248 1.94061E+01 1.86566E-01 2.65358E+00
 -1      9249 1.98376E+01 1.32858E-01 5.65653E+00
 -1      9250 1.98747E+01 1.32858E-01 5.75938E+00
 -1      9251 1.97760E+01 1.32858E-01 5.74924E+00
 -1      9252 1.96019E+01 3.08209E+00 9.21992E+00
 -1      9253 2.00905E+01 2.99188E+00 8.58445E+00
 -1      9254 1.98839E+01 2.32542E+00 9.36453E+00
 -1      9255 1.90822E+01 2.23538E+00 9.51190E+00
 -1      9256 2.01837E+01 9.06912E+00 6.77488E+00
 -1      9257 2.49718E+01 1.75726E+01 7.50000E+00
 -1      9258 2.58088E+01 1.73322E+01 5.00000E+00
 -1      9259 2.49718E+01 1.75726E+01 2.50000E+00
 -1      9260 1.96085E+01 9.54616E-02 1.32447E+00
 -1      9261 1.95618E+01 9.54616E-02 1.35001E+00
 -1      9262 2.30085E+01 2.13963E+00 2.87202E+00
 -1      9263 2.30570E+01 7.19148E-01 3.12120E+00
 -1      9264 2.22973E+01 1.25931E+00 3.63444E+00
 -1      9265 1.99489E+01 4.27302E-01 2.22722E+00
 -1      9266 1.96215E+01 8.48870E-02 2.09695E+00
 -1      9267 2.29527E+01 1.28579E+01 7.50000E+00
 -1      9268 2.14425E+01 1.16174E+01 8.36719E+00
 -1      9269 2.03477E+01 2.20346E-01 4.10947E-01
 -1      9270 2.04157E+01 2.20346E-01 5.42382E-01
 -1      9271 2.02722E+01 2.20346E-01 5.30208E-01
 -1      9272 1.94724E+01 8.96390E-02 5.24907E+00
 -1      9273 1.94266E+01 8.96390E-02 5.27724E+00
 -1      9274 1.94274E+01 8.96390E-02 5.22432E+00
 -1      9275 2.17992E+01 3.59047E+00 6.32837E+00
 -1      9276 2.02766E+01 8.03595E-01 9.55152E-01
 -1      9277 1.98131E+01 7.66966E-01 7.75677E-01
 -1      9278 1.99828E+01 9.43284E-01 1.02947E+00
 -1      9279 1.98302E+01 1.45162E+00 8.86566E-01
 -1      9280 2.01239E+01 1.31193E+00 8.12243E-01
 -1      9281 1.93417E+01 9.20643E-02 6.24553E+00
 -1      9282 1.93438E+01 9.20643E-02 6.29530E+00
 -1      9283 1.92853E+01 9.20643E-02 6.27160E+00
 -1      9284 2.14251E+01 1.44176E+00 6.19982E+00
 -1      9285 2.23727E+01 1.31088E+00 5.50671E+00
 -1      9286 2.21180E+01 1.72961E+00 5.91323E+00
 -1      9287 2.17399E+01 1.47909E+00 6.72839E+00
 -1      9288 2.26874E+01 1.34822E+00 6.03528E+00
 -1      9289 2.19946E+01 1.06036E+00 6.32187E+00
 -1      9290 1.96670E+01 9.43666E-01 5.72526E+00
 -1      9291 1.99534E+01 7.05719E-01 5.82899E+00
 -1      9292 1.85685E+01 4.40822E-01 7.31895E+00
 -1      9293 1.97284E+01 2.83188E-01 2.03252E+00
 -1      9294 1.98590E+01 1.68758E-01 2.01381E+00
 -1      9295 1.97703E+01 2.62260E-01 1.90494E+00
 -1      9296 3.61061E+01 2.14916E+01 2.47906E+00
 -1      9297 3.81038E+01 1.74916E+01 2.50000E+00
 -1      9298 3.44210E+01 1.86919E+01 2.50000E+00
 -1      9299 3.53382E+01 5.79434E+00 1.95414E+00
 -1      9300 3.43588E+01 6.84944E+00 1.95414E+00
 -1      9301 3.25117E+01 4.95456E+00 3.11508E+00
 -1      9302 1.99209E+01 1.68643E-01 3.92951E+00
 -1      9303 1.95738E+01 9.58613E-02 8.64413E+00
 -1      9304 1.96324E+01 9.58613E-02 8.67318E+00
 -1      9305 1.94841E+01 1.02438E-01 8.75000E-01
 -1      9306 2.00373E+01 2.93576E-01 7.80461E+00
 -1      9307 1.99256E+01 4.58330E-01 7.92326E+00
 -1      9308 1.92486E+01 8.61405E-02 9.52893E+00
 -1      9309 1.67782E+01 1.45271E+00 7.21334E-01
 -1      9310 1.69462E+01 1.15118E+00 3.79357E-01
 -1      9311 1.97145E+01 2.27580E-01 5.68389E+00
 -1      9312 1.87743E+01 2.19643E-01 4.67598E+00
 -1      9313 1.89455E+01 1.20632E-01 5.36165E+00
 -1      9314 2.16806E+01 9.03163E-01 6.16193E-01
 -1      9315 2.16933E+01 2.97756E-01 2.81231E-01
 -1      9316 2.14372E+01 3.43830E-01 7.16860E-01
 -1      9317 2.14204E+01 6.41586E-01 4.35629E-01
 -1      9318 1.60267E+01 1.31713E+00 7.72594E+00
 -1      9319 1.59371E+01 1.19249E+00 6.99468E+00
 -1      9320 1.94099E+01 9.24907E-02 2.68897E+00
 -1      9321 1.60598E+01 4.45957E-01 4.45749E-01
 -1      9322 1.56349E+01 1.08370E+00 6.38326E-01
 -1      9323 1.59203E+01 6.78250E-01 5.79971E+00
 -1      9324 1.94602E+01 5.43625E-01 2.25000E-01
 -1      9325 1.93933E+01 7.81024E-01 2.25000E-01
 -1      9326 1.91252E+01 8.10333E-01 2.97813E-01
 -1      9327 1.92658E+01 5.01035E-01 5.22813E-01
 -1      9328 1.91921E+01 5.72933E-01 2.97813E-01
 -1      9329 1.94850E+01 1.03645E-01 9.12500E+00
 -1      9330 1.97375E+01 9.53127E-02 9.41836E+00
 -1      9331 1.94780E+01 2.84120E-01 5.77243E+00
 -1      9332 1.94523E+01 4.04233E-01 5.87243E+00
 -1      9333 1.93970E+01 2.52580E-01 5.66400E+00
 -1      9334 1.93712E+01 3.72693E-01 5.76400E+00
 -1      9335 1.94354E+01 8.69324E-02 1.90273E+00
 -1      9336 1.62650E+01 4.81640E+00 7.15798E+00
 -1      9337 1.67400E+01 3.22901E+00 7.01742E+00
 -1      9338 1.76155E+01 3.67194E+00 6.80114E+00
 -1      9339 1.98636E+01 2.28782E+00 1.56473E+00
 -1      9340 1.99027E+01 2.90445E+00 2.18982E+00
 -1      9341 2.01335E+01 2.25928E+00 1.88393E+00
 -1      9342 1.90743E+01 4.91056E-01 9.81529E+00
 -1      9343 1.93019E+01 3.60505E-01 9.61462E+00
 -1      9344 1.90048E+01 4.24128E-01 9.53539E+00
 -1      9345 1.95905E+01 3.22529E-01 1.64854E+00
 -1      9346 1.95764E+01 4.67638E-01 1.47387E+00
 -1      9347 1.97669E+01 3.02144E-01 1.58846E+00
 -1      9348 1.94814E+01 9.24907E-02 2.82500E+00
 -1      9349 1.94346E+01 9.24907E-02 2.79389E+00
 -1      9350 1.94814E+01 9.24907E-02 2.77500E+00
 -1      9351 1.25719E+01 1.42707E+00 1.97911E+00
 -1      9352 1.22797E+01 1.42707E+00 2.61392E+00
 -1      9353 1.29945E+01 3.02489E+00 2.45491E+00
 -1      9354 1.89684E+01 1.53179E-01 8.19083E+00
 -1      9355 1.90149E+01 1.78688E-01 6.12082E+00
 -1      9356 1.90695E+01 3.30434E-01 6.23231E+00
 -1      9357 1.98102E+01 4.54704E-01 7.61565E+00
 -1      9358 1.96992E+01 4.33032E-01 7.33049E+00
 -1      9359 1.89614E+01 1.57703E+00 2.43210E+00
 -1      9360 1.92805E+01 7.91749E-02 8.77175E+00
 -1      9361 1.92651E+01 7.91749E-02 8.68065E+00
 -1      9362 1.93246E+01 7.91749E-02 8.71407E+00
 -1      9363 1.84330E+01 2.40613E-01 4.43014E+00
 -1      9364 1.87856E+01 1.34296E-01 5.74205E-01
 -1      9365 1.52949E+01 6.37746E-01 2.00591E+00
 -1      9366 1.57323E+01 4.47930E+00 8.80149E-01
 -1      9367 1.42905E+01 5.96392E+00 1.66274E+00
 -1      9368 1.45568E+01 4.54300E+00 1.05755E+00
 -1      9369 1.91400E+01 8.72568E-02 7.62443E+00
 -1      9370 1.93042E+01 1.03927E+00 3.05586E+00
 -1      9371 1.89874E+01 1.15604E+00 3.36624E+00
 -1      9372 1.83818E+01 2.41899E-01 7.33610E+00
 -1      9373 1.94966E+01 2.33554E-01 4.65000E+00
 -1      9374 1.92183E+01 9.20643E-02 6.27938E+00
 -1      9375 1.92182E+01 2.43811E-01 6.31979E+00
 -1      9376 1.91636E+01 9.20643E-02 6.20830E+00
 -1      9377 1.94037E+01 8.64524E-02 8.94667E+00
 -1      9378 1.94527E+01 8.64524E-02 8.94923E+00
 -1      9379 2.04179E+01 7.03606E-01 2.30272E+00
 -1      9380 2.02985E+01 5.57560E-01 1.95485E+00
 -1      9381 2.08091E+01 8.81187E-01 2.17715E+00
 -1      9382 2.06897E+01 7.35141E-01 1.82928E+00
 -1      9383 2.08392E+01 6.55374E-01 2.03665E+00
 -1      9384 2.01407E+01 9.53538E-01 5.94291E+00
 -1      9385 1.94828E+01 7.32188E-02 1.47616E+00
 -1      9386 1.95296E+01 7.32188E-02 1.45038E+00
 -1      9387 1.95721E+01 7.39267E-02 8.47020E+00
 -1      9388 1.95631E+01 7.39267E-02 8.42162E+00
 -1      9389 1.96146E+01 7.39267E-02 8.41686E+00
 -1      9390 1.93295E+01 9.53792E-02 3.22878E+00
 -1      9391 1.98955E+01 1.25268E-01 3.14090E+00
 -1      9392 1.97651E+01 2.69231E-01 3.18072E+00
 -1      9393 1.98294E+01 1.25268E-01 3.04308E+00
 -1      9394 7.32567E+00 1.25240E+00 1.37748E+00
 -1      9395 5.91863E+00 3.33524E+00 2.18811E+00
 -1      9396 1.92719E+01 1.32043E-01 4.47211E-01
 -1      9397 1.92520E+01 1.32043E-01 3.71420E-01
 -1      9398 1.93317E+01 1.32043E-01 3.82384E-01
 -1      9399 2.03475E+01 4.16615E-01 2.43701E+00
 -1      9400 2.07990E+01 6.60151E-01 2.51175E+00
 -1      9401 2.20285E+01 2.97756E-01 3.08913E-01
 -1      9402 1.91898E+01 8.94725E-01 7.55265E+00
 -1      9403 1.94423E+01 8.52199E-02 8.15000E+00
 -1      9404 2.02032E+01 1.34633E+00 5.99904E+00
 -1      9405 1.97295E+01 1.33646E+00 5.78139E+00
 -1      9406 1.99501E+01 1.62168E+00 5.51658E+00
 -1      9407 1.93860E+01 9.53792E-02 3.12687E+00
 -1      9408 3.12081E+01 1.75255E+01 2.50000E+00
 -1      9409 3.20879E+01 1.59608E+01 5.38068E+00
 -1      9410 3.03814E+01 1.72520E+01 5.00000E+00
 -1      9411 1.94017E+01 1.54603E-01 5.78874E+00
 -1      9412 1.82943E+01 5.68514E-01 1.37634E+00
 -1      9413 1.97317E+01 1.06542E+00 8.13476E+00
 -1      9414 1.95733E+01 1.13996E+00 7.97671E+00
 -1      9415 1.93247E+01 1.81297E-01 4.37676E+00
 -1      9416 1.93066E+01 7.54188E-02 4.28647E+00
 -1      9417 1.93586E+01 1.53239E-01 4.21929E+00
 -1      9418 1.95280E+01 7.19181E-02 6.34914E+00
 -1      9419 2.33887E+01 1.98500E+00 6.95593E+00
 -1      9420 2.31221E+01 5.48850E-01 6.68381E+00
 -1      9421 1.23273E+01 4.27310E+00 8.30379E+00
 -1      9422 1.14369E+01 4.12611E+00 5.80379E+00
 -1      9423 1.91367E+01 1.17047E+00 3.58585E+00
 -1      9424 1.94842E+01 1.24572E+00 3.87547E+00
 -1      9425 1.96926E+01 1.00804E+00 3.52319E+00
 -1      9426 1.97356E+01 1.40636E+00 3.69771E+00
 -1      9427 1.93882E+01 1.33111E+00 3.40809E+00
 -1      9428 2.11823E+01 1.15628E+00 4.94154E+00
 -1      9429 2.08150E+01 1.31950E+00 4.48637E+00
 -1      9430 2.06770E+01 1.57722E+00 4.82809E+00
 -1      9431 1.90054E+01 5.49823E-01 8.19377E+00
 -1      9432 1.61075E+01 1.26806E+00 6.15388E+00
 -1      9433 1.79276E+01 2.72414E-01 4.44689E+00
 -1      9434 1.81503E+01 5.13027E-01 4.27389E+00
 -1      9435 1.94797E+01 3.02649E-01 7.77496E+00
 -1      9436 1.95880E+01 2.76174E-01 7.75564E+00
 -1      9437 2.00730E+01 1.65838E-01 9.65116E+00
 -1      9438 2.01048E+01 1.65838E-01 9.73419E+00
 -1      9439 2.00045E+01 1.65838E-01 9.73087E+00
 -1      9440 1.55717E+01 6.78250E-01 5.59293E+00
 -1      9441 1.51395E+01 6.78250E-01 5.75518E+00
 -1      9442 1.91025E+01 2.97627E-01 9.84486E-01
 -1      9443 1.94753E+01 1.16175E+00 5.95016E+00
 -1      9444 1.92532E+01 1.22882E+00 5.62214E+00
 -1      9445 1.92992E+01 9.35044E-01 5.55664E+00
 -1      9446 1.91076E+01 1.15312E+00 5.78154E+00
 -1      9447 1.91203E+01 1.54920E-01 3.94800E-01
 -1      9448 1.90373E+01 1.54920E-01 3.89108E-01
 -1      9449 1.91269E+01 2.85890E-01 5.02392E-01
 -1      9450 2.03603E+01 2.54175E-01 8.11717E+00
 -1      9451 2.11063E+00 8.10445E+00 7.37579E+00
 -1      9452 2.89004E+00 6.01514E+00 4.56390E+00
 -1      9453 3.77611E+00 9.98609E+00 4.87579E+00
 -1      9454 1.83325E+01 2.37908E-01 6.85873E-01
 -1      9455 1.94701E+01 6.05423E-02 7.80095E+00
 -1      9456 1.94701E+01 6.05423E-02 7.75095E+00
 -1      9457 1.95273E+01 6.05423E-02 7.78937E+00
 -1      9458 1.92415E+01 9.20643E-02 6.13188E+00
 -1      9459 1.92491E+01 9.20643E-02 6.21928E+00
 -1      9460 1.99157E+01 2.08378E-01 6.76527E+00
 -1      9461 1.97240E+01 1.32136E-01 6.70292E+00
 -1      9462 1.97044E+01 8.13282E-02 6.77724E+00
 -1      9463 1.96340E+01 2.13464E-01 6.72507E+00
 -1      9464 1.98257E+01 2.89706E-01 6.78742E+00
 -1      9465 1.95600E+01 7.17318E-02 5.79606E+00
 -1      9466 1.98131E+01 9.62258E-01 4.36709E+00
 -1      9467 1.94848E+01 8.69324E-02 1.92500E+00
 -1      9468 1.94008E+01 1.71538E-01 1.96031E+00
 -1      9469 1.93285E+01 7.21715E-02 5.91686E+00
 -1      9470 1.93194E+01 7.21715E-02 5.86396E+00
 -1      9471 1.89128E+01 1.65044E-01 1.54914E+00
 -1      9472 1.88462E+01 1.37046E-01 3.13240E+00
 -1      9473 1.89415E+01 1.37046E-01 3.22227E+00
 -1      9474 1.90031E+01 3.20994E-01 3.23038E+00
 -1      9475 1.93764E+01 9.29830E-02 3.03070E+00
 -1      9476 1.93455E+01 9.29830E-02 2.96291E+00
 -1      9477 1.91993E+01 1.01596E-01 2.95408E+00
 -1      9478 1.92960E+01 1.94579E-01 2.94117E+00
 -1      9479 1.92302E+01 1.01596E-01 3.02187E+00
 -1      9480 1.91830E+01 1.33346E-01 9.90408E-01
 -1      9481 1.47622E+01 1.83806E+00 9.35581E+00
 -1      9482 1.78020E+01 1.27851E+00 3.79357E-01
 -1      9483 1.77769E+01 6.74847E-01 9.29459E-01
 -1      9484 1.82877E+01 8.28711E-01 1.10998E+00
 -1      9485 1.78618E+01 5.63340E-01 1.23304E+00
 -1      9486 1.75063E+01 6.74512E-01 1.06229E+00
 -1      9487 2.66979E+01 2.20513E+01 7.47494E+00
 -1      9488 2.65766E+01 2.00518E+01 4.97494E+00
 -1      9489 2.82495E+01 1.81031E+01 7.50000E+00
 -1      9490 2.59300E+01 1.93316E+01 7.50000E+00
 -1      9491 2.42572E+01 2.12804E+01 4.97494E+00
 -1      9492 1.90449E+01 8.86127E-02 9.92813E+00
 -1      9493 2.12718E+01 4.52947E-01 7.07701E+00
 -1      9494 2.12937E+01 4.52947E-01 6.82784E+00
 -1      9495 2.15331E+01 4.52947E-01 7.09320E+00
 -1      9496 1.74496E+01 1.34438E+00 5.40853E+00
 -1      9497 2.11292E+01 3.13357E-01 5.84767E+00
 -1      9498 2.11696E+01 3.13357E-01 6.12937E+00
 -1      9499 1.86888E+01 4.85974E-01 3.80332E+00
 -1      9500 1.91369E+01 1.68401E-01 3.96570E+00
 -1      9501 1.91200E+01 1.68401E-01 4.02980E+00
 -1      9502 1.92748E+01 1.10279E-01 3.92049E+00
 -1      9503 1.92579E+01 1.10279E-01 3.98459E+00
 -1      9504 1.92095E+01 2.78680E-01 4.00164E+00
 -1      9505 1.93096E+01 7.05964E-01 5.78302E+00
 -1      9506 1.93832E+01 1.07290E-01 2.16912E+00
 -1      9507 1.75853E+01 1.39667E+01 2.64520E+00
 -1      9508 5.00067E+00 6.25499E+00 2.18811E+00
 -1      9509 5.88674E+00 1.02259E+01 2.50000E+00
 -1      9510 2.01894E+01 2.80923E-01 7.23135E+00
 -1      9511 2.01848E+01 2.80923E-01 7.02796E+00
 -1      9512 2.03690E+01 2.80923E-01 7.11248E+00
 -1      9513 2.32567E+01 5.30730E+00 1.53666E+00
 -1      9514 2.43417E+01 5.39116E+00 1.53666E+00
 -1      9515 2.29039E+01 4.78878E+00 2.68530E+00
 -1      9516 1.85948E+01 4.42879E-01 6.95631E+00
 -1      9517 1.92815E+01 9.38630E-02 7.26033E+00
 -1      9518 2.17272E+01 1.00180E+00 6.95308E+00
 -1      9519 2.13306E+01 4.52947E-01 7.35716E+00
 -1      9520 2.11256E+01 7.36782E-01 7.48673E+00
 -1      9521 1.97347E+01 9.47220E-02 5.64398E+00
 -1      9522 1.87436E+01 8.06372E-01 5.03758E+00
 -1      9523 1.85602E+01 1.10859E+00 4.80017E+00
 -1      9524 1.89462E+01 1.03586E+00 5.12007E+00
 -1      9525 2.00056E+01 2.67421E-01 5.66716E+00
 -1      9526 1.99685E+01 2.67421E-01 5.56431E+00
 -1      9527 2.82495E+01 1.81031E+01 2.50000E+00
 -1      9528 2.66979E+01 2.20513E+01 2.47494E+00
 -1      9529 2.59300E+01 1.93316E+01 2.50000E+00
 -1      9530 1.93944E+01 3.10421E-01 6.02076E+00
 -1      9531 1.94077E+01 4.58765E-01 5.99833E+00
 -1      9532 1.93026E+01 3.86325E-01 5.89409E+00
 -1      9533 1.92447E+01 2.92513E-01 6.04241E+00
 -1      9534 1.98825E+01 3.62266E-01 1.23245E+00
 -1      9535 1.98416E+01 1.25268E-01 2.93263E+00
 -1      9536 1.99292E+01 1.25268E-01 3.00928E+00
 -1      9537 1.67678E+01 4.96060E-01 2.00098E+00
 -1      9538 1.69697E+01 9.31483E-01 2.33592E+00
 -1      9539 1.70185E+01 7.77563E-01 1.80024E+00
 -1      9540 1.85555E+01 4.94019E-01 6.59243E+00
 -1      9541 1.86021E+01 5.90248E-01 6.37676E+00
 -1      9542 1.88614E+01 4.98191E-01 6.60910E+00
 -1      9543 1.87770E+01 3.53897E-01 6.67073E+00
 -1      9544 1.88236E+01 4.50126E-01 6.45506E+00
 -1      9545 1.85177E+01 4.45955E-01 6.43838E+00
 -1      9546 1.95754E+01 7.32188E-02 1.42539E+00
 -1      9547 1.95746E+01 7.32188E-02 1.47537E+00
 -1      9548 1.88952E+01 1.80634E-01 2.81059E+00
 -1      9549 1.89961E+01 2.82230E-01 2.85843E+00
 -1      9550 1.79531E+01 1.98366E+00 8.58589E+00
 -1      9551 1.75558E+01 2.26368E+00 9.21550E+00
 -1      9552 1.72480E+01 2.06981E+00 8.39943E+00
 -1      9553 1.87030E+01 3.96436E-01 6.00522E+00
 -1      9554 1.99910E+01 1.70659E-01 7.40698E+00
 -1      9555 2.00086E+01 1.70659E-01 7.28091E+00
 -1      9556 1.99027E+01 1.03689E-01 7.32941E+00
 -1      9557 1.99132E+01 2.74348E-01 7.39483E+00
 -1      9558 1.93164E+01 1.03421E+00 7.41070E+00
 -1      9559 1.84479E+01 2.37908E-01 5.91746E-01
 -1      9560 2.06149E+01 1.35938E+00 7.00361E+00
 -1      9561 2.01896E+01 1.30476E+00 6.80929E+00
 -1      9562 1.99952E+01 1.46071E+00 7.05672E+00
 -1      9563 2.02047E+01 3.04869E-01 8.52476E+00
 -1      9564 2.01832E+01 3.04869E-01 8.35633E+00
 -1      9565 1.80487E+01 1.42078E+00 8.06314E+00
 -1      9566 1.99516E+01 1.26939E+00 6.10941E+00
 -1      9567 1.74830E+01 7.07694E+00 4.95141E+00
 -1      9568 1.62929E+01 5.55659E+00 5.79653E+00
 -1      9569 1.59090E+01 6.33658E+00 4.65974E+00
 -1      9570 1.73257E+01 6.29073E+00 3.76602E+00
 -1      9571 1.96329E+01 2.50857E-01 4.66839E+00
 -1      9572 1.82290E+01 2.17748E-01 5.96073E+00
 -1      9573 1.95612E+01 9.56775E-02 3.40000E+00
 -1      9574 1.95815E+01 7.39267E-02 8.56650E+00
 -1      9575 1.95746E+01 7.39267E-02 8.51751E+00
 -1      9576 1.72952E+01 8.75238E-01 8.50606E+00
 -1      9577 2.09044E+01 1.07329E+00 7.49755E+00
 -1      9578 2.16629E+01 1.22594E+00 7.73667E+00
 -1      9579 2.14222E+01 1.39334E+00 8.17850E+00
 -1      9580 2.08848E+01 9.04181E-01 7.92856E+00
 -1      9581 2.16433E+01 1.05683E+00 8.16768E+00
 -1      9582 1.89804E+01 1.53179E-01 8.44843E+00
 -1      9583 1.90367E+01 3.51622E-01 8.55082E+00
 -1      9584 1.90797E+01 2.70956E-01 8.46106E+00
 -1      9585 1.86917E+01 3.74866E-01 7.72922E+00
 -1      9586 1.96620E+01 8.60733E-02 8.18204E+00
 -1      9587 1.96634E+01 8.60733E-02 8.24494E+00
 -1      9588 1.96202E+01 8.60733E-02 8.20454E+00
 -1      9589 2.20558E+01 4.26845E+00 6.14517E+00
 -1      9590 1.94529E+01 4.66066E-01 6.27247E+00
 -1      9591 1.95108E+01 5.59878E-01 6.12414E+00
 -1      9592 1.96304E+01 4.53173E-01 6.25258E+00
 -1      9593 1.95273E+01 3.52060E-01 6.12676E+00
 -1      9594 1.93590E+01 6.81530E-01 6.00507E+00
 -1      9595 1.96030E+01 7.63921E-02 6.49814E+00
 -1      9596 1.96132E+01 7.63921E-02 6.57758E+00
 -1      9597 1.95577E+01 7.63921E-02 6.55000E+00
 -1      9598 1.84689E+01 3.37251E+00 7.09256E+00
 -1      9599 1.80608E+01 3.27615E+00 7.44009E+00
 -1      9600 2.15610E+01 5.11513E-01 6.19663E+00
 -1      9601 2.15843E+01 5.11513E-01 5.95075E+00
 -1      9602 2.11463E+01 3.13357E-01 6.37525E+00
 -1      9603 2.12651E+01 8.24870E-01 5.97192E+00
 -1      9604 1.82574E+01 2.45441E+00 4.90475E+00
 -1      9605 1.82259E+01 1.75889E+00 5.80623E+00
 -1      9606 1.80978E+01 3.27264E+00 5.24362E+00
 -1      9607 1.80663E+01 2.57713E+00 6.14510E+00
 -1      9608 1.77369E+01 2.49529E+00 5.63770E+00
 -1      9609 1.94737E+01 7.75113E-02 5.00000E-01
 -1      9610 1.95170E+01 7.75113E-02 4.75000E-01
 -1      9611 1.95170E+01 7.75113E-02 5.25000E-01
 -1      9612 1.63417E+01 4.96035E+00 8.81285E+00
 -1      9613 1.72293E+01 4.06279E+00 8.81285E+00
 -1      9614 1.54289E+01 4.52606E+00 9.11932E+00
 -1      9615 1.63164E+01 3.62850E+00 9.11932E+00
 -1      9616 1.67408E+01 3.59606E+00 7.93217E+00
 -1      9617 1.79789E+01 7.58801E-01 3.17278E+00
 -1      9618 2.03464E+01 1.36625E-01 1.86093E+00
 -1      9619 2.02277E+01 1.36625E-01 1.93512E+00
 -1      9620 2.01932E+01 1.36625E-01 1.80116E+00
 -1      9621 1.78542E+01 3.21515E-01 8.54030E+00
 -1      9622 1.78323E+01 3.21515E-01 8.33004E+00
 -1      9623 1.81238E+01 5.94502E-01 8.42587E+00
 -1      9624 1.94423E+01 8.51070E-02 5.60000E+00
 -1      9625 1.94368E+01 1.07290E-01 2.22974E+00
 -1      9626 1.99357E+01 1.38383E+00 2.79183E+00
 -1      9627 2.01576E+01 1.26420E+00 2.34072E+00
 -1      9628 2.01660E+01 1.04905E+00 2.89432E+00
 -1      9629 1.98950E+01 1.01863E+00 3.03956E+00
 -1      9630 2.01169E+01 8.99004E-01 2.58845E+00
 -1      9631 1.98867E+01 1.23378E+00 2.48596E+00
 -1      9632 1.72338E+01 4.11610E-01 8.62816E+00
 -1      9633 1.95671E+01 8.00783E-02 9.45904E-01
 -1      9634 1.95671E+01 8.00783E-02 8.95904E-01
 -1      9635 1.96104E+01 8.00783E-02 9.20904E-01
 -1      9636 1.99859E+01 4.64234E-01 7.62298E+00
 -1      9637 1.66533E+01 3.39395E-01 9.79227E+00
 -1      9638 2.07131E+01 2.92248E-01 1.57265E+00
 -1      9639 2.05409E+01 6.10912E-01 1.58916E+00
 -1      9640 2.06632E+01 2.92248E-01 1.40753E+00
 -1      9641 1.93678E+01 2.46384E-01 2.47723E+00
 -1      9642 1.93392E+01 9.40750E-02 2.47268E+00
 -1      9643 1.92639E+01 2.72060E-01 1.85023E+00
 -1      9644 2.08384E+01 9.06434E-01 1.56001E+00
 -1      9645 1.78022E+01 3.22484E-01 5.63961E+00
 -1      9646 1.76648E+01 3.24479E-01 7.36652E+00
 -1      9647 1.93351E+01 1.10279E-01 3.92697E+00
 -1      9648 1.93780E+01 1.10279E-01 3.90302E+00
 -1      9649 1.93792E+01 1.10279E-01 3.95336E+00
 -1      9650 1.41706E+01 1.06896E+00 4.11709E+00
 -1      9651 1.93371E+01 8.47687E-02 9.29112E+00
 -1      9652 1.93262E+01 8.47687E-02 9.33991E+00
 -1      9653 1.92771E+01 8.47687E-02 9.30363E+00
 -1      9654 2.80418E+01 1.86324E+00 4.11006E+00
 -1      9655 2.77853E+01 3.21110E+00 2.86070E+00
 -1      9656 2.74353E+01 2.89478E+00 4.84924E+00
 -1      9657 2.89653E+01 3.41016E+00 5.03573E+00
 -1      9658 2.02847E+01 1.17462E+00 7.55067E+00
 -1      9659 2.06652E+01 9.07708E-01 7.66454E+00
 -1      9660 2.32939E+01 1.46010E+01 7.50000E+00
 -1      9661 2.07563E+01 1.47223E+01 7.64520E+00
 -1      9662 2.32242E+01 1.72248E+01 7.50000E+00
 -1      9663 1.58880E+01 6.97390E-01 8.53793E+00
 -1      9664 1.60581E+01 1.41183E+00 8.53975E+00
 -1      9665 1.79195E+01 2.40826E-01 3.03269E+00
 -1      9666 1.77772E+01 6.76249E-01 2.77260E+00
 -1      9667 1.79056E+01 2.40826E-01 2.81211E+00
 -1      9668 9.43473E+00 9.96337E-01 7.27207E-01
 -1      9669 1.08778E+01 1.42707E+00 2.12457E+00
 -1      9670 1.96545E+01 2.69005E-01 3.49872E+00
 -1      9671 1.95416E+01 2.66053E-01 3.45442E+00
 -1      9672 1.95932E+01 2.11202E-01 3.57761E+00
 -1      9673 1.97043E+01 2.30123E-01 3.42633E+00
 -1      9674 2.03196E+01 1.56733E+00 9.59972E+00
 -1      9675 2.01983E+01 1.24374E+00 9.07854E+00
 -1      9676 2.01772E+01 1.88472E+00 8.96425E+00
 -1      9677 1.93196E+01 1.10279E-01 3.97220E+00
 -1      9678 1.94370E+01 7.54065E-02 2.40150E+00
 -1      9679 2.13507E+01 1.43633E+00 1.72298E+00
 -1      9680 2.07315E+01 1.32088E+00 1.71127E+00
 -1      9681 2.05789E+01 1.82921E+00 1.56836E+00
 -1      9682 1.58423E+01 4.45957E-01 9.69329E+00
 -1      9683 1.63992E+01 8.57567E-01 9.47385E+00
 -1      9684 1.84465E+01 2.41899E-01 6.88070E+00
 -1      9685 1.85570E+01 3.94815E-01 6.80227E+00
 -1      9686 1.86287E+01 1.52916E-01 6.59511E+00
 -1      9687 1.97304E+01 1.06457E-01 7.20210E+00
 -1      9688 2.05446E+01 2.52761E-01 8.88665E+00
 -1      9689 2.05729E+01 2.52761E-01 8.71356E+00
 -1      9690 1.89290E+01 1.55525E-01 3.66162E+00
 -1      9691 1.88131E+01 1.55525E-01 3.62497E+00
 -1      9692 1.89971E+01 3.39472E-01 3.57407E+00
 -1      9693 1.97005E+01 4.33677E-01 7.07495E+00
 -1      9694 1.97866E+01 3.75593E-01 7.26025E+00
 -1      9695 1.91319E+01 4.28996E-01 6.80682E+00
 -1      9696 1.88665E+01 9.01856E-01 6.38154E+00
 -1      9697 1.95407E+01 5.19720E+00 4.62746E+00
 -1      9698 1.86604E+01 5.90026E+00 4.10387E+00
 -1      9699 1.85898E+01 4.80768E+00 5.42641E+00
 -1      9700 1.96109E+01 5.56608E+00 4.99295E+00
 -1      9701 2.05618E+01 5.95560E+00 4.19401E+00
 -1      9702 1.88991E+01 1.65044E-01 1.63527E+00
 -1      9703 1.88398E+01 1.65044E-01 1.72236E+00
 -1      9704 1.98886E+01 1.86892E-01 5.00164E+00
 -1      9705 1.98382E+01 1.86892E-01 4.90878E+00
 -1      9706 1.93455E+01 9.85974E-02 7.85143E+00
 -1      9707 1.92845E+01 8.72568E-02 7.72838E+00
 -1      9708 1.95762E+01 1.25042E-01 3.65413E+00
 -1      9709 1.95564E+01 1.25042E-01 3.70507E+00
 -1      9710 1.68037E+01 4.46988E-01 3.22633E+00
 -1      9711 2.00747E+01 5.77207E-01 2.06857E+00
 -1      9712 2.11063E+00 8.10445E+00 2.37579E+00
 -1      9713 1.98276E+01 1.03689E-01 7.26535E+00
 -1      9714 2.88788E+01 5.54585E+00 8.11508E+00
 -1      9715 2.96944E+01 4.45862E+00 6.62721E+00
 -1      9716 1.15614E+01 1.03199E+01 2.62477E+00
 -1      9717 1.21264E+01 1.28547E+01 2.50000E+00
 -1      9718 1.69289E+01 4.59311E+00 4.59970E+00
 -1      9719 1.56304E+01 5.77411E+00 4.11415E+00
 -1      9720 1.71783E+01 3.24479E-01 6.86013E+00
 -1      9721 1.74434E+01 3.24479E-01 7.02039E+00
 -1      9722 1.75361E+01 2.65355E-01 6.68403E+00
 -1      9723 1.76195E+01 5.89834E-01 6.79741E+00
 -1      9724 1.93322E+01 8.46054E-02 2.16834E+00
 -1      9725 1.92768E+01 8.46054E-02 2.12691E+00
 -1      9726 1.93263E+01 8.46054E-02 2.10241E+00
 -1      9727 1.99601E+01 9.06869E-01 2.24661E+00
 -1      9728 2.01942E+01 7.23253E-01 2.41643E+00
 -1      9729 1.94502E+01 1.27440E-01 9.79655E+00
 -1      9730 1.94075E+01 1.27440E-01 9.81928E+00
 -1      9731 1.94325E+01 8.96390E-02 5.32296E+00
 -1      9732 1.94280E+01 8.96390E-02 5.36963E+00
 -1      9733 1.93765E+01 8.96390E-02 5.32076E+00
 -1      9734 9.15174E+00 1.15316E+01 2.50000E+00
 -1      9735 3.41667E+01 9.88143E+00 2.50000E+00
 -1      9736 3.21797E+01 1.04196E+01 5.00000E+00
 -1      9737 1.96018E+01 3.38222E-01 2.24201E+00
 -1      9738 1.98363E+01 3.85494E-01 2.36183E+00
 -1      9739 1.93613E+01 5.55372E-01 9.28758E+00
 -1      9740 1.90512E+01 4.53535E-01 9.38268E+00
 -1      9741 1.93484E+01 3.89912E-01 9.46191E+00
 -1      9742 1.94077E+01 4.19099E-01 7.77342E+00
 -1      9743 9.15174E+00 1.15316E+01 7.50000E+00
 -1      9744 1.15614E+01 1.03199E+01 7.62477E+00
 -1      9745 1.21264E+01 1.28547E+01 7.50000E+00
 -1      9746 2.01704E+01 1.77718E-01 2.85819E+00
 -1      9747 2.02755E+01 1.77718E-01 2.94589E+00
 -1      9748 1.72637E+01 1.46115E+00 2.98380E+00
 -1      9749 2.61502E+01 1.29706E+01 8.31915E+00
 -1      9750 2.50058E+01 1.43520E+01 8.31915E+00
 -1      9751 2.31209E+01 1.36959E+00 7.53018E+00
 -1      9752 1.72914E+01 9.33376E-01 3.79357E-01
 -1      9753 1.97235E+01 1.61774E-01 6.85087E+00
 -1      9754 1.96335E+01 2.43102E-01 6.87302E+00
 -1      9755 1.95908E+01 3.80806E-01 5.34541E+00
 -1      9756 1.98339E+01 3.96589E-01 5.47277E+00
 -1      9757 2.42834E+01 8.07868E-01 2.34248E+00
 -1      9758 2.50485E+01 8.07868E-01 2.43683E+00
 -1      9759 1.00527E+01 3.99879E+00 6.15644E+00
 -1      9760 1.89904E+01 1.23722E-01 1.41924E+00
 -1      9761 1.95597E+01 7.11080E-02 3.99658E+00
 -1      9762 1.95266E+01 6.89191E-01 6.50000E-01
 -1      9763 1.93860E+01 9.98488E-01 4.25000E-01
 -1      9764 1.93054E+01 8.46054E-02 2.05223E+00
 -1      9765 1.94103E+01 4.21366E-01 7.50000E+00
 -1      9766 1.94406E+01 3.90379E-01 7.60000E+00
 -1      9767 1.96513E+01 2.52772E-01 8.71280E+00
 -1      9768 2.00367E+01 2.13494E-01 2.85095E+00
 -1      9769 1.99446E+01 2.13494E-01 2.91003E+00
 -1      9770 2.15851E+01 1.57979E+00 6.16193E-01
 -1      9771 2.08133E+01 1.97267E+00 4.61566E-01
 -1      9772 1.93995E+01 7.54188E-02 4.27467E+00
 -1      9773 1.94436E+01 7.54188E-02 4.24977E+00
 -1      9774 1.92826E+01 5.60172E-01 3.87469E+00
 -1      9775 1.98961E+01 1.71043E-01 5.28014E+00
 -1      9776 1.96538E+01 2.44435E-01 3.87076E+00
 -1      9777 1.98309E+01 3.66098E-01 3.72866E+00
 -1      9778 1.96451E+01 2.25298E-01 3.74313E+00
 -1      9779 2.01124E+01 2.08935E+00 5.59253E+00
 -1      9780 1.99959E+01 2.43361E+00 6.04724E+00
 -1      9781 1.97656E+01 1.84417E+00 5.90777E+00
 -1      9782 1.96491E+01 2.18843E+00 6.36249E+00
 -1      9783 2.03609E+01 1.90736E+00 5.85030E+00
 -1      9784 1.95872E+01 8.78575E-02 9.68047E+00
 -1      9785 1.95815E+01 8.78575E-02 9.62878E+00
 -1      9786 1.96541E+01 8.78575E-02 9.64821E+00
 -1      9787 1.84307E+01 3.01410E+00 6.26800E+00
 -1      9788 3.02389E+01 1.03908E+01 2.50000E+00
 -1      9789 3.13299E+01 1.22318E+01 2.88068E+00
 -1      9790 1.95778E+01 8.40281E-01 4.80016E+00
 -1      9791 1.97866E+01 5.97779E-01 4.96131E+00
 -1      9792 1.95644E+01 6.43382E-01 4.97109E+00
 -1      9793 1.90482E+01 1.68401E-01 4.00123E+00
 -1      9794 1.86548E+01 2.06901E-01 3.17610E+00
 -1      9795 1.88117E+01 3.90849E-01 3.27409E+00
 -1      9796 1.97134E+01 2.94342E-01 6.24343E+00
 -1      9797 1.98514E+01 4.96640E-01 6.37852E+00
 -1      9798 1.99258E+01 3.82633E-01 6.23281E+00
 -1      9799 1.99343E+01 3.37809E-01 6.36937E+00
 -1      9800 1.74759E+01 4.35423E-01 2.30409E+00
 -1      9801 1.76670E+01 2.89588E-01 2.03395E+00
 -1      9802 1.93037E+01 8.47687E-02 9.24726E+00
 -1      9803 1.92966E+01 3.90783E-01 3.72791E-01
 -1      9804 1.92228E+01 4.62681E-01 1.47791E-01
 -1      9805 1.90284E+01 4.20091E-01 4.45605E-01
 -1      9806 2.07989E+01 7.06107E-01 3.08263E+00
 -1      9807 2.09903E+01 4.21254E-01 3.16896E+00
 -1      9808 2.11925E+01 8.62458E-01 3.49625E+00
 -1      9809 1.83687E+01 5.60233E-01 3.22220E-01
 -1      9810 1.80829E+01 6.06732E-01 2.74292E-01
 -1      9811 1.91574E+01 2.32426E-01 3.12893E+00
 -1      9812 1.90857E+01 1.68401E-01 4.09620E+00
 -1      9813 1.92008E+01 2.46221E-01 4.09295E+00
 -1      9814 1.93401E+01 7.91749E-02 8.76524E+00
 -1      9815 1.67887E+01 1.98279E+00 7.21334E-01
 -1      9816 1.72298E+01 1.60285E+00 7.21334E-01
 -1      9817 1.73280E+01 2.57083E+00 7.21799E-01
 -1      9818 1.77692E+01 2.19090E+00 7.21799E-01
 -1      9819 1.76247E+01 1.97713E+00 1.44313E+00
 -1      9820 2.05007E+01 2.84853E-01 3.12374E+00
 -1      9821 2.16169E+01 3.43830E-01 9.70610E-01
 -1      9822 2.75088E+01 9.54464E+00 5.81677E+00
 -1      9823 1.97063E+01 5.33459E-01 8.11147E+00
 -1      9824 1.96998E+01 3.62551E-01 7.96147E+00
 -1      9825 1.97206E+01 3.41365E-01 8.13817E+00
 -1      9826 1.83960E+01 1.65298E+00 7.71550E+00
 -1      9827 1.94106E+01 1.69482E-01 2.45358E+00
 -1      9828 1.96966E+01 1.42949E+00 2.54412E+00
 -1      9829 1.97049E+01 1.21434E+00 3.09771E+00
 -1      9830 2.01815E+01 5.50694E-01 3.46251E+00
 -1      9831 1.99006E+01 3.88091E-01 3.61341E+00
 -1      9832 3.28867E+01 8.41169E+00 5.61508E+00
 -1      9833 1.90442E+01 3.66818E+00 5.23033E+00
 -1      9834 1.81639E+01 4.37124E+00 4.70674E+00
 -1      9835 1.98241E+01 4.26755E+00 4.63829E+00
 -1      9836 1.89439E+01 4.97061E+00 4.11470E+00
 -1      9837 1.93982E+01 3.83112E+00 3.91863E+00
 -1      9838 1.94530E+01 2.23779E-01 2.57651E+00
 -1      9839 1.94485E+01 5.63713E-02 7.29990E+00
 -1      9840 1.94768E+01 1.49977E-01 7.30000E+00
 -1      9841 1.87528E+01 1.55525E-01 3.77752E+00
 -1      9842 1.87761E+01 3.44763E-01 3.85642E+00
 -1      9843 2.10899E+01 2.18089E-01 9.65930E+00
 -1      9844 2.06854E+01 4.60403E-01 9.64921E+00
 -1      9845 2.12428E+01 6.68594E-01 9.54567E+00
 -1      9846 1.92041E+01 3.13358E-01 9.47786E+00
 -1      9847 3.41667E+01 9.88143E+00 7.50000E+00
 -1      9848 2.31313E+01 6.22478E-01 1.82977E+00
 -1      9849 2.34221E+01 6.22478E-01 2.37601E+00
 -1      9850 2.28877E+01 6.22478E-01 2.32785E+00
 -1      9851 1.98293E+01 1.32152E-01 8.99513E+00
 -1      9852 2.00605E+01 2.18313E-01 8.86969E+00
 -1      9853 1.92846E+01 1.05017E-01 3.77838E+00
 -1      9854 1.92914E+01 1.05017E-01 3.82532E+00
 -1      9855 1.78132E+01 2.89588E-01 2.20658E+00
 -1      9856 1.96301E+01 7.44346E-02 5.24677E+00
 -1      9857 1.91718E+01 8.03804E-02 6.67325E+00
 -1      9858 1.92482E+01 8.03804E-02 6.65218E+00
 -1      9859 1.92493E+01 8.03804E-02 6.73041E+00
 -1      9860 1.88077E+01 1.30498E+00 4.38882E-01
 -1      9861 1.96585E+01 8.62872E-02 7.87184E+00
 -1      9862 1.91017E+01 3.00871E-01 8.29950E+00
 -1      9863 1.89794E+01 1.53179E-01 8.29825E+00
 -1      9864 2.35458E+01 3.13815E+00 4.74104E+00
 -1      9865 2.42295E+01 4.60249E+00 5.73994E+00
 -1      9866 2.14949E+01 4.16477E-01 2.38979E+00
 -1      9867 2.13555E+01 4.16477E-01 2.01701E+00
 -1      9868 1.94525E+01 1.85474E-01 2.85000E+00
 -1      9869 1.25210E+01 8.76379E-01 6.98663E+00
 -1      9870 1.24853E+01 8.76379E-01 7.80501E+00
 -1      9871 1.15993E+01 8.76379E-01 7.75691E+00
 -1      9872 1.86513E+01 8.35623E-01 1.15856E+00
 -1      9873 1.90445E+01 3.57164E-01 7.35826E+00
 -1      9874 1.96842E+01 2.46215E-01 8.34733E-01
 -1      9875 1.95888E+01 1.81656E-01 9.70904E-01
 -1      9876 1.97016E+01 2.01181E-01 1.07394E+00
 -1      9877 2.06213E+01 8.28596E-01 5.99154E+00
 -1      9878 2.03122E+01 7.00576E-01 5.86698E+00
 -1      9879 2.04304E+01 7.41266E-01 5.47547E+00
 -1      9880 2.02846E+01 1.77718E-01 2.77413E+00
 -1      9881 1.90561E+01 2.30588E-01 9.81529E+00
 -1      9882 2.36087E+01 6.36928E+00 1.53666E+00
 -1      9883 2.32799E+01 5.97401E+00 1.23584E+00
 -1      9884 2.25469E+01 6.95214E+00 1.23584E+00
 -1      9885 2.31827E+01 6.09263E+00 2.77250E+00
 -1      9886 3.13128E+01 4.98005E+00 8.11508E+00
 -1      9887 3.08867E+01 3.41169E+00 6.86508E+00
 -1      9888 1.96646E+01 5.24461E-01 9.79933E+00
 -1      9889 1.96449E+01 4.48760E-01 9.46785E+00
 -1      9890 1.98298E+01 4.75989E-01 9.83010E+00
 -1      9891 1.98101E+01 4.00289E-01 9.49861E+00
 -1      9892 1.96114E+01 3.88587E-01 9.62943E+00
 -1      9893 1.93734E+01 1.27440E-01 9.79093E+00
 -1      9894 1.93284E+01 1.27440E-01 9.77287E+00
 -1      9895 1.93713E+01 8.04748E-02 7.04572E+00
 -1      9896 1.94156E+01 8.04748E-02 7.08307E+00
 -1      9897 1.93419E+01 8.04748E-02 7.10723E+00
 -1      9898 1.96618E+01 7.75390E-02 4.42388E+00
 -1      9899 1.96213E+01 7.75390E-02 4.40182E+00
 -1      9900 1.96710E+01 7.75390E-02 4.37684E+00
 -1      9901 1.96126E+01 8.33337E-02 6.92500E+00
 -1      9902 1.95920E+01 2.45107E-01 6.94833E+00
 -1      9903 1.90110E+01 1.38042E-01 9.30342E+00
 -1      9904 1.90670E+01 1.38042E-01 9.36469E+00
 -1      9905 1.90040E+01 1.38042E-01 9.40907E+00
 -1      9906 1.82836E+01 1.25114E+00 5.56741E+00
 -1      9907 1.83954E+01 8.18084E-01 5.52120E+00
 -1      9908 1.82612E+01 7.35091E-01 5.84157E+00
 -1      9909 1.78741E+01 1.16101E+00 5.57299E+00
 -1      9910 1.94025E+01 2.88569E-01 5.28361E+00
 -1      9911 1.92368E+01 2.98367E-01 5.29268E+00
 -1      9912 1.71748E+01 4.35423E-01 2.35512E+00
 -1      9913 1.76357E+01 3.21515E-01 8.47231E+00
 -1      9914 1.84080E+01 5.21093E-01 7.57795E+00
 -1      9915 1.82212E+01 3.22169E-01 7.59510E+00
 -1      9916 1.85050E+01 1.75943E-01 7.74638E+00
 -1      9917 1.83374E+01 4.98112E-01 7.75713E+00
 -1      9918 1.91520E+01 1.32416E+00 4.38882E-01
 -1      9919 1.96224E+01 8.48870E-02 2.19682E+00
 -1      9920 1.96825E+01 1.12077E-01 5.04178E+00
 -1      9921 1.97743E+01 1.12077E-01 5.07520E+00
 -1      9922 1.71941E+01 2.81503E-01 1.32967E+00
 -1      9923 1.93515E+01 9.85974E-02 7.90750E+00
 -1      9924 2.39856E+01 5.75642E+00 5.00992E+00
 -1      9925 2.45457E+01 7.28534E+00 5.10254E+00
 -1      9926 2.94509E+01 2.20513E+01 7.42792E+00
 -1      9927 2.93296E+01 2.00518E+01 4.92792E+00
 -1      9928 3.48157E+01 3.04286E+00 1.61647E+00
 -1      9929 3.59039E+01 4.75147E+00 3.57060E+00
 -1      9930 3.30774E+01 3.91169E+00 4.73154E+00
 -1      9931 1.91472E+01 6.93921E-02 9.92813E+00
 -1      9932 1.92078E+01 6.93921E-02 9.87632E+00
 -1      9933 1.92374E+01 6.93921E-02 9.94330E+00
 -1      9934 2.18674E+01 5.11513E-01 6.11904E+00
 -1      9935 2.09290E+01 2.09198E+00 9.36453E+00
 -1      9936 2.14813E+01 1.42489E+00 9.54567E+00
 -1      9937 2.04707E+01 2.38897E-01 1.93834E+00
 -1      9938 2.06776E+01 2.38897E-01 2.06430E+00
 -1      9939 2.04917E+01 2.38897E-01 2.09573E+00
 -1      9940 1.81282E+01 3.22169E-01 7.70676E+00
 -1      9941 1.94860E+01 1.03584E-01 9.57500E+00
 -1      9942 1.95809E+01 1.21940E+01 6.01239E+00
 -1      9943 1.97529E+01 9.05870E-01 3.22276E+00
 -1      9944 1.99573E+01 7.97832E-01 3.15710E+00
 -1      9945 1.99295E+01 8.50179E-01 3.48324E+00
 -1      9946 2.02058E+01 6.79243E-01 6.93611E+00
 -1      9947 1.95575E+01 5.51024E-02 5.60345E+00
 -1      9948 1.95085E+01 5.51024E-02 5.62500E+00
 -1      9949 1.95085E+01 5.51024E-02 5.57500E+00
 -1      9950 4.82780E+01 1.88106E+01 8.58938E+00
 -1      9951 4.83020E+01 2.05923E+01 8.58938E+00
 -1      9952 2.08468E+01 2.92248E-01 1.46972E+00
 -1      9953 1.96698E+01 2.57362E-01 7.87240E+00
 -1      9954 1.95789E+01 2.84084E-01 7.84630E+00
 -1      9955 2.10688E+01 4.16477E-01 1.93874E+00
 -1      9956 2.09910E+01 4.16477E-01 2.08868E+00
 -1      9957 2.28679E+01 5.48850E-01 7.32372E+00
 -1      9958 2.25408E+01 5.48850E-01 6.91120E+00
 -1      9959 1.95901E+01 5.51024E-02 5.65309E+00
 -1      9960 1.95524E+01 5.51024E-02 5.69719E+00
 -1      9961 1.95434E+01 5.51024E-02 5.65075E+00
 -1      9962 1.92501E+01 9.64040E-02 5.58596E+00
 -1      9963 1.93040E+01 9.64040E-02 5.58700E+00
 -1      9964 1.92958E+01 9.64040E-02 5.64003E+00
 -1      9965 1.92266E+01 8.47418E-02 6.38127E+00
 -1      9966 1.92667E+01 8.47418E-02 6.42569E+00
 -1      9967 2.01669E+01 2.42315E-01 9.21301E+00
 -1      9968 2.02688E+01 2.42315E-01 9.28056E+00
 -1      9969 2.01655E+01 1.77718E-01 2.60560E+00
 -1      9970 2.01237E+01 4.36262E-01 2.55072E+00
 -1      9971 1.98119E+01 1.21102E-01 1.27547E+00
 -1      9972 1.59858E+01 6.48053E+00 1.31462E+00
 -1      9973 1.86381E+01 1.67633E+01 2.50000E+00
 -1      9974 2.03198E+01 1.87072E+01 5.00000E+00
 -1      9975 1.78519E+01 1.62047E+01 5.14520E+00
 -1      9976 4.82780E+01 1.65215E+01 7.60802E+00
 -1      9977 4.67868E+01 1.53384E+01 4.56216E+00
 -1      9978 1.84417E+01 2.41899E-01 7.02160E+00
 -1      9979 2.08199E+01 1.05742E+00 9.47882E+00
 -1      9980 2.13511E+01 1.03130E+00 9.54567E+00
 -1      9981 1.86056E+01 5.26575E-01 9.48783E+00
 -1      9982 1.85365E+01 2.40613E-01 4.34906E+00
 -1      9983 1.85910E+01 2.40613E-01 4.43857E+00
 -1      9984 1.88490E+01 1.50914E-01 4.46873E+00
 -1      9985 1.86998E+01 3.91527E-01 4.36499E+00
 -1      9986 1.97729E+01 1.66137E-01 7.73054E-01
 -1      9987 1.97186E+01 1.66137E-01 7.42075E-01
 -1      9988 1.97814E+01 1.66137E-01 7.01546E-01
 -1      9989 2.94509E+01 2.20513E+01 2.42792E+00
 -1      9990 1.93624E+01 9.29151E-01 9.62500E+00
 -1      9991 1.93495E+01 7.63690E-01 9.79933E+00
 -1      9992 1.82003E+00 2.17317E+01 5.21994E+00
 -1      9993 2.25226E+01 7.19148E-01 3.07304E+00
 -1      9994 2.26168E+01 1.34163E+00 2.35753E+00
 -1      9995 1.93580E+01 1.27440E-01 9.83985E+00
 -1      9996 2.55115E+01 8.90885E+00 4.94605E+00
 -1      9997 2.63554E+01 1.10327E+01 6.63592E+00
 -1      9998 1.81026E+01 2.61634E+00 7.84275E+00
 -1      9999 1.95610E+01 8.33337E-02 6.94999E+00
 -1     10000 1.87914E+01 1.80634E-01 2.81417E+00
 -1     10001 1.87069E+01 1.80634E-01 2.87460E+00
 -1     10002 1.88992E+01 3.17680E-01 2.91931E+00
 -1     10003 1.93969E+01 1.96628E-01 4.64960E+00
 -1     10004 1.54651E+01 1.28093E+00 6.24322E+00
 -1     10005 1.38623E+01 1.30666E+01 7.50000E+00
 -1     10006 5.99820E+00 1.25240E+00 1.31679E+00
 -1     10007 5.85965E+00 2.08284E+00 3.50490E+00
 -1     10008 1.91004E+01 1.54920E-01 3.19009E-01
 -1     10009 1.95648E+01 2.44431E-01 5.99094E-01
 -1     10010 1.88888E+01 1.55525E-01 3.75848E+00
 -1     10011 1.96979E+01 9.47220E-02 5.54834E+00
 -1     10012 1.89943E+01 6.14252E-01 2.97813E-01
 -1     10013 1.94055E+01 2.34924E-01 1.04141E+00
 -1     10014 2.02864E+01 1.21240E+00 3.38632E+00
 -1     10015 2.05083E+01 1.09277E+00 2.93522E+00
 -1     10016 2.02781E+01 1.42755E+00 2.83273E+00
 -1     10017 1.77978E+01 5.07833E+00 8.81285E+00
 -1     10018 1.75954E+01 6.37023E+00 8.62886E+00
 -1     10019 2.02747E+01 1.02723E+01 4.93112E+00
 -1     10020 4.00000E+01 1.82304E+01 7.50000E+00
 -1     10021 3.80023E+01 2.22304E+01 7.47906E+00
 -1     10022 1.90569E+01 1.34837E-01 1.99692E+00
 -1     10023 1.90415E+01 1.34837E-01 1.93549E+00
 -1     10024 1.90954E+01 1.34837E-01 1.94476E+00
 -1     10025 1.89704E+01 1.50914E-01 4.45100E+00
 -1     10026 1.89395E+01 1.50914E-01 4.54988E+00
 -1     10027 2.04442E+01 7.20793E-01 9.64921E+00
 -1     10028 2.10016E+01 9.28983E-01 9.54567E+00
 -1     10029 1.96428E+01 2.17415E-01 5.91957E+00
 -1     10030 1.97355E+01 1.32858E-01 5.90503E+00
 -1     10031 1.96880E+01 2.04589E-01 5.79063E+00
 -1     10032 1.99300E+01 1.64754E-01 8.21918E+00
 -1     10033 1.84232E+01 1.89238E-01 3.92926E+00
 -1     10034 1.82755E+01 2.41899E-01 7.23739E+00
 -1     10035 1.96756E+01 1.32136E-01 6.62795E+00
 -1     10036 4.54882E+01 5.27425E+00 6.98469E+00
 -1     10037 4.45630E+01 4.33706E+00 6.99736E+00
 -1     10038 4.65427E+01 3.64723E+00 8.38353E+00
 -1     10039 4.44871E+01 5.98429E+00 8.61383E+00
 -1     10040 4.54123E+01 6.92149E+00 8.60116E+00
 -1     10041 1.87343E+01 6.40840E+00 5.85910E+00
 -1     10042 1.25479E+01 2.13584E+00 1.39736E+00
 -1     10043 1.96077E+01 3.59312E+00 9.21992E+00
 -1     10044 1.90880E+01 2.74641E+00 9.51190E+00
 -1     10045 1.88657E+01 3.56899E-01 2.27446E+00
 -1     10046 1.87372E+01 2.14400E-01 2.29779E+00
 -1     10047 1.87903E+01 3.49237E-01 2.13165E+00
 -1     10048 1.89327E+01 1.34837E-01 2.11067E+00
 -1     10049 1.90611E+01 2.77337E-01 2.08734E+00
 -1     10050 4.00000E+01 1.82304E+01 2.50000E+00
 -1     10051 3.80023E+01 2.22304E+01 2.47906E+00
 -1     10052 1.97112E+01 7.83778E-02 7.74507E+00
 -1     10053 1.96809E+01 7.83778E-02 7.68121E+00
 -1     10054 1.97632E+01 7.83778E-02 7.70326E+00
 -1     10055 1.91059E+01 1.55710E-01 5.18547E+00
 -1     10056 1.90240E+01 1.55710E-01 5.15367E+00
 -1     10057 1.91078E+01 2.76341E-01 5.29221E+00
 -1     10058 1.93391E+01 1.32043E-01 4.50538E-01
 -1     10059 1.93879E+01 1.32043E-01 4.75203E-01
 -1     10060 1.94178E+01 2.71423E-01 5.25203E-01
 -1     10061 1.88661E+01 1.13605E+00 5.84152E+00
 -1     10062 1.86130E+01 1.33297E+00 6.07481E+00
 -1     10063 1.86170E+01 1.50709E+00 5.78956E+00
 -1     10064 1.86747E+01 9.99336E-01 5.55075E+00
 -1     10065 1.88701E+01 1.31018E+00 5.55627E+00
 -1     10066 1.90202E+01 1.65044E-01 1.52867E+00
 -1     10067 1.89939E+01 1.65044E-01 1.61488E+00
 -1     10068 1.90981E+01 2.74599E-01 1.66692E+00
 -1     10069 1.91659E+01 2.73418E-01 3.89999E+00
 -1     10070 1.65670E+01 4.46988E-01 2.88162E+00
 -1     10071 2.04863E+01 9.68435E-01 6.04474E-01
 -1     10072 2.08452E+01 8.22308E-01 4.35629E-01
 -1     10073 1.78321E+01 7.57318E-01 2.53269E+00
 -1     10074 3.01704E+01 5.32638E+00 8.11508E+00
 -1     10075 2.90914E+01 3.96161E+00 8.51214E+00
 -1     10076 1.91226E+01 1.05879E-01 4.48042E+00
 -1     10077 1.92084E+01 1.05879E-01 4.55399E+00
 -1     10078 1.59855E+01 1.39591E+00 6.38326E-01
 -1     10079 2.19136E+01 2.32383E+00 4.86864E+00
 -1     10080 2.14479E+01 2.59621E+00 4.54109E+00
 -1     10081 2.16178E+01 2.96260E+00 3.95944E+00
 -1     10082 2.13516E+01 1.22784E+00 4.45989E+00
 -1     10083 1.95433E+01 9.93610E-01 3.30357E+00
 -1     10084 2.01763E+01 1.55270E-01 1.00231E+00
 -1     10085 2.00820E+01 1.55270E-01 1.11558E+00
 -1     10086 2.00327E+01 1.55270E-01 9.72430E-01
 -1     10087 1.95178E+01 7.11080E-02 3.87500E+00
 -1     10088 1.95611E+01 7.11080E-02 3.90000E+00
 -1     10089 1.90778E+01 1.98442E-01 8.85807E+00
 -1     10090 1.90531E+01 3.65517E-01 8.92282E+00
 -1     10091 1.76496E+01 1.81900E+00 8.24771E+00
 -1     10092 1.78328E+01 2.14786E+00 7.90826E+00
 -1     10093 1.96415E+01 8.13282E-02 6.75578E+00
 -1     10094 1.97866E+01 1.86892E-01 4.85009E+00
 -1     10095 1.97677E+01 2.98969E-01 4.94587E+00
 -1     10096 1.80042E+01 5.71425E-01 1.49857E+00
 -1     10097 1.93879E+01 1.32043E-01 4.25203E-01
 -1     10098 1.93277E+01 2.75884E-01 8.53867E+00
 -1     10099 1.92371E+01 2.65469E-01 8.41606E+00
 -1     10100 1.90835E+01 4.42234E-01 8.52017E+00
 -1     10101 1.85430E+01 2.96625E-01 1.68792E-01
 -1     10102 1.85406E+01 1.52126E-01 3.07552E-01
 -1     10103 1.85267E+01 3.88817E-01 9.61190E+00
 -1     10104 1.92420E+01 9.28369E-02 4.70160E+00
 -1     10105 1.92930E+01 9.28369E-02 4.75960E+00
 -1     10106 1.92268E+01 9.28369E-02 4.80503E+00
 -1     10107 1.91584E+01 2.11368E-01 9.81529E+00
 -1     10108 1.95565E+01 1.80435E-01 1.79754E+00
 -1     10109 2.00051E+01 4.69624E-01 8.24360E+00
 -1     10110 1.97996E+01 2.92391E-01 8.23241E+00
 -1     10111 1.96515E+01 7.96817E-02 8.90405E+00
 -1     10112 1.95495E+01 1.66134E-01 8.87352E+00
 -1     10113 1.96030E+01 7.96817E-02 8.87352E+00
 -1     10114 1.94291E+01 1.64140E-01 4.79960E+00
 -1     10115 1.80406E+01 2.91316E-01 3.65541E+00
 -1     10116 1.80329E+01 2.91316E-01 3.82764E+00
 -1     10117 1.78830E+01 2.91316E-01 3.75716E+00
 -1     10118 1.76953E+01 9.53398E-01 2.83738E+00
 -1     10119 1.94695E+01 1.27944E-01 5.89743E+00
 -1     10120 1.94255E+01 1.27944E-01 5.92228E+00
 -1     10121 1.94844E+01 2.12501E-01 5.97243E+00
 -1     10122 1.97583E+01 1.70058E-01 9.62370E+00
 -1     10123 1.92912E+01 9.81862E-01 2.22964E+00
 -1     10124 1.92630E+01 8.19784E-01 2.47964E+00
 -1     10125 1.92978E+01 9.45343E-02 6.57908E+00
 -1     10126 1.93344E+01 1.79276E-01 6.52258E+00
 -1     10127 1.92847E+01 1.65122E-01 6.59567E+00
 -1     10128 1.93283E+01 1.74915E-01 6.67387E+00
 -1     10129 1.72540E+01 1.38230E+00 7.14543E+00
 -1     10130 1.77276E+01 1.11697E+00 7.25964E+00
 -1     10131 1.89115E+01 2.89216E-01 4.95505E-01
 -1     10132 2.56324E+01 8.09734E-01 9.43708E+00
 -1     10133 2.46510E+01 8.20744E-01 8.54204E+00
 -1     10134 1.94390E+01 9.45343E-02 6.65039E+00
 -1     10135 1.94534E+01 1.70926E-01 6.57539E+00
 -1     10136 1.83078E+01 3.21895E-01 2.52590E+00
 -1     10137 1.83296E+01 4.77202E-01 2.71769E+00
 -1     10138 2.05144E+01 7.29387E-01 8.79286E+00
 -1     10139 2.06389E+01 8.73107E-01 8.28373E+00
 -1     10140 1.88479E+01 2.00981E-01 6.77036E+00
 -1     10141 2.00517E+01 1.55270E-01 7.32937E-01
 -1     10142 1.92380E+01 2.67579E-01 7.50637E+00
 -1     10143 1.97097E+01 1.24759E-01 6.49257E+00
 -1     10144 1.96996E+01 1.24759E-01 6.41313E+00
 -1     10145 1.96254E+01 2.01151E-01 6.46499E+00
 -1     10146 1.81805E+01 9.71173E-01 6.08859E+00
 -1     10147 1.79932E+01 8.51605E-01 6.35063E+00
 -1     10148 1.84835E+01 7.05645E-01 6.09804E+00
 -1     10149 1.87479E+01 1.01725E+00 6.10281E+00
 -1     10150 1.85606E+01 8.97685E-01 6.36486E+00
 -1     10151 1.82576E+01 1.16321E+00 6.35541E+00
 -1     10152 1.92886E+01 1.83864E+00 6.31338E+00
 -1     10153 1.94922E+01 2.13812E-01 3.72510E+00
 -1     10154 1.71685E+01 4.35423E-01 2.58749E+00
 -1     10155 2.06155E+01 2.33778E-01 1.27626E+00
 -1     10156 2.04320E+01 2.33778E-01 1.21407E+00
 -1     10157 2.05451E+01 2.33778E-01 1.09731E+00
 -1     10158 1.77325E+01 1.53214E+00 2.99337E+00
 -1     10159 1.82203E+01 2.05149E+00 2.60205E+00
 -1     10160 1.98663E+01 1.56381E-01 1.82100E+00
 -1     10161 1.98516E+01 1.56381E-01 1.71542E+00
 -1     10162 1.97777E+01 2.49883E-01 1.71213E+00
 -1     10163 1.96114E+01 6.62525E-01 5.20016E+00
 -1     10164 1.90182E+01 2.88766E-01 1.46780E+00
 -1     10165 2.46140E+01 8.07868E-01 1.88652E+00
 -1     10166 2.14125E+01 9.64460E-01 6.42451E+00
 -1     10167 2.09978E+01 7.66303E-01 6.60313E+00
 -1     10168 4.06321E+01 2.22304E+01 7.49162E+00
 -1     10169 1.55637E+01 1.14335E+00 9.35581E+00
 -1     10170 1.95187E+01 1.38499E-01 3.17500E+00
 -1     10171 1.94480E+01 2.33879E-01 3.17687E+00
 -1     10172 1.88400E+01 4.01309E-01 7.91660E+00
 -1     10173 1.97148E+01 2.47291E-01 3.62788E+00
 -1     10174 1.97646E+01 2.08410E-01 3.55549E+00
 -1     10175 2.00839E+01 1.56381E-01 1.77101E+00
 -1     10176 1.99550E+01 1.56381E-01 1.73510E+00
 -1     10177 1.92560E+01 3.34223E-01 6.27281E+00
 -1     10178 1.93010E+01 5.87719E-01 6.15340E+00
 -1     10179 1.92073E+01 5.56988E-01 6.27956E+00
 -1     10180 1.90275E+01 8.46020E-01 1.73825E+00
 -1     10181 1.93007E+01 9.88944E-01 1.79099E+00
 -1     10182 1.92590E+01 7.41395E-01 1.99726E+00
 -1     10183 1.91583E+01 6.29965E-01 1.86724E+00
 -1     10184 1.94316E+01 7.72889E-01 1.91998E+00
 -1     10185 1.92001E+01 8.77515E-01 1.66097E+00
 -1     10186 1.96282E+01 9.24642E-02 2.86985E+00
 -1     10187 1.97049E+01 9.24642E-02 2.85614E+00
 -1     10188 1.96680E+01 9.24642E-02 2.89333E+00
 -1     10189 1.94163E+01 5.26291E-01 9.79933E+00
 -1     10190 1.77369E+01 2.83312E-01 5.17476E+00
 -1     10191 1.77648E+01 2.83312E-01 4.96130E+00
 -1     10192 4.50578E+01 4.71320E+00 5.33767E+00
 -1     10193 1.99332E+01 3.57935E-01 5.04665E+00
 -1     10194 2.00688E+01 1.71043E-01 5.14410E+00
 -1     10195 2.01421E+01 1.58922E-01 4.85329E+00
 -1     10196 2.00576E+01 3.29965E-01 4.93018E+00
 -1     10197 2.00064E+01 3.45814E-01 4.75584E+00
 -1     10198 4.06321E+01 2.22304E+01 2.49162E+00
 -1     10199 1.93027E+01 3.13778E-01 3.75209E+00
 -1     10200 1.93396E+01 3.13579E-01 3.64050E+00
 -1     10201 1.86257E+01 1.79500E-01 8.53182E+00
 -1     10202 1.98521E+01 1.56381E-01 1.57030E+00
 -1     10203 1.98180E+01 1.56381E-01 1.63513E+00
 -1     10204 1.95532E+01 7.63921E-02 6.50007E+00
 -1     10205 1.85538E+01 1.89238E-01 4.06181E+00
 -1     10206 1.86755E+01 1.89238E-01 4.09307E+00
 -1     10207 1.86196E+01 1.89238E-01 4.16731E+00
 -1     10208 1.96799E+01 1.05052E-01 4.65575E-01
 -1     10209 1.97590E+01 1.05052E-01 5.04434E-01
 -1     10210 1.96852E+01 1.05052E-01 5.30778E-01
 -1     10211 1.73464E+01 1.06442E+00 5.92971E+00
 -1     10212 1.71349E+01 1.14837E+00 6.62327E+00
 -1     10213 1.77012E+01 8.23922E-01 6.40112E+00
 -1     10214 1.93426E+01 6.81313E-01 5.53302E+00
 -1     10215 1.91346E+01 6.31899E-01 5.70041E+00
 -1     10216 1.97805E+01 1.21102E-01 1.35875E+00
 -1     10217 2.15379E+01 3.01956E+00 7.16143E+00
 -1     10218 1.92300E+01 8.46054E-02 2.05996E+00
 -1     10219 1.81626E+01 1.01371E+00 6.64390E+00
 -1     10220 1.91499E+01 1.31739E-01 7.51408E+00
 -1     10221 2.21949E+01 5.89015E+00 1.23584E+00
 -1     10222 2.18421E+01 5.37163E+00 2.38448E+00
 -1     10223 1.90797E+01 1.20632E-01 5.46700E+00
 -1     10224 1.91775E+01 2.17036E-01 5.54714E+00
 -1     10225 1.90583E+01 1.20632E-01 5.56860E+00
 -1     10226 1.91016E+01 1.23722E-01 1.21528E+00
 -1     10227 2.28073E+01 2.48628E+00 9.20881E+00
 -1     10228 1.82297E+01 2.63341E+00 4.22640E+00
 -1     10229 1.87253E+01 2.36264E+00 3.99071E+00
 -1     10230 1.86733E+01 2.31075E+00 4.28208E+00
 -1     10231 1.82517E+01 2.40826E-01 3.18431E+00
 -1     10232 1.81965E+01 2.40826E-01 3.33402E+00
 -1     10233 1.80771E+01 2.40826E-01 3.20224E+00
 -1     10234 1.91479E+01 9.45971E-02 8.92276E+00
 -1     10235 1.91993E+01 2.93039E-01 8.82183E+00
 -1     10236 1.90152E+01 1.55525E-01 3.63351E+00
 -1     10237 1.91021E+01 2.60542E-01 3.74731E+00
 -1     10238 1.90017E+01 1.55525E-01 3.74755E+00
 -1     10239 1.95762E+01 1.01578E-01 1.09810E+00
 -1     10240 1.89507E+01 3.04663E-01 6.45783E+00
 -1     10241 2.19682E+01 1.32456E+00 2.16755E+00
 -1     10242 2.16342E+01 1.55007E+00 2.65815E+00
 -1     10243 2.11235E+01 1.24740E+00 2.06233E+00
 -1     10244 2.17411E+01 1.13563E+00 2.50690E+00
 -1     10245 1.79599E+01 2.24087E+00 9.21550E+00
 -1     10246 1.81758E+01 1.51379E+00 9.37039E+00
 -1     10247 1.84690E+01 1.65586E+00 8.88229E+00
 -1     10248 1.84758E+01 1.91307E+00 9.51190E+00
 -1     10249 1.92298E+01 1.47692E-01 8.28071E+00
 -1     10250 1.94850E+01 1.03645E-01 9.22500E+00
 -1     10251 1.95500E+01 1.82731E-01 9.17148E+00
 -1     10252 1.93090E+01 1.07894E-01 1.98311E-01
 -1     10253 1.93174E+01 1.07894E-01 2.67430E-01
 -1     10254 1.92377E+01 1.07894E-01 2.56466E-01
 -1     10255 2.21152E+01 5.48850E-01 6.99056E+00
 -1     10256 1.25040E+01 1.42707E+00 3.10784E+00
 -1     10257 1.91964E+01 1.09696E-01 7.09465E+00
 -1     10258 1.96560E+01 9.35022E-02 1.76807E+00
 -1     10259 1.96707E+01 1.05052E-01 5.78568E-01
 -1     10260 1.97298E+01 3.12821E-01 3.93333E+00
 -1     10261 1.93806E+01 9.40145E-02 6.05404E+00
 -1     10262 1.93393E+01 9.40145E-02 6.03194E+00
 -1     10263 1.93820E+01 9.40145E-02 6.00367E+00
 -1     10264 1.84140E+01 1.75943E-01 8.05697E+00
 -1     10265 1.84120E+01 1.75943E-01 7.85803E+00
 -1     10266 1.85684E+01 1.75943E-01 7.97058E+00
 -1     10267 1.89759E+01 6.18719E-01 9.03859E+00
 -1     10268 2.01536E+01 8.80992E-01 8.96814E+00
 -1     10269 2.01274E+01 6.46681E-01 9.13852E+00
 -1     10270 2.03884E+01 7.18940E-01 9.12803E+00
 -1     10271 2.01721E+01 1.00943E+00 9.24893E+00
 -1     10272 1.99373E+01 1.17149E+00 9.08903E+00
 -1     10273 2.23055E+01 2.25634E+00 4.02572E+00
 -1     10274 1.57499E+01 6.02684E-01 6.64051E+00
 -1     10275 1.95465E+01 1.54163E-01 5.77106E+00
 -1     10276 1.97100E+01 1.69583E-01 6.06390E+00
 -1     10277 1.93397E+01 1.41143E+01 7.64520E+00
 -1     10278 2.18076E+01 1.66168E+01 7.50000E+00
 -1     10279 1.81054E+01 2.93038E-01 6.32161E+00
 -1     10280 1.81625E+01 2.93038E-01 6.16837E+00
 -1     10281 1.83000E+01 2.93038E-01 6.27076E+00
 -1     10282 1.93523E+01 6.11372E-02 6.85052E+00
 -1     10283 1.93981E+01 6.11372E-02 6.82546E+00
 -1     10284 1.91447E+01 3.64286E-01 3.74628E+00
 -1     10285 1.88568E+01 4.52260E-01 3.68840E+00
 -1     10286 1.91622E+01 1.01596E-01 3.03293E+00
 -1     10287 2.18848E+01 2.38798E+00 6.90679E+00
 -1     10288 1.93903E+01 1.87469E-01 7.29553E+00
 -1     10289 2.19424E+01 7.72993E-01 8.37771E+00
 -1     10290 2.22565E+01 7.72993E-01 8.18822E+00
 -1     10291 1.86658E+01 2.12146E+00 7.64999E+00
 -1     10292 1.92666E+01 3.06098E-01 7.29077E+00
 -1     10293 1.91884E+01 3.21931E-01 7.20554E+00
 -1     10294 2.05116E+01 6.98824E-01 2.47658E-01
 -1     10295 2.04717E+01 7.10302E-01 8.52133E-01
 -1     10296 2.08306E+01 5.64176E-01 6.83288E-01
 -1     10297 1.93557E+01 6.11372E-02 6.90033E+00
 -1     10298 1.96368E+01 1.26950E-01 2.34176E+00
 -1     10299 2.01757E+01 1.66539E+00 3.33318E+00
 -1     10300 1.98334E+01 1.62167E+00 3.29228E+00
 -1     10301 1.98250E+01 1.83682E+00 2.73869E+00
 -1     10302 1.91838E+01 1.55710E-01 5.08772E+00
 -1     10303 1.91734E+01 1.55710E-01 5.17110E+00
 -1     10304 1.92574E+01 2.34900E-01 5.13362E+00
 -1     10305 1.93443E+01 2.37674E-01 4.19455E+00
 -1     10306 1.94286E+01 1.91152E-01 1.57633E+00
 -1     10307 1.99232E+01 6.92838E-01 2.56167E+00
 -1     10308 5.08916E+00 4.55486E+00 7.18811E+00
 -1     10309 4.34150E+00 3.39306E+00 7.18811E+00
 -1     10310 5.91863E+00 3.33524E+00 7.18811E+00
 -1     10311 1.63332E+01 2.42844E+00 6.91653E+00
 -1     10312 1.72469E+01 3.22978E+00 7.52481E+00
 -1     10313 1.72087E+01 2.87137E+00 6.70024E+00
 -1     10314 1.90015E+01 3.78546E-01 8.13465E+00
 -1     10315 1.89481E+01 4.77636E-01 8.40362E+00
 -1     10316 1.87866E+01 5.00399E-01 8.18557E+00
 -1     10317 2.02094E+01 8.82845E-01 9.48931E+00
 -1     10318 2.02541E+01 1.24560E+00 9.59972E+00
 -1     10319 1.91875E+01 1.33346E-01 1.06274E+00
 -1     10320 1.92738E+01 1.33346E-01 1.07231E+00
 -1     10321 1.92333E+01 1.33346E-01 1.15303E+00
 -1     10322 3.58051E+01 4.75147E+00 5.35400E+00
 -1     10323 1.94822E+01 1.03792E-01 4.52500E+00
 -1     10324 2.37527E+01 6.22478E-01 1.92005E+00
 -1     10325 1.54626E+01 6.37746E-01 1.50977E+00
 -1     10326 1.84459E+01 2.86676E-01 1.74869E+00
 -1     10327 6.15896E+00 2.08284E+00 6.08805E+00
 -1     10328 6.29751E+00 1.25240E+00 8.89994E+00
 -1     10329 8.25716E+00 1.38821E+00 7.55638E+00
 -1     10330 8.01683E+00 2.64062E+00 8.65644E+00
 -1     10331 7.87827E+00 3.47106E+00 5.84455E+00
 -1     10332 1.91065E+01 1.55710E-01 5.10887E+00
 -1     10333 1.97852E+01 1.25268E-01 3.13979E+00
 -1     10334 1.68211E+01 4.11610E-01 9.26612E+00
 -1     10335 1.89599E+01 3.40598E-01 6.76606E+00
 -1     10336 2.00306E+01 1.00159E+00 8.26688E+00
 -1     10337 1.95735E+01 2.14978E-01 9.27148E+00
 -1     10338 1.94706E+01 6.85280E-02 4.99981E+00
 -1     10339 1.95144E+01 6.85280E-02 4.97500E+00
 -1     10340 1.95144E+01 6.85280E-02 5.02500E+00
 -1     10341 1.91790E+01 1.42500E-01 2.20668E+00
 -1     10342 1.92344E+01 1.42500E-01 2.24811E+00
 -1     10343 1.92342E+01 2.27105E-01 2.15039E+00
 -1     10344 2.22446E+01 7.19148E-01 2.66723E+00
 -1     10345 2.17008E+01 1.14040E+00 2.98200E+00
 -1     10346 2.16937E+01 4.21254E-01 2.54651E+00
 -1     10347 2.11901E+01 8.37731E-01 2.38618E+00
 -1     10348 1.93348E+01 8.61405E-02 9.45106E+00
 -1     10349 1.96196E+01 7.39267E-02 8.47341E+00
 -1     10350 1.89649E+01 1.20632E-01 5.48255E+00
 -1     10351 1.90968E+01 3.22855E-01 5.55054E+00
 -1     10352 1.96886E+01 1.22284E+00 4.25000E-01
 -1     10353 1.99824E+01 1.08316E+00 3.50677E-01
 -1     10354 1.99995E+01 1.76780E+00 4.61566E-01
 -1     10355 2.05554E+01 2.67784E-01 4.48524E+00
 -1     10356 2.07358E+01 2.67784E-01 4.25392E+00
 -1     10357 2.08401E+01 2.67784E-01 4.51313E+00
 -1     10358 2.13152E+01 4.21254E-01 2.49212E+00
 -1     10359 1.94842E+01 1.02399E-01 6.27500E+00
 -1     10360 1.94409E+01 1.02399E-01 6.30000E+00
 -1     10361 1.93298E+01 8.01688E-02 8.27435E+00
 -1     10362 1.93362E+01 8.01688E-02 8.32753E+00
 -1     10363 1.91940E+01 1.17777E-01 8.61682E+00
 -1     10364 1.92422E+01 2.12374E-01 8.73207E+00
 -1     10365 1.93507E+01 2.48460E-01 2.74999E+00
 -1     10366 1.94945E+01 2.39476E-01 9.45000E+00
 -1     10367 1.89427E+01 1.43021E+00 6.67320E+00
 -1     10368 1.89433E+01 1.32809E+00 6.10834E+00
 -1     10369 1.96752E+01 1.21998E+00 4.70881E+00
 -1     10370 1.88211E+01 4.91898E-01 5.40159E+00
 -1     10371 1.87458E+01 2.07377E-01 5.43225E+00
 -1     10372 1.90207E+01 4.05153E-01 5.33100E+00
 -1     10373 1.88784E+01 3.28009E-01 5.48688E+00
 -1     10374 1.93109E+01 7.78206E-02 4.06350E+00
 -1     10375 1.78688E+01 1.85606E+00 4.62048E+00
 -1     10376 1.75888E+01 1.45304E+00 4.01434E+00
 -1     10377 1.93746E+01 1.81050E-01 8.91826E+00
 -1     10378 1.94104E+01 3.21729E-01 6.29833E+00
 -1     10379 1.95594E+01 2.91196E-01 1.89979E+00
 -1     10380 1.96013E+01 2.70269E-01 1.77221E+00
 -1     10381 2.00809E+01 2.67421E-01 5.57526E+00
 -1     10382 2.02180E+01 2.67421E-01 5.56517E+00
 -1     10383 2.00642E+01 1.71043E-01 5.38340E+00
 -1     10384 2.02013E+01 1.71043E-01 5.37331E+00
 -1     10385 2.00010E+01 4.38464E-01 5.41285E+00
 -1     10386 1.96536E+01 2.01672E-01 3.96755E+00
 -1     10387 1.97191E+01 1.00256E-01 3.93594E+00
 -1     10388 1.96412E+01 1.71364E-01 3.89313E+00
 -1     10389 1.95480E+01 1.72523E-01 4.02442E+00
 -1     10390 2.02765E+01 3.75616E-01 6.98046E-01
 -1     10391 1.96633E+01 1.32494E-01 3.39370E-01
 -1     10392 1.94767E+01 1.01415E-01 4.07580E+00
 -1     10393 1.95302E+01 1.01415E-01 4.09942E+00
 -1     10394 1.89259E+01 2.86370E-01 9.65946E+00
 -1     10395 1.96948E+01 1.04161E+00 1.81248E+00
 -1     10396 1.88588E+01 5.01206E-01 1.68792E-01
 -1     10397 1.97194E+01 2.77095E-01 8.03745E+00
 -1     10398 1.97137E+01 1.21095E-01 4.62921E+00
 -1     10399 1.97140E+01 1.21095E-01 4.70733E+00
 -1     10400 1.77934E+01 1.39710E+00 5.82001E+00
 -1     10401 1.77710E+01 8.81051E-01 6.09417E+00
 -1     10402 1.93273E+01 9.38630E-02 7.26635E+00
 -1     10403 1.94625E+01 9.91443E-02 8.29982E+00
 -1     10404 1.94938E+01 1.84364E-01 8.25000E+00
 -1     10405 1.90850E+01 1.10036E-01 5.94044E+00
 -1     10406 1.92212E+01 4.54977E-01 5.95782E+00
 -1     10407 1.91633E+01 3.61165E-01 6.10615E+00
 -1     10408 1.91146E+01 5.83930E-01 6.11289E+00
 -1     10409 2.04721E+01 1.63042E+00 2.22591E+00
 -1     10410 2.08227E+01 1.45898E+00 2.82040E+00
 -1     10411 2.03697E+01 1.86825E+00 2.72636E+00
 -1     10412 2.02270E+01 5.47751E-01 7.85474E+00
 -1     10413 1.94701E+01 6.05423E-02 7.85095E+00
 -1     10414 1.95056E+01 6.05423E-02 7.83103E+00
 -1     10415 1.95396E+01 1.46830E-01 7.82224E+00
 -1     10416 1.87543E+01 2.07377E-01 5.69213E+00
 -1     10417 1.88972E+01 4.09601E-01 5.62113E+00
 -1     10418 1.88278E+01 3.86065E-01 5.81156E+00
 -1     10419 1.95983E+01 4.52322E-01 7.20281E+00
 -1     10420 2.12766E+01 1.89059E+00 8.57334E+00
 -1     10421 2.18289E+01 1.22350E+00 8.75448E+00
 -1     10422 1.83595E+01 5.35938E+00 6.60386E+00
 -1     10423 1.97238E+01 1.12077E-01 4.98234E+00
 -1     10424 1.96513E+01 8.78575E-02 9.78305E+00
 -1     10425 1.96533E+01 8.78575E-02 9.72077E+00
 -1     10426 1.96724E+01 2.57915E-01 9.68471E+00
 -1     10427 1.92848E+01 3.56549E-01 8.62843E+00
 -1     10428 1.90406E+01 5.22899E-01 8.60994E+00
 -1     10429 2.04704E+01 9.55104E-01 9.47882E+00
 -1     10430 1.71479E+01 8.82495E-01 3.65249E+00
 -1     10431 1.92068E+01 1.10655E-01 9.21112E+00
 -1     10432 1.91507E+01 1.10655E-01 9.14985E+00
 -1     10433 1.90888E+01 2.48697E-01 9.26471E+00
 -1     10434 1.58918E+01 2.51599E+00 4.84951E+00
 -1     10435 1.63805E+01 2.00041E+00 5.13062E+00
 -1     10436 2.02206E+01 6.11371E-01 6.51292E+00
 -1     10437 1.93710E+01 1.89724E-01 9.50219E+00
 -1     10438 1.95796E+01 7.32188E-02 1.57278E+00
 -1     10439 1.95770E+01 7.32188E-02 1.52457E+00
 -1     10440 1.93771E+01 3.40964E+00 6.25471E+00
 -1     10441 2.19976E+01 3.41898E-01 4.71777E+00
 -1     10442 1.82876E+01 1.42526E+00 5.28217E+00
 -1     10443 1.83994E+01 9.92207E-01 5.23595E+00
 -1     10444 2.03578E+01 2.13050E-01 6.27682E+00
 -1     10445 1.91096E+01 2.24183E-01 9.43634E+00
 -1     10446 1.92275E+01 8.61405E-02 9.38275E+00
 -1     10447 1.96237E+01 7.83778E-02 7.60563E+00
 -1     10448 1.96748E+01 7.83778E-02 7.58064E+00
 -1     10449 1.96675E+01 7.83778E-02 7.63205E+00
 -1     10450 2.55979E+01 8.04156E+00 1.62927E+00
 -1     10451 1.93490E+01 7.54188E-02 4.34977E+00
 -1     10452 1.93596E+01 7.54188E-02 4.29772E+00
 -1     10453 1.79982E+01 4.01502E+00 8.81285E+00
 -1     10454 1.90756E+01 3.87412E+00 9.21992E+00
 -1     10455 1.96887E+01 1.97493E+00 9.59972E+00
 -1     10456 1.93755E+01 1.79469E+00 9.11162E+00
 -1     10457 1.92783E+01 1.09555E-01 1.76448E+00
 -1     10458 1.92839E+01 1.09555E-01 1.71343E+00
 -1     10459 1.93324E+01 1.09555E-01 1.74286E+00
 -1     10460 2.00889E+01 3.12858E+00 5.74253E+00
 -1     10461 1.94431E+01 2.20661E-01 9.32308E+00
 -1     10462 1.99326E+01 1.07305E+00 9.59972E+00
 -1     10463 1.97271E+01 1.15111E+00 9.22472E+00
 -1     10464 1.94958E+01 1.25141E+00 4.30000E+00
 -1     10465 1.92289E+01 1.24638E+00 4.69381E+00
 -1     10466 1.82002E+01 1.76093E+00 3.10997E+00
 -1     10467 1.86868E+01 1.89238E-01 3.99508E+00
 -1     10468 1.88399E+01 3.57639E-01 4.00909E+00
 -1     10469 3.30592E+01 1.09712E+01 2.50000E+00
 -1     10470 3.30592E+01 1.09712E+01 7.50000E+00
 -1     10471 3.02389E+01 1.03908E+01 7.50000E+00
 -1     10472 1.90585E+01 7.14197E-01 5.48087E+00
 -1     10473 1.57363E+01 6.02684E-01 7.02233E+00
 -1     10474 1.60989E+01 1.91199E+00 8.06777E+00
 -1     10475 1.67995E+01 1.92905E+00 7.89589E+00
 -1     10476 1.60674E+01 1.81729E+00 7.25397E+00
 -1     10477 2.30566E+01 1.59374E+00 8.31377E+00
 -1     10478 2.36832E+01 2.53403E+00 9.10496E+00
 -1     10479 2.32659E+01 2.27848E+00 7.70858E+00
 -1     10480 1.95304E+01 8.24315E-02 5.74719E+00
 -1     10481 1.94864E+01 8.24315E-02 5.72500E+00
 -1     10482 2.14609E+01 3.43830E-01 1.22218E+00
 -1     10483 2.12673E+01 3.43830E-01 9.76800E-01
 -1     10484 2.13452E+01 2.92248E-01 1.50197E+00
 -1     10485 2.11516E+01 2.92248E-01 1.25659E+00
 -1     10486 2.10486E+01 6.36078E-01 1.15105E+00
 -1     10487 1.98803E+01 2.91915E+00 6.83753E+00
 -1     10488 2.01425E+01 3.43610E+00 7.77774E+00
 -1     10489 1.93870E+01 2.84711E-01 3.46678E+00
 -1     10490 2.18331E+01 1.74737E+00 9.20881E+00
 -1     10491 2.13121E+01 4.41204E-01 3.80853E+00
 -1     10492 1.92785E+01 2.63014E-01 5.54803E-01
 -1     10493 1.49530E+01 5.74640E+00 8.34513E+00
 -1     10494 1.76816E+01 4.77054E+00 6.26426E+00
 -1     10495 1.76434E+01 4.41213E+00 5.43969E+00
 -1     10496 1.94430E+01 8.38536E-02 1.45133E+00
 -1     10497 1.93962E+01 8.38536E-02 1.47710E+00
 -1     10498 1.93917E+01 8.38536E-02 1.42886E+00
 -1     10499 1.94278E+01 9.29830E-02 3.00000E+00
 -1     10500 2.03165E+01 7.92116E-01 3.50677E-01
 -1     10501 2.03019E+01 5.33984E-01 5.98336E-01
 -1     10502 1.84912E+01 1.52916E-01 6.52377E+00
 -1     10503 1.95197E+01 1.07290E-01 2.22690E+00
 -1     10504 1.30431E+01 8.76379E-01 7.36232E+00
 -1     10505 1.31479E+01 8.76379E-01 7.95355E+00
 -1     10506 1.97338E+01 1.32858E-01 5.82802E+00
 -1     10507 1.98118E+01 1.32858E-01 5.84295E+00
 -1     10508 1.93957E+01 9.45343E-02 6.52539E+00
 -1     10509 1.93942E+01 9.45343E-02 6.57522E+00
 -1     10510 2.07285E+01 2.33778E-01 1.14681E+00
 -1     10511 2.06705E+01 2.33778E-01 9.71968E-01
 -1     10512 1.76340E+01 1.58004E+00 7.21334E-01
 -1     10513 1.81733E+01 2.16809E+00 7.21799E-01
 -1     10514 1.97625E+01 1.40063E-01 2.68452E+00
 -1     10515 1.94277E+01 9.59446E-02 6.82478E+00
 -1     10516 1.88149E+01 2.72725E+00 2.14680E+00
 -1     10517 1.85183E+01 2.31992E+00 1.94926E+00
 -1     10518 1.86981E+01 2.60800E+00 1.26736E+00
 -1     10519 1.94809E+01 1.51844E+00 5.52362E+00
 -1     10520 1.97015E+01 1.80366E+00 5.25881E+00
 -1     10521 1.74124E+01 2.81503E-01 1.13023E+00
 -1     10522 1.86566E+01 1.52126E-01 3.46331E-01
 -1     10523 1.85595E+01 1.52126E-01 4.38318E-01
 -1     10524 1.85714E+01 2.11863E-01 4.95945E+00
 -1     10525 1.95886E+01 8.78575E-02 9.73702E+00
 -1     10526 1.93727E+01 7.00773E-01 5.16232E+00
 -1     10527 1.90886E+01 7.33656E-01 5.11017E+00
 -1     10528 1.84450E+01 1.65552E+00 5.06822E+00
 -1     10529 1.93071E+01 8.38536E-02 1.54291E+00
 -1     10530 1.93254E+01 8.38536E-02 1.46512E+00
 -1     10531 1.93591E+01 8.38536E-02 1.50829E+00
 -1     10532 2.13810E+01 3.63573E+00 8.85401E+00
 -1     10533 2.12860E+01 3.24603E+00 7.76358E+00
 -1     10534 2.01249E+01 4.52757E-01 5.75307E+00
 -1     10535 2.02431E+01 4.93447E-01 5.36156E+00
 -1     10536 1.93346E+01 9.53792E-02 3.15758E+00
 -1     10537 1.92543E+01 1.96976E-01 3.06804E+00
 -1     10538 1.97099E+01 1.43105E+00 8.95233E+00
 -1     10539 1.95602E+01 1.01239E-01 4.34999E+00
 -1     10540 1.95587E+01 1.01239E-01 4.30000E+00
 -1     10541 1.96100E+01 1.01239E-01 4.32500E+00
 -1     10542 3.39827E+01 7.34430E+00 8.61383E+00
 -1     10543 3.15324E+01 6.00966E+00 8.11508E+00
 -1     10544 1.87574E+01 1.79500E-01 8.77302E+00
 -1     10545 1.88394E+01 3.46574E-01 8.88841E+00
 -1     10546 2.93977E+01 8.66842E+00 7.50000E+00
 -1     10547 1.95182E+01 6.65617E-01 8.96932E+00
 -1     10548 1.94719E+01 5.85102E-01 9.15000E+00
 -1     10549 1.92234E+01 8.35634E-01 9.11934E+00
 -1     10550 2.07525E+01 2.05346E+00 3.19869E+00
 -1     10551 1.92260E+01 1.05879E-01 4.45783E+00
 -1     10552 1.76664E+01 3.24479E-01 7.15182E+00
 -1     10553 1.76875E+01 3.24479E-01 6.91373E+00
 -1     10554 1.91691E+01 1.66733E+00 2.65246E+00
 -1     10555 1.94267E+01 6.05423E-02 7.87595E+00
 -1     10556 1.94233E+01 6.05423E-02 7.82668E+00
 -1     10557 1.96186E+01 7.22084E-02 5.39629E+00
 -1     10558 1.72895E+01 1.12997E+00 1.93994E+00
 -1     10559 1.73267E+01 1.70871E+00 2.09592E+00
 -1     10560 1.93626E+01 1.96488E-01 1.79307E+00
 -1     10561 1.96953E+01 2.66865E-01 1.37691E+00
 -1     10562 1.95856E+01 1.85218E-01 8.25045E+00
 -1     10563 1.27874E+01 1.47416E+01 7.50000E+00
 -1     10564 1.27874E+01 1.47416E+01 2.50000E+00
 -1     10565 1.85822E+01 4.83653E-01 8.77784E+00
 -1     10566 2.03096E+01 5.52442E-01 1.39570E+00
 -1     10567 2.02331E+01 4.74942E-01 1.12636E+00
 -1     10568 2.00096E+01 2.45639E-01 4.36877E+00
 -1     10569 1.99804E+01 2.45639E-01 4.26083E+00
 -1     10570 1.98902E+01 1.24147E-01 4.35232E+00
 -1     10571 1.98610E+01 1.24147E-01 4.24439E+00
 -1     10572 1.99015E+01 3.69786E-01 4.29134E+00
 -1     10573 3.32707E+01 1.22606E+01 5.38068E+00
 -1     10574 1.83394E+01 1.42968E+00 9.68354E+00
 -1     10575 2.01743E+01 4.55288E-01 1.87744E+00
 -1     10576 1.40562E+01 9.51667E-01 7.64001E+00
 -1     10577 1.39514E+01 9.51667E-01 7.04878E+00
 -1     10578 1.44389E+01 9.51667E-01 7.33673E+00
 -1     10579 1.95505E+01 3.42192E-01 7.07452E+00
 -1     10580 1.94397E+01 4.90303E-01 6.95357E+00
 -1     10581 1.93981E+01 3.16691E-01 7.07976E+00
 -1     10582 1.95003E+01 2.98046E-01 6.95190E+00
 -1     10583 1.70014E+01 2.54828E+00 2.25474E+00
 -1     10584 1.60516E+01 2.37835E+00 2.30302E+00
 -1     10585 2.04370E+01 1.43038E+00 1.89427E+00
 -1     10586 1.99992E+01 1.59774E+00 1.24904E+00
 -1     10587 1.93044E+01 2.27861E-01 8.30438E+00
 -1     10588 4.27889E+01 4.33706E+00 7.27841E+00
 -1     10589 4.27691E+01 4.33706E+00 5.52089E+00
 -1     10590 1.91465E+01 1.30970E-01 8.28600E-01
 -1     10591 2.03169E+01 9.13921E-01 7.85647E+00
 -1     10592 1.93532E+01 9.40750E-02 2.59255E+00
 -1     10593 1.93336E+01 9.40750E-02 2.63537E+00
 -1     10594 2.03346E+01 2.37343E+00 9.36453E+00
 -1     10595 1.98897E+01 2.83644E+00 9.36453E+00
 -1     10596 1.91840E+01 6.07465E-01 5.92246E+00
 -1     10597 1.34109E+01 1.82805E+00 7.89228E+00
 -1     10598 1.92374E+01 1.18790E-01 4.90129E+00
 -1     10599 1.93273E+01 1.18790E-01 4.92119E+00
 -1     10600 1.92904E+01 1.18790E-01 4.97450E+00
 -1     10601 1.95942E+01 2.48199E+00 3.04457E+00
 -1     10602 1.94856E+01 2.73788E+00 3.73601E+00
 -1     10603 1.88266E+01 3.01206E+00 3.03945E+00
 -1     10604 1.93330E+01 9.47713E-02 1.28103E+00
 -1     10605 1.93097E+01 9.47713E-02 1.34482E+00
 -1     10606 1.92768E+01 9.47713E-02 1.26766E+00
 -1     10607 1.95616E+01 7.75113E-02 4.99873E-01
 -1     10608 1.91789E+01 3.09097E-01 8.93414E+00
 -1     10609 1.86911E+01 1.79500E-01 8.61407E+00
 -1     10610 1.92441E+01 2.74500E-01 5.05493E+00
 -1     10611 1.93640E+01 1.97981E-01 5.02041E+00
 -1     10612 1.96127E+01 9.54616E-02 1.37500E+00
 -1     10613 1.96869E+01 1.13700E+00 7.35598E+00
 -1     10614 1.97764E+01 1.48916E+00 7.25075E+00
 -1     10615 1.96999E+01 1.27944E+00 7.83476E+00
 -1     10616 1.99187E+01 1.25099E+00 7.64073E+00
 -1     10617 1.67949E+01 1.28063E+00 4.94592E+00
 -1     10618 1.63341E+01 2.79549E+00 7.83127E+00
 -1     10619 1.93216E+01 1.92037E+00 9.68915E+00
 -1     10620 1.90084E+01 1.74013E+00 9.20105E+00
 -1     10621 1.96149E+01 1.47968E+00 9.28887E+00
 -1     10622 1.99510E+01 9.90292E-01 7.94654E+00
 -1     10623 1.95341E+01 8.78575E-02 9.65461E+00
 -1     10624 1.76970E+01 4.63628E-01 8.04425E+00
 -1     10625 2.58239E+01 1.34786E+00 3.00130E+00
 -1     10626 1.93043E+01 8.47418E-02 6.52661E+00
 -1     10627 3.63553E+01 1.67784E+01 1.95414E+00
 -1     10628 1.93387E+01 1.88100E-01 4.04774E+00
 -1     10629 3.14260E+01 2.56835E+00 1.25284E+00
 -1     10630 3.01576E+01 2.36324E+00 2.77644E+00
 -1     10631 2.01400E+01 2.18313E-01 8.79932E+00
 -1     10632 1.99778E+01 3.75223E-01 8.80217E+00
 -1     10633 2.01264E+01 2.18313E-01 8.69207E+00
 -1     10634 1.86678E+01 8.61991E-01 7.36407E+00
 -1     10635 1.82816E+01 1.24764E+00 7.16606E+00
 -1     10636 3.05026E+01 1.92515E+01 7.50000E+00
 -1     10637 3.15827E+01 2.12002E+01 4.92792E+00
 -1     10638 1.87073E+01 6.28610E-01 8.66505E+00
 -1     10639 1.83158E+01 9.32446E-01 8.80407E+00
 -1     10640 1.84390E+01 5.77140E-01 8.54155E+00
 -1     10641 2.01512E+01 4.28794E-01 3.91262E+00
 -1     10642 1.95922E+01 5.06180E-01 5.21714E+00
 -1     10643 1.94334E+01 7.03678E-01 5.02946E+00
 -1     10644 1.95452E+01 4.87037E-01 4.98808E+00
 -1     10645 1.89712E+01 1.98442E-01 8.80744E+00
 -1     10646 1.95366E+01 7.54065E-02 2.34975E+00
 -1     10647 1.95292E+01 7.22084E-02 5.44939E+00
 -1     10648 1.99725E+01 2.73745E+00 7.38281E+00
 -1     10649 2.04655E+01 2.38897E-01 2.23980E+00
 -1     10650 1.74140E+01 3.22484E-01 5.86771E+00
 -1     10651 1.76118E+01 3.22484E-01 5.66523E+00
 -1     10652 1.77475E+01 3.22484E-01 5.88151E+00
 -1     10653 1.72548E+01 2.83312E-01 5.56502E+00
 -1     10654 1.74526E+01 2.83312E-01 5.36255E+00
 -1     10655 1.76925E+01 6.05797E-01 5.54447E+00
 -1     10656 1.97509E+01 1.27637E-01 8.40530E+00
 -1     10657 1.97002E+01 1.27637E-01 8.42198E+00
 -1     10658 1.88078E+01 1.74593E+00 6.64519E+00
 -1     10659 1.87721E+01 1.79500E-01 8.66230E+00
 -1     10660 1.88591E+01 1.79500E-01 8.62033E+00
 -1     10661 1.89155E+01 3.77942E-01 8.72273E+00
 -1     10662 2.26097E+01 6.22478E-01 1.92204E+00
 -1     10663 2.21062E+01 1.03895E+00 1.76171E+00
 -1     10664 2.23334E+01 1.22788E+00 1.42237E+00
 -1     10665 1.93740E+01 1.81511E-01 5.61400E+00
 -1     10666 2.11575E+01 4.16477E-01 2.19316E+00
 -1     10667 1.94709E+01 8.04748E-02 7.04788E+00
 -1     10668 2.23960E+01 1.75749E+00 9.20881E+00
 -1     10669 1.87903E+01 5.13635E-01 2.13165E+00
 -1     10670 1.88152E+01 4.39578E-01 2.39419E+00
 -1     10671 1.90106E+01 5.24414E-01 2.20707E+00
 -1     10672 1.90179E+01 8.38938E-01 2.17690E+00
 -1     10673 1.90428E+01 7.64881E-01 2.43944E+00
 -1     10674 1.88225E+01 7.54102E-01 2.36402E+00
 -1     10675 1.87176E+01 2.36395E+00 9.51190E+00
 -1     10676 2.19613E+01 3.57108E+00 3.62300E+00
 -1     10677 2.10376E+01 3.62810E+00 3.41521E+00
 -1     10678 2.12687E+01 3.75243E+00 4.13765E+00
 -1     10679 2.03450E+01 3.80945E+00 3.92986E+00
 -1     10680 1.97067E+01 1.95761E-01 3.13759E+00
 -1     10681 1.74271E+01 4.35507E-01 4.51916E+00
 -1     10682 1.75255E+01 2.83312E-01 5.09677E+00
 -1     10683 1.95952E+01 2.27158E-01 6.31499E+00
 -1     10684 1.95275E+01 1.02399E-01 6.25000E+00
 -1     10685 1.95122E+01 1.74317E-01 6.32414E+00
 -1     10686 2.12915E+01 7.34340E-01 8.50454E+00
 -1     10687 2.08601E+01 5.36596E-01 8.27291E+00
 -1     10688 3.09459E+01 8.38286E+00 8.11508E+00
 -1     10689 2.01543E+01 1.22941E+00 6.41631E+00
 -1     10690 1.99599E+01 1.38537E+00 6.66375E+00
 -1     10691 1.98675E+01 3.38762E-01 2.99138E+00
 -1     10692 1.93038E+01 2.15296E-01 3.85478E+00
 -1     10693 1.98706E+01 1.79978E-01 4.09930E-01
 -1     10694 1.99635E+01 1.79978E-01 4.62141E-01
 -1     10695 1.98540E+01 1.79978E-01 4.92309E-01
 -1     10696 2.03631E+01 2.18313E-01 8.81389E+00
 -1     10697 2.04044E+01 4.71074E-01 8.72841E+00
 -1     10698 2.03348E+01 2.18313E-01 8.98698E+00
 -1     10699 1.73833E+01 3.45361E+00 4.40363E+00
 -1     10700 1.73514E+01 2.97892E+00 5.41770E+00
 -1     10701 1.78719E+01 2.93803E+00 4.68474E+00
 -1     10702 1.87766E+01 6.20804E+00 1.65246E+00
 -1     10703 1.84855E+01 5.09965E+00 8.19186E-01
 -1     10704 1.91658E+01 1.44321E+00 7.79774E+00
 -1     10705 2.04186E+01 2.42315E-01 9.22182E+00
 -1     10706 1.86572E+01 2.14400E-01 2.38568E+00
 -1     10707 1.87186E+01 3.95033E-01 2.55164E+00
 -1     10708 1.86028E+01 2.14400E-01 2.49822E+00
 -1     10709 2.00609E+01 2.45639E-01 4.15546E+00
 -1     10710 1.99193E+01 1.68643E-01 4.08764E+00
 -1     10711 1.17205E+01 1.51553E+00 6.95779E+00
 -1     10712 1.92533E+01 4.25652E-01 6.93172E+00
 -1     10713 1.92869E+01 3.48508E-01 7.14881E+00
 -1     10714 1.91097E+01 1.45136E-01 4.76749E+00
 -1     10715 1.89930E+01 1.45136E-01 4.79280E+00
 -1     10716 1.76957E+01 4.90919E+00 3.81594E+00
 -1     10717 1.92092E+01 1.07894E-01 1.87389E-01
 -1     10718 1.93809E+01 1.04853E-01 7.70084E+00
 -1     10719 1.94404E+01 1.65395E-01 7.75091E+00
 -1     10720 2.02951E+01 1.85336E-01 5.94517E+00
 -1     10721 2.04005E+01 1.85336E-01 6.04815E+00
 -1     10722 1.97282E+01 1.00256E-01 3.87336E+00
 -1     10723 1.89945E+01 1.53179E-01 8.37367E+00
 -1     10724 1.90724E+01 1.53179E-01 8.32570E+00
 -1     10725 3.13299E+01 1.22318E+01 7.88068E+00
 -1     10726 1.93709E+01 2.49437E-01 1.90715E+00
 -1     10727 1.59960E+01 1.92599E+00 6.38326E-01
 -1     10728 2.32079E+01 2.33576E+00 8.06173E-01
 -1     10729 2.37232E+01 1.83767E+00 8.06173E-01
 -1     10730 2.38432E+01 1.43035E+00 1.57881E+00
 -1     10731 1.79969E+01 2.89588E-01 1.87138E+00
 -1     10732 1.83521E+01 1.64541E-01 1.89996E+00
 -1     10733 2.06904E+01 5.31145E-01 1.79653E+00
 -1     10734 2.10816E+01 7.08725E-01 1.67096E+00
 -1     10735 1.95154E+01 1.01239E-01 4.27500E+00
 -1     10736 1.95154E+01 1.01239E-01 4.32500E+00
 -1     10737 1.95484E+01 1.92177E-01 2.17397E+00
 -1     10738 1.92207E+01 1.09555E-01 1.72595E+00
 -1     10739 1.91283E+01 1.09555E-01 1.78438E+00
 -1     10740 1.84825E+01 2.72987E-01 8.29554E+00
 -1     10741 1.85585E+01 4.52486E-01 8.45203E+00
 -1     10742 1.92933E+01 1.09555E-01 1.66807E+00
 -1     10743 1.95283E+01 1.03645E-01 9.10000E+00
 -1     10744 1.94748E+01 1.90098E-01 9.05000E+00
 -1     10745 1.94473E+01 1.91057E-01 3.27687E+00
 -1     10746 2.09334E+01 3.13357E-01 6.26641E+00
 -1     10747 2.11065E+01 2.58585E-01 6.71103E+00
 -1     10748 2.08936E+01 2.58585E-01 6.60220E+00
 -1     10749 2.08106E+01 5.71942E-01 6.48632E+00
 -1     10750 1.63102E+01 4.96060E-01 2.38972E+00
 -1     10751 1.61456E+01 4.96060E-01 2.82102E+00
 -1     10752 1.67025E+01 9.43048E-01 2.72652E+00
 -1     10753 3.21991E+01 1.41584E+01 2.88068E+00
 -1     10754 2.50377E+01 6.51263E+00 1.53666E+00
 -1     10755 1.84217E+01 1.44663E+00 7.48735E+00
 -1     10756 1.88079E+01 1.06098E+00 7.68536E+00
 -1     10757 1.88894E+01 1.51462E+00 7.81734E+00
 -1     10758 1.95719E+01 2.02357E-01 2.34201E+00
 -1     10759 1.97579E+01 4.22680E-01 5.28550E+00
 -1     10760 1.98353E+01 5.21963E-01 5.34450E+00
 -1     10761 1.98186E+01 4.25585E-01 5.15264E+00
 -1     10762 1.92943E+01 1.00011E+00 1.19099E+00
 -1     10763 1.93001E+01 8.68660E-01 1.49099E+00
 -1     10764 1.89644E+01 8.35535E-01 1.36467E+00
 -1     10765 3.05026E+01 1.92515E+01 2.50000E+00
 -1     10766 2.22806E+01 7.72993E-01 8.89989E+00
 -1     10767 2.21094E+01 7.72993E-01 8.65827E+00
 -1     10768 2.17575E+01 4.50505E-01 8.99513E+00
 -1     10769 2.19287E+01 4.50505E-01 9.23676E+00
 -1     10770 1.87204E+01 5.77789E-01 2.60565E+00
 -1     10771 2.05397E+01 2.84853E-01 3.51948E+00
 -1     10772 1.59728E+01 1.13381E+00 1.75564E+00
 -1     10773 1.87653E+01 2.07377E-01 5.55315E+00
 -1     10774 1.78777E+01 2.58156E+00 2.98904E+00
 -1     10775 1.71678E+01 3.40514E+00 3.76275E+00
 -1     10776 1.73111E+01 3.10152E+00 2.49460E+00
 -1     10777 2.33236E+01 6.85441E+00 4.03666E+00
 -1     10778 1.74869E+01 2.81503E-01 1.33889E+00
 -1     10779 2.08735E+01 6.83004E-01 5.62252E+00
 -1     10780 2.08711E+01 3.69648E-01 5.22986E+00
 -1     10781 2.06826E+01 5.95673E-01 5.10646E+00
 -1     10782 1.95603E+01 7.75113E-02 4.00000E-01
 -1     10783 1.92615E+01 1.01596E-01 2.92487E+00
 -1     10784 1.92191E+01 1.01596E-01 2.87689E+00
 -1     10785 1.86465E+01 5.29871E+00 3.01699E+00
 -1     10786 1.78119E+01 5.21697E+00 1.36453E+00
 -1     10787 1.83555E+01 4.19032E+00 2.18372E+00
 -1     10788 1.74003E+01 1.46452E+00 3.58028E+00
 -1     10789 1.93615E+01 7.78206E-02 4.09591E+00
 -1     10790 2.33019E+01 4.29208E+00 4.01102E+00
 -1     10791 2.44884E+01 4.35585E+00 3.80334E+00
 -1     10792 2.00215E+01 1.71043E-01 5.27225E+00
 -1     10793 2.02079E+01 1.71043E-01 5.24407E+00
 -1     10794 1.95156E+01 8.48619E-02 7.47500E+00
 -1     10795 1.95741E+01 1.58324E-01 7.47504E+00
 -1     10796 1.98270E+01 8.26176E-01 7.18260E+00
 -1     10797 1.95454E+01 3.25701E-01 2.07512E+00
 -1     10798 1.91942E+01 2.57566E-01 2.84116E+00
 -1     10799 1.99075E+01 1.55270E-01 9.93483E-01
 -1     10800 1.99478E+01 1.55270E-01 9.04149E-01
 -1     10801 1.26237E+01 2.39191E+00 7.40670E+00
 -1     10802 1.26627E+01 2.51868E+00 9.10291E+00
 -1     10803 2.01960E+01 8.69191E-01 3.32470E+00
 -1     10804 2.04179E+01 7.49563E-01 2.87359E+00
 -1     10805 1.98718E+01 1.86892E-01 4.81620E+00
 -1     10806 1.93744E+01 4.39805E-01 2.00203E-01
 -1     10807 1.94481E+01 3.67907E-01 4.25203E-01
 -1     10808 1.92108E+01 2.86963E-01 3.47994E-01
 -1     10809 3.35179E+01 3.06835E+00 8.39986E+00
 -1     10810 1.99888E+01 3.03887E+00 3.69157E+00
 -1     10811 1.95651E+01 3.21009E+00 4.52190E+00
 -1     10812 1.90420E+01 3.06053E+00 3.68033E+00
 -1     10813 2.00087E+01 2.88743E+00 4.57758E+00
 -1     10814 1.88933E+01 1.53179E-01 8.49040E+00
 -1     10815 1.88230E+01 3.32679E-01 8.51641E+00
 -1     10816 1.91800E+01 3.97215E-01 4.98016E-01
 -1     10817 1.75853E+01 1.39667E+01 7.64520E+00
 -1     10818 2.24956E+01 5.40162E-01 4.74031E+00
 -1     10819 2.19924E+01 8.82060E-01 4.55955E+00
 -1     10820 2.23480E+01 5.40162E-01 4.32438E+00
 -1     10821 2.07016E+01 5.26026E-01 1.23738E+00
 -1     10822 2.30623E+01 2.95767E+00 3.79502E+00
 -1     10823 2.23208E+01 2.84589E+00 2.80574E+00
 -1     10824 1.88210E+01 8.71251E-01 5.25561E+00
 -1     10825 1.88860E+01 5.04164E-01 5.02768E+00
 -1     10826 1.85821E+01 7.98593E-01 5.20208E+00
 -1     10827 2.28036E+01 7.72993E-01 8.10731E+00
 -1     10828 2.22450E+01 1.32184E+00 7.63403E+00
 -1     10829 1.95500E+01 1.23972E+00 4.92112E+00
 -1     10830 1.94525E+01 8.60022E-01 5.01247E+00
 -1     10831 2.09580E+01 7.11532E-01 6.93891E+00
 -1     10832 1.96612E+01 1.32136E-01 6.68146E+00
 -1     10833 1.96221E+01 1.32136E-01 6.65036E+00
 -1     10834 1.89844E+01 1.55525E-01 3.84856E+00
 -1     10835 1.73436E+01 1.50693E+00 7.87669E+00
 -1     10836 2.40049E+01 4.17537E+00 2.85732E+00
 -1     10837 2.00498E+01 5.98445E-01 8.09390E+00
 -1     10838 1.76778E+01 2.65355E-01 6.18846E+00
 -1     10839 1.93888E+01 9.53792E-02 3.22741E+00
 -1     10840 2.41688E+01 7.89821E+00 1.62927E+00
 -1     10841 2.37428E+01 7.62156E+00 2.86511E+00
 -1     10842 1.88710E+01 1.52126E-01 4.10108E-01
 -1     10843 1.87670E+01 1.52126E-01 3.95283E-01
 -1     10844 1.87452E+01 2.86421E-01 5.16505E-01
 -1     10845 1.94362E+01 2.31023E-01 9.67155E+00
 -1     10846 2.06992E+01 2.58585E-01 6.72078E+00
 -1     10847 2.05117E+01 2.58585E-01 6.83644E+00
 -1     10848 2.04039E+01 4.66963E-01 6.79878E+00
 -1     10849 1.92613E+01 2.94809E-01 2.31373E+00
 -1     10850 1.96811E+01 2.11238E-01 9.13628E+00
 -1     10851 1.97185E+01 7.90857E-02 9.21335E+00
 -1     10852 1.97147E+01 2.27465E-01 9.24589E+00
 -1     10853 1.97521E+01 9.53127E-02 9.32296E+00
 -1     10854 1.96637E+01 1.74398E-01 9.30256E+00
 -1     10855 1.91390E+01 3.30064E-01 1.47791E-01
 -1     10856 1.92905E+01 3.07187E-01 2.00203E-01
 -1     10857 1.93480E+01 2.39937E-01 2.85451E-01
 -1     10858 1.92763E+01 2.83037E-01 8.52482E-02
 -1     10859 1.91965E+01 2.62814E-01 2.33039E-01
 -1     10860 1.76883E+01 2.72414E-01 4.58236E+00
 -1     10861 1.94842E+01 1.02399E-01 6.22500E+00
 -1     10862 2.03238E+01 3.75521E-01 2.08481E+00
 -1     10863 1.93705E+01 1.07894E-01 1.64441E-01
 -1     10864 1.94169E+01 1.07894E-01 1.85248E-01
 -1     10865 1.93651E+01 1.07894E-01 2.15986E-01
 -1     10866 1.93760E+01 9.47713E-02 1.30857E+00
 -1     10867 1.79053E+01 3.21515E-01 8.70165E+00
 -1     10868 1.81475E+01 6.25668E-01 8.75168E+00
 -1     10869 1.79151E+01 3.21515E-01 8.86684E+00
 -1     10870 2.06958E+01 2.58585E-01 6.92096E+00
 -1     10871 2.04440E+01 5.39508E-01 7.01362E+00
 -1     10872 2.25370E+01 7.72993E-01 8.61584E+00
 -1     10873 1.98981E+01 3.53557E-01 2.84606E+00
 -1     10874 1.98722E+01 1.40063E-01 2.78730E+00
 -1     10875 1.81757E+01 2.84999E+00 2.33625E+00
 -1     10876 1.85300E+01 2.60473E+00 2.84192E+00
 -1     10877 1.93634E+01 2.16853E-01 1.69307E+00
 -1     10878 2.16972E+01 2.34964E+00 7.49460E-01
 -1     10879 2.17968E+01 1.98066E+00 1.36565E+00
 -1     10880 2.10250E+01 2.37355E+00 1.21103E+00
 -1     10881 1.94004E+01 1.88362E-01 3.07687E+00
 -1     10882 1.49974E+01 2.72155E+00 9.11932E+00
 -1     10883 1.94562E+01 5.63713E-02 7.20161E+00
 -1     10884 1.93002E+01 9.20643E-02 6.22044E+00
 -1     10885 1.93131E+01 1.86079E-01 6.14913E+00
 -1     10886 1.93412E+01 9.20643E-02 6.19513E+00
 -1     10887 1.94245E+01 2.33786E-01 6.52539E+00
 -1     10888 1.92701E+01 2.46281E-01 6.49987E+00
 -1     10889 1.93810E+01 2.23994E-01 6.44719E+00
 -1     10890 1.92265E+01 2.36488E-01 6.42168E+00
 -1     10891 1.95769E+01 2.41224E-01 1.42387E+00
 -1     10892 1.95457E+01 1.68680E-01 1.42538E+00
 -1     10893 1.93996E+01 7.38764E-01 2.16022E+00
 -1     10894 1.91585E+01 8.36307E-01 2.33986E+00
 -1     10895 1.93713E+01 5.76687E-01 2.41022E+00
 -1     10896 1.94721E+01 1.01239E-01 4.40000E+00
 -1     10897 1.95154E+01 1.01239E-01 4.37500E+00
 -1     10898 1.94590E+01 1.76658E-01 4.32477E+00
 -1     10899 1.80320E+01 5.66244E-01 8.24394E-01
 -1     10900 1.96173E+01 2.54140E-01 6.07844E+00
 -1     10901 1.84028E+01 3.18327E+00 3.86979E+00
 -1     10902 1.93452E+01 9.64040E-02 5.66400E+00
 -1     10903 1.93465E+01 9.64040E-02 5.71450E+00
 -1     10904 1.92974E+01 9.64040E-02 5.71511E+00
 -1     10905 1.56854E+01 3.30258E+00 8.80149E-01
 -1     10906 1.45099E+01 3.36629E+00 1.05755E+00
 -1     10907 1.93221E+01 1.42657E-01 5.38030E+00
 -1     10908 1.93336E+01 1.42657E-01 5.45662E+00
 -1     10909 1.92797E+01 1.42657E-01 5.45558E+00
 -1     10910 1.85250E+01 7.11098E-01 4.15309E+00
 -1     10911 1.87723E+01 5.02100E-01 4.12703E+00
 -1     10912 1.45390E+01 9.51667E-01 7.73554E+00
 -1     10913 4.31212E+01 3.26666E+00 8.66458E+00
 -1     10914 4.28397E+01 5.60371E+00 8.61383E+00
 -1     10915 4.48953E+01 3.26666E+00 8.38353E+00
 -1     10916 1.92964E+01 1.90171E-01 7.08319E+00
 -1     10917 1.93515E+01 8.47687E-02 9.24808E+00
 -1     10918 1.87607E+01 1.34296E-01 7.65345E-01
 -1     10919 1.97123E+01 2.17733E-01 2.90032E+00
 -1     10920 1.94412E+01 8.51070E-02 5.49556E+00
 -1     10921 1.87134E+01 1.52916E-01 6.67408E+00
 -1     10922 1.87263E+01 1.52916E-01 6.57927E+00
 -1     10923 1.94444E+01 8.24315E-02 5.75050E+00
 -1     10924 2.02457E+01 1.36625E-01 2.06973E+00
 -1     10925 1.97576E+01 6.94491E-01 1.02941E+00
 -1     10926 1.96941E+01 9.21329E-01 1.51248E+00
 -1     10927 1.96883E+01 1.05278E+00 1.21248E+00
 -1     10928 1.99266E+01 8.40618E-01 1.39188E+00
 -1     10929 1.92719E+01 1.10655E-01 9.10466E+00
 -1     10930 1.93216E+01 1.10655E-01 9.07749E+00
 -1     10931 1.93492E+01 2.14300E-01 9.13057E+00
 -1     10932 1.91548E+01 3.99075E-01 6.98845E+00
 -1     10933 1.92494E+01 2.45969E-01 7.01388E+00
 -1     10934 1.33347E+01 2.01705E+00 9.10291E+00
 -1     10935 1.95577E+01 7.13031E-02 4.85000E+00
 -1     10936 1.95773E+01 7.13031E-02 4.90073E+00
 -1     10937 1.81228E+01 1.47893E+00 6.32741E+00
 -1     10938 1.86902E+01 1.52501E+00 6.34163E+00
 -1     10939 1.95286E+01 7.39267E-02 8.44737E+00
 -1     10940 1.98651E+01 4.07301E-01 9.93234E-01
 -1     10941 1.95286E+01 7.39267E-02 8.54737E+00
 -1     10942 1.87715E+01 7.52358E-01 6.67002E+00
 -1     10943 1.82418E+01 1.71285E+00 6.84957E+00
 -1     10944 1.78093E+01 1.35106E+00 6.86335E+00
 -1     10945 1.74704E+01 1.86735E+00 6.72762E+00
 -1     10946 1.73513E+01 1.63343E+00 6.20546E+00
 -1     10947 1.77839E+01 1.99522E+00 6.19168E+00
 -1     10948 1.95209E+01 9.58613E-02 8.67500E+00
 -1     10949 1.94716E+01 9.58613E-02 8.65224E+00
 -1     10950 1.95209E+01 9.58613E-02 8.62500E+00
 -1     10951 1.96723E+01 8.48870E-02 2.12194E+00
 -1     10952 2.36795E+01 8.20744E-01 8.00346E+00
 -1     10953 2.08022E+01 1.44592E+00 5.31479E+00
 -1     10954 2.05500E+01 1.59151E+00 5.68380E+00
 -1     10955 2.02969E+01 1.86685E+00 5.20133E+00
 -1     10956 1.77979E+01 2.83312E-01 5.32245E+00
 -1     10957 1.76430E+01 2.83312E-01 5.33692E+00
 -1     10958 2.12199E+01 3.45930E+00 2.63372E+00
 -1     10959 2.06941E+01 3.01962E+00 3.75165E+00
 -1     10960 8.99701E+00 4.03557E+00 8.65644E+00
 -1     10961 1.86314E+01 2.07377E-01 5.62990E+00
 -1     10962 1.94599E+01 1.27019E+00 1.82491E+00
 -1     10963 1.92188E+01 1.36773E+00 2.00455E+00
 -1     10964 1.92284E+01 1.37481E+00 1.56590E+00
 -1     10965 1.90597E+01 1.08649E+00 1.97063E+00
 -1     10966 1.86556E+01 1.98924E-01 7.65608E+00
 -1     10967 2.03529E+01 2.38897E-01 2.25817E+00
 -1     10968 1.94705E+01 8.87704E-02 3.85010E+00
 -1     10969 1.97659E+01 1.00256E-01 3.75444E+00
 -1     10970 1.96780E+01 1.00256E-01 3.74726E+00
 -1     10971 1.97012E+01 7.59259E-01 4.25000E-01
 -1     10972 1.97085E+01 5.41795E-01 2.25000E-01
 -1     10973 1.94104E+01 1.65389E-01 8.25212E+00
 -1     10974 1.97301E+01 2.38348E-01 1.47889E-01
 -1     10975 2.16609E+01 8.53411E-01 5.37313E+00
 -1     10976 2.92184E+01 5.00000E-01 2.52125E+00
 -1     10977 1.89471E+01 4.63776E-01 4.33893E+00
 -1     10978 1.92139E+01 2.28116E-01 9.54248E+00
 -1     10979 1.87829E+01 3.40152E-01 4.18324E+00
 -1     10980 1.90881E+01 1.42500E-01 2.22481E+00
 -1     10981 4.81802E+01 2.23790E+01 6.13421E+00
 -1     10982 1.93737E+01 1.42657E-01 5.42917E+00
 -1     10983 1.98908E+01 1.66137E-01 6.71378E-01
 -1     10984 1.98069E+01 3.46115E-01 5.68419E-01
 -1     10985 1.95097E+01 2.22195E-01 2.67293E+00
 -1     10986 1.96836E+01 9.35022E-02 1.66807E+00
 -1     10987 1.96013E+01 1.66721E-01 1.62292E+00
 -1     10988 2.07324E+01 1.32857E+00 6.63671E+00
 -1     10989 2.03434E+01 9.13560E-01 6.24981E+00
 -1     10990 2.07813E+01 1.44548E+00 6.21944E+00
 -1     10991 2.10104E+01 1.24360E+00 6.37844E+00
 -1     10992 2.05724E+01 7.11677E-01 6.40881E+00
 -1     10993 1.80143E+01 2.58493E+00 3.58552E+00
 -1     10994 1.96844E+01 2.26377E+00 6.75546E+00
 -1     10995 2.02806E+01 2.46826E+00 7.03356E+00
 -1     10996 2.00494E+01 1.73753E+00 6.55852E+00
 -1     10997 2.02454E+01 2.39291E+00 6.64059E+00
 -1     10998 2.28784E+01 5.56560E+00 4.07821E+00
 -1     10999 1.91508E+01 1.51746E-01 6.43772E+00
 -1     11000 1.90603E+01 1.32578E+00 1.20487E+00
 -1     11001 1.76578E+01 2.84407E-01 5.02357E-01
 -1     11002 1.78593E+01 2.84407E-01 5.43284E-01
 -1     11003 1.77705E+01 2.84407E-01 7.21410E-01
 -1     11004 2.27369E+01 4.16007E-01 9.40703E+00
 -1     11005 2.23806E+01 1.18900E+00 9.20881E+00
 -1     11006 2.32564E+01 1.23675E+00 9.10496E+00
 -1     11007 2.34129E+01 8.20744E-01 8.51200E+00
 -1     11008 2.33736E+01 2.04296E+00 2.12683E+00
 -1     11009 1.93414E+01 1.66186E-01 5.94256E+00
 -1     11010 1.90143E+01 1.51746E-01 6.45101E+00
 -1     11011 1.88028E+01 1.52916E-01 6.50986E+00
 -1     11012 1.89221E+01 2.92533E-01 6.61201E+00
 -1     11013 1.55928E+01 2.27827E+00 8.47513E+00
 -1     11014 1.41673E+01 1.74460E+00 6.74933E+00
 -1     11015 1.88101E+01 1.52916E-01 6.61632E+00
 -1     11016 1.97078E+01 1.32152E-01 9.04534E+00
 -1     11017 1.97428E+01 1.32152E-01 8.97138E+00
 -1     11018 1.97704E+01 1.32152E-01 9.06238E+00
 -1     11019 1.76415E+01 2.88966E-01 3.15252E+00
 -1     11020 1.74026E+01 2.88966E-01 2.98562E+00
 -1     11021 1.74993E+01 7.24388E-01 2.89243E+00
 -1     11022 1.31501E+01 7.08771E-01 9.36524E+00
 -1     11023 1.28061E+01 8.76379E-01 8.46815E+00
 -1     11024 1.34102E+01 8.76379E-01 8.43527E+00
 -1     11025 1.28466E+01 1.58515E+00 9.10291E+00
 -1     11026 1.92038E+01 1.93816E-01 3.09917E+00
 -1     11027 1.92959E+01 2.89195E-01 3.13428E+00
 -1     11028 1.90947E+01 3.30862E-01 3.05946E+00
 -1     11029 1.98923E+01 1.39894E+00 1.90659E+00
 -1     11030 2.00343E+01 1.79778E+00 1.58068E+00
 -1     11031 1.92798E+01 1.96832E-01 9.89655E+00
 -1     11032 1.91511E+01 5.21784E-01 2.37003E+00
 -1     11033 1.95610E+01 4.00455E-01 5.11714E+00
 -1     11034 1.96721E+01 6.65430E-01 5.06730E+00
 -1     11035 1.97675E+01 4.41434E-01 4.97830E+00
 -1     11036 1.97562E+01 1.24759E-01 6.35933E+00
 -1     11037 1.85109E+01 1.64541E-01 1.89949E+00
 -1     11038 2.16990E+01 4.41204E-01 3.88587E+00
 -1     11039 2.13990E+01 4.41204E-01 4.08663E+00
 -1     11040 1.92911E+01 2.49789E-01 2.21710E+00
 -1     11041 1.93889E+01 1.91895E-01 2.13733E+00
 -1     11042 1.85951E+01 1.37551E+00 6.63011E+00
 -1     11043 1.95160E+01 9.54616E-02 1.37500E+00
 -1     11044 1.94647E+01 9.54616E-02 1.35254E+00
 -1     11045 1.93111E+01 2.28118E-01 1.14744E+00
 -1     11046 1.83665E+01 2.17748E-01 6.06312E+00
 -1     11047 1.83627E+01 5.10786E-01 6.15244E+00
 -1     11048 1.93941E+01 3.51285E-01 4.91679E+00
 -1     11049 1.94098E+01 2.64702E-01 5.04586E+00
 -1     11050 1.95282E+01 1.77273E-01 6.79947E+00
 -1     11051 1.94854E+01 1.72337E-01 6.67478E+00
 -1     11052 1.66149E+01 1.47261E+00 9.18393E+00
 -1     11053 1.67498E+01 1.16978E+00 9.47385E+00
 -1     11054 2.01133E+01 2.45639E-01 4.29304E+00
 -1     11055 2.02523E+01 2.60151E-01 3.93348E+00
 -1     11056 2.03047E+01 2.60151E-01 4.07107E+00
 -1     11057 2.02123E+01 5.05790E-01 4.08581E+00
 -1     11058 1.96035E+01 7.34618E-02 7.47503E+00
 -1     11059 1.96546E+01 7.34618E-02 7.45004E+00
 -1     11060 1.92688E+01 1.05879E-01 4.51542E+00
 -1     11061 1.92958E+01 1.98715E-01 4.60159E+00
 -1     11062 1.87562E+01 1.09366E+00 1.32587E+00
 -1     11063 1.87628E+01 8.33461E-01 1.59223E+00
 -1     11064 1.87571E+01 1.10011E+00 1.87971E+00
 -1     11065 2.32719E+01 1.80524E+00 9.10496E+00
 -1     11066 2.29575E+01 7.99368E-01 5.65719E+00
 -1     11067 2.25794E+01 5.48850E-01 6.47235E+00
 -1     11068 1.79298E+01 3.22169E-01 7.38786E+00
 -1     11069 1.81149E+01 3.22169E-01 7.49639E+00
 -1     11070 1.98891E+01 1.21102E-01 1.15008E+00
 -1     11071 2.07390E+01 3.13357E-01 6.38499E+00
 -1     11072 2.04985E+01 5.26407E-01 6.25464E+00
 -1     11073 2.07096E+01 3.13357E-01 6.17271E+00
 -1     11074 2.02784E+01 4.60627E-01 9.06357E+00
 -1     11075 1.85419E+01 2.11863E-01 5.27139E+00
 -1     11076 1.95850E+01 7.44346E-02 5.22056E+00
 -1     11077 1.94883E+01 1.59878E-01 3.87510E+00
 -1     11078 1.14960E+01 8.00141E-01 7.25256E-01
 -1     11079 1.06146E+01 8.00141E-01 7.27207E-01
 -1     11080 1.16421E+01 2.22721E+00 1.39736E+00
 -1     11081 1.17593E+01 1.42707E+00 2.12261E+00
 -1     11082 1.67099E+01 1.80441E+00 7.16463E+00
 -1     11083 2.00558E+01 2.93005E-01 1.84330E+00
 -1     11084 1.93713E+01 1.94463E-01 6.24530E+00
 -1     11085 2.08948E+01 2.58585E-01 6.82709E+00
 -1     11086 2.06282E+01 2.87362E-01 7.39337E+00
 -1     11087 2.04669E+01 2.87362E-01 7.50293E+00
 -1     11088 2.03341E+01 4.58021E-01 7.43105E+00
 -1     11089 1.97743E+01 2.53645E-01 2.10434E+00
 -1     11090 1.93167E+01 9.28369E-02 4.82494E+00
 -1     11091 1.96604E+01 9.35022E-02 1.72520E+00
 -1     11092 1.96328E+01 1.83170E-01 9.56070E+00
 -1     11093 1.96008E+01 1.06457E-01 7.16905E+00
 -1     11094 1.95362E+01 1.86932E-01 7.14326E+00
 -1     11095 1.95036E+01 2.16890E-01 5.50000E-01
 -1     11096 1.77820E+01 5.87840E-01 6.15410E+00
 -1     11097 1.82531E+01 1.55307E-01 2.77308E+00
 -1     11098 1.83490E+01 1.55307E-01 2.89735E+00
 -1     11099 1.87210E+01 5.85911E-01 1.79850E+00
 -1     11100 1.87153E+01 8.52561E-01 2.08598E+00
 -1     11101 1.87187E+01 7.55798E-01 8.92802E+00
 -1     11102 1.96652E+01 7.04922E-02 3.23764E+00
 -1     11103 1.97273E+01 7.04922E-02 3.26339E+00
 -1     11104 3.06616E+01 1.50859E+01 7.88068E+00
 -1     11105 2.89550E+01 1.63771E+01 7.50000E+00
 -1     11106 3.12081E+01 1.75255E+01 7.50000E+00
 -1     11107 2.05327E+01 6.56906E-01 6.74459E+00
 -1     11108 1.80385E+01 3.21515E-01 8.59984E+00
 -1     11109 2.00530E+01 1.11720E+00 3.76480E+00
 -1     11110 1.78691E+01 1.53551E+00 3.58985E+00
 -1     11111 1.74282E+01 9.64963E-01 3.22799E+00
 -1     11112 2.05242E+01 2.54175E-01 8.02402E+00
 -1     11113 1.95974E+01 2.60802E-01 5.84200E+00
 -1     11114 1.95295E+01 1.99676E-01 5.84349E+00
 -1     11115 1.93962E+01 8.04748E-02 7.14456E+00
 -1     11116 1.96631E+01 8.48870E-02 2.17194E+00
 -1     11117 1.96927E+01 8.48870E-02 2.22051E+00
 -1     11118 1.94098E+01 1.61134E-01 6.49719E+00
 -1     11119 1.95425E+01 1.48310E-01 6.47414E+00
 -1     11120 1.76971E+01 7.85143E-01 8.35021E+00
 -1     11121 1.95622E+01 1.46643E-01 5.29617E+00
 -1     11122 1.95610E+01 8.48619E-02 7.50001E+00
 -1     11123 1.95607E+01 8.48619E-02 7.54999E+00
 -1     11124 2.10847E+01 2.58585E-01 6.96020E+00
 -1     11125 2.08906E+01 2.58585E-01 7.04824E+00
 -1     11126 2.24454E+01 1.99773E+00 1.55563E+00
 -1     11127 1.93686E+01 3.26155E-01 7.69838E+00
 -1     11128 1.93384E+01 3.57143E-01 7.59837E+00
 -1     11129 1.24019E+01 7.08771E-01 7.25256E-01
 -1     11130 1.79229E+01 3.43641E+00 2.08633E+00
 -1     11131 1.82533E+01 3.28244E+00 7.21799E-01
 -1     11132 1.80122E+01 4.15367E+00 1.36453E+00
 -1     11133 1.86859E+01 4.03635E+00 8.19186E-01
 -1     11134 1.85965E+01 3.31909E+00 1.54098E+00
 -1     11135 1.96230E+01 7.04922E-02 3.30846E+00
 -1     11136 1.93065E+01 2.39061E-01 5.54761E+00
 -1     11137 1.87648E+01 3.43948E-01 3.09782E+00
 -1     11138 1.97993E+01 1.21095E-01 4.67344E+00
 -1     11139 2.08452E+01 5.02595E+00 4.20484E+00
 -1     11140 1.98089E+01 3.86927E-01 1.35327E+00
 -1     11141 1.96593E+01 1.32152E-01 9.06481E+00
 -1     11142 1.96059E+01 2.18605E-01 9.01481E+00
 -1     11143 1.88442E+01 5.44023E-01 2.83853E+00
 -1     11144 1.86673E+01 5.18697E-01 2.84987E+00
 -1     11145 1.86655E+01 3.35941E-01 2.79587E+00
 -1     11146 1.85418E+01 3.69707E-01 2.56299E+00
 -1     11147 1.90820E+01 5.06936E-01 3.86991E+00
 -1     11148 1.96329E+01 1.26950E-01 2.29188E+00
 -1     11149 1.97474E+01 8.48870E-02 2.16224E+00
 -1     11150 1.96616E+01 2.11837E-01 2.23895E+00
 -1     11151 1.90405E+01 3.36603E-01 2.76725E+00
 -1     11152 1.97856E+01 1.24147E-01 4.32297E+00
 -1     11153 1.97595E+01 2.45242E-01 4.43084E+00
 -1     11154 2.01593E+01 5.25992E-01 3.74245E+00
 -1     11155 2.01739E+01 8.44489E-01 3.60463E+00
 -1     11156 1.90523E+01 8.27313E-01 9.72010E+00
 -1     11157 2.04588E+01 4.71636E-01 6.59043E+00
 -1     11158 1.74272E+01 8.28334E-01 5.68270E+00
 -1     11159 1.87315E+01 6.05767E-01 7.66579E+00
 -1     11160 1.89327E+01 8.58322E-01 7.52647E+00
 -1     11161 1.97859E+01 2.78521E+00 1.31038E+00
 -1     11162 1.90702E+01 1.45136E-01 4.96529E+00
 -1     11163 2.06839E+01 2.20346E-01 6.97669E-01
 -1     11164 2.05758E+01 2.20346E-01 5.46357E-01
 -1     11165 2.08096E+01 2.20346E-01 5.37319E-01
 -1     11166 1.98583E+01 1.71043E-01 5.20774E+00
 -1     11167 1.98188E+01 2.83120E-01 5.12022E+00
 -1     11168 1.16872E+01 3.28427E+00 8.30379E+00
 -1     11169 1.15661E+01 2.64512E+00 9.10291E+00
 -1     11170 1.89424E+01 4.75898E-01 6.22954E+00
 -1     11171 1.86686E+01 5.14958E-01 6.16912E+00
 -1     11172 1.92721E+01 4.49737E-01 9.81529E+00
 -1     11173 2.00179E+01 6.51348E-01 6.20601E+00
 -1     11174 1.97038E+01 7.55825E-01 2.91689E+00
 -1     11175 1.99950E+01 6.19570E-01 3.50677E-01
 -1     11176 1.98204E+01 5.49501E-01 5.75677E-01
 -1     11177 1.93413E+01 6.97190E-02 8.54902E+00
 -1     11178 1.92941E+01 6.97190E-02 8.49468E+00
 -1     11179 1.93521E+01 6.97190E-02 8.49905E+00
 -1     11180 2.25257E+01 6.22478E-01 1.34115E+00
 -1     11181 2.26812E+01 6.22478E-01 1.11509E+00
 -1     11182 1.81982E+01 2.05347E+00 7.32000E+00
 -1     11183 1.77402E+01 2.33584E+00 6.66211E+00
 -1     11184 1.85117E+01 2.18134E+00 6.78406E+00
 -1     11185 1.55679E+01 2.60247E+00 9.11932E+00
 -1     11186 1.53327E+01 1.71898E+00 9.35581E+00
 -1     11187 2.14628E+01 2.20618E+00 1.85625E+00
 -1     11188 2.20803E+01 2.09441E+00 2.30082E+00
 -1     11189 2.03965E+01 9.25215E-01 8.17681E+00
 -1     11190 2.05736E+01 8.74521E-01 7.93765E+00
 -1     11191 2.03065E+01 5.59044E-01 8.17509E+00
 -1     11192 1.96741E+01 8.60733E-02 8.12545E+00
 -1     11193 1.97425E+01 1.05052E-01 5.86812E-01
 -1     11194 2.03174E+01 6.42428E-01 2.57751E+00
 -1     11195 1.92773E+01 3.30168E-01 5.78982E+00
 -1     11196 1.95894E+01 1.81837E-01 3.42761E+00
 -1     11197 1.94884E+01 1.90978E-01 3.51758E+00
 -1     11198 2.28324E+01 2.25711E+00 6.21368E+00
 -1     11199 2.24543E+01 2.00659E+00 7.02884E+00
 -1     11200 1.85199E+01 7.67725E-01 2.27310E+00
 -1     11201 1.85157E+01 7.17867E-01 2.09076E+00
 -1     11202 1.87861E+01 4.63776E-01 1.94930E+00
 -1     11203 2.30803E+01 8.28652E+00 1.23584E+00
 -1     11204 1.90163E+01 1.83947E-01 3.28933E+00
 -1     11205 2.94413E+01 4.27792E+00 1.52360E+00
 -1     11206 1.91919E+01 2.19997E-01 6.72716E+00
 -1     11207 1.96644E+01 1.29168E-01 5.36731E+00
 -1     11208 2.02437E+01 1.85336E-01 5.82556E+00
 -1     11209 2.01881E+01 1.85336E-01 5.72361E+00
 -1     11210 1.87750E+01 1.10929E+00 7.26790E+00
 -1     11211 1.57678E+01 4.96060E-01 2.48490E+00
 -1     11212 1.59355E+01 4.96060E-01 1.98875E+00
 -1     11213 1.93874E+01 1.93589E-01 3.66507E+00
 -1     11214 1.99398E+01 1.71043E-01 5.17598E+00
 -1     11215 1.96803E+01 7.04922E-02 3.34111E+00
 -1     11216 1.96665E+01 7.04922E-02 3.28377E+00
 -1     11217 2.00664E+01 2.80923E-01 7.14729E+00
 -1     11218 1.98748E+01 1.00256E-01 3.78298E+00
 -1     11219 1.98449E+01 1.00256E-01 3.86694E+00
 -1     11220 1.97883E+01 1.00256E-01 3.83834E+00
 -1     11221 2.01371E+01 1.58922E-01 4.70667E+00
 -1     11222 2.02575E+01 1.58922E-01 4.81490E+00
 -1     11223 1.10193E+01 5.36815E+00 2.50000E+00
 -1     11224 1.27305E+01 5.77631E+00 1.66274E+00
 -1     11225 1.73836E+01 2.88966E-01 3.24648E+00
 -1     11226 2.05331E+01 2.84853E-01 3.26175E+00
 -1     11227 2.07091E+01 2.84853E-01 3.15494E+00
 -1     11228 1.96626E+01 4.38538E-01 8.73212E+00
 -1     11229 2.19054E+01 1.32680E+00 4.47736E+00
 -1     11230 2.23510E+01 2.07736E+00 4.55744E+00
 -1     11231 1.91289E+01 4.79687E-01 6.27004E+00
 -1     11232 1.81501E+01 3.76970E+00 3.61986E+00
 -1     11233 1.89300E+01 4.36906E+00 3.02783E+00
 -1     11234 1.83780E+01 4.80554E-01 3.82775E+00
 -1     11235 1.95209E+01 9.58613E-02 8.72500E+00
 -1     11236 1.94494E+01 1.75036E-01 8.67764E+00
 -1     11237 1.92311E+01 2.64317E-01 8.71009E-01
 -1     11238 1.90661E+01 2.95251E-01 8.22678E-01
 -1     11239 1.96268E+01 6.19464E-01 8.13829E-01
 -1     11240 1.88475E+01 1.64280E-01 8.85709E-01
 -1     11241 1.93396E+01 9.47713E-02 1.23755E+00
 -1     11242 1.95585E+01 8.45572E-02 6.04493E+00
 -1     11243 1.95302E+01 1.01415E-01 4.14942E+00
 -1     11244 1.94452E+01 1.79236E-01 4.11895E+00
 -1     11245 1.94535E+01 3.26159E-01 1.52704E+00
 -1     11246 1.94223E+01 3.57162E-01 1.67784E+00
 -1     11247 1.93782E+01 2.87694E-01 1.60317E+00
 -1     11248 1.95152E+01 2.84065E-01 1.72467E+00
 -1     11249 1.95464E+01 2.53061E-01 1.57387E+00
 -1     11250 1.94704E+01 1.94231E-01 1.75000E+00
 -1     11251 2.07023E+01 1.29563E+00 2.32840E+00
 -1     11252 1.95368E+01 1.73071E-01 8.42237E+00
 -1     11253 2.10833E+01 1.25218E+00 2.53743E+00
 -1     11254 2.08893E+01 1.04931E+00 3.14425E+00
 -1     11255 2.11763E+01 2.83835E-01 8.35281E+00
 -1     11256 2.11961E+01 2.83835E-01 8.01315E+00
 -1     11257 1.95513E+01 3.10048E-01 2.72293E+00
 -1     11258 1.96858E+01 3.20407E-01 2.78667E+00
 -1     11259 1.93428E+01 1.37649E+00 9.04176E+00
 -1     11260 2.15378E+01 4.84460E+00 3.69019E+00
 -1     11261 2.00413E+01 6.46914E+00 1.65246E+00
 -1     11262 1.97680E+01 2.85030E-01 4.53685E-01
 -1     11263 2.09982E+01 1.81309E+00 7.87926E+00
 -1     11264 2.08526E+01 2.31035E+00 8.27410E+00
 -1     11265 2.07087E+01 2.09918E+00 7.38531E+00
 -1     11266 1.95496E+01 4.60031E-01 3.12505E+00
 -1     11267 1.96515E+01 2.82462E-01 3.24872E+00
 -1     11268 1.96509E+01 2.63768E-01 3.08199E+00
 -1     11269 1.96632E+01 4.46800E-01 3.05704E+00
 -1     11270 1.85237E+01 3.70907E+00 5.96329E+00
 -1     11271 1.96959E+01 6.14638E-01 2.79185E+00
 -1     11272 1.98358E+01 5.74357E-01 2.72851E+00
 -1     11273 1.95782E+01 7.22084E-02 5.47784E+00
 -1     11274 1.95725E+01 7.22084E-02 5.42439E+00
 -1     11275 2.14512E+01 1.87252E+01 2.50000E+00
 -1     11276 1.82817E+01 1.88717E+01 2.50000E+00
 -1     11277 4.71629E+01 1.48436E+01 6.22186E+00
 -1     11278 1.83483E+01 2.16084E+00 1.55470E+00
 -1     11279 1.86077E+01 2.06159E+00 1.16068E+00
 -1     11280 1.19075E+01 4.18464E+00 1.39736E+00
 -1     11281 1.95022E+01 1.78468E-01 7.45000E+00
 -1     11282 1.89632E+01 4.64279E-01 1.77111E+00
 -1     11283 1.90049E+01 7.11829E-01 1.56484E+00
 -1     11284 1.92926E+01 1.05879E-01 4.47379E+00
 -1     11285 1.92864E+01 1.05879E-01 4.42699E+00
 -1     11286 1.93378E+01 1.05879E-01 4.45199E+00
 -1     11287 4.42108E+00 1.31021E+00 1.31679E+00
 -1     11288 4.34150E+00 3.39306E+00 2.18811E+00
 -1     11289 1.96325E+01 2.39265E-01 1.62141E+00
 -1     11290 1.80740E+01 6.15523E-01 6.10362E+00
 -1     11291 1.95923E+01 1.66170E-01 3.30559E+00
 -1     11292 1.96359E+01 7.83778E-02 7.71906E+00
 -1     11293 1.95786E+01 7.83778E-02 7.68064E+00
 -1     11294 1.95486E+01 1.38920E-01 7.73159E+00
 -1     11295 1.93565E+01 7.54188E-02 4.25400E+00
 -1     11296 2.04398E+01 2.84853E-01 3.39864E+00
 -1     11297 1.88505E+01 6.71619E+00 8.40769E+00
 -1     11298 1.57309E+01 1.89208E+00 5.90578E+00
 -1     11299 1.93294E+01 9.54503E-01 5.18594E+00
 -1     11300 1.99338E+01 1.55270E-01 8.34613E-01
 -1     11301 2.00162E+01 1.55270E-01 8.36767E-01
 -1     11302 1.63788E+01 5.89808E-01 6.93299E+00
 -1     11303 2.32295E+01 7.99368E-01 5.35737E+00
 -1     11304 2.02978E+01 5.86604E-01 5.01986E+00
 -1     11305 4.83093E+01 3.94889E+00 6.39040E+00
 -1     11306 4.71789E+01 7.22314E+00 6.60802E+00
 -1     11307 4.82334E+01 5.59612E+00 8.00686E+00
 -1     11308 2.03962E+01 1.98271E+00 6.24328E+00
 -1     11309 2.06276E+01 1.83668E+00 6.77892E+00
 -1     11310 2.05923E+01 1.76134E+00 6.38594E+00
 -1     11311 1.93815E+01 1.18790E-01 4.94567E+00
 -1     11312 1.93412E+01 1.18790E-01 4.97133E+00
 -1     11313 2.10284E+01 3.69648E-01 4.77849E+00
 -1     11314 2.11038E+01 3.69648E-01 5.04381E+00
 -1     11315 2.08426E+01 3.69648E-01 4.96782E+00
 -1     11316 1.94543E+01 1.37845E+00 1.22636E+00
 -1     11317 1.95962E+01 1.77729E+00 9.00448E-01
 -1     11318 1.94737E+01 7.75113E-02 4.50000E-01
 -1     11319 1.98446E+01 1.35489E+00 4.11709E+00
 -1     11320 1.96594E+01 1.11781E+00 4.15675E+00
 -1     11321 2.20056E+01 7.19148E-01 2.98561E+00
 -1     11322 1.82401E+01 2.91316E-01 3.62210E+00
 -1     11323 2.15906E+01 4.50505E-01 8.71458E+00
 -1     11324 1.94902E+01 5.63713E-02 7.27500E+00
 -1     11325 1.95357E+01 5.63713E-02 7.29999E+00
 -1     11326 2.06542E+01 2.67784E-01 4.70247E+00
 -1     11327 1.95341E+01 8.78575E-02 9.75461E+00
 -1     11328 2.01606E+01 2.13050E-01 6.27260E+00
 -1     11329 2.02524E+01 2.13050E-01 6.17383E+00
 -1     11330 2.02033E+01 1.85336E-01 6.04394E+00
 -1     11331 2.01894E+01 3.98387E-01 6.13009E+00
 -1     11332 1.94036E+01 2.27764E-01 5.48361E+00
 -1     11333 1.95152E+01 1.80517E-01 1.57538E+00
 -1     11334 1.50582E+01 6.97390E-01 8.30199E+00
 -1     11335 1.79173E+01 2.69919E+00 7.21799E-01
 -1     11336 1.96551E+01 1.21095E-01 4.62348E+00
 -1     11337 1.94711E+01 6.85280E-02 5.05000E+00
 -1     11338 2.14092E+01 2.16713E+00 8.90957E+00
 -1     11339 1.94169E+01 1.07894E-01 2.35248E-01
 -1     11340 1.85377E+01 6.48742E-01 7.43470E+00
 -1     11341 1.91416E+01 3.77764E-01 3.23573E+00
 -1     11342 1.90494E+01 5.46319E-01 3.15791E+00
 -1     11343 4.67485E+01 6.66209E+00 4.96100E+00
 -1     11344 1.94888E+01 3.18392E-01 3.27681E+00
 -1     11345 1.81043E+01 5.32142E-01 3.39608E+00
 -1     11346 1.91126E+01 1.27705E+00 7.12408E+00
 -1     11347 1.86386E+01 2.07377E-01 5.48079E+00
 -1     11348 1.97298E+01 1.24165E+00 2.14412E+00
 -1     11349 1.94888E+01 1.33919E+00 2.32375E+00
 -1     11350 1.97289E+01 8.60733E-02 8.18449E+00
 -1     11351 1.88607E+01 1.79500E-01 8.71679E+00
 -1     11352 2.00645E+01 1.58922E-01 4.53456E+00
 -1     11353 1.99338E+01 2.80017E-01 4.61308E+00
 -1     11354 1.99565E+01 2.83069E-01 4.45713E+00
 -1     11355 1.87086E+01 1.52916E-01 6.46062E+00
 -1     11356 1.90113E+01 2.96049E-01 4.63807E+00
 -1     11357 2.06896E+01 7.82205E-01 1.31989E+00
 -1     11358 1.93968E+01 6.11372E-02 6.92706E+00
 -1     11359 1.93871E+01 6.11372E-02 6.98548E+00
 -1     11360 3.27457E+01 1.65981E+01 2.50000E+00
 -1     11361 2.84666E+01 1.48338E+01 7.50000E+00
 -1     11362 3.01731E+01 1.35426E+01 7.88068E+00
 -1     11363 1.55469E+01 8.44232E-01 2.29431E+00
 -1     11364 1.60570E+01 1.34029E+00 2.54018E+00
 -1     11365 1.95721E+01 7.19181E-02 6.37525E+00
 -1     11366 1.93815E+01 6.05423E-02 7.85702E+00
 -1     11367 1.93756E+01 6.05423E-02 7.80095E+00
 -1     11368 2.09458E+01 2.18089E-01 9.83587E+00
 -1     11369 1.96225E+01 8.60733E-02 8.10046E+00
 -1     11370 2.00758E+01 4.04561E-01 4.47358E+00
 -1     11371 1.85214E+01 4.51217E-01 1.80328E+00
 -1     11372 1.94991E+01 1.86956E-01 6.15000E+00
 -1     11373 1.91255E+01 2.70752E-01 6.15312E+00
 -1     11374 1.95154E+01 1.01239E-01 4.42500E+00
 -1     11375 1.95919E+01 1.78778E-01 4.40184E+00
 -1     11376 1.96985E+01 9.24642E-02 2.78132E+00
 -1     11377 1.97893E+01 9.24642E-02 2.81897E+00
 -1     11378 5.24115E+00 1.25240E+00 7.74178E+00
 -1     11379 5.10260E+00 2.08284E+00 4.92989E+00
 -1     11380 1.95861E+01 7.44346E-02 5.16734E+00
 -1     11381 1.96387E+01 7.44346E-02 5.12883E+00
 -1     11382 1.90962E+01 3.96142E-01 6.52413E-01
 -1     11383 1.90036E+01 1.78688E-01 6.00417E+00
 -1     11384 1.94682E+01 1.75836E+00 7.60000E+00
 -1     11385 1.98286E+01 8.64063E-02 7.62937E+00
 -1     11386 1.97968E+01 8.64063E-02 7.56086E+00
 -1     11387 1.98937E+01 8.64063E-02 7.59318E+00
 -1     11388 1.64759E+01 2.53599E+00 5.63398E+00
 -1     11389 1.89480E+01 5.47337E-01 3.14959E+00
 -1     11390 1.89011E+01 5.00436E-01 2.97332E+00
 -1     11391 1.97140E+01 8.61599E-02 3.58892E+00
 -1     11392 1.96949E+01 1.86416E-01 3.67074E+00
 -1     11393 1.96260E+01 8.61599E-02 3.58174E+00
 -1     11394 1.95770E+01 8.53712E-02 1.39019E-01
 -1     11395 1.96142E+01 8.53712E-02 1.90166E-01
 -1     11396 1.97418E+01 7.75390E-02 4.50852E+00
 -1     11397 1.97210E+01 7.75390E-02 4.41236E+00
 -1     11398 1.96949E+01 1.98634E-01 4.52023E+00
 -1     11399 1.99897E+01 3.94698E-01 5.79617E+00
 -1     11400 1.99776E+01 1.27278E-01 5.85862E+00
 -1     11401 1.93677E+01 3.29261E-01 6.82841E+00
 -1     11402 1.93383E+01 3.19900E-01 7.79985E+00
 -1     11403 1.75614E+01 2.88966E-01 3.58892E+00
 -1     11404 1.75030E+01 2.88966E-01 3.44972E+00
 -1     11405 1.77191E+01 2.88966E-01 3.48716E+00
 -1     11406 2.04006E+01 2.36838E+00 7.73457E+00
 -1     11407 1.88831E+01 3.70556E-01 4.60240E+00
 -1     11408 1.50593E+01 1.45658E+01 2.50000E+00
 -1     11409 1.96541E+01 8.13282E-02 6.84969E+00
 -1     11410 1.96423E+01 8.13282E-02 6.79797E+00
 -1     11411 2.27183E+01 6.22478E-01 1.60667E+00
 -1     11412 1.90251E+01 5.04000E-01 1.47791E-01
 -1     11413 1.77844E+01 2.89588E-01 1.81411E+00
 -1     11414 1.97270E+01 1.21102E-01 1.27751E+00
 -1     11415 2.27966E+01 1.60697E+00 8.06173E-01
 -1     11416 2.22601E+01 2.35975E+00 7.49460E-01
 -1     11417 1.92825E+01 1.76806E-01 6.34250E+00
 -1     11418 1.97315E+01 7.83778E-02 7.63475E+00
 -1     11419 2.13618E+01 4.50505E-01 8.93961E+00
 -1     11420 1.92648E+01 1.07894E-01 1.42466E-01
 -1     11421 1.99476E+01 1.68758E-01 1.92790E+00
 -1     11422 1.99719E+01 1.68758E-01 2.04854E+00
 -1     11423 1.94121E+01 2.71119E-01 1.25603E+00
 -1     11424 1.92252E+01 2.18493E-01 1.29998E+00
 -1     11425 1.95942E+01 1.66733E+00 3.04457E+00
 -1     11426 1.91828E+01 3.78264E+00 3.27775E+00
 -1     11427 1.79346E+01 3.72122E+00 2.97899E+00
 -1     11428 1.86393E+01 1.44395E-01 9.65090E+00
 -1     11429 1.89708E+01 1.65044E-01 1.71515E+00
 -1     11430 1.24670E+00 2.02908E+00 6.77687E+00
 -1     11431 1.45147E+00 3.33930E+00 7.95858E+00
 -1     11432 2.69816E+00 1.31021E+00 8.81830E+00
 -1     11433 4.13673E+00 2.08284E+00 6.00641E+00
 -1     11434 2.89004E+00 4.11192E+00 5.14669E+00
 -1     11435 1.93796E+01 1.87141E-01 6.34719E+00
 -1     11436 2.68460E+01 1.34786E+00 2.60551E+00
 -1     11437 2.83760E+01 1.86324E+00 2.79200E+00
 -1     11438 1.94431E+01 8.24315E-02 5.70000E+00
 -1     11439 1.93749E+01 1.78835E-01 5.71400E+00
 -1     11440 1.97195E+01 2.23399E-01 7.70206E+00
 -1     11441 1.98228E+01 2.68899E-01 3.89883E+00
 -1     11442 1.59215E+01 8.44232E-01 2.69528E+00
 -1     11443 1.95866E+01 2.71982E-01 6.17844E+00
 -1     11444 2.00390E+01 1.79978E-01 3.42880E-01
 -1     11445 2.01883E+01 4.00324E-01 4.27249E-01
 -1     11446 1.96713E+01 3.85825E-01 4.18687E+00
 -1     11447 1.96703E+01 3.29529E-01 4.38680E+00
 -1     11448 1.88360E+01 1.40372E+00 5.05156E+00
 -1     11449 1.94710E+01 9.59446E-02 6.84978E+00
 -1     11450 1.94134E+01 1.57082E-01 6.85007E+00
 -1     11451 1.96432E+01 8.53712E-02 1.35185E-01
 -1     11452 1.50268E+01 6.02684E-01 7.48819E+00
 -1     11453 1.95456E+01 3.22110E-01 1.37387E+00
 -1     11454 1.96500E+01 4.42977E-01 1.35304E+00
 -1     11455 2.06191E+01 2.87362E-01 7.57634E+00
 -1     11456 2.07288E+01 2.54175E-01 7.81332E+00
 -1     11457 2.06692E+01 2.54175E-01 7.96516E+00
 -1     11458 2.05275E+01 2.54175E-01 7.84946E+00
 -1     11459 1.99714E+01 7.62650E-01 6.96871E+00
 -1     11460 1.94990E+01 1.72882E-01 7.90193E+00
 -1     11461 2.09465E+01 2.25633E+00 2.59187E+00
 -1     11462 1.37995E+01 7.92931E-01 6.21937E+00
 -1     11463 1.32590E+01 1.66931E+00 7.06287E+00
 -1     11464 2.04643E+01 2.87362E-01 7.32362E+00
 -1     11465 1.94652E+01 5.51024E-02 5.65000E+00
 -1     11466 1.95085E+01 5.51024E-02 5.67500E+00
 -1     11467 1.94665E+01 5.51024E-02 5.70050E+00
 -1     11468 1.77828E+01 5.29792E-01 3.22783E+00
 -1     11469 2.02063E+01 8.18049E+00 1.56393E+00
 -1     11470 1.97761E+01 8.00113E+00 3.21639E+00
 -1     11471 2.12962E+01 6.66199E+00 1.23584E+00
 -1     11472 2.08660E+01 6.48263E+00 2.88830E+00
 -1     11473 1.79460E+01 2.89588E-01 1.72833E+00
 -1     11474 3.03711E+01 1.83940E+00 1.25284E+00
 -1     11475 2.95287E+01 3.20264E+00 1.52360E+00
 -1     11476 1.80007E+01 9.49808E-01 8.68838E+00
 -1     11477 1.74304E+01 7.33125E-01 8.79185E+00
 -1     11478 2.27617E+01 5.40162E-01 4.48716E+00
 -1     11479 2.09476E+01 2.70005E+00 9.36453E+00
 -1     11480 2.03442E+01 3.00161E+00 9.36453E+00
 -1     11481 2.00622E+01 3.75829E+00 9.21992E+00
 -1     11482 2.06656E+01 3.45672E+00 9.21992E+00
 -1     11483 2.90855E+01 1.18788E+01 8.31915E+00
 -1     11484 1.94330E+01 1.79313E-01 8.35212E+00
 -1     11485 1.97357E+01 1.24147E-01 4.28745E+00
 -1     11486 1.98257E+01 3.31787E-01 7.46507E+00
 -1     11487 1.98749E+01 4.42562E-01 7.33782E+00
 -1     11488 1.94531E+01 1.47719E-01 5.07455E+00
 -1     11489 1.96024E+01 8.13282E-02 6.87468E+00
 -1     11490 1.94386E+01 7.91906E-02 5.09955E+00
 -1     11491 1.93937E+01 7.91906E-02 5.12480E+00
 -1     11492 1.94716E+01 1.53625E-01 5.14633E+00
 -1     11493 2.05752E+01 5.41537E-01 7.66281E+00
 -1     11494 1.96851E+01 6.79792E+00 5.06016E+00
 -1     11495 2.10069E+01 7.24441E+00 4.15246E+00
 -1     11496 1.98501E+01 8.50928E+00 4.97162E+00
 -1     11497 1.94539E+01 3.71958E-01 4.02764E+00
 -1     11498 1.94541E+01 2.54457E-01 3.93085E+00
 -1     11499 1.93464E+01 3.19040E-01 3.85375E+00
 -1     11500 1.91036E+01 1.26613E+00 4.90612E+00
 -1     11501 1.94560E+01 2.10376E-01 5.82243E+00
 -1     11502 1.66508E+01 4.96060E-01 2.25383E+00
 -1     11503 1.78264E+01 5.80282E-01 3.51590E+00
 -1     11504 1.94100E+01 1.59140E-01 7.85237E+00
 -1     11505 1.95512E+01 1.82516E-01 8.70904E-01
 -1     11506 1.95537E+01 2.19457E-01 7.70904E-01
 -1     11507 2.03559E+01 2.42315E-01 9.39334E+00
 -1     11508 1.94434E+01 1.90233E-01 1.30603E+00
 -1     11509 2.83457E+01 1.00636E+01 7.50000E+00
 -1     11510 2.64951E+01 9.76901E+00 8.31678E+00
 -1     11511 1.59143E+01 1.45556E+00 9.35581E+00
 -1     11512 1.93479E+01 9.45343E-02 6.60480E+00
 -1     11513 1.76085E+01 8.83045E-01 6.73748E+00
 -1     11514 1.95721E+01 1.01415E-01 4.07100E+00
 -1     11515 1.91915E+01 2.95412E-01 2.99857E+00
 -1     11516 2.10601E+01 4.21254E-01 2.93360E+00
 -1     11517 3.77611E+00 1.17185E+01 7.50000E+00
 -1     11518 1.95016E+01 4.17992E-01 8.74655E+00
 -1     11519 1.92840E+01 3.34807E-01 8.78081E+00
 -1     11520 1.94553E+01 3.37477E-01 8.92723E+00
 -1     11521 1.72418E+01 1.61331E+00 4.83621E+00
 -1     11522 1.93460E+01 6.97190E-02 8.45017E+00
 -1     11523 1.89133E+01 7.33797E-01 9.21444E+00
 -1     11524 1.93599E+01 1.09655E+00 9.31415E+00
 -1     11525 1.90498E+01 9.94709E-01 9.40926E+00
 -1     11526 1.91113E+01 1.16420E+00 9.18349E+00
 -1     11527 1.87248E+01 6.56129E-01 6.88569E+00
 -1     11528 1.89867E+01 4.90360E-01 6.86553E+00
 -1     11529 1.94613E+01 1.65580E-01 8.57517E+00
 -1     11530 2.19575E+01 6.91023E+00 5.04155E+00
 -1     11531 1.91742E+01 1.10036E-01 5.98066E+00
 -1     11532 1.92069E+01 2.02100E-01 6.08939E+00
 -1     11533 1.90963E+01 1.10036E-01 6.05709E+00
 -1     11534 1.93517E+01 7.91906E-02 5.14955E+00
 -1     11535 2.27124E+01 2.33656E+00 5.08442E+00
 -1     11536 2.20195E+01 2.04871E+00 5.37101E+00
 -1     11537 1.71108E+01 4.46988E-01 3.18186E+00
 -1     11538 1.69013E+01 4.46988E-01 2.97810E+00
 -1     11539 1.71298E+01 4.46988E-01 2.92101E+00
 -1     11540 1.74792E+01 6.06244E+00 6.08026E+00
 -1     11541 2.28569E+01 7.99368E-01 5.26729E+00
 -1     11542 1.92071E+01 2.63289E-01 5.41675E+00
 -1     11543 2.02373E+01 2.18313E-01 8.73201E+00
 -1     11544 2.03700E+01 2.38897E-01 2.14714E+00
 -1     11545 1.95762E+01 1.01578E-01 1.04569E+00
 -1     11546 1.96512E+01 1.01578E-01 1.06810E+00
 -1     11547 1.80226E+01 2.91774E+00 6.61553E+00
 -1     11548 1.94410E+01 1.78572E-01 6.05382E+00
 -1     11549 1.95378E+01 1.97040E-01 1.20000E+00
 -1     11550 1.94632E+01 1.14624E+00 1.55347E+00
 -1     11551 1.87770E+01 1.79500E-01 8.55185E+00
 -1     11552 1.88797E+01 6.32210E-01 7.85317E+00
 -1     11553 1.86609E+01 5.82786E-01 7.84497E+00
 -1     11554 3.19260E+01 3.06835E+00 7.50000E+00
 -1     11555 1.92334E+01 1.10655E-01 9.15475E+00
 -1     11556 1.92988E+01 1.95424E-01 9.20364E+00
 -1     11557 1.86747E+01 6.19983E-01 5.69673E+00
 -1     11558 1.85499E+01 6.30354E-01 5.89040E+00
 -1     11559 1.61393E+01 6.25225E+00 8.62886E+00
 -1     11560 1.70269E+01 5.35469E+00 8.62886E+00
 -1     11561 2.09201E+01 2.92248E-01 1.69862E+00
 -1     11562 1.95676E+01 6.85280E-02 5.09557E+00
 -1     11563 1.95577E+01 6.85280E-02 5.05000E+00
 -1     11564 1.96202E+01 6.85280E-02 5.05706E+00
 -1     11565 1.94142E+01 3.16258E-01 7.35114E+00
 -1     11566 1.95492E+01 3.41547E-01 7.33006E+00
 -1     11567 1.95617E+01 2.54734E-01 7.40387E+00
 -1     11568 1.94608E+01 2.74024E-01 7.27619E+00
 -1     11569 1.96479E+01 7.96817E-02 8.79852E+00
 -1     11570 1.96712E+01 7.96817E-02 8.74670E+00
 -1     11571 1.96864E+01 7.96817E-02 8.83009E+00
 -1     11572 1.72472E+01 4.35507E-01 3.91834E+00
 -1     11573 1.73978E+01 1.30132E+00 3.79357E-01
 -1     11574 2.02828E+01 7.93016E-01 4.02400E+00
 -1     11575 1.93303E+01 8.01688E-02 8.37712E+00
 -1     11576 1.93208E+01 1.93409E-01 1.61940E+00
 -1     11577 2.05273E+01 3.64065E+00 3.14837E+00
 -1     11578 2.47788E+01 6.75927E+00 8.47326E+00
 -1     11579 4.52994E+01 1.36785E+01 8.61383E+00
 -1     11580 4.56364E+01 1.24248E+01 7.50000E+00
 -1     11581 1.79970E+01 2.40826E-01 3.36733E+00
 -1     11582 1.78833E+01 2.40826E-01 3.20985E+00
 -1     11583 1.70586E+01 4.46988E-01 3.48428E+00
 -1     11584 1.98419E+01 1.64754E-01 8.14551E+00
 -1     11585 1.97607E+01 1.27637E-01 8.30497E+00
 -1     11586 2.94490E+01 1.34753E+00 1.25284E+00
 -1     11587 2.86066E+01 2.71077E+00 1.52360E+00
 -1     11588 1.85851E+01 1.75943E-01 7.83526E+00
 -1     11589 3.39285E+01 1.28978E+01 2.50000E+00
 -1     11590 1.96264E+01 7.83778E-02 7.65786E+00
 -1     11591 1.96224E+01 1.42748E+00 1.58739E+00
 -1     11592 1.97643E+01 1.82631E+00 1.26148E+00
 -1     11593 1.66254E+01 2.00269E+00 9.18393E+00
 -1     11594 1.59248E+01 1.98563E+00 9.35581E+00
 -1     11595 2.01128E+01 1.85336E-01 5.81552E+00
 -1     11596 1.97465E+01 2.89063E-01 8.92761E+00
 -1     11597 1.91306E+01 1.41976E-01 9.60493E+00
 -1     11598 1.73553E+01 4.11610E-01 9.11838E+00
 -1     11599 1.70745E+01 4.11610E-01 9.09738E+00
 -1     11600 1.73016E+01 4.11610E-01 8.88981E+00
 -1     11601 1.71173E+01 2.38646E-01 2.61911E-01
 -1     11602 1.73902E+01 2.38646E-01 2.28065E-01
 -1     11603 1.74089E+01 6.31656E-01 3.79357E-01
 -1     11604 1.74027E+01 3.93010E-01 6.07422E-01
 -1     11605 2.04257E+01 2.60151E-01 3.94330E+00
 -1     11606 1.82949E+01 5.31929E-01 4.00949E+00
 -1     11607 1.83401E+01 2.40613E-01 4.11101E+00
 -1     11608 1.81932E+01 2.91316E-01 3.78567E+00
 -1     11609 1.85250E+01 4.29851E-01 4.15309E+00
 -1     11610 2.07689E+01 8.85964E-01 2.65225E+00
 -1     11611 1.88649E+01 2.19643E-01 4.75713E+00
 -1     11612 1.77139E+01 1.79931E-01 9.80477E+00
 -1     11613 1.79220E+01 1.79931E-01 9.82127E+00
 -1     11614 1.79087E+01 3.36428E-01 9.47303E+00
 -1     11615 1.79200E+01 5.16360E-01 9.65176E+00
 -1     11616 1.77006E+01 3.36428E-01 9.45653E+00
 -1     11617 1.94260E+01 8.87704E-02 3.87524E+00
 -1     11618 2.11173E+01 4.21254E-01 2.66826E+00
 -1     11619 1.92490E+01 2.05252E-01 8.99883E+00
 -1     11620 1.95965E+01 2.64011E-01 6.41499E+00
 -1     11621 1.94698E+01 2.41651E-01 6.35000E+00
 -1     11622 1.95122E+01 3.85988E-01 6.32414E+00
 -1     11623 1.54039E+01 1.65933E+00 6.38326E-01
 -1     11624 1.46958E+01 2.61941E+00 1.05755E+00
 -1     11625 1.94100E+01 1.90479E-01 6.70016E+00
 -1     11626 1.94312E+01 5.42001E-01 1.96998E+00
 -1     11627 1.94452E+01 5.07496E-01 1.79465E+00
 -1     11628 1.94397E+01 1.60757E+00 4.85261E+00
 -1     11629 1.88798E+01 1.34296E-01 7.64085E-01
 -1     11630 1.97639E+01 1.21102E-01 1.17114E+00
 -1     11631 1.89645E+01 3.67018E-01 1.47791E-01
 -1     11632 1.88929E+01 3.07045E-01 3.16583E-01
 -1     11633 1.87982E+01 3.64224E-01 1.68792E-01
 -1     11634 3.51748E+01 1.50608E+01 8.61383E+00
 -1     11635 3.42496E+01 1.41236E+01 8.60116E+00
 -1     11636 3.27457E+01 1.65981E+01 7.50000E+00
 -1     11637 3.41384E+01 1.59260E+01 6.10116E+00
 -1     11638 1.98219E+01 3.65990E+00 3.08829E+00
 -1     11639 1.92474E+01 3.48116E+00 2.24419E+00
 -1     11640 1.86082E+01 3.60390E+00 2.43364E+00
 -1     11641 1.93400E+01 2.11627E-01 4.84546E+00
 -1     11642 1.98254E+01 1.43963E-01 3.41599E+00
 -1     11643 1.98856E+01 1.22250E-01 3.54515E+00
 -1     11644 2.06814E+01 2.54175E-01 8.11721E+00
 -1     11645 1.96118E+01 8.48619E-02 7.52500E+00
 -1     11646 1.96954E+01 2.71189E-01 6.62923E-01
 -1     11647 2.71923E+01 1.15516E+01 8.31915E+00
 -1     11648 1.97600E+01 2.51042E-01 7.95777E+00
 -1     11649 1.71147E+01 2.64361E+00 9.21550E+00
 -1     11650 3.77611E+00 1.17185E+01 2.50000E+00
 -1     11651 2.06438E+01 2.87362E-01 7.20476E+00
 -1     11652 1.97311E+01 1.21102E-01 1.32804E+00
 -1     11653 1.97848E+01 2.31428E-01 7.62817E+00
 -1     11654 1.92152E+01 3.28255E-01 4.14845E+00
 -1     11655 2.09304E+01 2.52761E-01 8.70798E+00
 -1     11656 1.67600E+01 2.22866E+00 1.60148E+00
 -1     11657 1.64402E+01 2.03018E+00 1.99746E+00
 -1     11658 1.70069E+01 1.51022E+00 2.49190E+00
 -1     11659 2.01710E+01 2.87006E+00 2.91008E+00
 -1     11660 2.04019E+01 2.22490E+00 2.60420E+00
 -1     11661 2.02995E+01 2.46274E+00 3.10465E+00
 -1     11662 1.92812E+01 1.10655E-01 9.15557E+00
 -1     11663 2.15431E+01 3.61634E+00 1.14864E+00
 -1     11664 2.09312E+01 3.04224E+00 7.64818E-01
 -1     11665 2.09126E+01 2.43417E+00 7.64818E-01
 -1     11666 2.02404E+01 2.45808E+00 1.22638E+00
 -1     11667 2.11243E+01 2.83505E+00 1.51428E+00
 -1     11668 1.99122E+01 1.10108E+00 8.54907E+00
 -1     11669 1.55785E+01 6.37746E-01 1.05401E+00
 -1     11670 1.91963E+01 2.98627E-01 5.68139E+00
 -1     11671 1.96268E+01 8.62872E-02 7.80972E+00
 -1     11672 1.95695E+01 8.62872E-02 7.82130E+00
 -1     11673 1.88549E+01 1.55525E-01 3.88016E+00
 -1     11674 1.90079E+01 3.23925E-01 3.89417E+00
 -1     11675 1.93920E+01 8.47687E-02 9.27310E+00
 -1     11676 1.93468E+01 9.45343E-02 6.55039E+00
 -1     11677 1.76003E+01 2.81503E-01 1.13005E+00
 -1     11678 1.77843E+01 2.81503E-01 1.17991E+00
 -1     11679 1.76919E+01 2.81503E-01 1.32755E+00
 -1     11680 1.92320E+01 9.64040E-02 5.75870E+00
 -1     11681 1.99710E+01 3.84612E-01 7.26120E+00
 -1     11682 1.95606E+01 2.14275E-01 5.44541E+00
 -1     11683 1.94931E+01 2.71826E-01 5.37902E+00
 -1     11684 1.96043E+01 2.01377E-01 5.36980E+00
 -1     11685 1.94473E+01 2.14866E-01 5.40800E+00
 -1     11686 1.95148E+01 1.57315E-01 5.47439E+00
 -1     11687 2.15456E+01 9.99324E-01 4.35629E-01
 -1     11688 1.77944E+01 3.36428E-01 9.29629E+00
 -1     11689 1.77407E+01 3.36428E-01 9.06772E+00
 -1     11690 1.93703E+01 1.10279E-01 4.00460E+00
 -1     11691 2.14512E+01 1.87252E+01 7.50000E+00
 -1     11692 1.98405E+01 2.92789E-01 4.11815E+00
 -1     11693 1.93531E+01 2.70133E-01 4.10325E+00
 -1     11694 1.92836E+01 4.61690E-01 3.97738E+00
 -1     11695 2.03492E+01 1.59188E+00 4.15882E+00
 -1     11696 2.00319E+01 1.88104E+00 4.09173E+00
 -1     11697 2.02403E+01 1.64336E+00 3.73945E+00
 -1     11698 1.90225E+01 1.64280E-01 1.01441E+00
 -1     11699 1.93052E+01 8.03804E-02 6.72605E+00
 -1     11700 1.93450E+01 8.03804E-02 6.74865E+00
 -1     11701 1.95157E+01 8.33337E-02 6.87500E+00
 -1     11702 1.95157E+01 8.33337E-02 6.92500E+00
 -1     11703 1.94867E+01 1.79278E-01 6.87478E+00
 -1     11704 1.86895E+01 1.52126E-01 4.74158E-01
 -1     11705 1.94549E+01 1.04792E+00 8.97761E+00
 -1     11706 2.01749E+01 1.77718E-01 2.72246E+00
 -1     11707 2.00363E+01 3.17781E-01 2.71757E+00
 -1     11708 1.90377E+01 3.74450E-01 2.92467E+00
 -1     11709 2.00987E+01 1.36625E-01 1.89921E+00
 -1     11710 1.59673E+01 2.17187E+00 1.51847E+00
 -1     11711 1.58713E+01 2.55571E+00 8.80149E-01
 -1     11712 1.88580E+01 6.16174E-01 3.20162E+00
 -1     11713 2.07467E+01 2.52761E-01 8.46328E+00
 -1     11714 2.09926E+01 2.83835E-01 8.10811E+00
 -1     11715 2.31231E+01 7.99368E-01 5.01414E+00
 -1     11716 1.72321E+01 7.35954E-01 3.28304E+00
 -1     11717 1.90738E+01 1.50914E-01 4.42842E+00
 -1     11718 1.94369E+01 8.04748E-02 7.12449E+00
 -1     11719 1.94611E+01 1.36846E-01 7.17288E+00
 -1     11720 1.94103E+01 3.11261E-01 4.47634E+00
 -1     11721 1.97081E+01 7.17318E-02 5.75072E+00
 -1     11722 1.96451E+01 7.17318E-02 5.77790E+00
 -1     11723 1.96417E+01 7.17318E-02 5.72415E+00
 -1     11724 2.01620E+01 5.23182E-01 8.62149E+00
 -1     11725 1.94878E+01 3.34553E+00 5.28601E+00
 -1     11726 1.96796E+01 9.24642E-02 2.71618E+00
 -1     11727 1.96182E+01 9.24642E-02 2.71787E+00
 -1     11728 1.96083E+01 2.22168E-01 2.69126E+00
 -1     11729 1.93148E+01 2.45559E-01 9.59029E+00
 -1     11730 1.92643E+01 2.00120E+00 7.31338E+00
 -1     11731 1.92642E+01 1.40829E+00 7.26338E+00
 -1     11732 1.91917E+01 1.82977E+00 7.61960E+00
 -1     11733 1.91916E+01 1.23687E+00 7.56960E+00
 -1     11734 1.89877E+01 1.47971E+00 7.28297E+00
 -1     11735 1.98402E+01 1.64754E-01 8.03706E+00
 -1     11736 2.07064E+01 2.52761E-01 8.65061E+00
 -1     11737 1.80467E+01 2.84407E-01 6.37945E-01
 -1     11738 1.81621E+01 2.84407E-01 5.43818E-01
 -1     11739 2.10360E+01 1.02675E+00 5.81292E+00
 -1     11740 2.12882E+01 8.81161E-01 5.44391E+00
 -1     11741 2.11938E+01 1.58778E+00 5.66418E+00
 -1     11742 2.79287E+01 1.31897E+01 8.31915E+00
 -1     11743 1.94856E+01 8.51070E-02 5.52500E+00
 -1     11744 2.19913E+00 4.50110E+00 7.95858E+00
 -1     11745 2.01732E+01 1.17334E+00 8.53858E+00
 -1     11746 2.02720E+01 7.81495E-01 8.68595E+00
 -1     11747 1.73314E+01 2.88966E-01 3.54889E+00
 -1     11748 1.80179E+01 2.84407E-01 4.40930E-01
 -1     11749 1.92077E+01 2.63926E-01 4.91135E+00
 -1     11750 1.85182E+01 4.48929E-01 8.06207E+00
 -1     11751 1.67960E+01 1.66467E+00 6.48754E+00
 -1     11752 1.95572E+01 2.00800E-01 1.69754E+00
 -1     11753 1.76564E+01 2.88956E+00 4.04386E+00
 -1     11754 1.91127E+01 6.23027E-01 9.15692E+00
 -1     11755 1.93357E+01 2.64249E-01 1.52950E+00
 -1     11756 1.92567E+01 1.80396E-01 1.56976E+00
 -1     11757 1.91620E+01 1.23722E-01 1.46054E+00
 -1     11758 1.92409E+01 2.07575E-01 1.42028E+00
 -1     11759 2.29520E+01 6.22478E-01 1.35029E+00
 -1     11760 1.96411E+01 9.53127E-02 9.42656E+00
 -1     11761 1.96071E+01 2.31205E-01 9.38109E+00
 -1     11762 1.96334E+01 9.53127E-02 9.37840E+00
 -1     11763 1.92020E+01 7.54503E+00 1.65246E+00
 -1     11764 1.93669E+01 9.25639E+00 1.56393E+00
 -1     11765 1.95190E+01 3.83102E-01 9.79933E+00
 -1     11766 1.96842E+01 3.34630E-01 9.83010E+00
 -1     11767 1.95815E+01 4.77819E-01 9.83010E+00
 -1     11768 2.10582E+01 2.83835E-01 7.59606E+00
 -1     11769 2.12522E+01 2.83835E-01 7.50802E+00
 -1     11770 1.96395E+01 1.12077E-01 4.98545E+00
 -1     11771 1.82735E+01 2.40613E-01 4.29162E+00
 -1     11772 1.84706E+01 2.40613E-01 4.24356E+00
 -1     11773 1.95335E+01 5.63713E-02 7.25000E+00
 -1     11774 1.91458E+01 5.19812E-01 4.02258E+00
 -1     11775 1.81470E+01 2.81838E-01 9.13756E-01
 -1     11776 1.95931E+01 2.08992E-01 3.20559E+00
 -1     11777 1.99524E+01 3.35896E-01 9.64250E+00
 -1     11778 1.83849E+01 2.93038E-01 6.34900E+00
 -1     11779 1.82697E+01 2.93038E-01 6.44546E+00
 -1     11780 1.96166E+01 7.19181E-02 6.42228E+00
 -1     11781 1.95668E+01 7.19181E-02 6.42421E+00
 -1     11782 1.99818E+01 1.71043E-01 5.07642E+00
 -1     11783 2.87012E+00 1.31021E+00 1.40476E+00
 -1     11784 4.30869E+00 2.08284E+00 3.59287E+00
 -1     11785 1.91263E+01 5.95840E-01 2.10749E+00
 -1     11786 2.03629E+01 2.67784E-01 4.42105E+00
 -1     11787 2.02704E+01 5.13423E-01 4.43580E+00
 -1     11788 2.04618E+01 5.27935E-01 4.21382E+00
 -1     11789 1.96736E+01 7.75390E-02 4.47684E+00
 -1     11790 1.96718E+01 7.75390E-02 4.56265E+00
 -1     11791 1.96757E+01 2.11834E-01 8.93832E+00
 -1     11792 1.93679E+01 2.35784E-01 9.41409E-01
 -1     11793 2.03213E+01 1.65838E-01 9.66568E+00
 -1     11794 2.02389E+01 1.65838E-01 9.55654E+00
 -1     11795 2.10454E+01 2.92248E-01 1.51110E+00
 -1     11796 1.92983E+01 8.03804E-02 6.67790E+00
 -1     11797 2.02899E+01 2.42315E-01 9.12451E+00
 -1     11798 1.93652E+01 1.49888E-01 8.42729E+00
 -1     11799 1.79403E+01 3.22484E-01 5.91191E+00
 -1     11800 1.78832E+01 3.22484E-01 6.06514E+00
 -1     11801 1.96187E+01 7.75113E-02 4.16481E-01
 -1     11802 1.95641E+01 7.75113E-02 4.48542E-01
 -1     11803 1.97067E+01 1.61260E+00 4.45881E+00
 -1     11804 2.11578E+01 1.38319E+00 6.83103E+00
 -1     11805 2.04950E+01 2.20346E-01 6.78400E-01
 -1     11806 2.00645E+01 1.58922E-01 4.62608E+00
 -1     11807 1.95597E+01 7.96817E-02 8.84852E+00
 -1     11808 1.95597E+01 7.96817E-02 8.79852E+00
 -1     11809 1.96058E+01 7.96817E-02 8.82229E+00
 -1     11810 1.43295E+01 7.92931E-01 6.01393E+00
 -1     11811 1.93706E+01 2.95710E-01 8.96826E+00
 -1     11812 1.94844E+01 2.15297E-01 9.75116E+00
 -1     11813 2.24804E+01 4.16007E-01 9.69109E+00
 -1     11814 2.20287E+01 8.66512E-01 9.54567E+00
 -1     11815 4.81364E+01 1.50147E+01 2.60802E+00
 -1     11816 4.56364E+01 1.24248E+01 2.50000E+00
 -1     11817 4.75000E+01 1.35899E+01 5.10802E+00
 -1     11818 4.75000E+01 1.20000E+01 2.50000E+00
 -1     11819 1.91633E+01 1.10036E-01 5.88879E+00
 -1     11820 1.96006E+01 2.24887E-01 4.56839E+00
 -1     11821 1.09431E+01 4.14579E+00 8.65644E+00
 -1     11822 1.97870E+01 1.66137E-01 8.42591E-01
 -1     11823 1.91775E+01 6.93921E-02 5.72174E-02
 -1     11824 1.91219E+01 6.93921E-02 1.02141E-01
 -1     11825 1.92464E+01 1.77286E-01 8.52482E-02
 -1     11826 1.93404E+01 2.48953E-01 2.84999E+00
 -1     11827 1.95026E+01 2.21719E-01 2.10214E+00
 -1     11828 1.92502E+01 1.25772E+00 9.68915E+00
 -1     11829 1.96894E+01 3.78361E-01 7.19700E+00
 -1     11830 1.93367E+01 3.73709E-01 3.23422E+00
 -1     11831 1.92896E+01 8.72568E-02 7.67926E+00
 -1     11832 1.93991E+01 5.07876E-01 2.21022E+00
 -1     11833 1.94133E+01 1.41612E-01 6.99818E+00
 -1     11834 1.86145E+01 1.55307E-01 2.82552E+00
 -1     11835 1.85301E+01 1.55307E-01 2.88595E+00
 -1     11836 1.93778E+01 2.74281E-01 7.22172E+00
 -1     11837 1.90611E+01 4.41735E-01 2.08734E+00
 -1     11838 1.89857E+01 4.34072E-01 1.94453E+00
 -1     11839 1.97369E+01 2.65370E-01 9.53618E+00
 -1     11840 1.49267E+01 6.02684E-01 7.08937E+00
 -1     11841 1.48069E+01 1.55435E+00 7.33138E+00
 -1     11842 1.86787E+01 7.94107E-01 5.41149E+00
 -1     11843 1.97582E+01 3.93837E-01 2.90939E+00
 -1     11844 2.02113E+01 1.84960E+00 4.50054E+00
 -1     11845 1.95597E+01 7.96817E-02 8.74852E+00
 -1     11846 1.96030E+01 7.96817E-02 8.77352E+00
 -1     11847 1.95008E+01 2.71809E-01 1.30000E+00
 -1     11848 1.94278E+01 2.60201E-01 1.37633E+00
 -1     11849 1.95039E+01 2.29616E-01 1.50020E+00
 -1     11850 1.94591E+01 1.79315E-01 1.42633E+00
 -1     11851 1.87436E+01 8.93263E-01 9.68354E+00
 -1     11852 1.86740E+01 8.26335E-01 9.40364E+00
 -1     11853 1.88745E+01 1.08934E+00 9.68354E+00
 -1     11854 1.86107E+01 1.64541E-01 1.76619E+00
 -1     11855 1.87635E+01 3.29586E-01 1.77589E+00
 -1     11856 1.86626E+01 1.64541E-01 1.90055E+00
 -1     11857 1.93632E+01 2.09670E-01 4.50199E+00
 -1     11858 1.88476E+01 1.28072E+00 6.96168E+00
 -1     11859 2.23538E+01 1.14127E+00 5.08653E+00
 -1     11860 1.99284E+01 1.79978E-01 3.42745E-01
 -1     11861 2.10778E+01 4.52947E-01 7.16505E+00
 -1     11862 2.00593E+01 4.51582E-01 7.33877E+00
 -1     11863 1.96019E+01 3.33265E-01 9.06481E+00
 -1     11864 1.96163E+01 3.58023E-01 8.91280E+00
 -1     11865 1.96822E+01 6.05479E-01 9.01431E+00
 -1     11866 1.98268E+01 5.61277E-01 8.87712E+00
 -1     11867 1.98123E+01 5.36519E-01 9.02912E+00
 -1     11868 1.81455E+01 4.28906E-01 2.74292E-01
 -1     11869 4.32639E+01 4.71320E+00 3.86120E+00
 -1     11870 1.93734E+01 1.18790E-01 4.89300E+00
 -1     11871 1.94625E+01 7.13031E-02 4.84715E+00
 -1     11872 1.94706E+01 7.13031E-02 4.89982E+00
 -1     11873 1.94398E+01 1.90093E-01 4.89586E+00
 -1     11874 1.83230E+01 2.44422E-01 9.58912E+00
 -1     11875 1.81350E+01 2.44422E-01 9.58900E+00
 -1     11876 4.82780E+01 1.65215E+01 2.60802E+00
 -1     11877 1.88983E+01 1.53179E-01 8.37995E+00
 -1     11878 2.05753E+01 2.52761E-01 8.54145E+00
 -1     11879 2.05895E+01 2.52761E-01 8.37010E+00
 -1     11880 1.78695E+01 6.57943E-01 8.96976E+00
 -1     11881 1.95999E+01 2.93275E-01 8.79004E+00
 -1     11882 1.96203E+01 2.43363E-01 8.86280E+00
 -1     11883 1.94593E+01 2.22817E-01 8.87723E+00
 -1     11884 1.95291E+01 2.16046E-01 8.80075E+00
 -1     11885 1.96901E+01 2.36592E-01 8.78632E+00
 -1     11886 4.84335E+01 3.94889E+00 4.61193E+00
 -1     11887 4.51820E+01 4.71320E+00 3.55920E+00
 -1     11888 1.91322E+01 1.42500E-01 2.13973E+00
 -1     11889 1.72265E+01 8.82410E-01 2.82782E+00
 -1     11890 1.94415E+01 1.81387E-01 3.95322E+00
 -1     11891 1.96286E+01 9.24642E-02 2.76362E+00
 -1     11892 1.97935E+01 1.00256E-01 3.92423E+00
 -1     11893 1.84339E+01 7.46646E+00 4.15246E+00
 -1     11894 1.76516E+01 5.75074E-01 9.65176E+00
 -1     11895 1.72125E+01 6.50256E-01 9.47385E+00
 -1     11896 1.96405E+01 7.22084E-02 5.45842E+00
 -1     11897 1.94430E+01 8.38536E-02 1.55133E+00
 -1     11898 1.94727E+01 1.57072E-01 1.50171E+00
 -1     11899 1.89600E+01 1.70627E+00 1.63281E+00
 -1     11900 1.87914E+01 1.41795E+00 2.03754E+00
 -1     11901 1.88009E+01 1.42503E+00 1.59889E+00
 -1     11902 1.96565E+01 2.25386E-01 4.31245E+00
 -1     11903 1.95456E+01 3.62917E-01 4.22442E+00
 -1     11904 1.95604E+01 3.63094E-01 4.09884E+00
 -1     11905 1.95456E+01 2.02654E-01 4.22442E+00
 -1     11906 1.92773E+01 3.08559E-01 7.67680E+00
 -1     11907 1.72433E+01 4.20144E+00 1.36453E+00
 -1     11908 1.68733E+01 5.58297E+00 1.31462E+00
 -1     11909 1.74419E+01 6.59851E+00 1.31462E+00
 -1     11910 2.03272E+01 6.44316E-01 9.81240E+00
 -1     11911 4.49232E+01 1.41734E+01 1.95414E+00
 -1     11912 1.77035E+01 3.21515E-01 8.73395E+00
 -1     11913 1.95611E+01 8.33337E-02 6.90001E+00
 -1     11914 1.94949E+01 2.38608E-01 5.70000E+00
 -1     11915 1.92191E+01 1.32236E+00 5.11743E+00
 -1     11916 1.95629E+01 1.71293E-01 8.15045E+00
 -1     11917 1.96228E+01 8.60733E-02 8.15110E+00
 -1     11918 1.93956E+01 2.21959E-01 5.97625E+00
 -1     11919 1.93509E+01 2.76491E-01 6.10215E+00
 -1     11920 1.92459E+01 2.04050E-01 5.99791E+00
 -1     11921 2.01173E+01 2.63154E+00 3.88614E+00
 -1     11922 1.90263E+01 1.38042E-01 9.49878E+00
 -1     11923 1.95786E+01 2.10006E-01 3.72889E-01
 -1     11924 1.91722E+01 2.18290E+00 6.76809E+00
 -1     11925 1.95729E+01 1.64662E-01 6.87469E+00
 -1     11926 2.22073E+01 7.19148E-01 3.37163E+00
 -1     11927 1.85497E+01 1.55307E-01 2.74244E+00
 -1     11928 2.00242E+01 2.08378E-01 6.71107E+00
 -1     11929 1.92791E+01 2.69415E-01 9.71183E+00
 -1     11930 1.92178E+01 1.71382E-01 9.31813E+00
 -1     11931 1.90998E+01 3.09424E-01 9.37172E+00
 -1     11932 2.20889E+01 3.92766E+00 7.49460E-01
 -1     11933 1.84943E+01 1.61806E+00 7.18113E+00
 -1     11934 2.17890E+01 9.81366E-01 4.14868E+00
 -1     11935 1.50593E+01 1.45658E+01 7.50000E+00
 -1     11936 1.67998E+01 1.84964E+00 5.22167E+00
 -1     11937 1.70075E+01 1.58071E+00 5.79399E+00
 -1     11938 1.63239E+01 1.75311E+00 5.73608E+00
 -1     11939 1.99707E+01 1.79978E-01 2.62792E-01
 -1     11940 1.78673E+01 7.93550E+00 1.31462E+00
 -1     11941 1.84414E+01 8.39160E+00 2.87854E+00
 -1     11942 1.82765E+01 6.68024E+00 2.96708E+00
 -1     11943 1.66198E+01 3.58173E+00 8.80149E-01
 -1     11944 1.84905E+01 1.44395E-01 9.66556E+00
 -1     11945 1.85856E+01 1.44395E-01 9.74133E+00
 -1     11946 1.95454E+01 3.44572E-01 4.95565E+00
 -1     11947 1.94195E+01 1.88414E-01 9.22308E+00
 -1     11948 1.94996E+01 1.63854E-01 9.24456E+00
 -1     11949 1.92746E+01 9.38630E-02 7.17988E+00
 -1     11950 1.96524E+01 7.90857E-02 9.26349E+00
 -1     11951 1.94652E+01 5.51024E-02 5.60000E+00
 -1     11952 1.93601E+01 4.15655E-01 8.52482E-02
 -1     11953 1.93994E+01 2.75272E-01 3.30368E+00
 -1     11954 2.04839E+01 2.67784E-01 4.29328E+00
 -1     11955 1.97678E+01 2.50828E-01 8.11192E+00
 -1     11956 1.84654E+01 2.72987E-01 8.12425E+00
 -1     11957 1.86071E+01 2.14400E-01 2.22812E+00
 -1     11958 1.86028E+01 1.64541E-01 2.04578E+00
 -1     11959 1.87330E+01 1.64541E-01 2.11544E+00
 -1     11960 1.90978E+01 1.23722E-01 1.39878E+00
 -1     11961 1.91757E+01 2.33277E-01 1.53702E+00
 -1     11962 1.87861E+01 2.99379E-01 1.94930E+00
 -1     11963 2.02264E+01 3.97068E-01 5.16970E+00
 -1     11964 1.70051E+01 2.38646E-01 9.79227E+00
 -1     11965 1.72585E+01 2.38646E-01 9.62353E+00
 -1     11966 3.94203E+01 4.00000E+00 3.82763E+00
 -1     11967 4.15154E+01 4.00000E+00 4.40706E+00
 -1     11968 4.31014E+01 3.26666E+00 1.90706E+00
 -1     11969 4.15860E+01 5.26666E+00 2.50000E+00
 -1     11970 4.10063E+01 3.26666E+00 1.32763E+00
 -1     11971 1.97176E+01 2.01686E-01 4.36428E+00
 -1     11972 1.85310E+01 3.62209E-01 2.97437E+00
 -1     11973 1.86891E+01 5.53475E-01 4.30878E+00
 -1     11974 1.97915E+01 1.79978E-01 3.71072E-01
 -1     11975 1.98435E+01 1.79978E-01 3.22392E-01
 -1     11976 1.95719E+01 2.97527E-01 6.00087E+00
 -1     11977 1.94398E+01 2.67034E-01 6.09833E+00
 -1     11978 1.95708E+01 8.18609E-02 9.87204E+00
 -1     11979 1.95790E+01 8.18609E-02 9.82513E+00
 -1     11980 1.96416E+01 8.18609E-02 9.87115E+00
 -1     11981 1.95952E+01 1.82563E-01 4.99094E-01
 -1     11982 2.09273E+01 2.18089E-01 1.57581E-01
 -1     11983 2.10654E+01 2.18089E-01 2.89661E-01
 -1     11984 2.07528E+01 4.38434E-01 2.47658E-01
 -1     11985 2.06714E+01 2.20346E-01 4.05239E-01
 -1     11986 2.16921E+01 2.97756E-01 9.69727E+00
 -1     11987 2.20285E+01 2.97756E-01 9.69109E+00
 -1     11988 2.15768E+01 7.48261E-01 9.54567E+00
 -1     11989 2.15924E+01 4.50505E-01 9.24294E+00
 -1     11990 1.91941E+01 2.41127E-01 5.21574E+00
 -1     11991 1.93140E+01 1.64608E-01 5.18122E+00
 -1     11992 1.92301E+01 8.54169E-02 5.21870E+00
 -1     11993 1.96017E+01 7.34618E-02 7.32504E+00
 -1     11994 1.96552E+01 7.34618E-02 7.34741E+00
 -1     11995 1.96040E+01 7.34618E-02 7.37503E+00
 -1     11996 1.95144E+01 7.13031E-02 4.87500E+00
 -1     11997 1.95289E+01 1.39831E-01 4.95000E+00
 -1     11998 1.76420E+01 2.81503E-01 1.54858E+00
 -1     11999 1.42871E+01 7.92931E-01 6.50732E+00
 -1     12000 1.46551E+01 1.39562E+00 6.50197E+00
 -1     12001 2.03834E+01 2.33778E-01 1.07387E+00
 -1     12002 1.93730E+01 2.35273E-01 4.27480E+00
 -1     12003 1.95511E+01 1.85447E-01 2.86833E+00
 -1     12004 2.12390E+01 1.64569E+00 7.43743E+00
 -1     12005 2.05625E+01 2.33778E-01 8.20655E-01
 -1     12006 2.04816E+01 2.33778E-01 9.52698E-01
 -1     12007 1.78709E+01 2.81838E-01 9.97221E-01
 -1     12008 1.80549E+01 2.81838E-01 1.04707E+00
 -1     12009 1.79546E+01 2.84407E-01 7.71264E-01
 -1     12010 1.96369E+01 9.24642E-02 2.81795E+00
 -1     12011 2.02760E+01 3.50814E-01 9.81240E+00
 -1     12012 1.98378E+01 5.81930E-01 5.13565E+00
 -1     12013 1.93133E+01 1.73772E-01 8.79590E+00
 -1     12014 1.95473E+01 2.57718E-01 6.87311E+00
 -1     12015 1.95479E+01 2.28081E-01 6.72515E+00
 -1     12016 1.95217E+01 1.01578E-01 9.75000E-01
 -1     12017 2.13926E+01 2.80066E+00 2.23454E+00
 -1     12018 2.00681E+01 1.27278E-01 6.08704E+00
 -1     12019 1.94397E+01 2.19606E-01 6.95357E+00
 -1     12020 1.93949E+01 2.16747E-01 7.02646E+00
 -1     12021 1.95473E+01 2.42248E-01 7.02121E+00
 -1     12022 1.94866E+01 1.63808E-01 7.02288E+00
 -1     12023 1.95530E+01 3.77489E-01 8.66932E+00
 -1     12024 1.94911E+01 2.53968E-01 8.57486E+00
 -1     12025 1.93827E+01 2.87522E-01 6.65023E+00
 -1     12026 1.68836E+01 1.66157E+01 2.50000E+00
 -1     12027 1.80392E+01 2.40826E-01 2.92347E+00
 -1     12028 1.81350E+01 2.40826E-01 3.04775E+00
 -1     12029 1.82747E+01 3.96134E-01 2.95761E+00
 -1     12030 2.02212E+01 7.31120E-01 1.20888E+00
 -1     12031 2.00514E+01 5.54802E-01 9.55083E-01
 -1     12032 4.27528E+00 1.25240E+00 8.81830E+00
 -1     12033 1.95245E+01 8.18609E-02 9.89271E+00
 -1     12034 1.94862E+01 8.18609E-02 9.90454E+00
 -1     12035 1.94818E+01 8.18609E-02 9.86545E+00
 -1     12036 1.94711E+01 9.29830E-02 2.92500E+00
 -1     12037 1.77803E+01 2.65355E-01 6.57737E+00
 -1     12038 1.95486E+01 1.29833E-01 7.32504E+00
 -1     12039 1.95346E+01 8.51070E-02 5.55345E+00
 -1     12040 1.93541E+01 1.97107E-01 9.03057E+00
 -1     12041 1.94546E+01 1.54852E+00 4.38882E-01
 -1     12042 1.92976E+01 2.07466E+00 2.84703E+00
 -1     12043 1.92940E+01 9.20643E-02 6.17053E+00
 -1     12044 1.94928E+01 2.64538E-01 3.48092E-01
 -1     12045 1.77470E+01 2.72414E-01 4.26776E+00
 -1     12046 1.95366E+01 2.34177E-01 3.25000E+00
 -1     12047 1.89217E+01 1.34837E-01 1.80869E+00
 -1     12048 1.88623E+01 1.34837E-01 1.89577E+00
 -1     12049 1.89632E+01 2.99881E-01 1.77111E+00
 -1     12050 1.01119E+01 8.00141E-01 9.03621E+00
 -1     12051 1.10374E+01 8.00141E-01 8.65400E+00
 -1     12052 1.91474E+01 1.45136E-01 4.94414E+00
 -1     12053 2.60023E+01 1.34786E+00 2.07333E+00
 -1     12054 2.60753E+01 2.15759E+00 1.33710E+00
 -1     12055 2.58224E+01 8.09734E-01 7.36230E-01
 -1     12056 2.52270E+01 8.07868E-01 1.50887E+00
 -1     12057 2.52999E+01 1.61760E+00 7.72642E-01
 -1     12058 2.18059E+01 1.26090E+00 6.16193E-01
 -1     12059 2.21326E+01 1.02141E+00 6.16193E-01
 -1     12060 1.95846E+01 1.98896E-01 9.48109E+00
 -1     12061 2.14464E+01 5.85192E+00 1.23584E+00
 -1     12062 1.93809E+01 9.59446E-02 6.80000E+00
 -1     12063 1.90650E+01 1.09739E+00 7.71154E+00
 -1     12064 1.93976E+01 2.85674E-01 2.67292E+00
 -1     12065 1.95043E+01 2.72834E-01 2.80000E+00
 -1     12066 2.24804E+01 4.16007E-01 3.08913E-01
 -1     12067 1.93294E+01 7.91749E-02 8.65149E+00
 -1     12068 1.96763E+01 8.61599E-02 3.52627E+00
 -1     12069 1.94935E+01 2.39537E-01 9.25000E+00
 -1     12070 1.94709E+01 3.04758E-01 9.10000E+00
 -1     12071 1.94944E+01 3.37005E-01 9.20000E+00
 -1     12072 1.95509E+01 2.80198E-01 9.12148E+00
 -1     12073 1.94291E+01 2.22599E-01 4.74960E+00
 -1     12074 1.92085E+01 3.77162E-01 3.89895E+00
 -1     12075 1.86798E+01 4.26166E-01 8.28012E+00
 -1     12076 1.93853E+01 3.32315E-01 3.10741E+00
 -1     12077 1.97572E+01 1.25268E-01 2.96981E+00
 -1     12078 1.92705E+01 2.89951E-01 1.64624E+00
 -1     12079 1.92584E+01 9.20643E-02 6.32380E+00
 -1     12080 1.98824E+01 1.79978E-01 2.57395E-01
 -1     12081 1.95725E+01 1.73200E+00 6.96413E+00
 -1     12082 2.00425E+01 1.70659E-01 7.48648E+00
 -1     12083 1.91289E+01 4.61740E-01 1.95442E+00
 -1     12084 1.91207E+01 4.08790E-01 1.84034E+00
 -1     12085 1.91289E+01 2.97342E-01 1.95442E+00
 -1     12086 1.91207E+01 2.44392E-01 1.84034E+00
 -1     12087 2.13088E+01 8.97655E-01 1.33161E+00
 -1     12088 1.16210E+01 8.00141E-01 9.34533E+00
 -1     12089 1.21829E+01 8.76379E-01 8.44824E+00
 -1     12090 1.19407E+01 1.67652E+00 9.10291E+00
 -1     12091 1.90137E+01 3.54074E-01 9.81529E+00
 -1     12092 1.87820E+01 3.56493E-01 9.84417E+00
 -1     12093 1.72994E+01 2.81671E+00 1.60195E+00
 -1     12094 1.78660E+01 2.29675E+00 2.09639E+00
 -1     12095 1.94310E+01 4.32391E-01 2.47365E+00
 -1     12096 1.94588E+01 3.63580E-01 2.27365E+00
 -1     12097 1.95292E+01 2.79260E-01 2.36566E+00
 -1     12098 1.97072E+01 2.14455E-01 3.30432E+00
 -1     12099 1.94253E+01 8.04748E-02 7.02465E+00
 -1     12100 1.94424E+01 6.11372E-02 6.95029E+00
 -1     12101 1.45147E+00 3.15982E+00 1.59013E+00
 -1     12102 1.41865E+00 1.84960E+00 2.99489E+00
 -1     12103 2.89004E+00 3.93244E+00 3.77824E+00
 -1     12104 1.90534E+01 2.80018E-01 9.52443E+00
 -1     12105 1.90530E+01 2.38643E-01 2.99322E+00
 -1     12106 1.57134E+01 4.45957E-01 4.15685E-01
 -1     12107 2.02189E+01 2.25411E+00 4.61566E-01
 -1     12108 2.08319E+01 2.58074E+00 4.61566E-01
 -1     12109 1.66445E+01 4.96060E-01 2.48620E+00
 -1     12110 1.88383E+01 6.31144E-01 8.83850E+00
 -1     12111 1.95058E+01 2.04016E-01 9.50000E-01
 -1     12112 3.83449E+01 4.32111E+00 6.71330E+00
 -1     12113 3.64649E+01 4.32111E+00 5.21762E+00
 -1     12114 1.94091E+01 2.84875E-01 6.19833E+00
 -1     12115 1.78036E+01 2.81503E-01 1.46280E+00
 -1     12116 1.91507E+01 1.20632E-01 5.45511E+00
 -1     12117 2.07775E+01 3.93729E+00 8.85401E+00
 -1     12118 1.90106E+01 1.66129E+00 4.38882E-01
 -1     12119 1.88588E+01 2.11538E+00 4.38882E-01
 -1     12120 1.95665E+01 9.56775E-02 3.35287E+00
 -1     12121 1.95399E+01 1.91140E-01 7.77126E+00
 -1     12122 1.96481E+01 1.64665E-01 7.75194E+00
 -1     12123 1.97635E+01 1.48092E+00 6.67575E+00
 -1     12124 1.94830E+01 1.37984E+00 7.06936E+00
 -1     12125 1.88289E+01 1.52126E-01 2.45435E-01
 -1     12126 1.88470E+01 1.52126E-01 3.28623E-01
 -1     12127 1.87469E+01 1.52126E-01 2.70122E-01
 -1     12128 9.41077E+00 1.38821E+00 7.69264E+00
 -1     12129 1.93490E+01 1.47799E-01 7.72932E+00
 -1     12130 1.89206E+01 4.65136E-01 3.84108E+00
 -1     12131 1.38791E+01 3.87620E+00 1.05755E+00
 -1     12132 2.06080E+01 2.88520E+00 2.24990E+00
 -1     12133 2.02589E+01 3.67503E+00 2.42811E+00
 -1     12134 1.86976E+01 1.44395E-01 9.75470E+00
 -1     12135 2.21256E+00 2.02908E+00 5.70036E+00
 -1     12136 1.93290E+01 9.38630E-02 7.21721E+00
 -1     12137 1.93746E+01 1.74338E-01 7.16842E+00
 -1     12138 1.90040E+01 4.81263E-01 4.16478E+00
 -1     12139 1.95447E+01 3.06621E-01 4.42435E+00
 -1     12140 2.04501E+01 2.26026E-01 5.19277E+00
 -1     12141 1.97026E+01 1.93711E-01 9.85461E+00
 -1     12142 1.97856E+01 1.05853E-01 9.92844E+00
 -1     12143 1.96930E+01 1.87714E-01 9.94271E+00
 -1     12144 1.95586E+01 1.69718E-01 9.79733E+00
 -1     12145 1.96568E+01 7.90857E-02 9.10201E+00
 -1     12146 1.93942E+01 1.99049E-01 3.87832E+00
 -1     12147 1.97704E+01 3.25544E-01 9.37460E+00
 -1     12148 2.00542E+01 3.40328E-01 6.17319E+00
 -1     12149 2.34023E+01 5.58297E-01 9.40703E+00
 -1     12150 2.39219E+01 1.37904E+00 9.10496E+00
 -1     12151 4.15352E+01 4.00000E+00 8.66458E+00
 -1     12152 1.99125E+01 2.76372E-01 1.07843E+00
 -1     12153 1.86381E+01 1.67633E+01 7.50000E+00
 -1     12154 1.68836E+01 1.66157E+01 7.50000E+00
 -1     12155 2.00026E+01 2.41164E-01 1.12645E+00
 -1     12156 1.95614E+01 1.84955E-01 2.76833E+00
 -1     12157 1.94816E+01 3.54421E-01 9.47433E+00
 -1     12158 1.94591E+01 3.22113E-01 9.57434E+00
 -1     12159 1.95717E+01 3.13842E-01 9.50542E+00
 -1     12160 2.03674E+01 1.36625E-01 2.01833E+00
 -1     12161 1.93098E+01 2.56151E-01 9.31065E+00
 -1     12162 1.92603E+01 2.57523E-01 9.38977E+00
 -1     12163 1.93196E+01 1.70909E-01 9.37527E+00
 -1     12164 1.95624E+01 2.71388E-01 6.55038E+00
 -1     12165 1.90387E+01 1.00989E+00 6.26489E+00
 -1     12166 4.50195E+01 3.26666E+00 1.60506E+00
 -1     12167 4.33346E+01 5.97986E+00 1.95414E+00
 -1     12168 1.88608E+01 4.94251E-01 9.72010E+00
 -1     12169 1.89584E+01 1.26805E+01 7.64520E+00
 -1     12170 1.99858E+01 1.13187E+01 8.36719E+00
 -1     12171 1.76054E+01 2.88966E-01 3.32968E+00
 -1     12172 1.92194E+01 1.60703E+00 1.23879E+00
 -1     12173 2.79444E+01 8.47533E-01 8.80149E+00
 -1     12174 2.83031E+01 1.54692E+00 7.31363E+00
 -1     12175 1.89162E+01 6.37053E-01 5.63676E+00
 -1     12176 2.01290E+01 5.19500E-01 4.78034E+00
 -1     12177 1.95800E+01 9.24642E-02 2.79333E+00
 -1     12178 1.94724E+01 8.96390E-02 5.29907E+00
 -1     12179 1.92804E+01 9.40145E-02 6.04040E+00
 -1     12180 4.75000E+01 1.20000E+01 7.50000E+00
 -1     12181 1.93904E+01 2.32296E-01 5.35768E+00
 -1     12182 1.74844E+01 3.33020E+00 7.21799E-01
 -1     12183 2.10865E+01 5.61919E-01 4.35629E-01
 -1     12184 1.96075E+01 2.97067E-01 1.47889E-01
 -1     12185 1.95786E+01 3.68358E-01 3.72889E-01
 -1     12186 1.95629E+01 4.00436E-01 2.25000E-01
 -1     12187 1.94628E+01 2.72466E-01 8.52482E-02
 -1     12188 1.94338E+01 3.43757E-01 3.10248E-01
 -1     12189 1.94785E+01 2.40388E-01 2.33137E-01
 -1     12190 1.92108E+01 3.77488E-01 2.43346E+00
 -1     12191 1.95286E+01 7.39267E-02 8.49737E+00
 -1     12192 1.94690E+01 1.43646E-01 8.49754E+00
 -1     12193 2.11977E+01 4.41204E-01 4.29683E+00
 -1     12194 1.93792E+01 7.91749E-02 8.67988E+00
 -1     12195 7.77849E+00 9.96337E-01 8.89994E+00
 -1     12196 8.93211E+00 9.96337E-01 9.03621E+00
 -1     12197 9.49781E+00 2.38455E+00 8.65644E+00
 -1     12198 1.95451E+01 1.67068E-01 7.37504E+00
 -1     12199 2.15439E+01 5.11513E-01 5.66906E+00
 -1     12200 2.11523E+01 3.69648E-01 5.31966E+00
 -1     12201 1.98694E+01 1.68643E-01 3.98680E+00
 -1     12202 1.97296E+01 2.70058E-01 4.03012E+00
 -1     12203 2.02243E+01 4.97440E-01 2.27593E+00
 -1     12204 1.77614E+01 5.65909E-01 9.57225E-01
 -1     12205 2.00485E+01 3.05383E-01 2.03610E+00
 -1     12206 1.94579E+01 1.74746E-01 5.42407E+00
 -1     12207 1.95016E+01 1.61847E-01 5.34846E+00
 -1     12208 1.84152E+01 2.61898E+00 7.21799E-01
 -1     12209 1.90652E+01 6.08364E-01 5.89084E+00
 -1     12210 2.05162E+01 8.88209E-01 3.64553E+00
 -1     12211 2.05383E+01 9.12911E-01 3.36559E+00
 -1     12212 2.15250E+01 3.41898E-01 5.24888E+00
 -1     12213 2.10879E+01 1.86291E+00 5.16181E+00
 -1     12214 1.94949E+01 1.37534E-01 5.70000E+00
 -1     12215 1.03363E+01 1.38821E+00 7.31044E+00
 -1     12216 1.95913E+01 2.08528E-01 6.60038E+00
 -1     12217 1.95606E+01 2.45593E-01 4.00205E+00
 -1     12218 1.94539E+01 2.11694E-01 4.02764E+00
 -1     12219 1.69067E+01 3.39395E-01 9.62353E+00
 -1     12220 1.95685E+01 2.27908E-01 5.72106E+00
 -1     12221 1.87026E+01 1.91558E+00 2.06037E+00
 -1     12222 2.18758E+01 5.48850E-01 6.72520E+00
 -1     12223 2.21822E+01 5.48850E-01 6.64761E+00
 -1     12224 1.91475E+01 1.23722E-01 1.30557E+00
 -1     12225 1.91233E+01 2.61672E-01 8.98751E+00
 -1     12226 3.95707E+01 4.00000E+00 5.61214E+00
 -1     12227 3.76907E+01 4.00000E+00 4.11647E+00
 -1     12228 2.76673E+01 8.47533E-01 1.26841E+00
 -1     12229 2.35575E+01 6.22478E-01 1.37141E+00
 -1     12230 1.78884E+01 2.72414E-01 4.09204E+00
 -1     12231 1.77384E+01 2.72414E-01 4.02156E+00
 -1     12232 1.88719E+01 1.47921E+00 9.00624E+00
 -1     12233 1.96254E+01 1.05052E-01 4.97636E-01
 -1     12234 1.81207E+01 2.91316E-01 3.49031E+00
 -1     12235 1.80486E+01 2.72414E-01 4.05007E+00
 -1     12236 1.79820E+01 2.72414E-01 4.23068E+00
 -1     12237 1.98951E+01 3.21407E-01 8.39216E-01
 -1     12238 1.98451E+01 2.35348E-01 8.96291E-01
 -1     12239 1.95879E+01 2.17866E-01 2.09712E-01
 -1     12240 2.00595E+01 2.13050E-01 6.36102E+00
 -1     12241 1.55613E+01 2.18357E+00 7.66133E+00
 -1     12242 4.67485E+01 6.24962E+00 3.31808E+00
 -1     12243 4.84335E+01 3.53642E+00 2.96901E+00
 -1     12244 4.49819E+01 6.36043E+00 1.95414E+00
 -1     12245 4.66669E+01 3.64723E+00 1.60506E+00
 -1     12246 1.36129E+01 5.29712E+00 1.66274E+00
 -1     12247 1.90133E+01 1.54920E-01 3.07623E-01
 -1     12248 2.19913E+00 4.32162E+00 1.59013E+00
 -1     12249 2.19913E+00 6.40432E+00 2.37579E+00
 -1     12250 5.08916E+00 4.55486E+00 2.18811E+00
 -1     12251 4.82334E+01 5.18366E+00 1.36395E+00
 -1     12252 2.08173E+01 5.77609E-01 9.57586E-01
 -1     12253 2.04584E+01 7.23735E-01 1.12643E+00
 -1     12254 2.04836E+01 4.54124E-01 7.69615E-01
 -1     12255 1.94147E+01 2.88933E-01 6.74962E+00
 -1     12256 1.93950E+01 2.32217E-01 6.87835E+00
 -1     12257 1.29967E+01 4.35540E+00 1.05755E+00
 -1     12258 1.94876E+01 8.53712E-02 9.84797E-02
 -1     12259 1.95263E+01 8.53712E-02 1.11823E-01
 -1     12260 1.94799E+01 8.53712E-02 1.41015E-01
 -1     12261 1.92265E+01 2.75889E-01 6.83225E+00
 -1     12262 1.93133E+01 2.16653E-01 6.85206E+00
 -1     12263 2.09170E+01 1.55059E+00 7.27286E+00
 -1     12264 1.91275E+01 1.10655E-01 9.03506E+00
 -1     12265 1.92157E+01 1.10655E-01 9.06919E+00
 -1     12266 1.92361E+01 9.45971E-02 8.95688E+00
 -1     12267 2.20538E+01 1.42849E+00 9.20881E+00
 -1     12268 2.17020E+01 1.10600E+00 9.54567E+00
 -1     12269 1.94295E+01 2.14449E+01 2.51806E+00
 -1     12270 2.14676E+01 2.12804E+01 5.01806E+00
 -1     12271 2.28558E+01 2.12804E+01 2.50000E+00
 -1     12272 1.76955E+01 3.37054E+00 8.02835E+00
 -1     12273 1.76818E+01 5.61380E-01 3.78031E+00
 -1     12274 1.64634E+01 2.82236E+00 8.80149E-01
 -1     12275 2.38950E+01 1.92498E+01 7.50000E+00
 -1     12276 2.28558E+01 2.12804E+01 7.50000E+00
 -1     12277 2.38950E+01 1.92498E+01 2.50000E+00
 -1     12278 1.99962E+01 1.58922E-01 4.69973E+00
 -1     12279 1.94310E+01 6.52605E-01 1.61998E+00
 -1     12280 1.95941E+01 9.30184E-01 1.68246E+00
 -1     12281 2.22668E+01 1.58600E+00 5.00434E+00
 -1     12282 2.15739E+01 1.29815E+00 5.29094E+00
 -1     12283 1.93970E+01 1.51506E-01 5.66400E+00
 -1     12284 1.96341E+01 4.02000E-01 6.13829E-01
 -1     12285 1.93708E+01 7.78206E-02 4.19442E+00
 -1     12286 1.93278E+01 7.78206E-02 4.17376E+00
 -1     12287 1.94018E+01 3.73776E-01 2.05715E+00
 -1     12288 1.94157E+01 3.39271E-01 1.88182E+00
 -1     12289 1.94158E+01 2.76935E-01 1.98227E+00
 -1     12290 2.08204E+01 2.87362E-01 7.54021E+00
 -1     12291 2.27812E+01 1.03848E+00 8.06173E-01
 -1     12292 1.94295E+01 2.14449E+01 7.51806E+00
 -1     12293 2.03110E+01 2.26026E-01 5.09281E+00
 -1     12294 2.02997E+01 3.84948E-01 4.87888E+00
 -1     12295 1.81101E+01 1.79931E-01 9.82139E+00
 -1     12296 1.81463E+01 4.24354E-01 9.76773E+00
 -1     12297 2.66955E+01 3.05370E+00 1.33710E+00
 -1     12298 2.82255E+01 3.56908E+00 1.52360E+00
 -1     12299 1.93727E+01 2.31316E-01 6.34530E+00
 -1     12300 1.93120E+01 2.74541E-01 6.19363E+00
 -1     12301 1.93015E+01 4.93235E-01 1.87713E+00
 -1     12302 1.93703E+01 1.78625E-01 1.38236E+00
 -1     12303 1.91803E+01 1.23722E-01 1.38274E+00
 -1     12304 1.75154E+01 3.93010E-01 8.26475E-01
 -1     12305 1.99968E+01 2.87335E-01 1.79591E-01
 -1     12306 2.01563E+01 1.07356E-01 1.63289E-01
 -1     12307 2.03055E+01 3.27702E-01 2.47658E-01
 -1     12308 2.18166E+01 6.14845E+00 3.77738E+00
 -1     12309 2.11495E+01 5.55298E+00 2.89913E+00
 -1     12310 1.99569E+01 1.46384E+00 8.65948E+00
 -1     12311 1.96033E+01 8.18609E-02 9.90004E+00
 -1     12312 1.93939E+01 1.50234E-01 7.24553E+00
 -1     12313 1.97026E+01 5.72588E-02 9.92844E+00
 -1     12314 1.96100E+01 1.39120E-01 9.94271E+00
 -1     12315 1.90759E+01 5.14804E-01 7.05499E+00
 -1     12316 1.92962E+01 9.45971E-02 8.85586E+00
 -1     12317 1.93400E+01 9.45971E-02 8.87264E+00
 -1     12318 1.92370E+01 8.54169E-02 5.37864E+00
 -1     12319 1.91961E+01 8.54169E-02 5.30011E+00
 -1     12320 1.92795E+01 8.54169E-02 5.30336E+00
 -1     12321 1.93797E+01 3.00011E-01 4.69487E+00
 -1     12322 1.90180E+01 1.64280E-01 9.42078E-01
 -1     12323 1.90617E+01 1.09210E+00 5.33137E+00
 -1     12324 1.94447E+01 2.61093E-01 4.30003E+00
 -1     12325 1.94595E+01 2.61269E-01 4.17445E+00
 -1     12326 1.88807E+01 3.99467E-01 6.45527E-01
 -1     12327 1.95721E+01 1.79829E-01 5.56432E+00
 -1     12328 1.96158E+01 1.66930E-01 5.48871E+00
 -1     12329 1.94738E+01 1.76834E-01 4.19919E+00
 -1     12330 1.98733E+01 3.17863E+00 7.64818E-01
 -1     12331 1.92180E+01 3.75534E+00 8.19186E-01
 -1     12332 1.92861E+01 1.96952E-01 8.64145E+00
 -1     12333 1.91306E+01 3.36191E+00 1.36474E+00
 -1     12334 2.00260E+01 3.96434E-01 1.05479E+00
 -1     12335 2.01579E+01 1.85336E-01 5.92114E+00
 -1     12336 1.94714E+01 2.82013E-01 2.49658E+00
 -1     12337 1.90945E+01 1.45136E-01 4.87093E+00
 -1     12338 1.92933E+01 4.40285E-01 1.76305E+00
 -1     12339 3.35918E+01 1.34863E+01 6.48184E+00
 -1     12340 3.21991E+01 1.41584E+01 7.88068E+00
 -1     12341 2.21481E+01 1.58990E+00 6.16193E-01
 -1     12342 1.93325E+01 3.93673E-01 9.79933E+00
 -1     12343 1.91882E+01 3.17119E-01 9.81529E+00
 -1     12344 1.98577E+01 8.64063E-02 7.51576E+00
 -1     12345 1.94430E+01 8.38536E-02 1.50133E+00
 -1     12346 1.88238E+01 5.91294E-01 5.95082E+00
 -1     12347 1.87893E+01 7.09816E-01 6.11472E+00
 -1     12348 1.89615E+01 8.17848E-01 5.99807E+00
 -1     12349 1.94941E+01 1.40209E-01 5.60000E+00
 -1     12350 2.01296E+01 2.09635E+00 3.68630E+00
 -1     12351 1.93124E+01 3.08279E-01 2.57364E+00
 -1     12352 1.79523E+01 3.36428E-01 9.20061E+00
 -1     12353 1.80104E+01 3.36428E-01 9.34731E+00
 -1     12354 1.81330E+01 5.80851E-01 9.41949E+00
 -1     12355 1.96650E+01 1.15351E+00 9.62500E+00
 -1     12356 1.95528E+01 1.48207E+00 9.68915E+00
 -1     12357 2.07590E+01 3.69648E-01 5.10113E+00
 -1     12358 1.94328E+01 1.48929E-01 4.04453E+00
 -1     12359 1.86326E+01 1.57175E+00 9.19544E+00
 -1     12360 1.92993E+01 8.03804E-02 6.77370E+00
 -1     12361 2.05242E+01 2.65323E+00 4.33330E+00
 -1     12362 1.97078E+01 1.32152E-01 9.11384E+00
 -1     12363 2.13993E+01 2.97756E-01 2.89661E-01
 -1     12364 2.11432E+01 3.43830E-01 7.25290E-01
 -1     12365 1.96515E+01 3.83711E-01 5.21256E+00
 -1     12366 1.95911E+01 1.80605E-01 5.03472E+00
 -1     12367 1.94398E+01 1.87318E-01 4.99586E+00
 -1     12368 1.95020E+01 2.30867E-01 4.98058E+00
 -1     12369 1.94231E+01 2.25103E-01 5.12455E+00
 -1     12370 1.96866E+01 2.13710E-01 8.27138E+00
 -1     12371 1.95611E+01 2.57989E-01 5.08472E+00
 -1     12372 1.95595E+01 2.75080E-01 5.24541E+00
 -1     12373 1.95174E+01 2.20347E-01 5.17177E+00
 -1     12374 1.88824E+01 2.20366E+00 1.37846E+00
 -1     12375 1.95805E+01 1.75543E-01 8.72352E+00
 -1     12376 2.06782E+01 2.29072E+00 1.87161E+00
 -1     12377 1.94233E+01 3.45969E-01 9.69588E+00
 -1     12378 1.93096E+01 3.02583E-01 9.89655E+00
 -1     12379 1.88931E+01 6.14830E-01 5.76039E+00
 -1     12380 2.00557E+01 5.31621E-01 5.07116E+00
 -1     12381 1.97429E+01 2.32527E-01 2.75499E+00
 -1     12382 2.00526E+01 3.13010E+00 9.21992E+00
 -1     12383 1.95549E+01 1.65538E-01 9.07148E+00
 -1     12384 1.91971E+01 2.37972E-01 4.81510E+00
 -1     12385 1.93542E+01 2.30962E-01 8.84549E+00
 -1     12386 1.94886E+01 3.18561E-01 2.17702E+00
 -1     12387 1.94317E+01 2.95877E-01 2.11031E+00
 -1     12388 1.97572E+01 1.56910E-01 8.81938E+00
 -1     12389 1.94945E+01 5.19882E-01 9.30000E+00
 -1     12390 1.93838E+01 3.07275E-01 9.33758E+00
 -1     12391 1.94976E+01 2.05030E-01 4.45000E+00
 -1     12392 1.94258E+01 1.79210E-01 4.42477E+00
 -1     12393 1.96577E+01 4.31343E-01 9.19351E+00
 -1     12394 2.03182E+01 2.71562E+00 7.64818E-01
 -1     12395 1.23640E+01 3.06937E+00 1.39736E+00
 -1     12396 1.34532E+01 3.24013E+00 1.05755E+00
 -1     12397 1.82981E+01 2.14269E+01 5.01806E+00
 -1     12398 1.89952E+01 1.54920E-01 2.24434E-01
 -1     12399 1.90720E+01 1.54920E-01 2.49932E-01
 -1     12400 2.05489E+01 5.06936E-01 8.28200E+00
 -1     12401 1.95416E+01 3.18843E-01 3.00000E+00
 -1     12402 1.96552E+01 3.05612E-01 2.93199E+00
 -1     12403 1.92415E+01 2.34151E-01 6.65406E+00
 -1     12404 1.62934E+01 2.29533E+00 8.30325E+00
 -1     12405 1.90068E+01 1.37046E-01 3.02118E+00
 -1     12406 1.98165E+01 2.22506E-01 3.72101E+00
 -1     12407 1.69263E+01 2.28946E+00 6.74682E+00
 -1     12408 1.73843E+01 2.00709E+00 7.40471E+00
 -1     12409 1.76541E+01 2.47558E+00 7.33920E+00
 -1     12410 2.09047E+01 2.75457E+00 7.46738E+00
 -1     12411 1.95201E+01 1.91441E-01 9.62961E+00
 -1     12412 2.04256E+01 2.52761E-01 8.46325E+00
 -1     12413 2.03718E+01 5.57630E-01 8.52116E+00
 -1     12414 1.92989E+01 6.27335E-01 2.03020E+00
 -1     12415 1.92766E+01 8.61405E-02 9.41902E+00
 -1     12416 1.82817E+01 1.88717E+01 7.50000E+00
 -1     12417 1.96620E+01 1.06457E-01 7.24274E+00
 -1     12418 4.81364E+01 1.50147E+01 7.60802E+00
 -1     12419 1.61600E+01 2.86913E+00 9.11932E+00
 -1     12420 2.09598E+01 2.92248E-01 1.34028E+00
 -1     12421 2.07764E+01 2.92248E-01 1.29078E+00
 -1     12422 2.07188E+01 5.45948E-01 7.10590E+00
 -1     12423 1.91588E+01 2.19443E-01 2.00758E+00
 -1     12424 1.94941E+01 2.73327E-01 2.90000E+00
 -1     12425 1.93377E+01 2.86799E-01 3.00741E+00
 -1     12426 1.91097E+01 1.20632E-01 5.37659E+00
 -1     12427 1.90127E+01 1.34837E-01 2.08199E+00
 -1     12428 1.96051E+01 8.53712E-02 1.04496E-01
 -1     12429 1.85778E+01 2.37908E-01 6.27587E-01
 -1     12430 1.64194E+01 2.28870E+00 6.23944E+00
 -1     12431 1.70690E+01 2.39702E+00 5.46428E+00
 -1     12432 1.95773E+01 6.85280E-02 5.00073E+00
 -1     12433 2.03705E+01 2.67784E-01 4.55125E+00
 -1     12434 2.01683E+01 1.58922E-01 4.45883E+00
 -1     12435 2.03254E+01 4.26706E-01 4.60159E+00
 -1     12436 2.01759E+01 1.58922E-01 4.58904E+00
 -1     12437 1.96568E+01 7.90857E-02 9.17051E+00
 -1     12438 1.93200E+01 2.75167E-01 1.40920E+00
 -1     12439 1.99678E+01 3.35248E-01 6.29978E-01
 -1     12440 1.86969E+01 1.13063E-01 9.91053E+00
 -1     12441 1.88109E+01 1.13063E-01 9.92391E+00
 -1     12442 1.86935E+01 2.57458E-01 9.84417E+00
 -1     12443 1.94126E+01 3.74157E-01 2.55358E+00
 -1     12444 1.91837E+01 8.78811E-01 5.34534E+00
 -1     12445 1.89161E+01 1.01641E+00 5.49077E+00
 -1     12446 1.89667E+01 1.64280E-01 8.84449E-01
 -1     12447 1.48251E+01 5.62219E-01 9.65078E+00
 -1     12448 1.52152E+01 6.97390E-01 9.00659E+00
 -1     12449 1.67826E+01 2.93625E+00 8.33482E+00
 -1     12450 1.94988E+01 2.32034E-01 8.49723E+00
 -1     12451 1.89429E+01 8.86127E-02 7.66431E-02
 -1     12452 1.88609E+01 8.86127E-02 1.01331E-01
 -1     12453 1.88405E+01 2.40738E-01 1.68792E-01
 -1     12454 1.89934E+01 1.34837E-01 1.88857E+00
 -1     12455 2.12516E+01 2.12299E+00 7.21274E+00
 -1     12456 2.18210E+01 1.74160E+00 7.33479E+00
 -1     12457 2.70766E+01 2.19539E+00 1.33710E+00
 -1     12458 1.95245E+01 8.18609E-02 9.84271E+00
 -1     12459 1.94398E+01 2.48552E-01 4.84586E+00
 -1     12460 1.94832E+01 3.03798E-01 4.87093E+00
 -1     12461 1.98588E+01 1.05853E-01 9.91846E+00
 -1     12462 1.98068E+01 2.75911E-01 9.83010E+00
 -1     12463 3.32707E+01 1.22606E+01 7.88068E+00
 -1     12464 1.92234E+01 1.98681E+00 4.38882E-01
 -1     12465 1.74858E+01 4.35507E-01 4.20455E+00
 -1     12466 1.74772E+01 4.35507E-01 3.95836E+00
 -1     12467 1.94103E+01 1.96413E-01 6.15382E+00
 -1     12468 3.94203E+01 4.00000E+00 1.32763E+00
 -1     12469 1.92935E+01 2.28074E-01 5.34028E+00
 -1     12470 2.03953E+01 1.16092E+00 3.80570E+00
 -1     12471 2.04264E+01 2.26026E-01 5.05442E+00
 -1     12472 1.94451E+01 2.60893E-01 7.14907E+00
 -1     12473 1.91645E+01 2.06049E-01 5.33981E+00
 -1     12474 1.91625E+01 8.54169E-02 5.23306E+00
 -1     12475 1.87227E+01 5.58682E-01 9.72010E+00
 -1     12476 1.86438E+01 4.20924E-01 9.84417E+00
 -1     12477 1.74545E+01 1.91339E+00 5.68428E+00
 -1     12478 1.99645E+01 1.70659E-01 7.49520E+00
 -1     12479 1.98946E+01 2.57065E-01 7.49295E+00
 -1     12480 1.96148E+01 8.61599E-02 3.47761E+00
 -1     12481 2.00209E+01 2.35224E+00 4.37775E+00
 -1     12482 1.97682E+01 2.20610E+00 4.61566E-01
 -1     12483 2.09018E+01 2.92248E-01 1.16543E+00
 -1     12484 2.22529E+01 5.40162E-01 3.90334E+00
 -1     12485 1.94397E+01 2.94471E-01 8.65209E+00
 -1     12486 1.99200E+01 1.53664E+00 9.59972E+00
 -1     12487 1.96803E+01 3.66123E-01 9.34351E+00
 -1     12488 1.96245E+01 2.68045E-01 9.21481E+00
 -1     12489 1.89122E+01 8.42282E-01 5.77602E+00
 -1     12490 1.03030E+01 3.15696E+00 8.65644E+00
 -1     12491 2.96576E+01 1.86324E+00 4.02360E+00
 -1     12492 2.93077E+01 1.54692E+00 6.01214E+00
 -1     12493 1.77040E+01 2.77197E+00 9.21550E+00
 -1     12494 1.82198E+01 2.44417E+00 9.51190E+00
 -1     12495 1.87355E+01 9.95828E-01 9.17788E+00
 -1     12496 1.83231E+01 1.44500E-01 9.82139E+00
 -1     12497 1.83594E+01 3.88922E-01 9.76773E+00
 -1     12498 1.70527E+01 2.95072E+00 8.80149E-01
 -1     12499 2.01758E+01 1.65838E-01 9.66352E+00
 -1     12500 1.98384E+01 1.27278E-01 6.00428E+00
 -1     12501 1.99147E+01 1.27278E-01 5.94220E+00
 -1     12502 1.88720E+01 1.25674E+00 9.37269E+00
 -1     12503 4.12257E+01 1.79093E+01 8.60116E+00
 -1     12504 1.94075E+01 2.86322E-01 1.76774E+00
 -1     12505 1.80400E+01 3.35521E+00 9.21550E+00
 -1     12506 1.87208E+01 1.89238E-01 3.87340E+00
 -1     12507 1.95913E+01 2.96158E-01 2.14694E+00
 -1     12508 1.93265E+01 4.48914E-01 2.33387E+00
 -1     12509 1.93563E+01 4.03894E-01 2.23724E+00
 -1     12510 2.14765E+01 3.41898E-01 4.97302E+00
 -1     12511 2.12693E+01 7.11545E-01 5.02373E+00
 -1     12512 2.14012E+01 3.41898E-01 4.70771E+00
 -1     12513 1.12395E+01 2.26459E+00 7.75935E+00
 -1     12514 1.72949E+01 2.73163E+00 6.02315E+00
 -1     12515 1.95614E+01 1.60294E-01 2.24694E+00
 -1     12516 2.02784E+01 1.58922E-01 4.67390E+00
 -1     12517 1.96952E+01 1.27637E-01 8.36543E+00
 -1     12518 1.95800E+01 9.24642E-02 2.84333E+00
 -1     12519 1.89537E+01 1.34837E-01 1.99106E+00
 -1     12520 4.08243E+01 4.33706E+00 6.72597E+00
 -1     12521 3.95707E+01 4.00000E+00 8.11214E+00
 -1     12522 1.95157E+01 8.33337E-02 6.97500E+00
 -1     12523 2.00969E+01 3.12614E-01 5.94453E+00
 -1     12524 1.84731E+01 1.44500E-01 1.77540E-01
 -1     12525 2.20030E+01 5.40162E-01 4.39314E+00
 -1     12526 2.19528E+01 5.40162E-01 4.10411E+00
 -1     12527 2.46629E+01 2.19694E+01 7.47494E+00
 -1     12528 1.98813E+01 4.85910E-01 1.79591E-01
 -1     12529 1.97068E+01 4.15842E-01 4.04591E-01
 -1     12530 1.99932E+01 4.93617E-01 5.30268E-01
 -1     12531 1.96040E+01 7.17318E-02 5.76825E+00
 -1     12532 1.95685E+01 1.26834E-01 5.72106E+00
 -1     12533 1.96086E+01 1.06457E-01 7.22038E+00
 -1     12534 1.95555E+01 1.62829E-01 7.22038E+00
 -1     12535 1.94989E+01 2.14440E-01 5.10000E+00
 -1     12536 2.02886E+01 5.47417E-01 8.72634E-01
 -1     12537 2.66660E+01 8.09734E-01 1.26841E+00
 -1     12538 2.00977E+01 1.07356E-01 9.92178E+00
 -1     12539 1.99974E+01 1.07356E-01 9.91846E+00
 -1     12540 2.01212E+01 2.73194E-01 9.81240E+00
 -1     12541 1.74454E+01 2.38646E-01 9.80477E+00
 -1     12542 2.11941E+01 4.16477E-01 1.75122E+00
 -1     12543 2.10175E+01 3.43830E-01 8.85640E-01
 -1     12544 1.75917E+01 2.38646E-01 2.68992E-01
 -1     12545 1.76640E+01 5.23052E-01 2.74292E-01
 -1     12546 1.94225E+01 5.04695E-02 7.91928E-02
 -1     12547 1.93814E+01 5.04695E-02 4.82775E-02
 -1     12548 1.94303E+01 5.04695E-02 3.66572E-02
 -1     12549 2.46629E+01 2.19694E+01 2.47494E+00
 -1     12550 3.29839E+01 2.12002E+01 7.50000E+00
 -1     12551 3.23518E+01 1.86565E+01 7.50000E+00
 -1     12552 3.23518E+01 1.86565E+01 2.50000E+00
 -1     12553 3.29839E+01 2.12002E+01 2.50000E+00
 -1     12554 1.92016E+01 4.39105E-01 2.25030E+00
 -1     12555 1.83914E+01 2.06901E-01 3.06451E+00
 -1     12556 1.85725E+01 2.06901E-01 3.05311E+00
 -1     12557 1.96774E+01 8.61599E-02 3.46312E+00
 -1     12558 1.97640E+01 8.61599E-02 3.49488E+00
 -1     12559 1.75110E+01 2.16069E+00 5.07883E+00
 -1     12560 1.96075E+01 2.62684E-01 8.17715E+00
 -1     12561 1.99205E+01 4.79775E-01 7.39506E-01
 -1     12562 1.94263E+01 5.04695E-02 9.92273E+00
 -1     12563 1.94306E+01 5.04695E-02 9.96182E+00
 -1     12564 1.93768E+01 5.04695E-02 9.94330E+00
 -1     12565 2.04245E+01 2.67942E+00 7.92235E+00
 -1     12566 1.94757E+01 2.87565E-01 9.00000E+00
 -1     12567 1.86397E+01 1.13063E-01 1.77540E-01
 -1     12568 1.87097E+01 2.65189E-01 1.68792E-01
 -1     12569 1.94103E+01 2.03450E-01 7.80138E+00
 -1     12570 1.93196E+01 3.04425E+00 5.45557E-01
 -1     12571 1.95642E+01 9.58613E-02 8.70000E+00
 -1     12572 1.95114E+01 3.09174E-01 4.52435E+00
 -1     12573 1.93474E+01 2.74040E-01 4.59487E+00
 -1     12574 1.92695E+01 4.59109E-01 2.11737E+00
 -1     12575 1.79778E+01 2.65355E-01 6.49595E+00
 -1     12576 1.78135E+01 2.65355E-01 6.37209E+00
 -1     12577 1.70641E+01 1.82801E+00 5.18853E+00
 -1     12578 1.06776E+01 2.18836E+00 8.65644E+00
 -1     12579 1.88170E+01 6.97128E-01 5.54085E+00
 -1     12580 1.92800E+01 2.63086E-01 4.69447E+00
 -1     12581 2.14492E+01 4.41204E-01 4.37566E+00
 -1     12582 1.96958E+01 2.08380E+00 4.74482E+00
 -1     12583 2.01066E+01 2.36949E+00 5.07854E+00
 -1     12584 2.00227E+01 1.27278E-01 5.96424E+00
 -1     12585 1.97025E+01 5.72588E-02 7.33623E-02
 -1     12586 1.96118E+01 1.42630E-01 6.18226E-02
 -1     12587 1.96948E+01 1.91224E-01 6.18226E-02
 -1     12588 2.01394E+01 2.02295E+00 9.59972E+00
 -1     12589 1.89492E+01 2.66180E+00 5.45557E-01
 -1     12590 1.91417E+01 2.10441E+00 9.84440E-01
 -1     12591 1.94941E+01 2.41283E-01 5.60000E+00
 -1     12592 2.27513E+01 4.16007E-01 5.44122E-01
 -1     12593 2.17158E+01 2.95770E+00 7.49460E-01
 -1     12594 1.95650E+01 1.01578E-01 1.00000E+00
 -1     12595 2.39799E+01 8.20744E-01 8.53297E+00
 -1     12596 1.92588E+01 7.21715E-02 5.83344E+00
 -1     12597 1.93138E+01 2.53323E+00 5.45557E-01
 -1     12598 1.91010E+01 2.20771E+00 5.45557E-01
 -1     12599 1.93599E+01 2.31329E-01 5.20667E+00
 -1     12600 1.91037E+01 1.01596E-01 2.96030E+00
 -1     12601 2.05450E+01 2.26026E-01 5.11308E+00
 -1     12602 2.06286E+01 2.26026E-01 4.97976E+00
 -1     12603 3.40222E+01 1.40474E+01 4.83482E+00
 -1     12604 3.46799E+01 1.46846E+01 1.95414E+00
 -1     12605 2.04473E+01 2.26026E-01 4.91341E+00
 -1     12606 1.96450E+01 7.34618E-02 7.40133E+00
 -1     12607 1.97491E+01 1.03689E-01 7.35992E+00
 -1     12608 1.97209E+01 1.77151E-01 7.35867E+00
 -1     12609 1.97592E+01 1.03689E-01 7.30600E+00
 -1     12610 1.95145E+01 2.63699E-01 1.82467E+00
 -1     12611 2.01230E+01 1.36625E-01 2.01985E+00
 -1     12612 1.81847E+01 6.40582E-01 9.08545E+00
 -1     12613 1.93270E+01 2.54141E-01 8.69104E+00
 -1     12614 2.39693E+01 5.58297E-01 9.42801E+00
 -1     12615 2.46404E+01 5.58297E-01 9.43708E+00
 -1     12616 1.94882E+01 1.58857E-01 8.75116E+00
 -1     12617 2.02695E+01 7.28290E-01 6.09565E+00
 -1     12618 2.00606E+01 6.23634E-01 5.97735E+00
 -1     12619 1.87081E+01 1.34296E-01 6.53080E-01
 -1     12620 1.96682E+01 9.47220E-02 5.61740E+00
 -1     12621 1.96466E+01 1.66454E-01 5.68537E+00
 -1     12622 1.88269E+01 5.03956E-01 8.57552E+00
 -1     12623 2.05706E+01 3.06702E+00 8.12949E+00
 -1     12624 1.93277E+01 2.30135E-01 7.09911E+00
 -1     12625 1.95482E+01 2.15286E-01 3.92763E+00
 -1     12626 1.90400E+01 1.10562E+00 7.43030E+00
 -1     12627 1.80187E+01 1.79931E-01 1.66638E-01
 -1     12628 1.79325E+01 4.64338E-01 2.74292E-01
 -1     12629 1.82967E+01 5.66748E-01 9.76773E+00
 -1     12630 1.80704E+01 6.58754E-01 9.65176E+00
 -1     12631 1.83651E+01 8.66508E-01 9.68354E+00
 -1     12632 1.84277E+01 7.88605E-01 9.45127E+00
 -1     12633 1.96719E+01 8.62872E-02 7.77187E+00
 -1     12634 2.00436E+01 6.22679E-01 8.90368E+00
 -1     12635 2.14239E+01 2.97756E-01 9.65930E+00
 -1     12636 1.87079E+01 3.87535E-01 2.96302E+00
 -1     12637 1.74206E+01 7.24473E-01 3.71710E+00
 -1     12638 2.08386E+01 2.87362E-01 7.33204E+00
 -1     12639 2.08864E+01 5.71197E-01 7.65372E+00
 -1     12640 2.04471E+01 2.52761E-01 8.63168E+00
 -1     12641 1.55605E+01 1.81652E+00 6.74658E+00
 -1     12642 4.75000E+01 1.03504E+01 4.88913E+00
 -1     12643 4.71789E+01 9.12465E+00 5.99029E+00
 -1     12644 4.67485E+01 8.56360E+00 4.34327E+00
 -1     12645 1.96237E+01 1.79919E-01 7.29542E+00
 -1     12646 1.94880E+01 2.75571E-01 3.37681E+00
 -1     12647 1.96508E+01 2.39641E-01 3.34872E+00
 -1     12648 2.25682E+01 5.40162E-01 3.60476E+00
 -1     12649 1.96037E+01 3.05516E-01 7.13829E-01
 -1     12650 1.54214E+01 4.45957E-01 9.65078E+00
 -1     12651 1.99855E+01 4.72037E-01 2.67921E+00
 -1     12652 1.93030E+01 3.48075E-01 7.42019E+00
 -1     12653 1.97387E+01 1.43963E-01 3.38424E+00
 -1     12654 1.94794E+01 2.58339E-01 7.82595E+00
 -1     12655 1.96860E+01 9.53127E-02 9.37310E+00
 -1     12656 2.00791E+01 2.13050E-01 6.50271E+00
 -1     12657 1.87642E+01 2.08654E+00 7.11562E+00
 -1     12658 1.89620E+01 1.68605E+00 7.51112E+00
 -1     12659 1.86916E+01 1.91511E+00 7.42184E+00
 -1     12660 1.90196E+01 8.86127E-02 1.02141E-01
 -1     12661 1.90068E+01 2.43533E-01 1.47791E-01
 -1     12662 1.93339E+01 3.53771E-01 2.19008E+00
 -1     12663 1.96126E+01 7.96817E-02 8.71765E+00
 -1     12664 1.95330E+01 7.44346E-02 5.24677E+00
 -1     12665 1.52609E+01 4.45957E-01 4.77544E-01
 -1     12666 1.95292E+01 7.22084E-02 5.34939E+00
 -1     12667 1.94184E+01 1.65627E-01 8.82764E+00
 -1     12668 1.95000E+01 2.15644E-01 6.50000E+00
 -1     12669 1.94581E+01 2.69380E-01 6.62484E+00
 -1     12670 3.13000E+01 2.14563E+01 7.42792E+00
 -1     12671 1.98115E+01 1.03689E-01 7.36745E+00
 -1     12672 2.34466E+01 1.18078E+00 8.06173E-01
 -1     12673 1.93628E+01 9.28369E-02 4.79675E+00
 -1     12674 1.89893E+01 1.03432E+00 6.04284E+00
 -1     12675 1.97951E+01 2.65332E-01 2.86866E+00
 -1     12676 1.89521E+01 1.37046E-01 2.94538E+00
 -1     12677 1.99494E+01 1.05853E-01 8.32007E-02
 -1     12678 1.98582E+01 2.85832E-01 1.79591E-01
 -1     12679 1.94432E+01 1.93265E-01 1.47071E-01
 -1     12680 1.95474E+01 2.18807E-01 5.31948E+00
 -1     12681 1.96201E+01 8.61599E-02 3.43048E+00
 -1     12682 1.96459E+01 1.56652E-01 3.38320E+00
 -1     12683 3.36167E+01 3.06835E+00 1.61647E+00
 -1     12684 1.78601E+01 1.79931E-01 2.68992E-01
 -1     12685 2.03111E+01 1.84976E-01 1.63289E-01
 -1     12686 2.04603E+01 4.05321E-01 2.47658E-01
 -1     12687 1.90250E+01 1.67075E-01 9.13853E+00
 -1     12688 2.14386E+01 7.83101E-01 4.54208E+00
 -1     12689 2.16526E+01 3.41898E-01 4.78653E+00
 -1     12690 1.93331E+01 2.73368E-01 6.72332E+00
 -1     12691 1.94017E+01 2.30059E-01 3.70156E+00
 -1     12692 1.96299E+01 1.12077E-01 5.08028E+00
 -1     12693 1.95383E+01 2.75755E-01 8.27670E+00
 -1     12694 1.94784E+01 2.57251E-01 8.42486E+00
 -1     12695 1.96174E+01 2.26781E-01 8.37093E+00
 -1     12696 1.93604E+01 1.76325E-01 6.77326E+00
 -1     12697 2.00771E+01 3.13638E-01 6.33227E-01
 -1     12698 2.00814E+01 4.68908E-01 8.01065E-01
 -1     12699 1.97814E+01 1.40063E-01 2.74966E+00
 -1     12700 1.97514E+01 3.12473E-01 3.27480E-01
 -1     12701 2.03671E+01 1.27525E+01 8.36719E+00
 -1     12702 3.13000E+01 2.14563E+01 2.42792E+00
 -1     12703 1.72887E+01 2.56997E+00 7.92746E+00
 -1     12704 2.00880E+01 1.07356E-01 8.32007E-02
 -1     12705 2.43079E+01 1.36617E+00 7.72642E-01
 -1     12706 2.05006E+01 2.20346E-01 4.01474E-01
 -1     12707 4.15352E+01 4.00000E+00 6.16458E+00
 -1     12708 1.96356E+01 9.47220E-02 5.56777E+00
 -1     12709 1.96299E+01 9.47220E-02 5.51432E+00
 -1     12710 1.96403E+01 2.67586E-01 7.32425E+00
 -1     12711 1.95394E+01 2.86876E-01 7.19657E+00
 -1     12712 1.95519E+01 2.00063E-01 7.27038E+00
 -1     12713 1.97645E+01 2.58124E+00 5.45557E-01
 -1     12714 1.69085E+01 2.14269E+01 2.50000E+00
 -1     12715 1.93733E+01 7.21715E-02 5.78924E+00
 -1     12716 1.69085E+01 2.14269E+01 7.50000E+00
 -1     12717 1.94544E+01 3.30386E-01 8.74949E-01
 -1     12718 1.95374E+01 3.08027E-01 8.95853E-01
 -1     12719 1.93980E+01 2.15539E-01 8.75487E+00
 -1     12720 1.94695E+01 1.36364E-01 8.80223E+00
 -1     12721 1.93317E+01 1.41518E-01 6.82378E+00
 -1     12722 1.93988E+01 2.37282E-01 8.60250E+00
 -1     12723 2.10400E+01 2.83835E-01 7.80423E+00
 -1     12724 4.50451E+01 7.84771E+00 1.95414E+00
 -1     12725 4.82966E+01 6.67094E+00 1.36395E+00
 -1     12726 1.95396E+01 2.20719E-01 3.50000E+00
 -1     12727 1.85301E+01 1.07016E+00 9.68354E+00
 -1     12728 1.87540E+01 1.64541E-01 1.99584E+00
 -1     12729 1.87874E+01 3.32526E+00 5.45557E-01
 -1     12730 1.62029E+01 1.80364E+00 6.65724E+00
 -1     12731 1.96866E+01 2.32370E+00 1.00712E+00
 -1     12732 1.99826E+01 2.71691E-01 9.81240E+00
 -1     12733 1.94486E+01 1.68863E-01 8.42517E+00
 -1     12734 1.92906E+01 2.89039E-01 4.79073E+00
 -1     12735 1.95053E+01 1.64074E-01 5.24585E+00
 -1     12736 1.84182E+01 1.44500E-01 9.89716E+00
 -1     12737 1.84181E+01 2.44422E-01 9.66489E+00
 -1     12738 3.03077E+01 2.54692E+00 6.01214E+00
 -1     12739 1.93243E+01 7.21715E-02 5.78985E+00
 -1     12740 4.54755E+01 8.40876E+00 8.60116E+00
 -1     12741 4.57966E+01 9.63451E+00 7.50000E+00
 -1     12742 1.88694E+01 1.90987E+00 9.51190E+00
 -1     12743 1.91088E+01 1.59485E+00 9.68915E+00
 -1     12744 1.93690E+01 1.48894E-01 8.60281E+00
 -1     12745 2.09899E+01 2.38085E+00 4.66085E+00
 -1     12746 2.06221E+01 2.13529E+00 4.83426E+00
 -1     12747 2.10755E+01 3.43830E-01 1.06049E+00
 -1     12748 1.93855E+01 8.96390E-02 5.24907E+00
 -1     12749 1.93297E+01 8.54169E-02 5.25983E+00
 -1     12750 1.92885E+01 8.54169E-02 5.23167E+00
 -1     12751 1.93478E+01 1.75056E-01 5.28074E+00
 -1     12752 1.93878E+01 2.46836E-01 8.30225E+00
 -1     12753 1.95009E+01 2.32949E-01 3.85273E+00
 -1     12754 1.94720E+01 1.67538E-01 5.65000E+00
 -1     12755 1.77009E+01 8.06941E-01 3.29261E+00
 -1     12756 1.95136E+01 2.11170E-01 6.42414E+00
 -1     12757 1.96643E+01 5.72588E-02 9.95733E+00
 -1     12758 1.94115E+01 2.63645E-01 4.40003E+00
 -1     12759 1.84763E+01 5.20952E-01 9.76773E+00
 -1     12760 1.92239E+01 1.10036E-01 5.91931E+00
 -1     12761 3.62950E+01 3.36912E+00 8.39986E+00
 -1     12762 3.74774E+01 5.69023E+00 8.60116E+00
 -1     12763 2.44188E+01 8.07868E-01 1.33788E+00
 -1     12764 1.96532E+01 3.66619E-01 5.05186E+00
 -1     12765 1.94581E+01 1.44471E-01 6.92529E+00
 -1     12766 1.93965E+01 2.07117E-01 4.40199E+00
 -1     12767 1.95474E+01 1.42963E-01 5.12177E+00
 -1     12768 2.02632E+01 3.89048E-01 9.72344E-01
 -1     12769 2.07948E+01 5.38010E-01 7.92683E+00
 -1     12770 1.92979E+01 1.87496E-01 8.53898E+00
 -1     12771 1.95589E+01 2.34240E-01 2.26903E+00
 -1     12772 3.76335E+01 4.75147E+00 3.28177E+00
 -1     12773 1.95144E+01 6.85280E-02 5.07500E+00
 -1     12774 1.87330E+01 1.42648E+00 9.68354E+00
 -1     12775 2.11063E+00 6.20123E+00 7.95858E+00
 -1     12776 4.75000E+01 1.03504E+01 7.38913E+00
 -1     12777 4.82966E+01 8.98491E+00 2.38913E+00
 -1     12778 1.96243E+01 2.73641E-01 9.60510E+00
 -1     12779 2.06348E+01 1.84976E-01 1.57581E-01
 -1     12780 2.04640E+01 1.84976E-01 1.53816E-01
 -1     12781 1.85268E+01 2.88894E-01 9.84417E+00
 -1     12782 1.82018E+01 2.69175E+00 9.21550E+00
 -1     12783 1.92043E+01 3.05005E-01 2.09723E+00
 -1     12784 1.98580E+01 1.22250E-01 3.72310E+00
 -1     12785 1.98356E+01 1.22250E-01 3.63919E+00
 -1     12786 4.82966E+01 8.98491E+00 7.38913E+00
 -1     12787 1.95951E+01 1.49824E-01 5.61432E+00
 -1     12788 2.15550E+01 1.12853E+00 4.87076E+00
 -1     12789 1.93931E+01 2.97532E-01 3.77563E+00
 -1     12790 1.93603E+01 2.75028E-01 9.23758E+00
 -1     12791 1.93835E+01 3.25332E-01 4.82054E+00
 -1     12792 1.87300E+01 1.13063E-01 1.01331E-01
 -1     12793 2.04730E+01 2.67784E-01 4.63611E+00
 -1     12794 1.94747E+01 2.09301E-01 9.83926E+00
 -1     12795 1.94568E+01 2.35551E-01 5.22407E+00
 -1     12796 1.94881E+01 3.41277E-01 5.32407E+00
 -1     12797 4.82966E+01 7.08340E+00 8.00686E+00
 -1     12798 3.63938E+01 3.36912E+00 1.61647E+00
 -1     12799 3.69163E+01 6.12060E+00 1.95414E+00
 -1     12800 3.81234E+01 3.36912E+00 1.32763E+00
 -1     12801 1.97074E+01 7.34618E-02 7.40886E+00
 -1     12802 2.03235E+01 1.84976E-01 9.85111E+00
 -1     12803 2.09804E+01 2.83835E-01 7.95606E+00
 -1     12804 1.93612E+01 2.74966E-01 9.43758E+00
 -1     12805 1.93935E+01 2.22033E-01 9.40219E+00
 -1     12806 1.96335E+01 2.34590E-01 7.42891E+00
 -1     12807 1.96057E+01 2.82921E-01 4.47619E+00
 -1     12808 1.96643E+01 5.72588E-02 4.26739E-02
 -1     12809 1.96216E+01 8.00783E-02 9.66593E-01
 -1     12810 1.41865E+00 2.02908E+00 4.36334E+00
 -1     12811 2.34167E+01 5.58297E-01 5.44122E-01
 -1     12812 2.04942E+01 4.93810E-01 4.84110E+00
 -1     12813 3.82738E+01 3.36912E+00 8.11214E+00
 -1     12814 1.91092E+01 2.24312E-01 1.47791E-01
 -1     12815 1.97156E+01 1.21095E-01 4.54339E+00
 -1     12816 1.92583E+01 1.17777E-01 8.58766E+00
 -1     12817 1.98763E+01 1.03689E-01 7.41763E+00
 -1     12818 1.97929E+01 8.64063E-02 7.46558E+00
 -1     12819 1.98064E+01 1.90095E-01 7.41538E+00
 -1     12820 1.72711E+01 3.40298E+00 9.21550E+00
 -1     12821 2.01516E+01 3.64954E-01 1.79591E-01
 -1     12822 1.93935E+01 4.35201E-01 9.89655E+00
 -1     12823 1.84794E+01 8.48336E-01 9.11722E+00
 -1     12824 1.97401E+01 8.64063E-02 7.50675E+00
 -1     12825 1.97023E+01 1.59868E-01 7.45680E+00
 -1     12826 1.97305E+01 8.64063E-02 7.45805E+00
 -1     12827 3.87031E+01 5.36912E+00 2.50000E+00
 -1     12828 1.95170E+01 2.11279E-01 5.65000E+00
 -1     12829 1.96399E+01 2.37546E-01 4.21984E-01
 -1     12830 2.04009E+00 2.19703E+01 2.50000E+00
 -1     12831 1.95063E+01 5.04695E-02 9.96478E+00
 -1     12832 1.95063E+01 5.04695E-02 3.52224E-02
 -1     12833 1.97189E+01 2.47535E-01 7.48562E+00
 -1     12834 1.94643E+01 2.36790E-01 7.22619E+00
 -1     12835 1.94110E+01 1.68830E-01 5.19862E+00
 -1     12836 1.93294E+01 1.07894E-01 1.33526E-01
 -1     12837 1.25269E+01 7.08771E-01 9.34533E+00
 -1     12838 1.97328E+01 8.64063E-02 7.55816E+00
 -1     12839 1.97225E+01 1.64784E-01 7.58740E+00
 -1     12840 1.96030E+01 2.72808E-01 2.81833E+00
 -1     12841 1.84617E+01 7.70403E-01 9.76773E+00
 -1     12842 1.92421E+01 6.93921E-02 4.82775E-02
 -1     12843 1.93950E+01 2.38276E-01 8.42698E+00
 -1     12844 1.97979E+01 1.22250E-01 3.57655E+00
 -1     12845 1.94903E+01 2.32226E-01 8.72723E+00
 -1     12846 4.57966E+01 9.63451E+00 2.50000E+00
 -1     12847 2.40222E+01 5.58297E-01 5.65240E-01
 -1     12848 1.98900E+01 6.15121E-01 5.00280E+00
 -1     12849 1.94192E+01 1.77909E-01 9.89655E+00
 -1     12850 1.93581E+01 3.04670E-01 9.52653E+00
 -1     12851 1.89059E+01 1.23854E+00 9.68915E+00
 -1     12852 1.85849E+01 1.13063E-01 9.89716E+00
 -1     12853 4.75000E+01 1.03504E+01 2.38913E+00
 -1     12854 1.95952E+01 3.40915E-01 4.99094E-01
 -1     12855 2.01900E+01 5.26277E-01 2.47658E-01
 -1     12856 1.94689E+01 5.04695E-02 9.95000E+00
 -1     12857 1.97375E+01 2.64818E-01 7.38750E+00
 -1     12858 1.95722E+01 2.49944E-01 6.18226E-02
 -1     12859 2.94490E+01 1.34753E+00 8.75000E+00
 -1     12860 1.94961E+01 2.92012E-01 9.89655E+00
 -1     12861 1.92431E+01 2.77617E-01 8.73121E+00
 -1     12862 1.96012E+01 2.68574E-01 8.13829E-01
 -1     12863 1.94689E+01 5.04695E-02 5.00000E-02
 -1     12864 2.47565E+01 8.07868E-01 7.72642E-01
 -1     12865 1.96628E+01 2.51919E-01 9.77281E+00
 -1     12866 1.95637E+01 8.53712E-02 9.70449E-02
 -1     12867 1.94107E+01 2.27826E-01 8.50003E+00
 -1     12868 1.95072E+01 3.06387E-01 9.65395E+00
 -1     12869 1.93664E+01 1.97410E-01 6.92887E+00
 -1     12870 1.95619E+01 8.18609E-02 9.90749E+00
 -1     12871 2.01687E+01 1.07356E-01 9.85111E+00
 -1     12872 1.97532E+01 4.38426E-01 1.47889E-01
 -1     12873 2.03046E+01 6.94939E-01 8.89319E+00
 -1     12874 1.94952E+01 1.35841E-01 6.18226E-02
 -1     12875 1.93858E+01 1.58363E-01 8.52482E-02
 -1     12876 1.94934E+01 1.32330E-01 9.94271E+00
 -1     12877 1.96595E+01 1.71268E-01 7.53175E+00
 -1     12878 1.95339E+01 3.13374E-01 4.50000E-01
 -1     12879 1.95704E+01 2.46434E-01 9.94271E+00
 -1     12880 1.96229E+01 5.72588E-02 9.96478E+00
 -1     12881 1.96229E+01 5.72588E-02 3.52224E-02
 -1     12882 1.95744E+01 7.04922E-02 3.18059E+00
 -1     12883 1.80103E+01 9.11551E+00 1.56393E+00
 -1     12884 2.41020E+01 4.05675E+00 1.32066E+00
 -1     12885 2.33595E+01 9.00337E+00 1.62927E+00
 -1     12886 2.17837E+01 1.33605E+01 8.36719E+00
 -1     12887 1.95013E+01 3.36745E-01 5.45000E+00
 -1     12888 1.85721E+01 3.07421E+00 9.21550E+00
 -1     12889 1.99870E+01 2.13050E-01 6.44262E+00
 -1     12890 2.03336E+01 1.47677E+00 4.61566E-01
 -1     12891 1.31642E+01 1.51553E+00 6.56320E+00
 -1     12892 1.90651E+01 1.39617E-01 6.54768E+00
 -1     12893 1.92331E+01 1.10036E-01 5.97220E+00
 -1     12894 1.97400E+01 6.49394E-01 1.76872E+00
 -1     12895 1.87029E+01 9.53668E-01 3.30614E+00
 -1     12896 1.72614E+01 4.11610E-01 9.27862E+00
 -1     12897 1.85448E+01 8.20713E-01 9.68354E+00
 -1     12898 1.94551E+01 1.15721E+00 6.97500E+00
 -1     12899 1.99423E+01 1.55270E-01 7.63105E-01
 -1     12900 1.96863E+01 1.29168E-01 5.42944E+00
 -1     12901 1.95885E+01 2.97498E-01 9.72665E+00
 -3
    3C                          7348                                     1
 -1      3265    6    0    1
 -2      6020      6418      6174      6452      6536      6537      6538      6539      6541      6540
 -1      3266    6    0    1
 -2      3716      3708      3492      6241      4798      4797      4792      6542      6544      6543
 -1      3267    6    0    1
 -2      1402      1513      1399      6139      3368      3367      1935      6545      6547      6546
 -1      3268    6    0    1
 -2       538      1095       462      6312      6548      6549       658      6550      6552      6551
 -1      3269    6    0    1
 -2      3695      6190      3537      6338      6553      6554      5013      6555      6557      6556
 -1      3270    6    0    1
 -2      6024      6369      6040      6393      6558      6559      6560      6561      6563      6562
 -1      3271    6    0    1
 -2      3477      3712      3778      6152      4721      4640      4726      6564      6566      6565
 -1      3272    6    0    1
 -2      1428      1310      1513      6139      3297      3296      3295      6567      6568      6547
 -1      3273    6    0    1
 -2      1552      1468      1261      6518      3136      3137      2970      6569      6571      6570
 -1      3274    6    0    1
 -2      6111      6216       486      6445      6572      6573      6574      6575      6577      6576
 -1      3275    6    0    1
 -2      6073      6147      6027      6169      6578      6579      6580      6581      6583      6582
 -1      3276    6    0    1
 -2      1233      1464      1495      6092      2963      2517      3009      6584      6586      6585
 -1      3277    6    0    1
 -2      1548      6105      1169      6181      6587      6588      2491      6589      6591      6590
 -1      3278    6    0    1
 -2      1175      1162      1163      6102      2632      2590      2633      6592      6594      6593
 -1      3279    6    0    1
 -2      1102      1104      1103      6247      2304      2303      2296      6595      6597      6596
 -1      3280    6    0    1
 -2      3695      3760      3537      6190      5017      5016      5013      6553      6598      6554
 -1      3281    6    0    1
 -2      1452      1191      1269      6150      2789      2781      2790      6599      6601      6600
 -1      3282    6    0    1
 -2      6074      6227      6171      6297      6602      6603      6604      6605      6607      6606
 -1      3283    6    0    1
 -2      3618       250       251      6274      3935       350      3936      6608      6610      6609
 -1      3284    6    0    1
 -2      1214      1160      1531      6282      2625      2614      2626      6611      6613      6612
 -1      3285    6    0    1
 -2      5537       563       477      6349      6614       746      6615      6616      6618      6617
 -1      3286    6    0    1
 -2      6088      6095      6078      6175      6619      6620      6621      6622      6624      6623
 -1      3287    6    0    1
 -2       279       280      3661      6196       379      4023      4022      6625      6627      6626
 -1      3288    6    0    1
 -2      1522      1551      1274      6110      2259      3187      3186      6628      6630      6629
 -1      3289    6    0    1
 -2      1387      1563      1388      6210      2066      3338      2202      6631      6633      6632
 -1      3290    6    0    1
 -2      3778      3743      6152      6250      4717      6634      6565      6635      6637      6636
 -1      3291    6    0    1
 -2      1340      1249      1288      6324      3087      3074      3088      6638      6640      6639
 -1      3292    6    0    1
 -2      3601      3395       240      6172      3907      3903      3905      6641      6643      6642
 -1      3293    6    0    1
 -2       490      6111       573      6257      6644      6645       900      6646      6648      6647
 -1      3294    6    0    1
 -2      6035      6054      6125      6466      6649      6650      6651      6652      6654      6653
 -1      3295    6    0    1
 -2       550      6110      1522      6262      6655      6628      6656      6657      6659      6658
 -1      3296    6    0    1
 -2      1102      1103      1100      6231      2296      2295      2293      6660      6662      6661
 -1      3297    6    0    1
 -2       478      6451       475      6485      6663      6664       832      6665      6667      6666
 -1      3298    6    0    1
 -2      3663      6279      6168      6508      6668      6669      6670      6671      6673      6672
 -1      3299    6    0    1
 -2      5460      6206      6111      6535      6674      6675      6676      6677      6679      6678
 -1      3300    6    0    1
 -2       583       538       462      6312       777       658       776      6680      6550      6551
 -1      3301    6    0    1
 -2      1331      1236      1353      6416      3023      3018      3024      6681      6683      6682
 -1      3302    6    0    1
 -2      6042      6075      6040      6369      6684      6685      6686      6687      6688      6559
 -1      3303    6    0    1
 -2      1319      6103      1460      6256      6689      6690      3317      6691      6693      6692
 -1      3304    6    0    1
 -2      5417      5549      5532      5252      6694      5696      6695      6696      6698      6697
 -1      3305    6    0    1
 -2      6122      6281      6032      6511      6699      6700      6701      6702      6704      6703
 -1      3306    6    0    1
 -2      6041      6067      6035      6070      6705      6706      6707      6708      6710      6709
 -1      3307    6    0    1
 -2      1087      1376       236      6178      1719      1718      1714      6711      6713      6712
 -1      3308    6    0    1
 -2      6108      6048      6119      6163      6714      6715      6716      6717      6719      6718
 -1      3309    6    0    1
 -2      3662      3377      3663      6508      4191      4193      4192      6720      6721      6671
 -1      3310    6    0    1
 -2       478      6173      6451      6485      6722      6723      6663      6665      6724      6667
 -1      3311    6    0    1
 -2      5514      6104      6030      6466      6725      6726      6727      6728      6730      6729
 -1      3312    6    0    1
 -2      3576      3651      3665      6487      5119      3979      5118      6731      6733      6732
 -1      3313    6    0    1
 -2      1246      1334      1245      6227      3067      3066      2756      6734      6736      6735
 -1      3314    6    0    1
 -2      1560      1444      1166      6179      2658      2657      2449      6737      6739      6738
 -1      3315    6    0    1
 -2      1405       268       267      6311      1810       367      1811      6740      6742      6741
 -1      3316    6    0    1
 -2      6042      6076      6075      6369      6743      6744      6684      6687      6745      6688
 -1      3317    6    0    1
 -2      1101      1100      1098      6122      2285      2284      2286      6746      6748      6747
 -1      3318    6    0    1
 -2       240      3395       239      6172      3903      3902       339      6642      6643      6749
 -1      3319    6    0    1
 -2      1513      1402      1428      6139      3368      2041      3295      6547      6545      6567
 -1      3320    6    0    1
 -2      6153      6160      6018      6357      6750      6751      6752      6753      6755      6754
 -1      3321    6    0    1
 -2      1531      6116      1160      6457      6756      6757      2614      6758      6760      6759
 -1      3322    6    0    1
 -2      1246      1184      1186      6167      2754      2661      2755      6761      6763      6762
 -1      3323    6    0    1
 -2       313      1400      1394      6227      1945      1950      1949      6764      6766      6765
 -1      3324    6    0    1
 -2      6046      6060      6128      6233      6767      6768      6769      6770      6772      6771
 -1      3325    6    0    1
 -2      1233      1495      1494      6092      3009      3010      3008      6584      6585      6773
 -1      3326    6    0    1
 -2      3619      3695      3411      6190      4357      4356      3943      6774      6553      6775
 -1      3327    6    0    1
 -2      1101      1098      1373      6170      2286      2273      2287      6776      6778      6777
 -1      3328    6    0    1
 -2       241      3601       240      6220      3906      3905       340      6779      6781      6780
 -1      3329    6    0    1
 -2      5451      5537       477      6349      5720      6615      6782      6783      6616      6617
 -1      3330    6    0    1
 -2      1340      6324      1288      6436      6638      6639      3088      6784      6786      6785
 -1      3331    6    0    1
 -2      6048      6108      6052      6163      6714      6787      6788      6719      6717      6789
 -1      3332    6    0    1
 -2      1169      1548      1367      6105      2491      2673      2672      6588      6587      6790
 -1      3333    6    0    1
 -2      6018      6160      6186      6386      6751      6791      6792      6793      6795      6794
 -1      3334    6    0    1
 -2      1095      1345      1125      6358      2270      2269      2268      6796      6798      6797
 -1      3335    6    0    1
 -2      6039      6064      6094      6102      6799      6800      6801      6802      6804      6803
 -1      3336    6    0    1
 -2      5417      5290      5549      5252      6805      6806      6694      6696      6807      6698
 -1      3337    6    0    1
 -2      6094      6102      6064      6221      6803      6804      6800      6808      6810      6809
 -1      3338    6    0    1
 -2       313      3639       312      6171      4122      4121       412      6811      6813      6812
 -1      3339    6    0    1
 -2      6040      6042      6024      6098      6686      6814      6560      6815      6817      6816
 -1      3340    6    0    1
 -2      5417       457      5282       520      5430      6818      6819      6820      6822      6821
 -1      3341    6    0    1
 -2      3771      3399      3651      6234      4297      3976      4298      6823      6825      6824
 -1      3342    6    0    1
 -2       517      6389       587      6390      6826      6827      1017      6828      6830      6829
 -1      3343    6    0    1
 -2      1408      1518      1514      6368      3001      3310      2027      6831      6833      6832
 -1      3344    6    0    1
 -2      1503      1358      6121      6396      3359      6834      6835      6836      6838      6837
 -1      3345    6    0    1
 -2      1371      1176      1175      6236      2703      2635      2704      6839      6841      6840
 -1      3346    6    0    1
 -2       266       265      1406      6311       365      1805      1804      6842      6844      6843
 -1      3347    6    0    1
 -2      1407       300       299      6373      1906       399      1907      6845      6847      6846
 -1      3348    6    0    1
 -2      1202      1200      1201      6138      2833      2828      2834      6848      6850      6849
 -1      3349    6    0    1
 -2      1292      1293      1294      6163      3235      3242      3241      6851      6853      6852
 -1      3350    6    0    1
 -2      1452      1191      6150      6269      2789      6601      6599      6854      6856      6855
 -1      3351    6    0    1
 -2      1231       269       268      6368      1813       368      1814      6857      6859      6858
 -1      3352    6    0    1
 -2      1163      1162      1154      6166      2590      2589      2591      6860      6862      6861
 -1      3353    6    0    1
 -2      3584      6208      3594      6533      6863      6864      4442      6865      6867      6866
 -1      3354    6    0    1
 -2      6027      6060      6073      6169      6868      6869      6580      6582      6870      6581
 -1      3355    6    0    1
 -2      1270      1494      1495      6229      3173      3010      3172      6871      6873      6872
 -1      3356    6    0    1
 -2      1246      1245      6115      6227      2756      6874      6875      6734      6735      6876
 -1      3357    6    0    1
 -2      3490      6109      3508      6468      6877      6878      4790      6879      6881      6880
 -1      3358    6    0    1
 -2      5547      6111      5464      6257      6882      6883      5874      6884      6648      6885
 -1      3359    6    0    1
 -2      1345      1570      1125      6358      2429      2428      2269      6798      6886      6797
 -1      3360    6    0    1
 -2      5549      5494      5290      5417      5700      6887      6806      6694      6888      6805
 -1      3361    6    0    1
 -2      3413       315       316      6297      4130       415      4131      6889      6891      6890
 -1      3362    6    0    1
 -2       326       327      3737      6148       426      4164      4163      6892      6894      6893
 -1      3363    6    0    1
 -2       254       253      1395      6397       353      1769      1768      6895      6897      6896
 -1      3364    6    0    1
 -2      3494      3509      3495      6202      4805      4804      4800      6898      6900      6899
 -1      3365    6    0    1
 -2      6038      6052      6048      6108      6901      6788      6902      6903      6787      6714
 -1      3366    6    0    1
 -2      6063      6078      6028      6134      6904      6905      6906      6907      6909      6908
 -1      3367    6    0    1
 -2      6056      6174      6186      6412      6910      6911      6912      6913      6915      6914
 -1      3368    6    0    1
 -2      3445      3797      6387      6473      4522      6916      6917      6918      6920      6919
 -1      3369    6    0    1
 -2      5564      6188      6132      6336      6921      6922      6923      6924      6926      6925
 -1      3370    6    0    1
 -2      1445      1578      1384      6191      3257      2099      2185      6927      6929      6928
 -1      3371    6    0    1
 -2      1210      1262      1189      6296      2777      2776      2747      6930      6932      6931
 -1      3372    6    0    1
 -2      1310      1428      1558      6139      3297      3298      3294      6568      6567      6933
 -1      3373    6    0    1
 -2      1098      6122      1100      6384      6747      6748      2284      6934      6936      6935
 -1      3374    6    0    1
 -2      1115      1349      1127      6457      2332      2378      2377      6937      6939      6938
 -1      3375    6    0    1
 -2      1460      1260      6256      6460      3130      6940      6692      6941      6943      6942
 -1      3376    6    0    1
 -2      3513      6142      3592      6467      6944      6945      4408      6946      6948      6947
 -1      3377    6    0    1
 -2       489       486      6216      6445       896      6573      6949      6950      6576      6577
 -1      3378    6    0    1
 -2      6064      6094      6249      6346      6800      6951      6952      6953      6955      6954
 -1      3379    6    0    1
 -2      6050      6174      6052      6351      6956      6957      6958      6959      6961      6960
 -1      3380    6    0    1
 -2      1355      1124      1123      6280      2418      2407      2419      6962      6964      6963
 -1      3381    6    0    1
 -2      1224      6165      1233      6370      6965      6966      2962      6967      6969      6968
 -1      3382    6    0    1
 -2      1314       462       538      1095      6970       658      6971      2090      6549      6548
 -1      3383    6    0    1
 -2      1294      1295      1292      6117      3244      3243      3241      6972      6974      6973
 -1      3384    6    0    1
 -2      1155      1553      1556      6237      2595      2599      2598      6975      6977      6976
 -1      3385    6    0    1
 -2      1548      6193      6181      6354      6978      6979      6589      6980      6982      6981
 -1      3386    6    0    1
 -2      6074      6070      6171      6227      6983      6984      6604      6602      6985      6603
 -1      3387    6    0    1
 -2      6095      6134      6078      6175      6986      6909      6620      6624      6987      6623
 -1      3388    6    0    1
 -2      1314      1345      1095      6358      2168      2270      2090      6988      6798      6796
 -1      3389    6    0    1
 -2      1052      1386       321      6478      1974      1973      1969      6989      6991      6990
 -1      3390    6    0    1
 -2      5339       563      5537      6349      6992      6614      6993      6994      6618      6616
 -1      3391    6    0    1
 -2      6075      6076      6042      6138      6744      6743      6684      6995      6997      6996
 -1      3392    6    0    1
 -2      5418      5417      5290       520      5433      6805      6998      6999      6820      7000
 -1      3393    6    0    1
 -2      3477      3778      3743      6152      4726      4717      4725      6564      6565      6634
 -1      3394    6    0    1
 -2       259       258      1480      6404       358      1784      1783      7001      7003      7002
 -1      3395    6    0    1
 -2      3641       258      3655      6146      3957      3959      3961      7004      7006      7005
 -1      3396    6    0    1
 -2       475      6451      6214      6485      6664      7007      7008      6666      6667      7009
 -1      3397    6    0    1
 -2      3602      3395      3601      6327      4278      3907      4279      7010      7012      7011
 -1      3398    6    0    1
 -2      1387      1388      1080      6210      2202      2201      1761      6631      6632      7013
 -1      3399    6    0    1
 -2      6229      6423      6263      6448      7014      7015      7016      7017      7019      7018
 -1      3400    6    0    1
 -2      6073      6027      6112      6157      6580      7020      7021      7022      7024      7023
 -1      3401    6    0    1
 -2       533      6103      1319      6256      7025      6689      7026      7027      6693      6691
 -1      3402    6    0    1
 -2      6090      6102      6094      6364      7028      6803      7029      7030      7032      7031
 -1      3403    6    0    1
 -2      3527      3529      3528      6137      4961      4960      4951      7033      7035      7034
 -1      3404    6    0    1
 -2      6229      6393      6423      6448      7036      7037      7014      7017      7038      7019
 -1      3405    6    0    1
 -2      1190      1462      1332      6150      2644      2785      2784      7039      7041      7040
 -1      3406    6    0    1
 -2      1357      1503      1358      6121      3357      3359      3276      7042      6835      6834
 -1      3407    6    0    1
 -2      6156      6284      6015      6287      7043      7044      7045      7046      7048      7047
 -1      3408    6    0    1
 -2      1382      1075      1383      6221      1740      2179      2178      7049      7051      7050
 -1      3409    6    0    1
 -2      3737       327      3393      6148      4164      4166      4168      6893      6894      7052
 -1      3410    6    0    1
 -2      1176      1162      1175      6237      2634      2632      2635      7053      7055      7054
 -1      3411    6    0    1
 -2      6089      6392      6173      6451      7056      7057      7058      7059      7060      6723
 -1      3412    6    0    1
 -2      1558      6139      1428      6266      6933      6567      3298      7061      7063      7062
 -1      3413    6    0    1
 -2      1408      1514      1045      6277      2027      2026      1821      7064      7066      7065
 -1      3414    6    0    1
 -2      1224      1464      1233      6165      2964      2963      2962      6965      7067      6966
 -1      3415    6    0    1
 -2      6020      6186      6174      6412      7068      6911      6538      7069      6914      6915
 -1      3416    6    0    1
 -2      5290      5417      5418      5252      6805      5433      6998      6807      6696      7070
 -1      3417    6    0    1
 -2       478       475       474      6485       832       826       831      6665      6666      7071
 -1      3418    6    0    1
 -2       490      6216      6111      6408      7072      6572      6644      7073      7075      7074
 -1      3419    6    0    1
 -2      1234      1494      1360      6263      3007      3015      3016      7076      7078      7077
 -1      3420    6    0    1
 -2      3384       313       314      6171      4124       413      4125      7079      6811      7080
 -1      3421    6    0    1
 -2      1493      1313      1375      6172      3177      3304      2157      7081      7083      7082
 -1      3422    6    0    1
 -2      6029      6219      6198      6295      7084      7085      7086      7087      7089      7088
 -1      3423    6    0    1
 -2       259       260      3383      6309       359      3963      3962      7090      7092      7091
 -1      3424    6    0    1
 -2      1460      1319      1320      6340      3317      2247      3318      7093      7095      7094
 -1      3425    6    0    1
 -2      6068      6081      6033      6201      7096      7097      7098      7099      7101      7100
 -1      3426    6    0    1
 -2      1428      1048      1589      6225      2042      2044      2043      7102      7104      7103
 -1      3427    6    0    1
 -2       489      6216      6219      6445      6949      7105      7106      6950      6577      7107
 -1      3428    6    0    1
 -2      3655      3557      3641      6146      5085      5086      3961      7005      7108      7004
 -1      3429    6    0    1
 -2       263       264      3651      6322       363      3975      3974      7109      7111      7110
 -1      3430    6    0    1
 -2      3539      3541      3718      6099      5024      5027      5026      7112      7114      7113
 -1      3431    6    0    1
 -2      6023      6067      6041      6303      7115      6705      7116      7117      7119      7118
 -1      3432    6    0    1
 -2      1373      1096      1125      6170      2274      2267      2275      6777      7121      7120
 -1      3433    6    0    1
 -2      6116      6231      6056      6458      7122      7123      7124      7125      7127      7126
 -1      3434    6    0    1
 -2      1217      1137      1169      6181      2494      2489      2495      7128      7129      6590
 -1      3435    6    0    1
 -2      5418      5417      5532      5252      5433      6695      7130      7070      6696      6697
 -1      3436    6    0    1
 -2      6065      6132      6123      6372      7131      7132      7133      7134      7136      7135
 -1      3437    6    0    1
 -2      3445      6387      6403      6473      6917      7137      7138      6918      6919      7139
 -1      3438    6    0    1
 -2      1259      6123      6256      6372      7140      7141      7142      7143      7135      7144
 -1      3439    6    0    1
 -2      6111      6206      5460      6216      6675      6674      6676      6572      7146      7145
 -1      3440    6    0    1
 -2      3473      3800      6218      6464      4698      7147      7148      7149      7151      7150
 -1      3441    6    0    1
 -2      5529      6216      6103      6349      7152      7153      7154      7155      7157      7156
 -1      3442    6    0    1
 -2      1209      1208      1185      6263      2757      2667      2758      7158      7160      7159
 -1      3443    6    0    1
 -2      3586      3380      3560      6133      4072      4206      4205      7161      7163      7162
 -1      3444    6    0    1
 -2       478      6240      6173      6485      7164      7165      6722      6665      7166      6724
 -1      3445    6    0    1
 -2      6103      6340      5555      6349      7167      7168      7169      7156      7171      7170
 -1      3446    6    0    1
 -2       239      1379       240      6172      1727      1726       339      6749      7172      6642
 -1      3447    6    0    1
 -2      1127      6292      1115      6457      7173      7174      2377      6938      7175      6937
 -1      3448    6    0    1
 -2      5461      6284      6156      6535      7176      7043      7177      7178      7180      7179
 -1      3449    6    0    1
 -2      3460      3458      3475      6248      4615      4617      4616      7181      7183      7182
 -1      3450    6    0    1
 -2      1190      1164      1462      6150      2643      2645      2644      7039      7184      7041
 -1      3451    6    0    1
 -2       313       312      1400      6227       412      1946      1945      6764      7185      6766
 -1      3452    6    0    1
 -2      3743      3778      3476      6250      4717      4630      4715      6637      6635      7186
 -1      3453    6    0    1
 -2       244      1054       245      6249      1742      1741       344      7187      7189      7188
 -1      3454    6    0    1
 -2      6057      6181      6235      6280      7190      7191      7192      7193      7195      7194
 -1      3455    6    0    1
 -2      6103      6216       555      6349      7153      7196      7197      7156      7157      7198
 -1      3456    6    0    1
 -2      6024      6042      6040      6369      6814      6686      6560      6558      6687      6559
 -1      3457    6    0    1
 -2       457      5417      5418       520      5430      5433      5424      6822      6820      6999
 -1      3458    6    0    1
 -2      1382      1348      1054      6273      2071      2072      1743      7199      7201      7200
 -1      3459    6    0    1
 -2       328      3393       327      6238      4167      4166       427      7202      7204      7203
 -1      3460    6    0    1
 -2      1255      6105      1430      6480      7205      7206      2927      7207      7209      7208
 -1      3461    6    0    1
 -2      3488      6185      6182      6446      7210      7211      7212      7213      7215      7214
 -1      3462    6    0    1
 -2      6057      6071      6053      6280      7216      7217      7218      7193      7220      7219
 -1      3463    6    0    1
 -2      1163      1182      1177      6364      2640      2639      2638      7221      7223      7222
 -1      3464    6    0    1
 -2      1179      1141      1132      6213      2469      2468      2470      7224      7226      7225
 -1      3465    6    0    1
 -2      6192      6331      6044      6488      7227      7228      7229      7230      7232      7231
 -1      3466    6    0    1
 -2      3377      3662      3661      6168      4191      4190      4027      7233      7235      7234
 -1      3467    6    0    1
 -2      3542      3541      3540      6360      5029      5025      5030      7236      7238      7237
 -1      3468    6    0    1
 -2      3650      3397       300      6318      4087      4083      4085      7239      7241      7240
 -1      3469    6    0    1
 -2      6035      6054      6074      6250      6649      7242      7243      7244      7246      7245
 -1      3470    6    0    1
 -2      5282      5290      5417       520      5303      6805      6819      6821      7000      6820
 -1      3471    6    0    1
 -2      6042      6040      6151      6307      6686      7247      7248      7249      7251      7250
 -1      3472    6    0    1
 -2      1246      6167      1334      6227      6761      7252      3067      6734      7253      6736
 -1      3473    6    0    1
 -2      5555      6103      5508      6340      7169      7254      5818      7168      7167      7255
 -1      3474    6    0    1
 -2      1415      1543      1083      6223      2219      2218      1896      7256      7258      7257
 -1      3475    6    0    1
 -2       510      6176      6077      6325      7259      7260      7261      7262      7264      7263
 -1      3476    6    0    1
 -2      6066      6184      6145      6212      7265      7266      7267      7268      7270      7269
 -1      3477    6    0    1
 -2      1407      1554      1044      6258      2022      2021      1911      7271      7273      7272
 -1      3478    6    0    1
 -2      1101      1454      1102      6252      2299      2298      2294      7274      7276      7275
 -1      3479    6    0    1
 -2      5457      6162      5534      6284      7277      7278      5856      7279      7281      7280
 -1      3480    6    0    1
 -2      1405      1063      1532      6368      1812      2122      2124      7282      7284      7283
 -1      3481    6    0    1
 -2      1231      1408       269      6368      1818      1817      1813      6857      6831      6859
 -1      3482    6    0    1
 -2      1103      6247      1104      6528      6596      6597      2303      7285      7287      7286
 -1      3483    6    0    1
 -2      1357      6326      1294      6404      7288      7289      3253      7290      7292      7291
 -1      3484    6    0    1
 -2      6074      6167      6070      6227      7293      7294      6983      6602      7253      6985
 -1      3485    6    0    1
 -2      1101      1373      1374      6123      2287      2301      2300      7295      7297      7296
 -1      3486    6    0    1
 -2      5285       531      5286      6408      7298      7299      5321      7300      7302      7301
 -1      3487    6    0    1
 -2      5467      6142      5516      6283      7303      7304      5901      7305      7307      7306
 -1      3488    6    0    1
 -2      5285      5286      5505      6408      5321      7308      7309      7300      7301      7310
 -1      3489    6    0    1
 -2      6042      6098      6040      6307      6817      6815      6686      7249      7311      7251
 -1      3490    6    0    1
 -2       490       486      6111      6216       898      6574      6644      7072      6573      6572
 -1      3491    6    0    1
 -2       293       292      1416      6316       392      1886      1885      7312      7314      7313
 -1      3492    6    0    1
 -2      1294      6163      1293      6404      6852      6853      3242      7291      7316      7315
 -1      3493    6    0    1
 -2      1175      6236      6359      6509      6840      7317      7318      7319      7321      7320
 -1      3494    6    0    1
 -2      5564      5480      6188      6336      5886      7322      6921      6924      7323      6926
 -1      3495    6    0    1
 -2      3567      3776      3786      6129      4981      5105      5104      7324      7326      7325
 -1      3496    6    0    1
 -2      6038      6108      6048      6119      6903      6714      6902      7327      6716      6715
 -1      3497    6    0    1
 -2      1082      1512      1397      6523      2212      2211      1941      7328      7330      7329
 -1      3498    6    0    1
 -2      3537      6190      3760      6482      6554      6598      5016      7331      7333      7332
 -1      3499    6    0    1
 -2      1584      1583      1251      6416      2918      3096      2738      7334      7336      7335
 -1      3500    6    0    1
 -2       277       278      3673      6496       377      4017      4016      7337      7339      7338
 -1      3501    6    0    1
 -2       258       259      3655      6146       358      3960      3959      7006      7340      7005
 -1      3502    6    0    1
 -2       254       255      3385      6482       354      3948      3947      7341      7343      7342
 -1      3503    6    0    1
 -2      1522      6110      1274      6262      6628      6629      3186      6658      6659      7344
 -1      3504    6    0    1
 -2      6043      6046      6026      6107      7345      7346      7347      7348      7350      7349
 -1      3505    6    0    1
 -2       292      1084      1416      6474      1882      1887      1886      7351      7353      7352
 -1      3506    6    0    1
 -2      1163      6166      1154      6267      6860      6861      2591      7354      7356      7355
 -1      3507    6    0    1
 -2      6041      6040      6080      6448      7357      7358      7359      7360      7362      7361
 -1      3508    6    0    1
 -2      6030      6069      5497      6093      7363      7364      7365      7366      7368      7367
 -1      3509    6    0    1
 -2      6106      6131      6046      6158      7369      7370      7371      7372      7374      7373
 -1      3510    6    0    1
 -2      6066      6145      6184      6432      7267      7266      7265      7375      7377      7376
 -1      3511    6    0    1
 -2      1190      1332      1269      6150      2784      2783      2782      7039      7040      6600
 -1      3512    6    0    1
 -2       478       474      6240      6485       831      7378      7164      6665      7071      7166
 -1      3513    6    0    1
 -2      3618       251      3411      6274      3936      3938      3940      6608      6609      7379
 -1      3514    6    0    1
 -2       587      6389       436      6390      6827      7380      7381      6829      6830      7382
 -1      3515    6    0    1
 -2      1494      1234      1233      6370      3007      2967      3008      7383      7384      6968
 -1      3516    6    0    1
 -2       280      3377      3661      6168      4025      4027      4023      7385      7233      7234
 -1      3517    6    0    1
 -2       457      5402      5287      6476      5413      7386      7387      7388      7390      7389
 -1      3518    6    0    1
 -2      1342      1316      1232      6246      3004      3003      3005      7391      7393      7392
 -1      3519    6    0    1
 -2      6021      6035      6071      6454      7394      7395      7396      7397      7399      7398
 -1      3520    6    0    1
 -2       479      6173      6392      6451      7400      7057      7401      7402      6723      7060
 -1      3521    6    0    1
 -2      6143      6344      6067      6527      7403      7404      7405      7406      7408      7407
 -1      3522    6    0    1
 -2       260       259      1569      6309       359      1787      1786      7092      7090      7409
 -1      3523    6    0    1
 -2      1149      6211      1148      6271      7410      7411      2551      7412      7414      7413
 -1      3524    6    0    1
 -2      1230      1532      6367      6368      2995      7415      7416      7417      7283      7418
 -1      3525    6    0    1
 -2      1408       270       269      6175      1816       369      1817      7419      7421      7420
 -1      3526    6    0    1
 -2      1560      1444      6179      6324      2658      6739      6737      7422      7424      7423
 -1      3527    6    0    1
 -2       308      1402      1399      6251      1930      1935      1934      7425      7427      7426
 -1      3528    6    0    1
 -2      1374      1454      1101      6252      2302      2299      2300      7428      7276      7274
 -1      3529    6    0    1
 -2      1458      1497      1295      6217      2548      3245      3255      7429      7431      7430
 -1      3530    6    0    1
 -2      6035      6021      6054      6466      7394      7432      6649      6652      7433      6654
 -1      3531    6    0    1
 -2      1452      1193      1191      6269      2788      2787      2789      6854      7434      6856
 -1      3532    6    0    1
 -2      1485      1295      1294      6117      3251      3244      3252      7435      6974      6972
 -1      3533    6    0    1
 -2       462      1095      1057      6312      6549      2089      7436      6551      6552      7437
 -1      3534    6    0    1
 -2      3434      3684      3435      6293      4478      4477      4465      7438      7440      7439
 -1      3535    6    0    1
 -2      1106      1109      1110      6247      2318      2324      2323      7441      7443      7442
 -1      3536    6    0    1
 -2      1399      1082       309      6251      1938      1937      1933      7426      7445      7444
 -1      3537    6    0    1
 -2      5494      5549      5532      5417      5700      5696      5737      6888      6694      6695
 -1      3538    6    0    1
 -2      3485      6185      3488      6446      7446      7210      4765      7447      7215      7213
 -1      3539    6    0    1
 -2      3751      3415      3794      6159      4374      4375      4377      7448      7450      7449
 -1      3540    6    0    1
 -2      1130      1132      1131      6492      2458      2457      2453      7451      7453      7452
 -1      3541    6    0    1
 -2      1160      6304      6116      6501      7454      7455      6757      7456      7458      7457
 -1      3542    6    0    1
 -2      6028      6063      6412      6440      6906      7459      7460      7461      7463      7462
 -1      3543    6    0    1
 -2      6050      6097      6052      6174      7464      7465      6958      6956      7466      6957
 -1      3544    6    0    1
 -2      3792      6183      3578      6248      7467      7468      4712      7469      7471      7470
 -1      3545    6    0    1
 -2      6035      6070      6074      6167      6709      6983      7243      7472      7294      7293
 -1      3546    6    0    1
 -2      1245      1184      1246      6115      2753      2754      2756      6874      7473      6875
 -1      3547    6    0    1
 -2      6046      6072      6060      6233      7474      7475      6767      6770      7476      6772
 -1      3548    6    0    1
 -2      1106      6247      1110      6488      7441      7442      2323      7477      7479      7478
 -1      3549    6    0    1
 -2      6116      6304      1160      6457      7455      7454      6757      6760      7480      6759
 -1      3550    6    0    1
 -2      6132      6188      6065      6336      6922      7481      7131      6925      6926      7482
 -1      3551    6    0    1
 -2       475      6214       474      6485      7008      7483       826      6666      7009      7071
 -1      3552    6    0    1
 -2      1513      1436      1399      6422      3299      2214      3367      7484      7486      7485
 -1      3553    6    0    1
 -2      1495      6092      1464      6331      6585      6586      2517      7487      7489      7488
 -1      3554    6    0    1
 -2      6146      6200      6048      6360      7490      7491      7492      7493      7495      7494
 -1      3555    6    0    1
 -2      1575      1413      1455      6332      2128      2216      3216      7496      7498      7497
 -1      3556    6    0    1
 -2      1164      1190      1165      6439      2643      2642      2505      7499      7501      7500
 -1      3557    6    0    1
 -2      6015      6284      6162      6287      7044      7281      7502      7047      7048      7503
 -1      3558    6    0    1
 -2      5547      5460      5464      6111      5861      5872      5874      6882      6676      6883
 -1      3559    6    0    1
 -2       573       490       486      6111       900       898       887      6645      6644      6574
 -1      3560    6    0    1
 -2       477      5537      5285       563      6615      7504      7505       746      6614      7506
 -1      3561    6    0    1
 -2      1357      1485      1294      6326      2923      3252      3253      7288      7507      7289
 -1      3562    6    0    1
 -2      3616      3786      3776      6129      4351      5105      5002      7508      7325      7326
 -1      3563    6    0    1
 -2      5417      5494      5290      5282      6888      6887      6805      6819      7509      5303
 -1      3564    6    0    1
 -2      1506      1075      1380      6220      2176      1737      2177      7510      7512      7511
 -1      3565    6    0    1
 -2      6044      6331      6235      6354      7228      7513      7514      7515      7517      7516
 -1      3566    6    0    1
 -2      3592      6142      5440      6467      6945      7518      7519      6947      6948      7520
 -1      3567    6    0    1
 -2      1230      1243      6213      6367      2731      7521      7522      7416      7524      7523
 -1      3568    6    0    1
 -2      6096      6028      6401      6412      7525      7526      7527      7528      7460      7529
 -1      3569    6    0    1
 -2      3639      3412       312      6376      4123      4119      4121      7530      7532      7531
 -1      3570    6    0    1
 -2      1270      1494      6229      6263      3173      6873      6871      7533      7078      7016
 -1      3571    6    0    1
 -2      6147      6169      6073      6378      6583      6581      6578      7534      7536      7535
 -1      3572    6    0    1
 -2      1101      6122      1098      6170      6746      6747      2286      6776      7537      6778
 -1      3573    6    0    1
 -2      1473      1482      1254      6165      2395      3105      3106      7538      7540      7539
 -1      3574    6    0    1
 -2       479      6173       551      6392      7400      7541       853      7401      7057      7542
 -1      3575    6    0    1
 -2      6097      6174      6050      6319      7466      6956      7464      7543      7545      7544
 -1      3576    6    0    1
 -2      1313      1060      1379      6172      2102      1731      2101      7083      7546      7172
 -1      3577    6    0    1
 -2      1375      1313      1379      6172      3304      2101      1728      7082      7083      7172
 -1      3578    6    0    1
 -2      1095      1125      6170      6358      2268      7120      7547      6796      6797      7548
 -1      3579    6    0    1
 -2      5471      6162      5457      6283      7549      7277      5843      7550      7552      7551
 -1      3580    6    0    1
 -2      3792      3478      6183      6275      4608      7553      7467      7554      7556      7555
 -1      3581    6    0    1
 -2      1232      6246      1316      6368      7392      7393      3003      7557      7559      7558
 -1      3582    6    0    1
 -2      6019      6016      6319      6334      7560      7561      7562      7563      7565      7564
 -1      3583    6    0    1
 -2       482      6089      6392      6502      7566      7056      7567      7568      7570      7569
 -1      3584    6    0    1
 -2        15      3736      5197       433      3811      7571      5203       435      3812      5205
 -1      3585    6    0    1
 -2      6052      6097      6050      6211      7465      7464      6958      7572      7574      7573
 -1      3586    6    0    1
 -2       314       313      1394      6297       413      1949      1948      7575      7577      7576
 -1      3587    6    0    1
 -2      5542      5516      5467      6142      5770      5901      5907      7578      7304      7303
 -1      3588    6    0    1
 -2      6076      6369      6042      6385      6745      6687      6743      7579      7581      7580
 -1      3589    6    0    1
 -2      6074      6167      6227      6297      7293      7253      6602      6605      7582      6607
 -1      3590    6    0    1
 -2      1446      1396      1509      6274      2050      2205      3093      7583      7585      7584
 -1      3591    6    0    1
 -2      6064      6249      6161      6346      6952      7586      7587      6953      6954      7588
 -1      3592    6    0    1
 -2       550      1522      1328      6262      6656      1628      7589      6657      6658      7590
 -1      3593    6    0    1
 -2      3484      6255      3483      6446      7591      7592      4740      7593      7595      7594
 -1      3594    6    0    1
 -2      3550      3716      3406      6241      4332      4331      3867      7596      6542      7597
 -1      3595    6    0    1
 -2      1277      1361      1195      6136      2810      2795      2808      7598      7600      7599
 -1      3596    6    0    1
 -2       274       273      1065      6530       373      1829      1828      7601      7603      7602
 -1      3597    6    0    1
 -2      6102      6221      6094      6364      6810      6808      6803      7032      7604      7031
 -1      3598    6    0    1
 -2      6024      6369      6393      6471      6558      6563      6561      7605      7607      7606
 -1      3599    6    0    1
 -2      6027      6412      6063      6440      7608      7459      7609      7610      7462      7463
 -1      3600    6    0    1
 -2      6243      6278      6079      6419      7611      7612      7613      7614      7616      7615
 -1      3601    6    0    1
 -2       327      1381      1378      6320      1987      1992      1991      7617      7619      7618
 -1      3602    6    0    1
 -2      1158      1531      1160      6457      2615      2614      2613      7620      6758      6759
 -1      3603    6    0    1
 -2      1417      1042       277      6391      1842      1841      1837      7621      7623      7622
 -1      3604    6    0    1
 -2      6045      6264      6194      6406      7624      7625      7626      7627      7629      7628
 -1      3605    6    0    1
 -2      1048      1428      1402      6225      2042      2041      1932      7104      7102      7630
 -1      3606    6    0    1
 -2      1485      1296      1295      6117      2920      3256      3251      7435      7631      6974
 -1      3607    6    0    1
 -2       536      6061      6262      6525      7632      7633      7634      7635      7637      7636
 -1      3608    6    0    1
 -2      5285      5289       563      5537      5322      7638      7506      7504      7639      6614
 -1      3609    6    0    1
 -2      5455      6283      6089      6355      7640      7641      7642      7643      7645      7644
 -1      3610    6    0    1
 -2      3625      6140      3628      6339      7646      7647      5156      7648      7650      7649
 -1      3611    6    0    1
 -2      6042      6151      6218      6307      7248      7651      7652      7249      7250      7653
 -1      3612    6    0    1
 -2      6089      6283      5455      6287      7641      7640      7642      7654      7656      7655
 -1      3613    6    0    1
 -2       508      6176       510      6325      7657      7259       992      7658      7264      7262
 -1      3614    6    0    1
 -2      5461      5457      5534      6284      5854      5856      5855      7176      7279      7280
 -1      3615    6    0    1
 -2      1069      1410      1352      6388      2149      2148      2150      7659      7661      7660
 -1      3616    6    0    1
 -2      1150      1148      1149      6333      2556      2551      2557      7662      7664      7663
 -1      3617    6    0    1
 -2      5463      5460      6206      6216      5870      6674      7665      7666      7145      7146
 -1      3618    6    0    1
 -2      1084       292       291      6276      1882       391      1883      7667      7669      7668
 -1      3619    6    0    1
 -2      6040      6075      6042      6151      6685      6684      6686      7247      7670      7248
 -1      3620    6    0    1
 -2       243      1075      1382      6249      1735      1740      1739      7671      7673      7672
 -1      3621    6    0    1
 -2      1559      1351      1418      6196      3079      2935      2013      7674      7676      7675
 -1      3622    6    0    1
 -2      5472      5463      6206      6216      5880      7665      7677      7678      7666      7146
 -1      3623    6    0    1
 -2      1096      1095      1125      6170      2261      2268      2267      7121      7547      7120
 -1      3624    6    0    1
 -2      1121      1123      1124      6280      2401      2407      2406      7679      6963      6964
 -1      3625    6    0    1
 -2      5464      6111      5460      6216      6883      6676      5872      7680      6572      7145
 -1      3626    6    0    1
 -2      1100      1101      1102      6122      2285      2294      2293      6748      6746      7681
 -1      3627    6    0    1
 -2      6120      6142      5467      6283      7682      7303      7683      7684      7307      7305
 -1      3628    6    0    1
 -2      6015      6155      6300      6503      7685      7686      7687      7688      7690      7689
 -1      3629    6    0    1
 -2      1259      6256      6132      6372      7142      7691      7692      7143      7144      7136
 -1      3630    6    0    1
 -2       581      6340      6103      6349      7693      7167      7694      7695      7171      7156
 -1      3631    6    0    1
 -2      1251      1583      1446      6416      3096      3095      3094      7335      7336      7696
 -1      3632    6    0    1
 -2      1170      1171      1197      6131      2627      2675      2674      7697      7699      7698
 -1      3633    6    0    1
 -2      1320      1435      1460      6460      3322      3133      3318      7700      7701      6941
 -1      3634    6    0    1
 -2      6046      6043      6106      6107      7345      7702      7371      7350      7348      7703
 -1      3635    6    0    1
 -2       477       531      5285      6408       745      7298      7505      7704      7302      7300
 -1      3636    6    0    1
 -2      1531      1158      1349      6457      2615      2444      2616      6758      7620      6939
 -1      3637    6    0    1
 -2      5451      5285      5505      6408      7705      7309      5719      7706      7300      7310
 -1      3638    6    0    1
 -2      1275      1140      1487      6229      2512      2400      2511      7707      7709      7708
 -1      3639    6    0    1
 -2      1064       297      1413      6375      1901      1897      1902      7710      7712      7711
 -1      3640    6    0    1
 -2      1378       328       327      6238      1990       427      1991      7713      7202      7203
 -1      3641    6    0    1
 -2      1122      1113      1118      6331      2366      2364      2367      7714      7716      7715
 -1      3642    6    0    1
 -2      1295      1497      1292      6217      3245      3239      3243      7430      7431      7717
 -1      3643    6    0    1
 -2      3591      3590      3779      6232      4379      4388      5131      7718      7720      7719
 -1      3644    6    0    1
 -2      6026      6051      6107      6489      7721      7722      7349      7723      7725      7724
 -1      3645    6    0    1
 -2      3441      3445      6403      6473      4521      7138      7726      7727      6918      7139
 -1      3646    6    0    1
 -2      6024      6042      6369      6385      6814      6687      6558      7728      7580      7581
 -1      3647    6    0    1
 -2      1474      1548      1136      6354      2493      2492      2405      7729      6980      7730
 -1      3648    6    0    1
 -2      3792      3478      3578      6183      4608      4729      4712      7467      7553      7468
 -1      3649    6    0    1
 -2      6219      6295      6029      6358      7089      7087      7084      7731      7733      7732
 -1      3650    6    0    1
 -2      1392       316       315      6297      1954       415      1955      7734      6890      6891
 -1      3651    6    0    1
 -2      6043      6046      6106      6131      7345      7371      7702      7735      7370      7369
 -1      3652    6    0    1
 -2      3652       253       254      6190      3944       353      3945      7736      7738      7737
 -1      3653    6    0    1
 -2      1260      1240      1259      6132      3041      3034      3042      7739      7740      7692
 -1      3654    6    0    1
 -2      3546      3777      3718      6435      5060      5059      5039      7741      7743      7742
 -1      3655    6    0    1
 -2      5338       525       563      6349      7744       749      7745      7746      7747      6618
 -1      3656    6    0    1
 -2      6021      6017      6289      6371      7748      7749      7750      7751      7753      7752
 -1      3657    6    0    1
 -2      5537      5499      5338      6349      5723      7754      7755      6616      7756      7746
 -1      3658    6    0    1
 -2      1095      6312       538      6358      6552      6550      6548      6796      7758      7757
 -1      3659    6    0    1
 -2      6263      6266      1234      6370      7759      7760      7076      7761      7762      7384
 -1      3660    6    0    1
 -2      1162      6102      1175      6237      6594      6592      2632      7055      7763      7054
 -1      3661    6    0    1
 -2      5469      6173      6240      6485      7764      7165      7765      7766      6724      7166
 -1      3662    6    0    1
 -2      1240      1259      6132      6372      3034      7692      7740      7767      7143      7136
 -1      3663    6    0    1
 -2      1259      1260      6132      6256      3042      7739      7692      7142      6940      7691
 -1      3664    6    0    1
 -2      3606       323       324      6301      4154       423      4155      7768      7770      7769
 -1      3665    6    0    1
 -2      1351      1219      1418      6196      2936      1848      2935      7676      7771      7675
 -1      3666    6    0    1
 -2      5456      6089      5455      6287      7772      7642      5834      7773      7654      7655
 -1      3667    6    0    1
 -2      3527      3529      6137      6291      4961      7035      7033      7774      7776      7775
 -1      3668    6    0    1
 -2      5453      5455      5456      6089      5831      5834      5833      7777      7642      7772
 -1      3669    6    0    1
 -2      1343      1342      1265      6246      3154      3150      3155      7778      7391      7779
 -1      3670    6    0    1
 -2      3594      6208      6118      6533      6864      7780      7781      6866      6867      7782
 -1      3671    6    0    1
 -2       490      6111      6257      6408      6644      6648      6646      7073      7074      7783
 -1      3672    6    0    1
 -2      1460      6103      1319      6340      6690      6689      3317      7093      7167      7095
 -1      3673    6    0    1
 -2      6109      6151      6040      6307      7784      7247      7785      7786      7250      7251
 -1      3674    6    0    1
 -2       560      6420      6195      6486      7787      7788      7789      7790      7792      7791
 -1      3675    6    0    1
 -2      1272      6380      1452      6399      7793      7794      2896      7795      7797      7796
 -1      3676    6    0    1
 -2       477      5451      6349      6408      6782      6783      6617      7704      7706      7798
 -1      3677    6    0    1
 -2      6077      6085      6055      6414      7799      7800      7801      7802      7804      7803
 -1      3678    6    0    1
 -2      1466      1272      1452      6399      3178      2896      3169      7805      7795      7796
 -1      3679    6    0    1
 -2      1482      1464      1254      6165      2515      2965      3105      7540      7067      7539
 -1      3680    6    0    1
 -2      6035      6041      6023      6067      6707      7116      7806      6706      6705      7115
 -1      3681    6    0    1
 -2      3433      3726      3799      6244      4476      4463      4474      7807      7809      7808
 -1      3682    6    0    1
 -2      1570      6123      1125      6358      7810      7811      2428      6886      7812      6797
 -1      3683    6    0    1
 -2      3784      3560      3380      6218      4207      4206      4208      7813      7815      7814
 -1      3684    6    0    1
 -2      3513      3686      6142      6467      4895      7816      6944      6946      7817      6948
 -1      3685    6    0    1
 -2      5537       477      5285      5451      6615      7505      7504      5720      6782      7705
 -1      3686    6    0    1
 -2      1540      1285      1266      6380      3161      3158      3159      7818      7820      7819
 -1      3687    6    0    1
 -2      6025      6048      6038      6052      7821      6902      7822      7823      6788      6901
 -1      3688    6    0    1
 -2       457      5402      5487      5287      5413      7824      7825      7387      7386      7826
 -1      3689    6    0    1
 -2      1280      6193      1548      6354      7827      6978      3197      7828      6982      6980
 -1      3690    6    0    1
 -2      3619       252       253      6190      3941       352      3942      6774      7829      7738
 -1      3691    6    0    1
 -2      5451      5499      5537      6349      5824      5723      5720      6783      7756      6616
 -1      3692    6    0    1
 -2       525       477       563      6349       850       746       749      7747      6617      6618
 -1      3693    6    0    1
 -2      1168      1185      1208      6461      2664      2667      2666      7830      7832      7831
 -1      3694    6    0    1
 -2      6028      6412      6096      6440      7460      7528      7525      7461      7462      7833
 -1      3695    6    0    1
 -2      1230      1243      1180      6425      2731      2730      2725      7834      7836      7835
 -1      3696    6    0    1
 -2      6023      6041      6040      6303      7116      7357      7837      7117      7118      7838
 -1      3697    6    0    1
 -2      3578      3478      3788      6183      4729      4728      4727      7468      7553      7839
 -1      3698    6    0    1
 -2      1103      6231      6247      6528      6662      7840      6596      7285      7841      7287
 -1      3699    6    0    1
 -2      6057      6053      6181      6280      7218      7842      7190      7193      7219      7195
 -1      3700    6    0    1
 -2      1279      1529      1157      6457      2611      2610      2607      7843      7845      7844
 -1      3701    6    0    1
 -2       515      6214      6120      6389      7846      7847      7848      7849      7851      7850
 -1      3702    6    0    1
 -2      3547      3488      3553      6144      4780      4766      4779      7852      7854      7853
 -1      3703    6    0    1
 -2      3641       257       258      6396      3956       357      3957      7855      7857      7856
 -1      3704    6    0    1
 -2      3662      6168      3377      6508      7235      7233      4191      6720      6672      6721
 -1      3705    6    0    1
 -2      1224      1206      6288      6370      2862      7858      7859      6967      7861      7860
 -1      3706    6    0    1
 -2       533       557      6103      6256       799      7862      7025      7027      7863      6693
 -1      3707    6    0    1
 -2      6214      6240       474      6485      7864      7378      7483      7009      7166      7071
 -1      3708    6    0    1
 -2      5466      5467      5516      6283      5838      5901      5900      7865      7305      7306
 -1      3709    6    0    1
 -2      6109      6228      3508      6468      7866      7867      6878      6881      7868      6880
 -1      3710    6    0    1
 -2       240      1379      1060      6172      1726      1731      1730      6642      7172      7546
 -1      3711    6    0    1
 -2      1404       265       264      6367      1801       364      1802      7869      7871      7870
 -1      3712    6    0    1
 -2      1468      1552      6370      6518      3136      7872      7873      6571      6569      7874
 -1      3713    6    0    1
 -2      6142      5475      6283      6413      7875      7876      7307      7877      7879      7878
 -1      3714    6    0    1
 -2      6102      6267      6090      6431      7880      7881      7028      7882      7884      7883
 -1      3715    6    0    1
 -2      3641       258      6146      6396      3957      7006      7004      7855      7856      7885
 -1      3716    6    0    1
 -2      1144      1147      1148      6498      2535      2538      2537      7886      7888      7887
 -1      3717    6    0    1
 -2      1288      6324      6323      6436      6639      7889      7890      6785      6786      7891
 -1      3718    6    0    1
 -2      1175      6236      6102      6359      6840      7892      6592      7318      7317      7893
 -1      3719    6    0    1
 -2      6017      6194      6264      6406      7894      7625      7895      7896      7628      7629
 -1      3720    6    0    1
 -2      1464      6092      1233      6165      6586      6584      2963      7067      7897      6966
 -1      3721    6    0    1
 -2       313      3384      3639      6171      4124      4126      4122      6811      7079      6813
 -1      3722    6    0    1
 -2      1551      1274      6110      6366      3187      6629      6630      7898      7900      7899
 -1      3723    6    0    1
 -2       565      6214       517      6390      7901      7902       762      7903      7904      6828
 -1      3724    6    0    1
 -2      5554      6105      6053      6480      7905      7906      7907      7908      7209      7909
 -1      3725    6    0    1
 -2      3540      3539      3538      6201      5018      4995      5019      7910      7912      7911
 -1      3726    6    0    1
 -2       265       266      3379      6487       365      3981      3980      7913      7915      7914
 -1      3727    6    0    1
 -2      3495      3493      3494      6104      4799      4648      4800      7916      7918      7917
 -1      3728    6    0    1
 -2      1375      1379       239      6172      1728      1727      1723      7082      7172      6749
 -1      3729    6    0    1
 -2      3539      3540      3541      6099      5018      5025      5024      7112      7919      7114
 -1      3730    6    0    1
 -2      1069      1352      1507      6238      2150      2151      1998      7920      7922      7921
 -1      3731    6    0    1
 -2       251       250      1080      6274       350      1760      1759      6609      6610      7923
 -1      3732    6    0    1
 -2       528      6091      6061      6236      7924      7925      7926      7927      7929      7928
 -1      3733    6    0    1
 -2      1368      1256      1541      6342      3111      2764      3112      7930      7932      7931
 -1      3734    6    0    1
 -2      6082      6056      6189      6426      7933      7934      7935      7936      7938      7937
 -1      3735    6    0    1
 -2      6061      6333      6110      6534      7939      7940      7941      7942      7944      7943
 -1      3736    6    0    1
 -2      1082      1399      1436      6422      1938      2214      2213      7945      7485      7486
 -1      3737    6    0    1
 -2      6039      6094      6090      6102      6801      7029      7946      6802      6803      7028
 -1      3738    6    0    1
 -2      1414       275       274      6436      1831       374      1832      7947      7949      7948
 -1      3739    6    0    1
 -2      3620       315      3413      6297      4128      4130      4132      7950      6891      6889
 -1      3740    6    0    1
 -2      1380      1467      1506      6220      2105      3052      2177      7511      7951      7510
 -1      3741    6    0    1
 -2      5542      5440      6142      6467      5768      7518      7578      7952      7520      6948
 -1      3742    6    0    1
 -2      1323      6188      5436      6433      7953      7954      7955      7956      7958      7957
 -1      3743    6    0    1
 -2      6214      6475      6240      6485      7959      7960      7864      7009      7961      7166
 -1      3744    6    0    1
 -2      3639      3384      3766      6171      4126      4226      4225      6813      7079      7962
 -1      3745    6    0    1
 -2      6024      6330      6385      6481      7963      7964      7728      7965      7967      7966
 -1      3746    6    0    1
 -2      1359      1566      6288      6332      2861      7968      7969      7970      7972      7971
 -1      3747    6    0    1
 -2      1115      6292      6116      6457      7174      7973      7974      6937      7175      6760
 -1      3748    6    0    1
 -2      1551      1362      1274      6366      2266      2982      3187      7898      7975      7900
 -1      3749    6    0    1
 -2      5339      5338       563      6349      5355      7745      6992      6994      7746      6618
 -1      3750    6    0    1
 -2      3529      3699      3528      6085      4966      4965      4960      7976      7978      7977
 -1      3751    6    0    1
 -2      1249      6323      1288      6324      7979      7890      3074      6640      7889      6639
 -1      3752    6    0    1
 -2      3668      3486       271      6277      4000      3996      3998      7980      7982      7981
 -1      3753    6    0    1
 -2      1548      6105      6181      6193      6587      6591      6589      6978      7983      6979
 -1      3754    6    0    1
 -2      3672      3735      3572      6268      4258      5110      4749      7984      7986      7985
 -1      3755    6    0    1
 -2      6041      6423      6393      6448      7987      7037      7988      7360      7019      7038
 -1      3756    6    0    1
 -2      3607       326      3737      6470      4161      4163      4165      7989      7991      7990
 -1      3757    6    0    1
 -2       280       279      1219      6196       379      1847      1846      6627      6625      7771
 -1      3758    6    0    1
 -2      3411       252      3619      6274      3939      3941      3943      7379      7993      7992
 -1      3759    6    0    1
 -2      6074      6086      6035      6167      7994      7995      7243      7293      7996      7472
 -1      3760    6    0    1
 -2      6123      6206      6029      6219      7997      7998      7999      8000      8001      7084
 -1      3761    6    0    1
 -2       490       489       486      6216       899       896       898      7072      6949      6573
 -1      3762    6    0    1
 -2      1203      1205      1204      6288      2851      2850      2846      8002      8004      8003
 -1      3763    6    0    1
 -2      1127      1156      1126      6189      2434      2433      2376      8005      8007      8006
 -1      3764    6    0    1
 -2      1234      6263      1558      6266      7076      8008      3014      7760      7759      7061
 -1      3765    6    0    1
 -2       327       326      1381      6320       426      1988      1987      7617      8009      7619
 -1      3766    6    0    1
 -2      6072      6046      6131      6158      7474      7370      8010      8011      7373      7374
 -1      3767    6    0    1
 -2       478       495      6173      6240       834      8012      6722      7164      8013      7165
 -1      3768    6    0    1
 -2      1155      1556      1441      6166      2598      2597      2582      8014      8016      8015
 -1      3769    6    0    1
 -2      1160      6116      1531      6282      6757      6756      2614      6613      8017      6612
 -1      3770    6    0    1
 -2       245       246      3387      6272       345      3921      3920      8018      8020      8019
 -1      3771    6    0    1
 -2      5467      5489      6120      6355      5840      8021      7683      8022      8024      8023
 -1      3772    6    0    1
 -2      1522      6110       550      6312      6628      6655      6656      8025      8027      8026
 -1      3773    6    0    1
 -2      5451       477      5285      6408      6782      7505      7705      7706      7704      7300
 -1      3774    6    0    1
 -2      1136      1548      1169      6181      2492      2491      2490      8028      6589      6590
 -1      3775    6    0    1
 -2      1173      1222      1223      6157      2691      2694      2693      8029      8031      8030
 -1      3776    6    0    1
 -2       304       305      3644      6522       404      4098      4097      8032      8034      8033
 -1      3777    6    0    1
 -2       246       245      1385      6273       345      1745      1744      8035      8037      8036
 -1      3778    6    0    1
 -2      6088      6213      6078      6401      8038      8039      6621      8040      8042      8041
 -1      3779    6    0    1
 -2      3540      6200      3557      6360      8043      8044      5032      7237      7495      8045
 -1      3780    6    0    1
 -2      1199      1171      1471      6205      2684      2629      2685      8046      8048      8047
 -1      3781    6    0    1
 -2      1246      6115      6167      6227      6875      8049      6761      6734      6876      7253
 -1      3782    6    0    1
 -2      6070      6167      6115      6227      7294      8049      8050      6985      7253      6876
 -1      3783    6    0    1
 -2      1160      1214      1213      6501      2625      2624      2623      7456      8052      8051
 -1      3784    6    0    1
 -2      5471      6283      5475      6413      7550      7876      5902      8053      7878      7879
 -1      3785    6    0    1
 -2      1163      6102      1162      6166      6593      6594      2590      6860      8054      6862
 -1      3786    6    0    1
 -2      1255      1217      1169      6480      2669      2495      2670      7207      8056      8055
 -1      3787    6    0    1
 -2      3616      3786      6129      6524      4351      7325      7508      8057      8059      8058
 -1      3788    6    0    1
 -2      6198      6295      6219      6445      7088      7089      7085      8060      8061      7107
 -1      3789    6    0    1
 -2      1352      1086      1507      6180      2229      2001      2151      8062      8064      8063
 -1      3790    6    0    1
 -2      3751      3794      3556      6159      4377      5084      5082      7448      7449      8065
 -1      3791    6    0    1
 -2      5484      6058      6264      6299      8066      8067      8068      8069      8071      8070
 -1      3792    6    0    1
 -2      6063      6027      6073      6147      7609      6580      8072      8073      6579      6578
 -1      3793    6    0    1
 -2       520      5290      5418       575      7000      6998      6999       726      8075      8074
 -1      3794    6    0    1
 -2      3550      3406      5518      6241      3867      8076      8077      7596      7597      8078
 -1      3795    6    0    1
 -2      6024      6386      6348      6515      8079      8080      8081      8082      8084      8083
 -1      3796    6    0    1
 -2      3596       236      3407      6232      3891      3893      3895      8085      8087      8086
 -1      3797    6    0    1
 -2      1124      1355      1164      6280      2418      2427      2426      6964      6962      8088
 -1      3798    6    0    1
 -2      1053      1387       249      6210      1758      1757      1753      8089      6631      8090
 -1      3799    6    0    1
 -2      1234      1360      1558      6263      3016      3017      3014      7076      7077      8008
 -1      3800    6    0    1
 -2      1292      1294      6117      6163      3241      6972      6973      6851      6852      8091
 -1      3801    6    0    1
 -2      1053       249       248      6524      1753       348      1754      8092      8094      8093
 -1      3802    6    0    1
 -2      1413      1575      1064      6332      2128      2127      1902      7498      7496      8095
 -1      3803    6    0    1
 -2      1295      1296      1458      6117      3256      2577      3255      6974      7631      8096
 -1      3804    6    0    1
 -2       259      1480      1569      6404      1783      1788      1787      7001      7002      8097
 -1      3805    6    0    1
 -2       538      1314      1095      6358      6971      2090      6548      7757      6988      6796
 -1      3806    6    0    1
 -2      1057       462      1314      1095      7436      6970      1620      2089      6549      2090
 -1      3807    6    0    1
 -2      5339      5537      5338      6349      6993      7755      5355      6994      6616      7746
 -1      3808    6    0    1
 -2      6070      6100      6041      6183      8098      8099      6708      8100      8102      8101
 -1      3809    6    0    1
 -2      6076      6138      6075      6288      6997      6995      6744      8103      8105      8104
 -1      3810    6    0    1
 -2       314      3620      3384      6297      4127      4129      4125      7575      7950      8106
 -1      3811    6    0    1
 -2      6077      6176       510      6469      7260      7259      7261      8107      8109      8108
 -1      3812    6    0    1
 -2      6028      6063      6095      6145      6906      8110      8111      8112      8114      8113
 -1      3813    6    0    1
 -2      3455      3454      3456      6275      4586      4591      4590      8115      8117      8116
 -1      3814    6    0    1
 -2       530      6410      6061      6437      8118      8119      8120      8121      8123      8122
 -1      3815    6    0    1
 -2      3621       255       256      6396      3950       355      3951      8124      8126      8125
 -1      3816    6    0    1
 -2      5487      5287      5402      6476      7826      7386      7824      8127      7389      7390
 -1      3817    6    0    1
 -2      6063      6073      6027      6112      8072      6580      7609      8128      7021      7020
 -1      3818    6    0    1
 -2      6120      6214       515      6451      7847      7846      7848      8129      7007      8130
 -1      3819    6    0    1
 -2      1396      1080      1509      6274      1764      2203      2205      7585      7923      7584
 -1      3820    6    0    1
 -2      3661      3468       279      6196      4024      4020      4022      6626      8131      6625
 -1      3821    6    0    1
 -2      5471      6162      6283      6413      7549      7552      7550      8053      8132      7878
 -1      3822    6    0    1
 -2      1250      1560      1448      6324      3090      2451      3091      8133      7422      8134
 -1      3823    6    0    1
 -2      1195      1192      1194      6269      2793      2791      2794      8135      8137      8136
 -1      3824    6    0    1
 -2      6056      6116      6031      6231      7124      8138      8139      7123      7122      8140
 -1      3825    6    0    1
 -2      6035      6041      6070      6454      6707      6708      6709      7399      8142      8141
 -1      3826    6    0    1
 -2       474      6240      6214      6475      7378      7864      7483      8143      7960      7959
 -1      3827    6    0    1
 -2      3488      6144      6182      6185      7854      8144      7212      7210      8145      7211
 -1      3828    6    0    1
 -2      6071      6035      6086      6167      7395      7995      8146      8147      7472      7996
 -1      3829    6    0    1
 -2      6118      6195       501      6479      8148      8149      8150      8151      8153      8152
 -1      3830    6    0    1
 -2      5252      5418      5290       575      7070      6998      6807      8154      8074      8075
 -1      3831    6    0    1
 -2      6039      6085      6081      6291      8155      8156      8157      8158      8160      8159
 -1      3832    6    0    1
 -2       244      1382      1054      6249      1738      1743      1742      7187      7672      7189
 -1      3833    6    0    1
 -2      1452      6150      6093      6269      6599      8161      8162      6854      6855      8163
 -1      3834    6    0    1
 -2      5519      6132      5564      6188      8164      6923      5927      8165      6922      6921
 -1      3835    6    0    1
 -2      1393      1334      1246      6167      2197      3067      3072      8166      7252      6761
 -1      3836    6    0    1
 -2      3473      3497      3800      6464      4696      4699      4698      7149      8167      7151
 -1      3837    6    0    1
 -2      6111      6219      6216      6445      8168      7105      6572      6575      7107      6577
 -1      3838    6    0    1
 -2       583       538      6312      6358       777      6550      6680      8169      7757      7758
 -1      3839    6    0    1
 -2       240      1060       241      6220      1730      1729       340      6780      8170      6779
 -1      3840    6    0    1
 -2      5510      6253      6053      6532      8171      8172      8173      8174      8176      8175
 -1      3841    6    0    1
 -2      3611      6298      6250      6429      8177      8178      8179      8180      8182      8181
 -1      3842    6    0    1
 -2      1262      1210      1271      6296      2777      2890      2889      6932      6930      8183
 -1      3843    6    0    1
 -2      5529      6103      5555      6349      7154      7169      5911      7155      7156      7170
 -1      3844    6    0    1
 -2       581      6103       555      6349      7694      7197       937      7695      7156      7198
 -1      3845    6    0    1
 -2      6021      6289      6071      6305      7750      8184      7396      8185      8187      8186
 -1      3846    6    0    1
 -2       319      1078      1390      6459      1963      1968      1967      8188      8190      8189
 -1      3847    6    0    1
 -2      3392      3606       324      6470      4159      4155      4157      8191      8193      8192
 -1      3848    6    0    1
 -2       256       255      1505      6396       355      1775      1774      8125      8126      8194
 -1      3849    6    0    1
 -2      6044      6393      6369      6471      8195      6563      8196      8197      7606      7607
 -1      3850    6    0    1
 -2      3513      6142      3686      6443      6944      7816      4895      8198      8200      8199
 -1      3851    6    0    1
 -2       237       236      1376      6477       336      1718      1717      8201      8203      8202
 -1      3852    6    0    1
 -2      5457      6283      6162      6287      7551      7552      7277      8204      7656      7503
 -1      3853    6    0    1
 -2      6051      6026      6212      6489      7721      8205      8206      7725      7723      8207
 -1      3854    6    0    1
 -2       313      1394      6171      6227      1949      8208      6811      6764      6765      6603
 -1      3855    6    0    1
 -2      1452      6269      6093      6380      6854      8163      8162      7794      8210      8209
 -1      3856    6    0    1
 -2      6144      6343      6185      6435      8211      8212      8145      8213      8215      8214
 -1      3857    6    0    1
 -2      5419      5417      5532      5418      5431      6695      8216      5432      5433      7130
 -1      3858    6    0    1
 -2       542      6118       501      6456      8217      8150       930      8218      8220      8219
 -1      3859    6    0    1
 -2      1208      6229      1185      6263      8221      8222      2667      7160      7016      7159
 -1      3860    6    0    1
 -2      3569      3743      3611      6152      4724      5074      4347      8223      6634      8224
 -1      3861    6    0    1
 -2      5514      6104      6241      6341      6725      8225      8226      8227      8229      8228
 -1      3862    6    0    1
 -2      6211      6290      6052      6493      8230      8231      7572      8232      8234      8233
 -1      3863    6    0    1
 -2      6095      6145      6063      6255      8113      8114      8110      8235      8237      8236
 -1      3864    6    0    1
 -2      3445      3441      3797      6473      4521      4523      4522      6918      7727      6920
 -1      3865    6    0    1
 -2      6066      6051      6184      6212      8238      8239      7265      7268      8206      7270
 -1      3866    6    0    1
 -2      1342      1343      1491      6246      3154      3346      3307      7391      7778      8240
 -1      3867    6    0    1
 -2       259      3383      3655      6146      3962      3964      3960      7340      8241      7005
 -1      3868    6    0    1
 -2      5542      6142      5467      6467      7578      7303      5907      7952      6948      8242
 -1      3869    6    0    1
 -2      3540      3538      6200      6201      5019      8243      8043      7910      7911      8244
 -1      3870    6    0    1
 -2      1445      1076      1336      6444      2181      2183      2182      8245      8247      8246
 -1      3871    6    0    1
 -2      3488      3485      3553      6185      4765      4767      4766      7210      7446      8248
 -1      3872    6    0    1
 -2      6115      6227      1245      6422      6876      6735      6874      8249      8251      8250
 -1      3873    6    0    1
 -2      3661      3468      6196      6496      4024      8131      6626      8252      8254      8253
 -1      3874    6    0    1
 -2      3730      6254      3498      6268      8255      8256      4824      8257      8259      8258
 -1      3875    6    0    1
 -2      3521      3523      3524      6424      4927      4930      4929      8260      8262      8261
 -1      3876    6    0    1
 -2      6284      6357      6017      6505      8263      8264      8265      8266      8268      8267
 -1      3877    6    0    1
 -2       574       542       501      6456       797       930       960      8269      8218      8219
 -1      3878    6    0    1
 -2      1224      1225      1206      6370      2868      2867      2862      6967      8270      7861
 -1      3879    6    0    1
 -2      3686      6443      6142      6467      8199      8200      7816      7817      8271      6948
 -1      3880    6    0    1
 -2      6048      6052      6117      6163      6788      8272      8273      6719      6789      8091
 -1      3881    6    0    1
 -2      1206      1205      1224      6288      2856      2863      2862      7858      8004      7859
 -1      3882    6    0    1
 -2      5529      5508      5555      6103      5923      5818      5911      7154      7254      7169
 -1      3883    6    0    1
 -2       581       534       555      6103       844       949       937      7694      8274      7197
 -1      3884    6    0    1
 -2      6022      6091      6102      6437      8275      8276      8277      8278      8280      8279
 -1      3885    6    0    1
 -2      1195      1277      6136      6342      2808      7598      7599      8281      8283      8282
 -1      3886    6    0    1
 -2      6095      6038      6144      6182      8284      8285      8286      8287      8288      8144
 -1      3887    6    0    1
 -2      1471      1229      1199      6205      2832      2831      2685      8047      8289      8046
 -1      3888    6    0    1
 -2      6081      6085      6201      6291      8156      8290      7101      8159      8160      8291
 -1      3889    6    0    1
 -2      6185      6293      3434      6294      8292      7438      8293      8294      8296      8295
 -1      3890    6    0    1
 -2       300       301      3650      6318       400      4086      4085      7240      8297      7239
 -1      3891    6    0    1
 -2      1359      1566      1204      6288      2861      2848      2859      7969      7968      8003
 -1      3892    6    0    1
 -2      1160      6282      1214      6501      6613      6611      2625      7456      8298      8052
 -1      3893    6    0    1
 -2      6078      6095      6028      6134      6620      8111      6905      6909      6986      6908
 -1      3894    6    0    1
 -2      6027      6412      6082      6426      7608      8299      8300      8301      8302      7936
 -1      3895    6    0    1
 -2      1101      6123      1374      6252      7295      7296      2300      7274      8303      7428
 -1      3896    6    0    1
 -2      1095      6170      6312      6358      7547      8304      6552      6796      7548      7758
 -1      3897    6    0    1
 -2      5286      6408       531      6500      7301      7302      7299      8305      8307      8306
 -1      3898    6    0    1
 -2       573      6257      6111      6392      6647      6648      6645      8308      8310      8309
 -1      3899    6    0    1
 -2      3632      3631      3772      6169      5174      5184      5183      8311      8313      8312
 -1      3900    6    0    1
 -2      5505      6408      5286      6500      7310      7301      7308      8314      8307      8305
 -1      3901    6    0    1
 -2      1076      1445      1384      6191      2181      2185      1983      8315      6927      6928
 -1      3902    6    0    1
 -2      3400      6316      3587      6407      8316      8317      4301      8318      8320      8319
 -1      3903    6    0    1
 -2      1168      1184      1185      6115      2659      2665      2664      8321      7473      8322
 -1      3904    6    0    1
 -2      3695      3619      3760      6190      4357      5148      5017      6553      6774      6598
 -1      3905    6    0    1
 -2      1494      1233      6092      6370      3008      6584      6773      7383      6968      8323
 -1      3906    6    0    1
 -2       497       501       492      6195       928       929       871      8324      8149      8325
 -1      3907    6    0    1
 -2      1428      6139      1402      6225      6567      6545      2041      7102      8326      7630
 -1      3908    6    0    1
 -2       493      6120       515      6451      8327      7848       866      8328      8129      8130
 -1      3909    6    0    1
 -2      3452      3448      3451      6307      4558      4548      4559      8329      8331      8330
 -1      3910    6    0    1
 -2      3398       268       269      6428      3989       368      3990      8332      8334      8333
 -1      3911    6    0    1
 -2      1415       295       294      6316      1891       394      1892      8335      8337      8336
 -1      3912    6    0    1
 -2      1089      1484      1285      6204      2243      2242      2244      8338      8340      8339
 -1      3913    6    0    1
 -2      3655      3383      3742      6146      3964      4220      4222      7005      8241      8341
 -1      3914    6    0    1
 -2      1245      1185      6115      6422      2752      8322      6874      8250      8342      8249
 -1      3915    6    0    1
 -2      6053      6253      5554      6480      8172      8343      7907      7909      8344      7908
 -1      3916    6    0    1
 -2      6035      6125      6021      6466      6651      8345      7394      6652      6653      7433
 -1      3917    6    0    1
 -2      1481      1179      1132      6213      2471      2470      2472      8346      7224      7225
 -1      3918    6    0    1
 -2       581       534      6103      6340       844      8274      7694      7693      8347      7167
 -1      3919    6    0    1
 -2       321       320      1052      6478       420      1970      1969      6990      8348      6989
 -1      3920    6    0    1
 -2      1452      6150      1269      6345      6599      6600      2790      8349      8351      8350
 -1      3921    6    0    1
 -2      6058      6045      6264      6299      8352      7624      8067      8071      8353      8070
 -1      3922    6    0    1
 -2      3400      3587      3622      6407      4301      4300      4299      8318      8319      8354
 -1      3923    6    0    1
 -2      6096      6230      6097      6290      8355      8356      8357      8358      8360      8359
 -1      3924    6    0    1
 -2      1439      1536      1142      6425      2529      2528      2518      8361      8363      8362
 -1      3925    6    0    1
 -2      3518      3578      3579      6183      4710      4915      4914      8364      7468      8365
 -1      3926    6    0    1
 -2      3513      6208      6142      6443      8366      8367      6944      8198      8368      8200
 -1      3927    6    0    1
 -2      5461      6287      6284      6535      8369      7048      7176      7178      8370      7180
 -1      3928    6    0    1
 -2      1334      6167      1393      6297      7252      8166      2197      8371      7582      8372
 -1      3929    6    0    1
 -2      6145      6147      6063      6255      8373      8073      8114      8237      8374      8236
 -1      3930    6    0    1
 -2      1208      1209      1270      6263      2757      2878      2877      7160      7158      7533
 -1      3931    6    0    1
 -2      3644      3659       304      6356      4099      4095      4097      8375      8377      8376
 -1      3932    6    0    1
 -2      6050      6061      6166      6333      8378      8379      8380      8381      7939      8382
 -1      3933    6    0    1
 -2      3485      3483      6293      6446      4754      8383      8384      7447      7594      8385
 -1      3934    6    0    1
 -2      6174      6452      6418      6529      6540      6541      6537      8386      8388      8387
 -1      3935    6    0    1
 -2      1484      1089      1318      6204      2243      2240      2246      8340      8338      8389
 -1      3936    6    0    1
 -2      1492      1412      1064      6332      2125      1905      2126      8390      8391      8095
 -1      3937    6    0    1
 -2      1334      6227      6167      6297      6736      7253      7252      8371      6607      7582
 -1      3938    6    0    1
 -2      3518      3766      6353      6376      4918      8392      8393      8394      8396      8395
 -1      3939    6    0    1
 -2      3527      3530      6291      6346      4963      8397      7774      8398      8400      8399
 -1      3940    6    0    1
 -2       560      6154      6420      6486      8401      8402      7787      7790      8403      7792
 -1      3941    6    0    1
 -2      1064       298       297      6375      1900       397      1901      7710      8404      7712
 -1      3942    6    0    1
 -2      3711      3641      3557      6200      4370      5086      5033      8405      8406      8044
 -1      3943    6    0    1
 -2      1102      1105      1104      6247      2306      2305      2304      6595      8407      6597
 -1      3944    6    0    1
 -2      1374      1567      6252      6372      3040      8408      7428      8409      8411      8410
 -1      3945    6    0    1
 -2      1402      6139      1399      6251      6545      6546      1935      7427      8412      7426
 -1      3946    6    0    1
 -2      6040      6109      6075      6151      7785      8413      6685      7247      7784      7670
 -1      3947    6    0    1
 -2      1292      1291      1290      6519      3233      3064      3234      8414      8416      8415
 -1      3948    6    0    1
 -2       549      6261      6195      6420      8417      8418      8419      8420      8421      7788
 -1      3949    6    0    1
 -2      3792      3475      3458      6248      4618      4617      4604      7469      7182      7183
 -1      3950    6    0    1
 -2      5529      5463      5472      6216      5890      5880      5891      7152      7666      7678
 -1      3951    6    0    1
 -2      1269      1332      1555      6345      2783      3168      3167      8350      8423      8422
 -1      3952    6    0    1
 -2      3540      3557      3542      6360      5032      5031      5030      7237      8045      7236
 -1      3953    6    0    1
 -2      5511      5554      6253      6480      6013      8343      8424      8425      7908      8344
 -1      3954    6    0    1
 -2      6109      3490      6307      6468      6877      8426      7786      6881      6879      8427
 -1      3955    6    0    1
 -2      6028      6088      6038      6095      8428      8429      8430      8111      6619      8284
 -1      3956    6    0    1
 -2       322       321      1386      6301       421      1973      1972      8431      8433      8432
 -1      3957    6    0    1
 -2       313      6171      1394      6297      6811      8208      1949      7577      6606      7576
 -1      3958    6    0    1
 -2      1246      6115      1184      6167      6875      7473      2754      6761      8049      6763
 -1      3959    6    0    1
 -2      6034      6363      6036      6503      8434      8435      8436      8437      8439      8438
 -1      3960    6    0    1
 -2      3567      6129      3786      6524      7324      7325      5104      8440      8058      8059
 -1      3961    6    0    1
 -2      1532      1230      1315      6368      2995      2991      2996      7283      7417      8441
 -1      3962    6    0    1
 -2      6056      6292      6189      6457      8442      8443      7934      8444      7175      8445
 -1      3963    6    0    1
 -2      5472      6206      6103      6216      7677      8446      8447      7678      7146      7153
 -1      3964    6    0    1
 -2      6044      6229      6092      6393      8448      8449      8450      8195      7036      8451
 -1      3965    6    0    1
 -2      1242      1585      1506      6221      3055      3054      3053      8452      8454      8453
 -1      3966    6    0    1
 -2      3528      3525      3527      6137      4950      4948      4951      7034      8455      7033
 -1      3967    6    0    1
 -2      1506      1467      1242      6296      3052      3051      3053      8456      8458      8457
 -1      3968    6    0    1
 -2      1423       281       280      6508      1849       380      1850      8459      8461      8460
 -1      3969    6    0    1
 -2      1123      1120      1136      6235      2402      2404      2403      8462      8464      8463
 -1      3970    6    0    1
 -2      6038      6095      6088      6182      8284      6619      8429      8288      8287      8465
 -1      3971    6    0    1
 -2      3708      3492      6241      6299      4797      6543      6544      8466      8468      8467
 -1      3972    6    0    1
 -2      3791      3511      3426      6176      4434      4433      4424      8469      8471      8470
 -1      3973    6    0    1
 -2      3423      6142      3513      6208      8472      6944      4406      8473      8367      8366
 -1      3974    6    0    1
 -2      6057      6289      6071      6454      8474      8184      7216      8475      8476      7398
 -1      3975    6    0    1
 -2      5519      5564      5480      6188      5927      5886      5960      8165      6921      7322
 -1      3976    6    0    1
 -2      3529      6085      3528      6137      7976      7977      4960      7035      8477      7034
 -1      3977    6    0    1
 -2      3413      3728      3612      6259      4135      4243      4362      8478      8480      8479
 -1      3978    6    0    1
 -2      6034      6155      6363      6503      8481      8482      8434      8437      7690      8439
 -1      3979    6    0    1
 -2      1561      1525      1529      6411      3331      2949      3195      8483      8485      8484
 -1      3980    6    0    1
 -2      3411      3619      6190      6274      3943      6774      6775      7379      7992      8486
 -1      3981    6    0    1
 -2      5467      6142      6120      6467      7303      7682      7683      8242      6948      8487
 -1      3982    6    0    1
 -2       565      5384      6214      6390      8488      8489      7901      7903      8490      7904
 -1      3983    6    0    1
 -2      3495      3556      6341      6491      4811      8491      8492      8493      8495      8494
 -1      3984    6    0    1
 -2      3595      3588      3415      6159      4371      3855      4372      8496      8497      7450
 -1      3985    6    0    1
 -2      1405      1231       268      6368      1815      1814      1810      7282      6857      6858
 -1      3986    6    0    1
 -2      1101      6122      6123      6252      6746      8498      7295      7274      8499      8303
 -1      3987    6    0    1
 -2      1446      6114      1583      6397      8500      8501      3095      8502      8504      8503
 -1      3988    6    0    1
 -2      6229      6092      6393      6448      8449      8451      7036      7017      8505      7038
 -1      3989    6    0    1
 -2      6140      6279      3637      6449      8506      8507      8508      8509      8511      8510
 -1      3990    6    0    1
 -2      6060      6168      6073      6169      8512      8513      6869      6870      8514      6581
 -1      3991    6    0    1
 -2      1382      1054      6249      6273      1743      7189      7672      7199      7200      8515
 -1      3992    6    0    1
 -2      1101      1373      6123      6170      2287      7297      7295      6776      6777      8516
 -1      3993    6    0    1
 -2      6231      6458      6116      6528      7127      7125      7122      7841      8518      8517
 -1      3994    6    0    1
 -2      3730      3572      3498      6254      4752      4745      4824      8255      8519      8256
 -1      3995    6    0    1
 -2      6082      6112      6027      6157      8520      7020      8300      8521      7023      7024
 -1      3996    6    0    1
 -2      6091      6236       541      6484      7929      8522      8523      8524      8526      8525
 -1      3997    6    0    1
 -2      1416      1043       293      6316      1890      1889      1885      7313      8527      7312
 -1      3998    6    0    1
 -2      1140      1495      1464      6331      2513      2517      2516      8528      7487      7488
 -1      3999    6    0    1
 -2      6039      6094      6064      6137      6801      6800      6799      8529      8531      8530
 -1      4000    6    0    1
 -2       474       582      6240      6475       823      8532      7378      8143      8533      7960
 -1      4001    6    0    1
 -2      1190      1269      1191      6150      2782      2781      2648      7039      6600      6601
 -1      4002    6    0    1
 -2      6032      6122      6029      6170      6701      8534      8535      8536      7537      8537
 -1      4003    6    0    1
 -2      1522      1274      1328      6262      3186      3185      1628      6658      7344      7590
 -1      4004    6    0    1
 -2      3557      3655      3742      6146      5085      4222      5045      7108      7005      8341
 -1      4005    6    0    1
 -2      3504      6218      6151      6307      8538      7651      8539      8540      7653      7250
 -1      4006    6    0    1
 -2      3783      3609      3606      6301      5107      4156      5147      8541      8542      7768
 -1      4007    6    0    1
 -2      6081      6085      6033      6201      8156      8543      7097      7101      8290      7100
 -1      4008    6    0    1
 -2      6120      6389      6214      6390      7850      7851      7847      8544      6830      7904
 -1      4009    6    0    1
 -2      6021      6035      6054      6071      7394      6649      7432      7396      7395      8545
 -1      4010    6    0    1
 -2      5564      6132      6206      6336      6923      8546      8547      6924      6925      8548
 -1      4011    6    0    1
 -2      1134      1117      1135      6497      2347      2385      2384      8549      8551      8550
 -1      4012    6    0    1
 -2      1220      1425      1573      6377      1860      2943      2942      8552      8554      8553
 -1      4013    6    0    1
 -2      1506      6220      1467      6296      7510      7951      3052      8456      8555      8458
 -1      4014    6    0    1
 -2      3726      6435      3489      6442      8556      8557      4459      8558      8560      8559
 -1      4015    6    0    1
 -2      5440      6142      3592      6463      7518      6945      7519      8561      8563      8562
 -1      4016    6    0    1
 -2      3443      3441      3445      6403      4519      4521      4520      8564      7726      7138
 -1      4017    6    0    1
 -2      1175      1163      1177      6359      2633      2638      2637      7318      8566      8565
 -1      4018    6    0    1
 -2      3767      3486      3668      6421      4770      4000      4771      8567      8569      8568
 -1      4019    6    0    1
 -2      5516      5542      5440      6142      5770      5768      5769      7304      7578      7518
 -1      4020    6    0    1
 -2      6082      6189      6157      6426      7935      8570      8521      7936      7937      8571
 -1      4021    6    0    1
 -2       493       515      6120      6389       866      7848      8327      8572      7849      7850
 -1      4022    6    0    1
 -2       487       560      6154      6420       881      8401      8573      8574      7787      8402
 -1      4023    6    0    1
 -2      6023      6041      6035      6454      7116      6707      7806      8575      8142      7399
 -1      4024    6    0    1
 -2      6112      6323      6157      6324      8576      8577      7023      8578      7889      8579
 -1      4025    6    0    1
 -2      5453      5455      6089      6355      5831      7642      7777      8580      7643      7644
 -1      4026    6    0    1
 -2      3570      3508      3762      6228      4868      4876      4875      8581      7867      8582
 -1      4027    6    0    1
 -2      1342      1491      1316      6246      3307      3306      3004      7391      8240      7393
 -1      4028    6    0    1
 -2      1255      1169      1367      6105      2670      2672      2671      7205      6588      6790
 -1      4029    6    0    1
 -2      1197      6131      1171      6382      7698      7699      2675      8583      8585      8584
 -1      4030    6    0    1
 -2       299       300      3397      6373       399      4083      4082      6846      6847      8586
 -1      4031    6    0    1
 -2      3513      3592      3686      6467      4408      4896      4895      6946      6947      7817
 -1      4032    6    0    1
 -2      1206      6370      1261      6453      7861      8587      2869      8588      8590      8589
 -1      4033    6    0    1
 -2      6153      6018      6186      6452      6752      6792      8591      8592      8594      8593
 -1      4034    6    0    1
 -2      1521      1364      1365      6322      2117      3232      1797      8595      8597      8596
 -1      4035    6    0    1
 -2      1202      1587      1200      6138      2836      2835      2833      6848      8598      6850
 -1      4036    6    0    1
 -2      1064      1412       298      6373      1905      1904      1900      8599      8601      8600
 -1      4037    6    0    1
 -2      6116      6031      6231      6528      8138      8140      7122      8517      8602      7841
 -1      4038    6    0    1
 -2      1042      1559      1418      6196      2014      2013      1845      8603      7674      7675
 -1      4039    6    0    1
 -2      6066      6107      6051      6489      8604      7722      8238      8605      7724      7725
 -1      4040    6    0    1
 -2      5539      6214      5385      6390      8606      8607      8608      8609      7904      8610
 -1      4041    6    0    1
 -2      3386       250      3618      6338      3933      3935      3937      8611      8613      8612
 -1      4042    6    0    1
 -2      1114      1118      1113      6331      2365      2364      2359      8614      7715      7716
 -1      4043    6    0    1
 -2      3518      6183      3579      6376      8364      8365      4914      8394      8616      8615
 -1      4044    6    0    1
 -2      1047      1480       258      6404      1785      1784      1780      8617      7002      7003
 -1      4045    6    0    1
 -2      1413      6332      1064      6375      7498      8095      1902      7711      8618      7710
 -1      4046    6    0    1
 -2      3730      3572      6254      6268      4752      8519      8255      8257      7985      8259
 -1      4047    6    0    1
 -2      6241      6299      3492      6337      8467      8468      6543      8619      8621      8620
 -1      4048    6    0    1
 -2      1553      1338      1556      6237      3342      2977      2599      6977      8622      6976
 -1      4049    6    0    1
 -2       479       478      6173      6451       836      6722      7400      7402      6663      6723
 -1      4050    6    0    1
 -2       542      6313      6118      6456      8623      8624      8217      8218      8625      8220
 -1      4051    6    0    1
 -2      5555      6340      5450      6349      7168      8626      5815      7170      7171      8627
 -1      4052    6    0    1
 -2       324       323      1076      6301       423      1979      1978      7769      7770      8628
 -1      4053    6    0    1
 -2      6082      6157      6027      6426      8521      7024      8300      7936      8571      8301
 -1      4054    6    0    1
 -2      1557      1318      1352      6204      3314      3316      3315      8629      8389      8630
 -1      4055    6    0    1
 -2       533      1319      6103      6340      7026      6689      7025      8631      7095      7167
 -1      4056    6    0    1
 -2      6024      6369      6076      6385      6558      6745      8632      7728      7581      7579
 -1      4057    6    0    1
 -2      1110      1111      1106      6488      2326      2325      2323      7478      8633      7477
 -1      4058    6    0    1
 -2      1285      1511      5434      6399      2245      8634      8635      8636      8638      8637
 -1      4059    6    0    1
 -2      1507      1086       330      6402      2001      2000      1996      8639      8641      8640
 -1      4060    6    0    1
 -2      1328      1274      1489      6262      3185      3181      2138      7590      7344      8642
 -1      4061    6    0    1
 -2      3652      3760      3619      6190      5149      5148      3946      7736      6598      6774
 -1      4062    6    0    1
 -2      1230      1232      1315      6368      2727      2992      2991      7417      7557      8441
 -1      4063    6    0    1
 -2      6096      6056      6174      6230      8643      6910      8644      8355      8646      8645
 -1      4064    6    0    1
 -2      1399      6187      1082      6251      8647      8648      1938      7426      8649      7445
 -1      4065    6    0    1
 -2      1367      6105      1548      6193      6790      6587      2673      8650      7983      6978
 -1      4066    6    0    1
 -2      1415       294      1043      6316      1892      1888      1893      8335      8336      8527
 -1      4067    6    0    1
 -2      6050      6203      6032      6410      8651      8652      8653      8654      8656      8655
 -1      4068    6    0    1
 -2       302       301      1411      6518       401      1913      1912      8657      8659      8658
 -1      4069    6    0    1
 -2      1340      1444      1249      6324      3089      3086      3087      6638      7424      6640
 -1      4070    6    0    1
 -2      3662      3663      6168      6508      4192      6670      7235      6720      6671      6672
 -1      4071    6    0    1
 -2      1392      1051       316      6379      1959      1958      1954      8660      8662      8661
 -1      4072    6    0    1
 -2      1259      1239      1479      6372      3035      3037      3036      7143      8664      8663
 -1      4073    6    0    1
 -2       253      1049      1395      6397      1765      1770      1769      6897      8665      6896
 -1      4074    6    0    1
 -2      1543      1415      1438      6260      2219      2016      3206      8666      8668      8667
 -1      4075    6    0    1
 -2      1408      1045       270      6277      1821      1820      1816      7064      7065      8669
 -1      4076    6    0    1
 -2      1529      1172      6189      6506      2609      8670      8671      8672      8674      8673
 -1      4077    6    0    1
 -2      6173      6257       551      6392      8675      8676      7541      7057      8310      7542
 -1      4078    6    0    1
 -2      1192      1191      1193      6269      2650      2787      2786      8137      6856      7434
 -1      4079    6    0    1
 -2      6049      6243      6278      6294      8677      7611      8678      8679      8681      8680
 -1      4080    6    0    1
 -2      1548      6181      1136      6354      6589      8028      2492      6980      6981      7730
 -1      4081    6    0    1
 -2      1115      6116      1349      6457      7974      8682      2332      6937      6760      6939
 -1      4082    6    0    1
 -2      5460      6111      5458      6535      6676      8683      5858      6677      6678      8684
 -1      4083    6    0    1
 -2      1405       267      1063      6311      1811      1807      1812      6740      6741      8685
 -1      4084    6    0    1
 -2      6132      6256      1260      6460      7691      6940      7739      8686      6942      6943
 -1      4085    6    0    1
 -2      3511      3426      6176      6245      4433      8470      8471      8687      8689      8688
 -1      4086    6    0    1
 -2      6015      6300      6162      6503      7687      8690      7502      7688      7689      8691
 -1      4087    6    0    1
 -2      3668      3486      6277      6421      4000      7982      7980      8568      8569      8692
 -1      4088    6    0    1
 -2      1430      1058      5524      6480      2093      8693      8694      7208      8696      8695
 -1      4089    6    0    1
 -2      6106      6107      6043      6209      7703      7348      7702      8697      8699      8698
 -1      4090    6    0    1
 -2      3689      3485      3483      6293      4755      4754      4756      8700      8384      8383
 -1      4091    6    0    1
 -2      1165      1190      1191      6439      2642      2648      2647      7500      7501      8701
 -1      4092    6    0    1
 -2      1131      6096      1132      6290      8702      8703      2457      8704      8358      8705
 -1      4093    6    0    1
 -2      6039      6022      6064      6102      8706      8707      6799      6802      8277      6804
 -1      4094    6    0    1
 -2      1110      6247      6193      6488      7442      8708      8709      7478      7479      8710
 -1      4095    6    0    1
 -2      3448      6285      3451      6307      8711      8712      4548      8331      8713      8330
 -1      4096    6    0    1
 -2      6054      6071      6035      6086      8545      7395      6649      8714      8146      7995
 -1      4097    6    0    1
 -2      3778      6125      3476      6250      8715      8716      4630      6635      8717      7186
 -1      4098    6    0    1
 -2      1185      6263      6115      6422      7159      8718      8322      8342      8719      8249
 -1      4099    6    0    1
 -2      6050      6061      6333      6410      8378      7939      8381      8654      8119      8720
 -1      4100    6    0    1
 -2      1494      6092      1495      6229      6773      6585      3010      6873      8449      6872
 -1      4101    6    0    1
 -2      1269      1466      1452      6345      3170      3169      2790      8350      8721      8349
 -1      4102    6    0    1
 -2      3566      3421      3565      6415      4403      4401      4404      8722      8724      8723
 -1      4103    6    0    1
 -2      6187      6251      6100      6430      8649      8725      8726      8727      8729      8728
 -1      4104    6    0    1
 -2      6164      6344      6098      6527      8730      8731      8732      8733      7408      8734
 -1      4105    6    0    1
 -2      6046      6107      6106      6339      7350      7703      7371      8735      8737      8736
 -1      4106    6    0    1
 -2      3497      3560      3800      6133      4822      4823      4699      8738      7162      8739
 -1      4107    6    0    1
 -2      6153      6357      6018      6452      6753      6754      6752      8592      8740      8594
 -1      4108    6    0    1
 -2       285       284      1424      6449       384      1862      1861      8741      8743      8742
 -1      4109    6    0    1
 -2      6034      6300      6155      6503      8744      7686      8481      8437      7689      7690
 -1      4110    6    0    1
 -2      3601       241      3605      6455      3906      3908      3910      8745      8747      8746
 -1      4111    6    0    1
 -2      1184      1168      1167      6461      2659      2502      2660      8748      7830      8749
 -1      4112    6    0    1
 -2      5471      5534      5457      6162      5857      5856      5843      7549      7278      7277
 -1      4113    6    0    1
 -2       239      3395      3599      6327      3902      3904      3900      8750      7012      8751
 -1      4114    6    0    1
 -2      1270      1360      1494      6263      2882      3015      3173      7533      7077      7078
 -1      4115    6    0    1
 -2      1358      6199      6121      6396      8752      8753      6834      6838      8754      6837
 -1      4116    6    0    1
 -2      1279      6072      1529      6457      8755      8756      2611      7843      8757      7845
 -1      4117    6    0    1
 -2      3513      3514      6208      6443      4411      8758      8366      8198      8759      8368
 -1      4118    6    0    1
 -2      1339      1589      1524      6522      3311      2045      3343      8760      8762      8761
 -1      4119    6    0    1
 -2      1147      1149      1148      6271      2552      2551      2538      8763      7412      7413
 -1      4120    6    0    1
 -2       562      6257      6173      6383      8764      8675      8765      8766      8768      8767
 -1      4121    6    0    1
 -2      1409      1419       272      6530      1827      1826      1822      8769      8771      8770
 -1      4122    6    0    1
 -2      6017      6021      6289      6406      7748      7750      7749      7896      8773      8772
 -1      4123    6    0    1
 -2      6017      6335      6289      6371      8774      8775      7749      7753      8776      7752
 -1      4124    6    0    1
 -2       468      1579      1068      6236      8777      1639      8778      8779      8781      8780
 -1      4125    6    0    1
 -2      1101      1102      6122      6252      2294      7681      6746      7274      7275      8499
 -1      4126    6    0    1
 -2      1460      1260      1427      6256      3130      3126      3131      6692      6940      8782
 -1      4127    6    0    1
 -2      6213      6246      1232      6368      8783      7392      8784      8785      7559      7557
 -1      4128    6    0    1
 -2      3626      3723      3675      6450      5160      5159      4045      8786      8788      8787
 -1      4129    6    0    1
 -2      3672      3572      3482      6268      4749      4750      4012      7984      7985      8789
 -1      4130    6    0    1
 -2      1044       301       300      6207      1909       400      1910      8790      8792      8791
 -1      4131    6    0    1
 -2      3484      3480      3483      6255      4739      4734      4740      7591      8793      7592
 -1      4132    6    0    1
 -2      1551      6110      1522      6312      6630      6628      2259      8794      8027      8025
 -1      4133    6    0    1
 -2      3400      3658       292      6407      4063      4059      4061      8318      8796      8795
 -1      4134    6    0    1
 -2      1062      1533      1364      6309      2113      2119      2118      8797      8799      8798
 -1      4135    6    0    1
 -2      1427      1319      1460      6256      3319      3317      3131      8782      6691      6692
 -1      4136    6    0    1
 -2      1185      1184      1245      6115      2665      2753      2752      8322      7473      6874
 -1      4137    6    0    1
 -2      3740      3598      3571      6491      4270      4342      5080      8800      8802      8801
 -1      4138    6    0    1
 -2      3554      3712      3477      6152      4652      4721      4720      8803      6566      6564
 -1      4139    6    0    1
 -2       308      3642       307      6381      4107      4106       407      8804      8806      8805
 -1      4140    6    0    1
 -2      1189      1183      1210      6296      2721      2748      2747      6931      8807      6930
 -1      4141    6    0    1
 -2      6054      6086      6074      6250      8714      7994      7242      7246      8808      7245
 -1      4142    6    0    1
 -2      6042      6024      6098      6330      6814      6816      6817      8809      7963      8810
 -1      4143    6    0    1
 -2      5512      5436      1323      6188      5632      7955      8811      8812      7954      7953
 -1      4144    6    0    1
 -2      5548      6142      5440      6463      8813      7518      5765      8814      8563      8561
 -1      4145    6    0    1
 -2      3691      3636      3467      6378      4668      4664      4669      8815      8817      8816
 -1      4146    6    0    1
 -2       264      6135      3651      6322      8818      8819      3975      7111      8820      7110
 -1      4147    6    0    1
 -2      1176      1175      6236      6237      2635      6840      6841      7053      7054      8821
 -1      4148    6    0    1
 -2      5561      5197      5543      6467      8822      8823      5580      8824      8826      8825
 -1      4149    6    0    1
 -2      3508      6109      3490      6307      6878      6877      4790      8827      7786      8426
 -1      4150    6    0    1
 -2      3625      6140      6339      6405      7646      7650      7648      8828      8830      8829
 -1      4151    6    0    1
 -2       575      5252      5418       558      8154      7070      8074       722      8832      8831
 -1      4152    6    0    1
 -2      1081       254      1395      6397      1772      1768      1773      8833      6895      6896
 -1      4153    6    0    1
 -2      1387      1053      1563      6362      1758      2067      2066      8834      8836      8835
 -1      4154    6    0    1
 -2      6040      6143      6303      6307      8837      8838      7838      7251      8840      8839
 -1      4155    6    0    1
 -2      3470      3692      3471      6224      4683      4682      4538      8841      8843      8842
 -1      4156    6    0    1
 -2      1148      6211      1149      6333      7411      7410      2551      7664      8844      7663
 -1      4157    6    0    1
 -2      6132      6256      6123      6372      7691      7141      7132      7136      7144      7135
 -1      4158    6    0    1
 -2      1245      1309      1185      6422      2761      2760      2752      8250      8845      8342
 -1      4159    6    0    1
 -2       266      1406      1063      6311      1804      1809      1808      6842      6843      8685
 -1      4160    6    0    1
 -2      3380      3586       295      6316      4072      4068      4070      8846      8847      8337
 -1      4161    6    0    1
 -2      3397       300      6318      6373      4083      7240      7241      8586      6847      8848
 -1      4162    6    0    1
 -2      5519      5480      5557      6188      5960      5962      5961      8165      7322      8849
 -1      4163    6    0    1
 -2      3792      6265      3456      6275      8850      8851      4605      7554      8852      8116
 -1      4164    6    0    1
 -2      1241      1433      1367      6433      3049      3048      3047      8853      8855      8854
 -1      4165    6    0    1
 -2      3574      3508      3490      6307      4791      4790      4584      8856      8827      8426
 -1      4166    6    0    1
 -2      1175      6102      1163      6359      6592      6593      2633      7318      7893      8566
 -1      4167    6    0    1
 -2      3591      3416      3590       546      4378      3818      4379      8857      8859      8858
 -1      4168    6    0    1
 -2      1533      1293      1364      6163      3250      3237      2119      8860      6853      8861
 -1      4169    6    0    1
 -2       250      1387      1080      6210      1756      1761      1760      8862      6631      7013
 -1      4170    6    0    1
 -2      1503      1451      1358      6396      2040      3360      3359      6836      8863      6838
 -1      4171    6    0    1
 -2      6171      6353      3766      6376      8864      8392      7962      8865      8395      8396
 -1      4172    6    0    1
 -2      1139      6315      1167      6461      8866      8867      2500      8868      8869      8749
 -1      4173    6    0    1
 -2      6184      6145      6294      6432      7266      8870      8871      7376      7377      8872
 -1      4174    6    0    1
 -2      1371      6236      1175      6509      6839      6840      2704      8873      7321      7319
 -1      4175    6    0    1
 -2      1421      1576      1499      6308      2228      3289      2079      8874      8876      8875
 -1      4176    6    0    1
 -2      3607       325       326      6470      4160       425      4161      7989      8877      7991
 -1      4177    6    0    1
 -2      1405      6311      1063      6368      6740      8685      1812      7282      8878      7284
 -1      4178    6    0    1
 -2       555      6216      6103      6219      7196      7153      7197      8879      7105      8880
 -1      4179    6    0    1
 -2       325      1384      1059      6191      1981      1986      1985      8881      6928      8882
 -1      4180    6    0    1
 -2      6064      6102      6091      6359      6804      8276      8883      8884      7893      8885
 -1      4181    6    0    1
 -2      1367      1548      1280      6193      2673      3197      3196      8650      6978      7827
 -1      4182    6    0    1
 -2      6078      6088      6028      6095      6621      8428      6905      6620      6619      8111
 -1      4183    6    0    1
 -2      6021      6264      6017      6371      8886      7895      7748      7751      8887      7753
 -1      4184    6    0    1
 -2      1201      1199      1229      6205      2829      2831      2830      8888      8046      8289
 -1      4185    6    0    1
 -2      3792      6248      3458      6265      7469      7183      4604      8850      8890      8889
 -1      4186    6    0    1
 -2      3541      6099      3540      6360      7114      7919      5025      7238      8891      7237
 -1      4187    6    0    1
 -2      1109      6193      1110      6247      8892      8709      2324      7443      8708      7442
 -1      4188    6    0    1
 -2      6056      6097      6230      6231      8893      8356      8646      7123      8895      8894
 -1      4189    6    0    1
 -2      1233      6165      6092      6370      6966      7897      6584      6968      6969      8323
 -1      4190    6    0    1
 -2      3565      3421      6347      6415      4401      8896      8897      8723      8724      8898
 -1      4191    6    0    1
 -2      6093      1452      6380      6399      8162      7794      8209      8899      7796      7797
 -1      4192    6    0    1
 -2      6072      6060      6233      6506      7475      6772      7476      8900      8902      8901
 -1      4193    6    0    1
 -2      1051      1391       317      6379      1962      1961      1957      8662      8904      8903
 -1      4194    6    0    1
 -2      6052      6174      6025      6351      6957      8905      7823      6960      6961      8906
 -1      4195    6    0    1
 -2      6052      6108      6038      6401      6787      6903      6901      8907      8909      8908
 -1      4196    6    0    1
 -2      6060      6426      6157      6506      8910      8571      8911      8902      8913      8912
 -1      4197    6    0    1
 -2      1408      6246      1514      6277      8914      8915      2027      7064      8916      7066
 -1      4198    6    0    1
 -2      3429      3432      3583      6442      4445      4449      4439      8917      8919      8918
 -1      4199    6    0    1
 -2       307      3645       306      6225      4104      4103       406      8920      8922      8921
 -1      4200    6    0    1
 -2      3596       235       236      6317      3890       335      3891      8923      8925      8924
 -1      4201    6    0    1
 -2      6056      6186      6174      6281      6912      6911      6910      8926      8928      8927
 -1      4202    6    0    1
 -2      5555      5508      5450      6340      5818      5817      5815      7168      7255      8626
 -1      4203    6    0    1
 -2      1193      1452      1211      6380      2788      2800      2799      8929      7794      8930
 -1      4204    6    0    1
 -2      3619       253      3652      6190      3942      3944      3946      6774      7738      7736
 -1      4205    6    0    1
 -2      1368      1256      6342      6379      3111      7932      7930      8931      8933      8932
 -1      4206    6    0    1
 -2      1378      6238       327      6320      7713      7203      1991      7618      8934      7617
 -1      4207    6    0    1
 -2      6123      6170      1125      6358      8516      7120      7811      7812      7548      6797
 -1      4208    6    0    1
 -2      1432      1045      1514      6277      2029      2026      2030      8935      7065      7066
 -1      4209    6    0    1
 -2      1082      6187      1399      6422      8648      8647      1938      7945      8936      7485
 -1      4210    6    0    1
 -2      6111      6287      5458      6535      8937      8938      8683      6678      8370      8684
 -1      4211    6    0    1
 -2      6054      6136      6084      6305      8939      8940      8941      8942      8944      8943
 -1      4212    6    0    1
 -2      1405       268      6311      6368      1810      6742      6740      7282      6858      8878
 -1      4213    6    0    1
 -2      3602      6327      3601      6455      7010      7011      4279      8945      8946      8745
 -1      4214    6    0    1
 -2      6021      6071      6289      6454      7396      8184      7750      7397      7398      8476
 -1      4215    6    0    1
 -2      1082       310       309      6187      1936       409      1937      8648      8948      8947
 -1      4216    6    0    1
 -2      3470      3471      3444      6504      4538      4537      4529      8949      8951      8950
 -1      4217    6    0    1
 -2      3739      3404      3790      6176      3839      4321      4323      8952      8954      8953
 -1      4218    6    0    1
 -2      3683      3535      3536      6455      5003      4957      5004      8955      8957      8956
 -1      4219    6    0    1
 -2      6132      6206      6123      6219      8546      7997      7132      8958      8001      8000
 -1      4220    6    0    1
 -2      6110      6333      6061      6410      7940      7939      7941      8959      8720      8119
 -1      4221    6    0    1
 -2      6035      6115      6070      6167      8960      8050      6709      7472      8049      7294
 -1      4222    6    0    1
 -2      5467      5454      5489      6355      5839      5814      5840      8022      8961      8024
 -1      4223    6    0    1
 -2      1102      1105      6247      6252      2306      8407      6595      7275      8963      8962
 -1      4224    6    0    1
 -2      3422      3513      3423      6463      4407      4406      4397      8964      8966      8965
 -1      4225    6    0    1
 -2      6115      6423      6229      6454      8967      7014      8968      8969      8971      8970
 -1      4226    6    0    1
 -2       542       493       492      6313       927       864       926      8623      8973      8972
 -1      4227    6    0    1
 -2      1163      1177      6359      6364      2638      8565      8566      7221      7222      8974
 -1      4228    6    0    1
 -2      1131      1132      1133      6290      2457      2463      2462      8704      8705      8975
 -1      4229    6    0    1
 -2      3540      3538      3589      6200      5019      5021      5020      8043      8243      8976
 -1      4230    6    0    1
 -2       491       551      6257      6392       876      8676      8977      8978      7542      8310
 -1      4231    6    0    1
 -2       301       302      3648      6318       401      4089      4088      8297      8980      8979
 -1      4232    6    0    1
 -2      3434      6293      3435      6294      7438      7439      4465      8295      8296      8981
 -1      4233    6    0    1
 -2       317      1391       318      6459      1961      1960       417      8982      8984      8983
 -1      4234    6    0    1
 -2      1207      1197      1284      6306      2677      2821      2820      8985      8987      8986
 -1      4235    6    0    1
 -2      5547      5458      6111      6400      5860      8683      6882      8988      8990      8989
 -1      4236    6    0    1
 -2      5451      5558      6349      6408      5822      8991      6783      7706      8992      7798
 -1      4237    6    0    1
 -2       477      6349       584      6408      6617      8993       848      7704      7798      8994
 -1      4238    6    0    1
 -2      1163      6102      6166      6267      6593      8054      6860      7354      7880      7356
 -1      4239    6    0    1
 -2      1530      1148      1187      6211      2539      2558      2560      8995      7411      8996
 -1      4240    6    0    1
 -2       562      6173       543      6383      8765      8997       814      8766      8767      8998
 -1      4241    6    0    1
 -2      6033      6048      6068      6099      8999      9000      7098      9001      9003      9002
 -1      4242    6    0    1
 -2      1430      6433      1058      6480      9004      9005      2093      7208      9006      8696
 -1      4243    6    0    1
 -2      1513      6139      1310      6422      6547      6568      3296      7484      9008      9007
 -1      4244    6    0    1
 -2      1552      1261      6370      6518      2970      8587      7872      6569      6570      7874
 -1      4245    6    0    1
 -2      1357      1294      1356      6404      3253      3246      3254      7290      7291      9009
 -1      4246    6    0    1
 -2       269      6175       268      6368      7420      9010       368      6859      9011      6858
 -1      4247    6    0    1
 -2      6051      6212      6066      6489      8206      7268      8238      7725      8207      8605
 -1      4248    6    0    1
 -2       482       479       551      6392       859       853       861      7567      7401      7542
 -1      4249    6    0    1
 -2      1172      1157      1529      6189      2601      2610      2609      8670      9012      8671
 -1      4250    6    0    1
 -2       515       517      6214      6390      1015      7902      7846      9013      6828      7904
 -1      4251    6    0    1
 -2      6063      6112      6027      6440      8128      7020      7609      7463      9014      7610
 -1      4252    6    0    1
 -2      1201      6205      1229      6398      8888      8289      2830      9015      9017      9016
 -1      4253    6    0    1
 -2      1313      1467      1060      6296      2104      2103      2102      9018      8458      9019
 -1      4254    6    0    1
 -2      3778      6152      6125      6250      6565      9020      8715      6635      6636      8717
 -1      4255    6    0    1
 -2      6082      6412      6056      6426      8299      6913      7933      7936      8302      7938
 -1      4256    6    0    1
 -2      6064      6062      6172      6296      9021      9022      9023      9024      9026      9025
 -1      4257    6    0    1
 -2       270       271      3486      6277       370      3996      3995      8669      7981      7982
 -1      4258    6    0    1
 -2      1219      1423       280      6394      1851      1850      1846      9027      9029      9028
 -1      4259    6    0    1
 -2      3613      3387      3667      6346      3922      4239      4238      9030      9032      9031
 -1      4260    6    0    1
 -2      3651      3576      3771      6234      5119      5117      4298      6824      9033      6823
 -1      4261    6    0    1
 -2      3464      3494      3493      6365      4649      4648      4647      9034      9036      9035
 -1      4262    6    0    1
 -2       493      6270      6120      6451      9037      9038      8327      8328      9039      8129
 -1      4263    6    0    1
 -2      6057      6181      6037      6235      7190      9040      9041      7192      7191      9042
 -1      4264    6    0    1
 -2      6034      6142      6283      6413      9043      7307      9044      9045      7877      7878
 -1      4265    6    0    1
 -2      1262      1189      6296      6509      2776      6931      6932      9046      9048      9047
 -1      4266    6    0    1
 -2      1351      1539      1219      6394      2938      2937      2936      9049      9050      9027
 -1      4267    6    0    1
 -2      3603      3713      3602      6455      5008      5144      5142      9051      9052      8945
 -1      4268    6    0    1
 -2      6017      6284      6335      6371      8265      9053      8774      7753      9054      8776
 -1      4269    6    0    1
 -2      6132      6219      6123      6256      8958      8000      7132      7691      9055      7141
 -1      4270    6    0    1
 -2      1307      1498      1306      6377      3278      3277      2945      9056      9058      9057
 -1      4271    6    0    1
 -2      6284      6287      6156      6535      7048      7046      7043      7180      8370      7179
 -1      4272    6    0    1
 -2      3637      3723      3628      6140      5172      5171      5167      8508      9059      7647
 -1      4273    6    0    1
 -2      1171      1161      1471      6501      2628      2630      2629      9060      9062      9061
 -1      4274    6    0    1
 -2       515      6214      6389      6390      7846      7851      7849      9013      7904      6830
 -1      4275    6    0    1
 -2      3386       249       250      6210      3932       349      3933      9063      8090      8862
 -1      4276    6    0    1
 -2      1532      1063      6367      6368      2122      9064      7415      7283      7284      7418
 -1      4277    6    0    1
 -2      6066      6027      6147      6169      9065      6579      9066      9067      6582      6583
 -1      4278    6    0    1
 -2      6162      6284      5457      6287      7281      7279      7277      7503      7048      8204
 -1      4279    6    0    1
 -2      1102      1100      6122      6231      2293      6748      7681      6660      6661      9068
 -1      4280    6    0    1
 -2      5489      6120      6355      6390      8021      8023      8024      9069      8544      9070
 -1      4281    6    0    1
 -2      3399      3651      6234      6322      3976      6824      6825      9071      7110      9072
 -1      4282    6    0    1
 -2      1549      1212      1267      6388      2899      2897      2900      9073      9075      9074
 -1      4283    6    0    1
 -2       236      6178      1376      6477      6712      6713      1718      8203      9076      8202
 -1      4284    6    0    1
 -2      6085      6137      3529      6291      8477      7035      7976      8160      7775      7776
 -1      4285    6    0    1
 -2      1485      6117      1294      6326      7435      6972      3252      7507      9077      7289
 -1      4286    6    0    1
 -2      6028      6088      6078      6401      8428      6621      6905      7526      8040      8041
 -1      4287    6    0    1
 -2      3545      3695      3537      6338      5014      5013      4986      9078      6555      6556
 -1      4288    6    0    1
 -2      6029      6122      6032      6511      8534      6701      8535      9079      6702      6703
 -1      4289    6    0    1
 -2      6100      6187      6139      6251      8726      9080      9081      8725      8649      8412
 -1      4290    6    0    1
 -2      1140      1275      1495      6229      2512      2514      2513      7709      7707      6872
 -1      4291    6    0    1
 -2      6065      6029      6206      6328      9082      7998      9083      9084      9086      9085
 -1      4292    6    0    1
 -2      6130      6382      6306      6474      9087      9088      9089      9090      9092      9091
 -1      4293    6    0    1
 -2      1101      6123      6122      6170      7295      8498      6746      6776      8516      7537
 -1      4294    6    0    1
 -2      5476      6413      6141      6516      9093      9094      9095      9096      9098      9097
 -1      4295    6    0    1
 -2      6019      6319      6016      6438      7562      7561      7560      9099      9101      9100
 -1      4296    6    0    1
 -2       277       276      1417      6391       376      1838      1837      7622      9102      7621
 -1      4297    6    0    1
 -2      3686      6120      6313      6443      9103      9104      9105      8199      9107      9106
 -1      4298    6    0    1
 -2      6133      6209      6043      6330      9108      8698      9109      9110      9112      9111
 -1      4299    6    0    1
 -2      1271      1313      1493      6296      2891      3177      3176      8183      9018      9113
 -1      4300    6    0    1
 -2      3728      3413       316      6259      4135      4131      4133      8480      8478      9114
 -1      4301    6    0    1
 -2      3649      3762      3508      6109      4212      4876      4859      9115      9116      6878
 -1      4302    6    0    1
 -2      1098      6170      6122      6384      6778      7537      6747      6934      9117      6936
 -1      4303    6    0    1
 -2      3647      3383       260      6309      3967      3963      3965      9118      7091      7092
 -1      4304    6    0    1
 -2      6075      6042      6124      6138      6684      9119      9120      6995      6996      9121
 -1      4305    6    0    1
 -2      6198      6219      6029      6445      7085      7084      7086      8060      7107      9122
 -1      4306    6    0    1
 -2      3539      6099      3718      6513      7112      7113      5026      9123      9125      9124
 -1      4307    6    0    1
 -2      5526      5211      5385      5383      9126      9127      9128      9129      9130      5397
 -1      4308    6    0    1
 -2      1229      1568      6398      6501      2989      9131      9016      9132      9134      9133
 -1      4309    6    0    1
 -2      1513      1399      6139      6422      3367      6546      6547      7484      7485      9008
 -1      4310    6    0    1
 -2      1187      1449      1450      6203      2767      2770      2769      9135      9137      9136
 -1      4311    6    0    1
 -2      5453      6089      5456      6400      7777      7772      5833      9138      9140      9139
 -1      4312    6    0    1
 -2      1081       255       254      6199      1771       354      1772      9141      9143      9142
 -1      4313    6    0    1
 -2      3488      3553      6144      6185      4766      7853      7854      7210      8248      8145
 -1      4314    6    0    1
 -2      6021      6017      6264      6406      7748      7895      8886      8773      7896      7629
 -1      4315    6    0    1
 -2      6078      6213      6096      6401      8039      9144      9145      8041      8042      7527
 -1      4316    6    0    1
 -2      6162      6287      6283      6300      7503      7656      7552      8690      9147      9146
 -1      4317    6    0    1
 -2      5402       457      5401      6476      5413      5405      5416      7390      7388      9148
 -1      4318    6    0    1
 -2      1149      6333      6271      6512      7663      9149      7412      9150      9152      9151
 -1      4319    6    0    1
 -2      1432      1515      1409      6277      3352      3374      2028      8935      9154      9153
 -1      4320    6    0    1
 -2      6071      6289      6053      6305      8184      9155      7217      8186      8187      9156
 -1      4321    6    0    1
 -2      6096      6412      6082      6440      7528      8299      9157      7833      7462      9158
 -1      4322    6    0    1
 -2      6173      6355      5453      6400      9159      8580      9160      9161      9162      9138
 -1      4323    6    0    1
 -2      1294      6117      6163      6404      6972      8091      6852      7291      9163      7316
 -1      4324    6    0    1
 -2      1458      1295      6117      6217      3255      6974      8096      7429      7430      9164
 -1      4325    6    0    1
 -2      3411      6190      3695      6338      6775      6553      4356      9165      6557      6555
 -1      4326    6    0    1
 -2      1146      1497      1458      6217      2549      2548      2547      9166      7431      7429
 -1      4327    6    0    1
 -2      1296      6117      1485      6326      7631      7435      2920      9167      9077      7507
 -1      4328    6    0    1
 -2      5526      5385      5211      6390      9128      9127      9126      9168      8610      9169
 -1      4329    6    0    1
 -2      6063      6028      6095      6134      6906      8111      8110      6907      6908      6986
 -1      4330    6    0    1
 -2      3488      3575      3548      6182      4781      4783      4773      7212      9171      9170
 -1      4331    6    0    1
 -2      1293      1292      1290      6163      3235      3234      3236      6853      6851      9172
 -1      4332    6    0    1
 -2      1258      1195      1257      6444      2806      2801      2807      9173      9175      9174
 -1      4333    6    0    1
 -2       328      3598      3393      6238      4169      4171      4167      7202      9176      7204
 -1      4334    6    0    1
 -2      3691      3573      3636      6378      4748      5113      4668      8815      9177      8817
 -1      4335    6    0    1
 -2       254      6190       253      6397      7737      7738       353      6895      9178      6897
 -1      4336    6    0    1
 -2      1051       317       316      6259      1957       416      1958      9179      9180      9114
 -1      4337    6    0    1
 -2      3613      6272      3387      6346      9181      8019      3922      9030      9182      9032
 -1      4338    6    0    1
 -2      1408      1514      6246      6368      2027      8915      8914      6831      6832      7559
 -1      4339    6    0    1
 -2      6084      6127      6269      6321      9183      9184      9185      9186      9188      9187
 -1      4340    6    0    1
 -2      3698      3493      3495      6341      4801      4799      4802      9189      9190      8492
 -1      4341    6    0    1
 -2      3601      6172       240      6220      6641      6642      3905      6781      9191      6780
 -1      4342    6    0    1
 -2      5452      5453      6173      6355      5810      9160      9192      9193      8580      9159
 -1      4343    6    0    1
 -2      5474      3592      5440      6467      9194      7519      5686      9195      6947      7520
 -1      4344    6    0    1
 -2      1422      1085       287      6450      1872      1871      1867      9196      9198      9197
 -1      4345    6    0    1
 -2      6056      6231      6230      6458      7123      8894      8646      7126      7127      9199
 -1      4346    6    0    1
 -2       313      6171       312      6227      6811      6812       412      6764      6603      7185
 -1      4347    6    0    1
 -2      3702      6118      3594      6443      9200      7781      4436      9201      9203      9202
 -1      4348    6    0    1
 -2      6209      6330      6133      6464      9112      9110      9108      9204      9206      9205
 -1      4349    6    0    1
 -2      6040      6369      6080      6448      6559      9207      7358      7362      9208      7361
 -1      4350    6    0    1
 -2      5460      5547      5458      6111      5861      5860      5858      6676      6882      8683
 -1      4351    6    0    1
 -2      5418       520       575       558      6999       726      8074      8831       757       722
 -1      4352    6    0    1
 -2      6203      6333      1227      6534      9209      9210      9211      9212      7944      9213
 -1      4353    6    0    1
 -2      1285      1540      1511      6399      3161      2164      2245      8636      9214      8638
 -1      4354    6    0    1
 -2      6024      6040      6098      6344      6560      6815      6816      9215      9216      8731
 -1      4355    6    0    1
 -2      6131      6205      1171      6382      9217      8048      7699      8585      9218      8584
 -1      4356    6    0    1
 -2      3651      3399       263      6322      3976      3972      3974      7110      9071      7109
 -1      4357    6    0    1
 -2      6053      6071      6057      6289      7217      7216      7218      9155      8184      8474
 -1      4358    6    0    1
 -2      3541      3542      3543      6360      5029      5036      5035      7238      7236      9219
 -1      4359    6    0    1
 -2      6120      6270       493      6313      9038      9037      8327      9104      9220      8973
 -1      4360    6    0    1
 -2      3643       309       310      6251      4112       409      4113      9221      7444      9222
 -1      4361    6    0    1
 -2       555       489      6216      6219       916      6949      7196      8879      7106      7105
 -1      4362    6    0    1
 -2      3762      3659      6228      6302      4214      9223      8582      9224      9226      9225
 -1      4363    6    0    1
 -2      5457      6284      5461      6287      7279      7176      5854      8204      7048      8369
 -1      4364    6    0    1
 -2      3494      6202      6104      6365      6898      9227      7917      9036      9229      9228
 -1      4365    6    0    1
 -2      3730      3669      3378      6530      4199      4198      4195      9230      9232      9231
 -1      4366    6    0    1
 -2      6025      6048      6033      6343      7821      8999      9233      9234      9236      9235
 -1      4367    6    0    1
 -2      1241      6433      1367      6497      8853      8854      3047      9237      9239      9238
 -1      4368    6    0    1
 -2      3784      6218      3380      6375      7813      7814      4208      9240      9242      9241
 -1      4369    6    0    1
 -2      1233      1225      1224      6370      2961      2868      2962      6968      8270      6967
 -1      4370    6    0    1
 -2      6067      6070      6041      6183      6710      6708      6705      9243      8100      8101
 -1      4371    6    0    1
 -2       528      6236      6061      6525      7927      7928      7926      9244      9245      7637
 -1      4372    6    0    1
 -2      1340      1341      1443      6436      3224      3344      3152      6784      9247      9246
 -1      4373    6    0    1
 -2       259      1569      6309      6404      1787      7409      7090      7001      8097      9248
 -1      4374    6    0    1
 -2      3625      3623      3624      6209      5152      4848      4836      9249      9251      9250
 -1      4375    6    0    1
 -2      5553      6284      6264      6371      9252      9253      9254      9255      9054      8887
 -1      4376    6    0    1
 -2      5458      6287      6111      6400      8938      8937      8683      8990      9256      8989
 -1      4377    6    0    1
 -2      5469      6240      6173      6383      7765      7165      7764      9257      9258      8767
 -1      4378    6    0    1
 -2      6173      6240       495      6383      7165      8013      8012      8767      9258      9259
 -1      4379    6    0    1
 -2      3387      3615      3756      6272      3925      4241      4240      8019      9261      9260
 -1      4380    6    0    1
 -2      6118      6243      3594      6533      9262      9263      7781      7782      9264      6866
 -1      4381    6    0    1
 -2      6068      6033      6099      6201      7098      9001      9002      7099      7100      9265
 -1      4382    6    0    1
 -2      3385      3652       254      6482      3949      3945      3947      7342      9266      7341
 -1      4383    6    0    1
 -2      5453      5525      6173      6400      5827      9267      9160      9138      9268      9161
 -1      4384    6    0    1
 -2      3520      3522      3521      6495      4924      4923      4325      9269      9271      9270
 -1      4385    6    0    1
 -2       285      1424      1041      6310      1861      1866      1865      9272      9274      9273
 -1      4386    6    0    1
 -2      6034      6162      6300      6503      9275      8690      8744      8437      8691      7689
 -1      4387    6    0    1
 -2      5529      5472      6103      6216      5891      8447      7154      7152      7678      7153
 -1      4388    6    0    1
 -2      6077      6101      6022      6469      9276      9277      9278      8107      9280      9279
 -1      4389    6    0    1
 -2      1083      1455      1413      6329      2217      2216      1899      9281      9283      9282
 -1      4390    6    0    1
 -2      6036      6224      6208      6347      9284      9285      9286      9287      9289      9288
 -1      4391    6    0    1
 -2      6043      6107      6026      6330      7348      7349      7347      9111      9291      9290
 -1      4392    6    0    1
 -2      1495      6229      6092      6331      6872      8449      6585      7487      9292      7489
 -1      4393    6    0    1
 -2      1454      1105      1102      6252      2307      2306      2298      7276      8963      7275
 -1      4394    6    0    1
 -2      6190      6201      3537      6338      9293      9294      6554      6557      9295      6556
 -1      4395    6    0    1
 -2       457      5287       513      6476      7387      9296      9297      7388      7389      9298
 -1      4396    6    0    1
 -2       517       565       515      6214       762       830      1015      7902      7901      7846
 -1      4397    6    0    1
 -2       552      5384       517      6390      9299      9300       760      9301      8490      6828
 -1      4398    6    0    1
 -2      3484      3798      3480      6255      4742      4741      4739      7591      9302      8793
 -1      4399    6    0    1
 -2      3409      3569      3611      6298      4345      4347      4346      9303      9304      8177
 -1      4400    6    0    1
 -2      1380      1075       242      6220      1737      1736      1732      7511      7512      9305
 -1      4401    6    0    1
 -2      3792      6067      6183      6248      9306      9243      7467      7469      9307      7471
 -1      4402    6    0    1
 -2      1410      1557      1352      6388      3356      3315      2148      7661      9308      7660
 -1      4403    6    0    1
 -2       550       578      6110      6262      1019      9309      6655      6657      9310      6659
 -1      4404    6    0    1
 -2      6106      6107      6209      6339      7703      8699      8697      8736      8737      9311
 -1      4405    6    0    1
 -2      1126      1156      1447      6189      2433      2438      2437      8006      8007      9312
 -1      4406    6    0    1
 -2       245      1054      1385      6273      1741      1746      1745      8037      7200      8036
 -1      4407    6    0    1
 -2      1561      1529      1279      6411      3195      2611      2680      8483      8484      9313
 -1      4408    6    0    1
 -2      3404      6176       463      6325      8954      9314      9315      9316      7264      9317
 -1      4409    6    0    1
 -2      6105      6193      1367      6497      7983      8650      6790      9318      9319      9238
 -1      4410    6    0    1
 -2      1533      1062      1363      6309      2113      2115      2114      8799      8797      9320
 -1      4411    6    0    1
 -2      5511      5554      5510      6253      6013      6012      5745      8424      8343      8171
 -1      4412    6    0    1
 -2       550       519      1522      6312       664      9321      6656      8026      9322      8025
 -1      4413    6    0    1
 -2      1109      6247      1105      6252      7443      8407      2319      9323      8962      8963
 -1      4414    6    0    1
 -2       527       522      6062      6091      1024      9324      9325      9326      9328      9327
 -1      4415    6    0    1
 -2      1384       324      1076      6191      1982      1978      1983      6928      9329      8315
 -1      4416    6    0    1
 -2      3556      3495      3555      6491      4811      4809      4812      8495      8493      9330
 -1      4417    6    0    1
 -2       479       478       551      6173       836       852       853      7400      6722      7541
 -1      4418    6    0    1
 -2      5452      5453      5525      6173      5810      5827      5826      9192      9160      9267
 -1      4419    6    0    1
 -2      6106      6130      6043      6306      9331      9332      7702      9333      9089      9334
 -1      4420    6    0    1
 -2      1049      1396      1446      6274      1767      2050      2049      9335      7585      7583
 -1      4421    6    0    1
 -2      6065      6206      6156      6328      9083      9336      9337      9084      9085      9338
 -1      4422    6    0    1
 -2      6016      6019      6261      6334      7560      9339      9340      7565      7563      9341
 -1      4423    6    0    1
 -2      3792      3458      3456      6265      4604      4603      4605      8850      8889      8851
 -1      4424    6    0    1
 -2      5497      6093      6069      6204      7367      7368      7364      9342      9344      9343
 -1      4425    6    0    1
 -2      6039      6081      6129      6291      8157      9345      9346      8158      8159      9347
 -1      4426    6    0    1
 -2       262       261      1521      6309       361      1793      1792      9348      9350      9349
 -1      4427    6    0    1
 -2      1314      6256      1345      6358      9351      9352      2168      6988      9353      6798
 -1      4428    6    0    1
 -2      1167      6315      1184      6461      8867      9354      2660      8749      8869      8748
 -1      4429    6    0    1
 -2      1201      6138      1200      6205      6849      6850      2828      8888      9356      9355
 -1      4430    6    0    1
 -2      6067      6100      6041      6303      9357      8099      6705      7119      9358      7118
 -1      4431    6    0    1
 -2       515      6389       517      6390      7849      6826      1015      9013      6830      6828
 -1      4432    6    0    1
 -2      6050      6319      6174      6351      7544      7545      6956      6959      9359      6961
 -1      4433    6    0    1
 -2      1257      1459      1258      6478      3116      3115      2807      9360      9362      9361
 -1      4434    6    0    1
 -2      1127      6189      1126      6292      8005      8006      2376      7173      8443      9363
 -1      4435    6    0    1
 -2      1263      1189      1262      6509      2778      2776      2779      9364      9048      9046
 -1      4436    6    0    1
 -2      1095      6170      1096      6312      7547      7121      2261      6552      8304      9365
 -1      4437    6    0    1
 -2       488      6295      6219      6358      9366      7089      9367      9368      7733      7731
 -1      4438    6    0    1
 -2      1209      6263      1185      6422      7158      7159      2758      9369      8719      8342
 -1      4439    6    0    1
 -2      6025      6174      6052      6401      8905      6957      7823      9370      9371      8907
 -1      4440    6    0    1
 -2      1487      6229      1140      6331      7708      7709      2400      9372      9292      8528
 -1      4441    6    0    1
 -2       280      6168      3661      6196      7385      7234      4023      6627      9373      6626
 -1      4442    6    0    1
 -2      1587      1200      6138      6329      2835      6850      8598      9374      9376      9375
 -1      4443    6    0    1
 -2      5463      5464      5460      6216      5873      5872      5870      7666      7680      7145
 -1      4444    6    0    1
 -2      1336      1076      1488      6301      2183      1980      2184      9377      8628      9378
 -1      4445    6    0    1
 -2      6055      6244      6085      6245      9379      9380      7800      9381      9383      9382
 -1      4446    6    0    1
 -2      1136      1169      1137      6181      2490      2489      2421      8028      6590      7129
 -1      4447    6    0    1
 -2      6026      6107      6051      6330      7349      7722      7721      9290      9291      9384
 -1      4448    6    0    1
 -2       248       247      1389      6524       347      1751      1750      8093      9386      9385
 -1      4449    6    0    1
 -2      1531      1349      6116      6457      2616      8682      6756      6758      6939      6760
 -1      4450    6    0    1
 -2      3388      3612      3728      6429      4244      4243      4138      9387      9389      9388
 -1      4451    6    0    1
 -2      1230      1532      1344      6367      2995      2123      2994      7416      7415      9390
 -1      4452    6    0    1
 -2      3488      3575      6182      6234      4781      9171      7212      9391      9393      9392
 -1      4453    6    0    1
 -2       499      1319       533      6340      9394      7026       649      9395      7095      8631
 -1      4454    6    0    1
 -2      1271      1329      1312      6178      3175      3174      3144      9396      9398      9397
 -1      4455    6    0    1
 -2      1394      6227      1334      6297      6765      6736      2199      7576      6607      8371
 -1      4456    6    0    1
 -2      6244      6435      3726      6442      9399      8556      7809      9400      8560      8558
 -1      4457    6    0    1
 -2      3739       463      3404      6176      9401      9315      3839      8952      9314      8954
 -1      4458    6    0    1
 -2      6229      6423      6393      6454      7014      7037      7036      8970      8971      9402
 -1      4459    6    0    1
 -2      1079      1334      1393      6297      2198      2197      2196      9403      8371      8372
 -1      4460    6    0    1
 -2      3527      3530      3529      6291      4963      4962      4961      7774      8397      7776
 -1      4461    6    0    1
 -2      6051      6212      6026      6515      8206      8205      7721      9404      9406      9405
 -1      4462    6    0    1
 -2      1404       264      1046      6367      1802      1798      1803      7869      7870      9407
 -1      4463    6    0    1
 -2       582      6240      6475      6476      8532      7960      8533      9408      9410      9409
 -1      4464    6    0    1
 -2      1084       292      6276      6474      1882      7669      7667      7353      7351      9411
 -1      4465    6    0    1
 -2      1155      1556      6166      6237      2598      8016      8014      6975      6976      9412
 -1      4466    6    0    1
 -2      6021      6406      6035      6454      8773      9413      7394      7397      9414      7399
 -1      4467    6    0    1
 -2      6323      6391      1288      6436      9415      9416      7890      7891      9417      6785
 -1      4468    6    0    1
 -2       536       528      6061      6525      1034      7926      7632      7635      9244      7637
 -1      4469    6    0    1
 -2       297       296      1413      6375       396      1898      1897      7712      9418      7711
 -1      4470    6    0    1
 -2      6142      6208      3423      6347      8367      8473      8472      9419      9288      9420
 -1      4471    6    0    1
 -2      5472      6132      6103      6206      9421      9422      8447      7677      8546      8446
 -1      4472    6    0    1
 -2      1239      1567      1374      6372      2488      3040      3039      8664      8411      8409
 -1      4473    6    0    1
 -2      6097      6174      6056      6230      7466      6910      8893      8356      8645      8646
 -1      4474    6    0    1
 -2      6028      6174      6020      6239      9423      6538      9424      9425      9427      9426
 -1      4475    6    0    1
 -2      6145      6184      6079      6212      7266      9428      9429      7269      7270      9430
 -1      4476    6    0    1
 -2      6035      6071      6115      6167      7395      9431      8960      7472      8147      8049
 -1      4477    6    0    1
 -2      6193      6247      1109      6252      8708      7443      8892      9432      8962      9323
 -1      4478    6    0    1
 -2      1115      6116      6292      6458      7974      7973      7174      9433      7125      9434
 -1      4479    6    0    1
 -2      6100      6070      6187      6430      8098      9435      8726      8728      9436      8727
 -1      4480    6    0    1
 -2      3794      3415      3744      6341      4375      3859      4376      9437      9439      9438
 -1      4481    6    0    1
 -2      1567      1135      1117      6252      2386      2385      2387      8408      9441      9440
 -1      4482    6    0    1
 -2      6064      6221      6102      6359      6809      6810      6804      8884      9442      7893
 -1      4483    6    0    1
 -2      6026      6330      6386      6481      9290      9443      9444      9445      7967      9446
 -1      4484    6    0    1
 -2      1262      1271      6242      6296      2889      9447      9448      6932      8183      9449
 -1      4485    6    0    1
 -2      3400       292      6316      6407      4061      7314      8316      8318      8795      8320
 -1      4486    6    0    1
 -2      3460      3458      6248      6265      4615      7183      7181      9450      8889      8890
 -1      4487    6    0    1
 -2      5471      5457      5455      6283      5843      5842      5844      7550      7551      7640
 -1      4488    6    0    1
 -2      5337      5450      6340      6349      9451      8626      9452      9453      8627      7171
 -1      4489    6    0    1
 -2      1176      1371      1372      6236      2703      2709      2708      6841      6839      9454
 -1      4490    6    0    1
 -2       311      3640       310      6523      4116      4115       410      9455      9457      9456
 -1      4491    6    0    1
 -2      3456      3478      3792      6275      4607      4608      4605      8116      7556      7554
 -1      4492    6    0    1
 -2      6025      6052      6038      6401      7823      6901      7822      9370      8907      8908
 -1      4493    6    0    1
 -2      1282      1200      1283      6329      2826      2838      2837      9458      9376      9459
 -1      4494    6    0    1
 -2      3505      6307      6151      6318      9460      7250      9461      9462      9464      9463
 -1      4495    6    0    1
 -2      3658       291       292      6407      4058       391      4059      8796      9465      8795
 -1      4496    6    0    1
 -2      6063      6145      6027      6147      8114      9466      7609      8073      8373      6579
 -1      4497    6    0    1
 -2       253      6274      1049      6397      9467      9335      1765      6897      9468      8665
 -1      4498    6    0    1
 -2      1516      1416      1476      6474      2019      2221      3205      9469      7352      9470
 -1      4499    6    0    1
 -2      1163      1154      1235      6267      2591      2593      2592      7354      7355      9471
 -1      4500    6    0    1
 -2      1141      6213      1179      6425      7226      7224      2469      9472      9474      9473
 -1      4501    6    0    1
 -2      1386      1336      1488      6301      3340      2184      1977      8432      9377      9378
 -1      4502    6    0    1
 -2      1289      1456      6322      6519      2034      9475      9476      9477      9479      9478
 -1      4503    6    0    1
 -2      1527      1585      1242      6221      3056      3055      2751      9480      8454      8452
 -1      4504    6    0    1
 -2      5436      6188      5557      6433      7954      8849      5750      7957      7958      9481
 -1      4505    6    0    1
 -2      3611      6152      3743      6250      8224      6634      5074      8179      6636      6637
 -1      4506    6    0    1
 -2       530       536      6061      6262      1033      7632      8120      9482      7634      7633
 -1      4507    6    0    1
 -2      6061      6262      6237      6534      7633      9483      9484      7942      9486      9485
 -1      4508    6    0    1
 -2      5538      5288      6240      6383      9487      9488      9489      9490      9491      9258
 -1      4509    6    0    1
 -2      1511      1089      1285      5434      1703      2244      2245      8634      9492      8635
 -1      4510    6    0    1
 -2      6117      1294      6326      6404      6972      7289      9077      9163      7291      7292
 -1      4511    6    0    1
 -2      3749      3564      3719      6164      5096      5098      5099      9493      9495      9494
 -1      4512    6    0    1
 -2      6031      6247      6231      6528      9496      7840      8140      8602      7287      7841
 -1      4513    6    0    1
 -2      1230      6213      1243      6425      7522      7521      2731      7834      9474      7836
 -1      4514    6    0    1
 -2      3443      3604      3442      6403      4528      4527      4518      8564      9498      9497
 -1      4515    6    0    1
 -2      1132      6096      1131      6492      8703      8702      2457      7453      9499      7452
 -1      4516    6    0    1
 -2      1343      6179      1443      6215      9500      9501      3156      9502      9504      9503
 -1      4517    6    0    1
 -2      6043      6330      6026      6481      9111      9290      7347      9505      7967      9445
 -1      4518    6    0    1
 -2      3540      3711      3557      6200      5034      5033      5032      8043      8405      8044
 -1      4519    6    0    1
 -2      1358      1081      1580      6199      2207      2209      2208      8752      9141      9506
 -1      4520    6    0    1
 -2       490       573       526      6257       900       922       920      6646      6647      9507
 -1      4521    6    0    1
 -2      1380      1060      1467      6220      1734      2103      2105      7511      8170      7951
 -1      4522    6    0    1
 -2       476      6340       581      6349      9508      7693       841      9509      7171      7695
 -1      4523    6    0    1
 -2      3454      3453      3452      6143      4578      4561      4579      9510      9512      9511
 -1      4524    6    0    1
 -2       497      6195       492      6270      8324      8325       871      9513      9515      9514
 -1      4525    6    0    1
 -2      6092      6165      1464      6331      7897      7067      6586      7489      9516      7488
 -1      4526    6    0    1
 -2      1317      1234      1558      6266      3012      3014      3013      9517      7760      7061
 -1      4527    6    0    1
 -2      1419      1065       273      6530      1830      1829      1825      8771      7602      7603
 -1      4528    6    0    1
 -2      3565      6347      6164      6415      8897      9518      9519      8723      8898      9520
 -1      4529    6    0    1
 -2      5554      6053      5510      6253      7907      8173      6012      8343      8172      8171
 -1      4530    6    0    1
 -2      3623      6209      3625      6339      9251      9249      5152      9521      9311      7648
 -1      4531    6    0    1
 -2      1154      1162      1155      6166      2589      2588      2581      6861      6862      8014
 -1      4532    6    0    1
 -2      6189      6426      6056      6427      7937      7938      7934      9522      9524      9523
 -1      4533    6    0    1
 -2      3625      3624      6107      6209      4836      9525      9526      9249      9250      8699
 -1      4534    6    0    1
 -2       564      6240      5288      6383      9527      9488      9528      9529      9258      9491
 -1      4535    6    0    1
 -2      6043      6130      6087      6382      9332      9530      9531      9532      9087      9533
 -1      4536    6    0    1
 -2      6064      6137      6094      6346      8530      8531      6800      6953      9534      6955
 -1      4537    6    0    1
 -2      3544      3575      3547      6234      5052      4782      5048      9535      9393      9536
 -1      4538    6    0    1
 -2      1227      6366      6203      6534      9537      9538      9211      9213      9539      9212
 -1      4539    6    0    1
 -2      6165      6192      6076      6398      9540      9541      9542      9543      9545      9544
 -1      4540    6    0    1
 -2      3615      3410      3616      6524      3928      4350      4349      9546      9547      8057
 -1      4541    6    0    1
 -2      1291      1292      6217      6519      3233      7717      9548      8416      8414      9549
 -1      4542    6    0    1
 -2      6053      6105      5554      6335      7906      7905      7907      9550      9552      9551
 -1      4543    6    0    1
 -2      1229      6398      6205      6501      9016      9017      8289      9132      9133      9553
 -1      4544    6    0    1
 -2      3469      6275      3490      6468      9554      9555      4594      9556      9557      6879
 -1      4545    6    0    1
 -2      6040      6041      6023      6393      7357      7116      7837      6562      7988      9558
 -1      4546    6    0    1
 -2      1579      1496      1068      6236      2147      2146      1639      8781      9559      8780
 -1      4547    6    0    1
 -2      6164      6194      6098      6344      9560      9561      8732      8730      9562      8731
 -1      4548    6    0    1
 -2      3462      3460      3778      6125      4625      4627      4626      9563      9564      8715
 -1      4549    6    0    1
 -2      6037      6057      6053      6181      9041      7218      9565      9040      7190      7842
 -1      4550    6    0    1
 -2      6026      6330      6051      6515      9290      9384      7721      9405      9566      9404
 -1      4551    6    0    1
 -2      6206      6111      6286      6445      6675      9567      9568      9569      6575      9570
 -1      4552    6    0    1
 -2      1254      1464      1224      6165      2965      2964      2864      7539      7067      6965
 -1      4553    6    0    1
 -2      6073      6169      6168      6378      6581      8514      8513      7535      7536      9571
 -1      4554    6    0    1
 -2      1062      1364      1521      6309      2118      2117      1794      8797      8798      9349
 -1      4555    6    0    1
 -2      1577      1213      1214      6501      2902      2624      2903      9572      8051      8052
 -1      4556    6    0    1
 -2      3666       267       268      6311      3986       367      3987      9573      6741      6742
 -1      4557    6    0    1
 -2      3611      3614      3409      6429      4348      4144      4346      8180      9575      9574
 -1      4558    6    0    1
 -2      1217      6181      1169      6480      7128      6590      2495      8056      9576      8055
 -1      4559    6    0    1
 -2      6045      6164      6141      6415      9577      9578      9579      9580      9520      9581
 -1      4560    6    0    1
 -2      1277      6315      6136      6342      9582      9583      7598      8283      9584      8282
 -1      4561    6    0    1
 -2      1208      1185      6229      6461      2667      8222      8221      7831      7832      9585
 -1      4562    6    0    1
 -2      6022      6091      6064      6102      8275      8883      8707      8277      8276      6804
 -1      4563    6    0    1
 -2      3757      3413      3612      6353      4363      4362      4364      9586      9588      9587
 -1      4564    6    0    1
 -2      6034      6300      6162      6413      8744      8690      9275      9045      9589      8132
 -1      4565    6    0    1
 -2      6042      6087      6043      6133      9590      9531      9591      9592      9593      9109
 -1      4566    6    0    1
 -2      6043      6385      6330      6481      9594      7964      9111      9505      7966      7967
 -1      4567    6    0    1
 -2      3748      3670      3703      6373      4704      4288      4857      9595      9597      9596
 -1      4568    6    0    1
 -2      6156      6357      6284      6505      9598      8263      7043      9599      8268      8266
 -1      4569    6    0    1
 -2      3719      6224      3604      6403      9600      9601      4555      9602      9603      9498
 -1      4570    6    0    1
 -2      3730      3482      3572      6268      4751      4750      4752      8257      8789      7985
 -1      4571    6    0    1
 -2      6153      6031      6160      6328      9604      9605      6750      9606      9608      9607
 -1      4572    6    0    1
 -2      6142      6443      6120      6467      8200      9107      7682      6948      8271      8487
 -1      4573    6    0    1
 -2      1375       239       238      6477      1723       338      1724      9609      9611      9610
 -1      4574    6    0    1
 -2      5462      6156      5478      6336      9612      9613      5867      9614      9616      9615
 -1      4575    6    0    1
 -2      6097      6052      6290      6493      7465      8231      8359      9617      8233      8234
 -1      4576    6    0    1
 -2      3699      3529      3532      6513      4966      4972      4974      9618      9620      9619
 -1      4577    6    0    1
 -2      1355      6280      1123      6361      6962      6963      2419      9621      9623      9622
 -1      4578    6    0    1
 -2      6035      6125      6054      6250      6651      6650      6649      7244      8717      7246
 -1      4579    6    0    1
 -2      1055      1421      1499      6308      1878      2079      2078      9624      8874      8875
 -1      4580    6    0    1
 -2      1358      1505      1081      6199      2206      1776      2207      8752      9625      9141
 -1      4581    6    0    1
 -2      6239      6334      6055      6343      9626      9627      9628      9629      9631      9630
 -1      4582    6    0    1
 -2      1217      1137      6181      6480      2494      7129      7128      8056      9632      9576
 -1      4583    6    0    1
 -2       243      3394       242      6455      3912      3911       342      9633      9635      9634
 -1      4584    6    0    1
 -2      3595      3415      3751      6159      4372      4374      4373      8496      7450      7448
 -1      4585    6    0    1
 -2      3792      6183      6067      6275      7467      9243      9306      7554      7555      9636
 -1      4586    6    0    1
 -2      1096      1373      1098      6170      2274      2273      2272      7121      6777      6778
 -1      4587    6    0    1
 -2      1430      1526      5524      1058      2094      9637      8694      2093      1681      8693
 -1      4588    6    0    1
 -2      3699      3528      6085      6462      4965      7977      7978      9638      9640      9639
 -1      4589    6    0    1
 -2      1357      1503      6121      6404      3357      6835      7042      7290      9642      9641
 -1      4590    6    0    1
 -2      1583      6114      1446      6416      8501      8500      3095      7336      9643      7696
 -1      4591    6    0    1
 -2      1363      1062      1569      6309      2115      1791      2116      9320      8797      7409
 -1      4592    6    0    1
 -2      6055      6085      6077      6245      7800      7799      7801      9381      9382      9644
 -1      4593    6    0    1
 -2      1214      1531      1571      6282      2626      2911      2908      6611      6612      9645
 -1      4594    6    0    1
 -2      1136      1120      1474      6354      2404      2373      2405      7730      9646      7729
 -1      4595    6    0    1
 -2      1373      1125      6123      6170      2275      7811      7297      6777      7120      8516
 -1      4596    6    0    1
 -2      1515      1419      1409      6215      3373      1827      3374      9647      9649      9648
 -1      4597    6    0    1
 -2      1479      1570      1259      6123      2432      3129      3036      9650      7810      7140
 -1      4598    6    0    1
 -2      1544      1545      1299      6320      3259      3267      3264      9651      9653      9652
 -1      4599    6    0    1
 -2       253       252      1049      6274       352      1766      1765      9467      7993      9335
 -1      4600    6    0    1
 -2      3686      6389      6313      6467      9654      9655      9105      7817      9657      9656
 -1      4601    6    0    1
 -2      6045      6344      6164      6527      9658      8730      9577      9659      7408      8733
 -1      4602    6    0    1
 -2      5517      6173      6257      6383      9660      8675      9661      9662      8767      8768
 -1      4603    6    0    1
 -2      1430      6105      1255      6433      7206      7205      2927      9004      9664      9663
 -1      4604    6    0    1
 -2      1450      1187      6203      6493      2769      9135      9136      9665      9667      9666
 -1      4605    6    0    1
 -2       533      1319      1572      6256      7026      1611      9668      7027      6691      9669
 -1      4606    6    0    1
 -2      1295      1292      6117      6217      3243      6973      6974      7430      7717      9164
 -1      4607    6    0    1
 -2      6088      6182      6175      6428      8465      9670      6622      9671      9673      9672
 -1      4608    6    0    1
 -2      5484      6264      6058      6510      8068      8067      8066      9674      9676      9675
 -1      4609    6    0    1
 -2      1343      1443      1429      6215      3156      3345      3347      9502      9503      9677
 -1      4610    6    0    1
 -2      3788      3579      3578      6183      5122      4915      4727      7839      8365      7468
 -1      4611    6    0    1
 -2       258       257      1047      6396       357      1781      1780      7856      7857      9678
 -1      4612    6    0    1
 -2      6047      6176      6077      6469      9679      7260      9680      9681      8109      8107
 -1      4613    6    0    1
 -2      5524      1058      5493      6480      8693      9682      5638      8695      8696      9683
 -1      4614    6    0    1
 -2      3641      6146      3557      6200      7004      7108      5086      8406      7490      8044
 -1      4615    6    0    1
 -2      6165      1473      6331      6398      7538      9684      9516      9543      9686      9685
 -1      4616    6    0    1
 -2      3506      3508      3570      6228      4789      4868      4867      9687      7867      8581
 -1      4617    6    0    1
 -2      3492      3463      3491      6337      4643      4641      4644      8620      9689      9688
 -1      4618    6    0    1
 -2      1481      6213      1132      6352      8346      7225      2472      9690      9692      9691
 -1      4619    6    0    1
 -2      6109      6307      6303      6468      7786      8839      9693      6881      8427      9694
 -1      4620    6    0    1
 -2      6076      6288      6075      6369      8103      8104      6744      6745      9695      6688
 -1      4621    6    0    1
 -2      6024      6076      6369      6471      8632      6745      6558      7605      9696      7607
 -1      4622    6    0    1
 -2      6015      6154      6286      6300      9697      9698      9699      7687      9701      9700
 -1      4623    6    0    1
 -2      1461      1154      1153      6267      2583      2579      2584      9702      7355      9703
 -1      4624    6    0    1
 -2      3629      3632      3633      6169      5173      5176      5175      9704      8311      9705
 -1      4625    6    0    1
 -2      1398      1245      6227      6422      3069      6735      9706      9707      8250      8251
 -1      4626    6    0    1
 -2      3656       270      3486      6175      3993      3995      3997      9708      7421      9709
 -1      4627    6    0    1
 -2       292       293      3400      6316       392      4062      4061      7314      7312      8316
 -1      4628    6    0    1
 -2       324      1384       325      6191      1982      1981       424      9329      6928      8881
 -1      4629    6    0    1
 -2      1099      1098      1100      6384      2277      2284      2283      9710      6934      6935
 -1      4630    6    0    1
 -2      6085      6099      6033      6201      9711      9001      8543      8290      9265      7100
 -1      4631    6    0    1
 -2      5337      6340       476      6349      9452      9508      9712      9453      7171      9509
 -1      4632    6    0    1
 -2      1402       307      1048      6225      1931      1927      1932      7630      8920      7104
 -1      4633    6    0    1
 -2      3506      3508      6228      6468      4789      7867      9687      9713      6880      7868
 -1      4634    6    0    1
 -2      1357      1356      1503      6404      3254      2038      3357      7290      9009      9642
 -1      4635    6    0    1
 -2      6120      6390      5467      6467      8544      9714      7683      8487      9715      8242
 -1      4636    6    0    1
 -2       494      6216       490      6408      9716      7072       913      9717      7075      7073
 -1      4637    6    0    1
 -2      6029      6219      6206      6286      7084      8001      7998      9718      9719      9568
 -1      4638    6    0    1
 -2      1112      1110      6354      6488      2350      9720      9721      9722      7478      9723
 -1      4639    6    0    1
 -2      1358      1580      1302      6397      2208      3274      3275      9724      9726      9725
 -1      4640    6    0    1
 -2      6055      6033      6085      6099      9727      8543      7800      9728      9001      9711
 -1      4641    6    0    1
 -2      1086      1370       331      6180      2004      2003      1999      8064      9730      9729
 -1      4642    6    0    1
 -2      1422      1354      1085      6310      2006      2225      1872      9731      9733      9732
 -1      4643    6    0    1
 -2       494      6349      6216      6408      9734      7157      9716      9717      7798      7075
 -1      4644    6    0    1
 -2       565      5384       454      6214      8488      5388      9735      7901      8489      9736
 -1      4645    6    0    1
 -2      6068      6099      6048      6200      9002      9003      9000      9737      9738      7491
 -1      4646    6    0    1
 -2      6030      6069      6093      6127      7363      7368      7366      9739      9741      9740
 -1      4647    6    0    1
 -2      6041      6423      6070      6454      7987      9742      6708      8142      8971      8141
 -1      4648    6    0    1
 -2      6216      6349      5468      6408      7157      9743      9744      7075      7798      9745
 -1      4649    6    0    1
 -2      1171      1471      6205      6501      2629      8047      8048      9060      9061      9553
 -1      4650    6    0    1
 -2      3547      6144      3553      6435      7852      7853      4779      9746      8213      9747
 -1      4651    6    0    1
 -2      3508      6109      3762      6228      6878      9116      4876      7867      7866      8582
 -1      4652    6    0    1
 -2      6122      6170      6032      6384      7537      8536      6701      6936      9117      9748
 -1      4653    6    0    1
 -2      5452      6173      5517      6485      9192      9660      5829      9749      6724      9750
 -1      4654    6    0    1
 -2      3423      6142      6347      6463      8472      9419      9420      8965      8563      9751
 -1      4655    6    0    1
 -2       550       537       578      6262       773      1040      1019      6657      9752      9310
 -1      4656    6    0    1
 -2      1467      6220      1060      6296      7951      8170      2103      8458      8555      9019
 -1      4657    6    0    1
 -2      3505      6109      6307      6318      9753      7786      9460      9462      9754      9464
 -1      4658    6    0    1
 -2      6046      6140      6107      6339      9755      9756      7350      8735      7650      8737
 -1      4659    6    0    1
 -2      3594      6118      3702      6456      7781      9200      4436      9757      8220      9758
 -1      4660    6    0    1
 -2      6067      6041      6100      6183      6705      8099      9357      9243      8101      8102
 -1      4661    6    0    1
 -2      1460      6256      6103      6460      6692      6693      6690      6941      6942      9759
 -1      4662    6    0    1
 -2      1182      1163      1235      6364      2640      2592      2641      7223      7221      9760
 -1      4663    6    0    1
 -2      3625      6209      6107      6339      9249      8699      9526      7648      9311      8737
 -1      4664    6    0    1
 -2       273       274      3657      6530       373      4005      4004      7603      7601      9761
 -1      4665    6    0    1
 -2       527      6062      6022      6091      9325      9762      9763      9326      9327      8275
 -1      4666    6    0    1
 -2      1337      1446      1583      6397      2048      3095      2917      9764      8502      8503
 -1      4667    6    0    1
 -2       565       517      5384      6390       762      9300      8488      7903      6828      8490
 -1      4668    6    0    1
 -2      6041      6139      6100      6187      9765      9081      8099      9766      9080      8726
 -1      4669    6    0    1
 -2      3569      6152      3611      6298      8223      8224      4347      9304      9767      8177
 -1      4670    6    0    1
 -2      3543      3544      3547      6144      5040      5048      5047      9768      9769      7852
 -1      4671    6    0    1
 -2      3762      3659      3570      6228      4214      5108      4875      8582      9223      8581
 -1      4672    6    0    1
 -2      3540      6099      6200      6360      7919      9738      8043      7237      8891      7495
 -1      4673    6    0    1
 -2       548       510      6176      6469       995      7259      9770      9771      8108      8109
 -1      4674    6    0    1
 -2      3460      3476      3778      6125      4628      4630      4627      9564      8716      8715
 -1      4675    6    0    1
 -2       276       275      1248      6391       375      1835      1834      9102      9773      9772
 -1      4676    6    0    1
 -2      1400      1334      1394      6227      3339      2199      1950      6766      6736      6765
 -1      4677    6    0    1
 -2      6028      6096      6078      6440      7525      9145      6905      7461      7833      9774
 -1      4678    6    0    1
 -2      3625      3628      6140      6405      5156      7647      7646      8828      9775      8830
 -1      4679    6    0    1
 -2      5564      6132      5472      6206      6923      9421      5882      8547      8546      7677
 -1      4680    6    0    1
 -2      6134      6175      6095      6421      6987      6624      6986      9776      9778      9777
 -1      4681    6    0    1
 -2      1127      1126      1115      6292      2376      2375      2377      7173      9363      7174
 -1      4682    6    0    1
 -2      6018      6363      6357      6515      9779      9780      6754      9781      9783      9782
 -1      4683    6    0    1
 -2      3408      3571      3598      6402      4341      4342      4174      9784      9786      9785
 -1      4684    6    0    1
 -2       478       474       495      6240       831       833       834      7164      7378      8013
 -1      4685    6    0    1
 -2      6162      6300      6283      6413      8690      9146      7552      8132      9589      7878
 -1      4686    6    0    1
 -2      1049      6274      1446      6397      9335      7583      2049      8665      9468      8502
 -1      4687    6    0    1
 -2      6153      6328      6160      6357      9606      9607      6750      6753      9787      6755
 -1      4688    6    0    1
 -2       474      6214       473      6475      7483      9788       821      8143      7959      9789
 -1      4689    6    0    1
 -2      1374      1567      1454      6252      3040      2388      2302      7428      8408      7276
 -1      4690    6    0    1
 -2      6027      6060      6169      6489      6868      6870      6582      9790      9792      9791
 -1      4691    6    0    1
 -2      1343      1265      1443      6179      3155      3151      3156      9500      9793      9501
 -1      4692    6    0    1
 -2      1078       319       318      6459      1963       418      1964      8190      8188      8983
 -1      4693    6    0    1
 -2      1141      1132      6213      6290      2468      7225      7226      9794      8705      9795
 -1      4694    6    0    1
 -2      6042      6218      6133      6285      7652      9796      9592      9797      9799      9798
 -1      4695    6    0    1
 -2      1227      6203      1188      6333      9211      9800      2771      9210      9209      9801
 -1      4696    6    0    1
 -2      1545      1544      1298      6320      3259      3260      2817      9653      9651      9802
 -1      4697    6    0    1
 -2      6062      6091       522      6242      9327      9328      9324      9803      9805      9804
 -1      4698    6    0    1
 -2      6185      6294      3434      6442      8294      8295      8293      9806      9808      9807
 -1      4699    6    0    1
 -2       553      6236       528      6525      9809      7927      1036      9810      9245      9244
 -1      4700    6    0    1
 -2      6213      6367      1243      6425      7523      7524      7521      9474      9811      7836
 -1      4701    6    0    1
 -2      1340      6179      6324      6436      9812      7423      6638      6784      9813      6786
 -1      4702    6    0    1
 -2      1052      1538      1386      6478      2062      2061      1974      6989      9814      6991
 -1      4703    6    0    1
 -2       514      6110       580      6226      9815      9816      1011      9817      9819      9818
 -1      4704    6    0    1
 -2      3489      6435      6185      6442      8557      8214      9820      8559      8560      9806
 -1      4705    6    0    1
 -2      3404      3790      6176      6325      4321      8953      8954      9316      9821      7264
 -1      4706    6    0    1
 -2      6214      6355      6120      6390      9822      8023      7847      7904      9070      8544
 -1      4707    6    0    1
 -2      1185      6229      6115      6263      8222      8968      8322      7159      7016      8718
 -1      4708    6    0    1
 -2      6035      6074      6070      6248      7243      6983      6709      9823      9825      9824
 -1      4709    6    0    1
 -2      6053      6057      6037      6289      7218      9041      9565      9155      8474      9826
 -1      4710    6    0    1
 -2      1047      6396      1503      6404      9678      6836      2039      8617      9827      9642
 -1      4711    6    0    1
 -2      6025      6334      6239      6343      9828      9626      9829      9234      9631      9629
 -1      4712    6    0    1
 -2      3730      3378      3657      6530      4195      4006      4196      9230      9231      9761
 -1      4713    6    0    1
 -2      5467      6120      5489      6390      7683      8021      5840      9714      8544      9069
 -1      4714    6    0    1
 -2      6182      6185      6095      6446      7211      9830      8287      7214      7215      9831
 -1      4715    6    0    1
 -2       454      6214      5384      6390      9736      8489      5388      9832      7904      8490
 -1      4716    6    0    1
 -2      6015      6153      6286      6486      9833      9834      9699      9835      9837      9836
 -1      4717    6    0    1
 -2       259      6146       258      6404      7340      7006       358      7001      9838      7003
 -1      4718    6    0    1
 -2      1589      6225      1048      6522      7103      7104      2044      8762      9840      9839
 -1      4719    6    0    1
 -2      1132      1130      6352      6492      2458      9841      9691      7453      7451      9842
 -1      4720    6    0    1
 -2      5481      3708      6241      6299      9843      6544      9844      9845      8466      8467
 -1      4721    6    0    1
 -2      6093      6127      6069      6204      9740      9741      7368      9344      9846      9343
 -1      4722    6    0    1
 -2      5385      5539       454      6214      8608      9847      5396      8607      8606      9736
 -1      4723    6    0    1
 -2      3425      3428      3594      6350      4421      4427      4426      9848      9850      9849
 -1      4724    6    0    1
 -2      3554      6202      3494      6365      9851      6898      4650      9852      9229      9036
 -1      4725    6    0    1
 -2      1432      1343      1515      6246      3351      3348      3352      9853      7778      9854
 -1      4726    6    0    1
 -2      1187      1150      1188      6333      2559      2567      2566      9855      7662      9801
 -1      4727    6    0    1
 -2      6211      6271      1149      6333      7414      7412      7410      8844      9149      7663
 -1      4728    6    0    1
 -2      5456      6089      6287      6400      7772      7654      7773      9139      9140      9256
 -1      4729    6    0    1
 -2      3637      3723      6140      6449      5172      9059      8508      8510      9856      8509
 -1      4730    6    0    1
 -2      3686      6120      6443      6467      9103      9107      8199      7817      8487      8271
 -1      4731    6    0    1
 -2      6206      6216      6111      6219      7146      6572      6675      8001      7105      8168
 -1      4732    6    0    1
 -2      1204      1287      1359      6453      2857      2860      2859      9857      9859      9858
 -1      4733    6    0    1
 -2       528      6061      6091      6437      7926      7925      7924      9860      8122      8280
 -1      4734    6    0    1
 -2      6054      6035      6074      6086      6649      7243      7242      8714      7995      7994
 -1      4735    6    0    1
 -2      1408      6175       269      6368      7419      7420      1817      6831      9011      6859
 -1      4736    6    0    1
 -2      3766      3518      3750      6376      4918      4916      4919      8396      8394      9861
 -1      4737    6    0    1
 -2      1127      6189      6292      6457      8005      8443      7173      6938      8445      7175
 -1      4738    6    0    1
 -2      1184      1186      6167      6315      2661      6762      6763      9354      9863      9862
 -1      4739    6    0    1
 -2      6034      6283      6142      6443      9044      7307      9043      9864      9865      8200
 -1      4740    6    0    1
 -2      1047       258      6396      6404      1780      7856      9678      8617      7003      9827
 -1      4741    6    0    1
 -2      3429      3426      3430      6245      4429      4431      4430      9866      8689      9867
 -1      4742    6    0    1
 -2      5457      5455      6283      6287      5842      7640      7551      8204      7655      7656
 -1      4743    6    0    1
 -2      1521      6309      1364      6322      9349      8798      2117      8595      9868      8597
 -1      4744    6    0    1
 -2      1240      1440      1305      6447      3043      3045      3033      9869      9871      9870
 -1      4745    6    0    1
 -2      6061      6102      6091      6437      9872      8276      7925      8122      8279      8280
 -1      4746    6    0    1
 -2      6092      6229      1494      6263      8449      6873      6773      9873      7016      7078
 -1      4747    6    0    1
 -2      6161      6346      6249      6455      7588      6954      7586      9874      9876      9875
 -1      4748    6    0    1
 -2      6051      6403      6387      6473      9877      7137      9878      9879      7139      6919
 -1      4749    6    0    1
 -2      3725      3547      3553      6435      5051      4779      4784      9880      9746      9747
 -1      4750    6    0    1
 -2      5434      1089      1285      6204      9492      2244      8635      9881      8338      8339
 -1      4751    6    0    1
 -2      1209      1185      1309      6422      2758      2760      2759      9369      8342      8845
 -1      4752    6    0    1
 -2       492      6270       481      6502      9514      9882       862      9883      9885      9884
 -1      4753    6    0    1
 -2      6162      6015      6287      6300      7502      7047      7503      8690      7687      9147
 -1      4754    6    0    1
 -2      5561      6390      5197      6467      9886      9887      8822      8824      9715      8826
 -1      4755    6    0    1
 -2      5514      6069      6104      6159      9888      9889      6725      9890      9892      9891
 -1      4756    6    0    1
 -2      5516      5440      5548      6142      5769      5765      5771      7304      7518      8813
 -1      4757    6    0    1
 -2      6089      5453      6355      6400      7777      8580      7644      9140      9138      9162
 -1      4758    6    0    1
 -2      1581      1352      1318      6180      2231      3316      2254      9893      8062      9894
 -1      4759    6    0    1
 -2      1468      1311      1061      6356      2109      2108      2110      9895      9897      9896
 -1      4760    6    0    1
 -2      3770      3735      3391      6496      4262      4259      4260      9898      9900      9899
 -1      4761    6    0    1
 -2      6206      6286      6219      6445      9568      9719      8001      9569      9570      7107
 -1      4762    6    0    1
 -2      3649      3762      6109      6302      4212      9116      9115      9901      9224      9902
 -1      4763    6    0    1
 -2      1259      1479      6123      6372      3036      9650      7140      7143      8663      7135
 -1      4764    6    0    1
 -2      1196      1212      1545      6380      2811      2814      2813      9903      9905      9904
 -1      4765    6    0    1
 -2      1086      1352      1581      6180      2229      2231      2230      8064      8062      9893
 -1      4766    6    0    1
 -2      6059      6031      6116      6282      9906      8138      9907      9908      9909      8017
 -1      4767    6    0    1
 -2      6128      6158      6046      6233      9910      7373      6769      6771      9911      6770
 -1      4768    6    0    1
 -2      6034      6283      6300      6413      9044      9146      8744      9045      7878      9589
 -1      4769    6    0    1
 -2      3407      3779      3596      6232      4335      4334      3895      8086      7719      8085
 -1      4770    6    0    1
 -2      1188      1227      1335      6203      2771      2774      2773      9800      9211      9912
 -1      4771    6    0    1
 -2      1137      1355      1123      6361      2422      2419      2420      9913      9621      9622
 -1      4772    6    0    1
 -2      6229      6235      1487      6461      9914      9915      7708      9585      9917      9916
 -1      4773    6    0    1
 -2      6022       527      6091      6437      9763      9326      8275      8278      9918      8280
 -1      4774    6    0    1
 -2      3621      3385       255      6482      3952      3948      3950      9919      7342      7343
 -1      4775    6    0    1
 -2      3637      3629      3734      6279      5168      5177      4256      8507      9921      9920
 -1      4776    6    0    1
 -2      1274      6262      6110      6534      7344      6659      6629      9922      9486      7943
 -1      4777    6    0    1
 -2      1291      1292      1497      6217      3233      3239      3238      9548      7717      7431
 -1      4778    6    0    1
 -2      1334      1490      1245      6227      3071      3070      3066      6736      9923      6735
 -1      4779    6    0    1
 -2      6270      6283      6120      6451      9924      7684      9038      9039      9925      8129
 -1      4780    6    0    1
 -2      1079      1394      1334      6297      1953      2199      2198      9403      7576      8371
 -1      4781    6    0    1
 -2      5474      5440      5542      6467      5686      5768      5767      9195      7520      7952
 -1      4782    6    0    1
 -2      5288      5283      5538      6240      5312      9926      9487      9488      9927      9489
 -1      4783    6    0    1
 -2      1255      1169      6105      6480      2670      6588      7205      7207      8055      7209
 -1      4784    6    0    1
 -2       552      5214      5384      6390      9928      9929      9299      9301      9930      8490
 -1      4785    6    0    1
 -2      1089      1092      1318      5533      1706      2241      2240      9931      9933      9932
 -1      4786    6    0    1
 -2      3604      3719      3720      6224      4555      5097      4685      9601      9600      9934
 -1      4787    6    0    1
 -2      5484      6264      5522      6299      8068      9935      5969      8069      8070      9936
 -1      4788    6    0    1
 -2      3699      3562      3721      6244      4991      4469      5093      9937      9939      9938
 -1      4789    6    0    1
 -2      1121      6235      1123      6280      9940      8462      2401      7679      7194      6963
 -1      4790    6    0    1
 -2      6102      6236      1175      6237      7892      6840      6592      7763      8821      7054
 -1      4791    6    0    1
 -2      1069      1507       329      6238      1998      1997      1993      7920      7921      9941
 -1      4792    6    0    1
 -2      6111      6257      5547      6400      6648      6884      6882      8989      9942      8988
 -1      4793    6    0    1
 -2       495       543       478      6173       854       855       834      8012      8997      6722
 -1      4794    6    0    1
 -2      6038      6095      6144      6239      8284      8286      8285      9943      9945      9944
 -1      4795    6    0    1
 -2      6143      6098      6344      6527      9946      8731      7403      7406      8734      7408
 -1      4796    6    0    1
 -2      3376       288       289      6520      4049       388      4050      9947      9949      9948
 -1      4797    6    0    1
 -2      5253      5532      5549      5252      9950      5696      9951      5281      6697      6698
 -1      4798    6    0    1
 -2      3699      3733      3528      6462      4969      4968      4965      9638      9952      9640
 -1      4799    6    0    1
 -2      6070      6183      6171      6376      8100      9953      6984      9954      8616      8865
 -1      4800    6    0    1
 -2      3721      6244      3433      6245      9938      7807      4470      9955      9383      9956
 -1      4801    6    0    1
 -2      3423      3563      3420      6347      4398      4395      4396      9420      9958      9957
 -1      4802    6    0    1
 -2      3638      3727      3503      6520      4189      4057      4849      9959      9961      9960
 -1      4803    6    0    1
 -2      1308      1499      1576      6306      3210      3289      3288      9962      9964      9963
 -1      4804    6    0    1
 -2      1566      1286      1587      6332      3215      3219      2849      7972      9966      9965
 -1      4805    6    0    1
 -2      3494      6104      3493      6241      7917      7918      4648      9967      8225      9968
 -1      4806    6    0    1
 -2      3718      6099      3541      6435      7113      7114      5027      7742      9970      9969
 -1      4807    6    0    1
 -2      3527      3534      3530      6346      4953      4964      4963      8398      9971      8400
 -1      4808    6    0    1
 -2       488      6219      6295      6445      9367      7089      9366      9972      7107      8061
 -1      4809    6    0    1
 -2       562      6257      6383      6500      8764      8768      8766      9973      9975      9974
 -1      4810    6    0    1
 -2      3584      3514      3594      6208      4898      4897      4442      6863      8758      6864
 -1      4811    6    0    1
 -2      5532      5250      5418      5252      9976      9977      7130      6697      5273      7070
 -1      4812    6    0    1
 -2       493      6270       492      6313      9037      9514       864      8973      9220      8972
 -1      4813    6    0    1
 -2      1473      1482      6165      6331      2395      7540      7538      9684      9978      9516
 -1      4814    6    0    1
 -2      5484      5482      6058      6299      5966      9979      8066      8069      9980      8071
 -1      4815    6    0    1
 -2      1452      6093      6150      6345      8162      8161      6599      8349      9981      8351
 -1      4816    6    0    1
 -2      1448      6292      1447      6324      9982      9983      2439      8134      9985      9984
 -1      4817    6    0    1
 -2      3713      3679      3602      6161      5145      5146      5144      9986      9988      9987
 -1      4818    6    0    1
 -2       551      6173       562      6257      7541      8765       925      8676      8675      8764
 -1      4819    6    0    1
 -2      3506      3490      3508      6468      4676      4790      4789      9713      6879      6880
 -1      4820    6    0    1
 -2      5288       564      5283      6240      9528      9989      5312      9488      9527      9927
 -1      4821    6    0    1
 -2      5501      5497      6030      6069      5999      7365      9990      9991      7364      7363
 -1      4822    6    0    1
 -2       563      5289      5339      5537      7638      9992      6992      6614      7639      6993
 -1      4823    6    0    1
 -2      6133      6218      3800      6464      9796      7147      8739      9205      7150      7151
 -1      4824    6    0    1
 -2      3428      6243      3594      6350      9993      9263      4427      9850      9994      9849
 -1      4825    6    0    1
 -2      5469      5517      6173      6485      5828      9660      7764      7766      9750      6724
 -1      4826    6    0    1
 -2      1479      1373      1125      6123      2430      2275      2431      9650      7297      7811
 -1      4827    6    0    1
 -2      1162      1176      1553      6237      2634      2636      2596      7055      7053      6977
 -1      4828    6    0    1
 -2      1092      1581      1318      6180      2255      2254      2241      9995      9893      9894
 -1      4829    6    0    1
 -2      6355      6451      6173      6485      9996      6723      9159      9997      6667      6724
 -1      4830    6    0    1
 -2      6017      6335      6284      6505      8774      9053      8265      8267      9998      8266
 -1      4831    6    0    1
 -2      1117      1109      1105      6252      2320      2319      2321      9440      9323      8963
 -1      4832    6    0    1
 -2      3649      3381      3762      6302      4211      4213      4212      9901      9999      9224
 -1      4833    6    0    1
 -2      1505      1358      1451      6396      2206      3360      1779      8194      6838      8863
 -1      4834    6    0    1
 -2      1136      6235      1120      6354      8463      8464      2404      7730      7516      9646
 -1      4835    6    0    1
 -2      1536      6217      1142      6425     10000     10001      2528      8363     10002      8362
 -1      4836    6    0    1
 -2       280      6196      1219      6394      6627      7771      1846      9028     10003      9027
 -1      4837    6    0    1
 -2      1117      6252      1135      6497      9440      9441      2385      8551     10004      8550
 -1      4838    6    0    1
 -2      5464      6216      5468      6408      7680      9744      5887     10005      7075      9745
 -1      4839    6    0    1
 -2      1090      1319       499      6340      1610      9394     10006     10007      7095      9395
 -1      4840    6    0    1
 -2      1262      1271      1312      6242      2889      3144      3143      9448      9447     10008
 -1      4841    6    0    1
 -2      3395      6172      3601      6327      6643      6641      3907      7012     10009      7011
 -1      4842    6    0    1
 -2      1132      1130      1264      6352      2458      2460      2459      9691      9841     10010
 -1      4843    6    0    1
 -2      3625      3628      3635      6339      5156      5158      5154      7648      7649     10011
 -1      4844    6    0    1
 -2      1118      1473      1122      6331      2392      2391      2367      7715      9684      7714
 -1      4845    6    0    1
 -2       527       528       523      6091      1026      1027      1025      9326      7924     10012
 -1      4846    6    0    1
 -2      1382      1075      6221      6249      1740      7051      7049      7672      7673     10013
 -1      4847    6    0    1
 -2      6055      6239      6049      6334      9628     10014     10015      9627      9626     10016
 -1      4848    6    0    1
 -2      5461      6156      5459      6535      7177     10017      5853      7178      7179     10018
 -1      4849    6    0    1
 -2      3698      3495      3556      6341      4802      4811      4813      9189      8492      8491
 -1      4850    6    0    1
 -2      6089      6173      6392      6400      7058      7057      7056      9140      9161     10019
 -1      4851    6    0    1
 -2      5487      5550       457      5287      5616     10020      7825      7826     10021      7387
 -1      4852    6    0    1
 -2      1367      6433      6105      6497      8854      9664      6790      9238      9239      9318
 -1      4853    6    0    1
 -2      1215      1583      1584      6441      2916      2918      2701     10022     10024     10023
 -1      4854    6    0    1
 -2      1356      1294      1293      6404      3246      3242      3247      9009      7291      7315
 -1      4855    6    0    1
 -2      3557      6200      6146      6360      8044      7490      7108      8045      7495      7493
 -1      4856    6    0    1
 -2      1223      1173      6157      6324      2693      8029      8030     10025     10026      8579
 -1      4857    6    0    1
 -2      5481      6241      5483      6299      9844     10027      5964      9845      8467     10028
 -1      4858    6    0    1
 -2      3587      6316      6209      6407      8317     10029     10030      8319      8320     10031
 -1      4859    6    0    1
 -2       549      6195       560      6420      8419      7789       902      8420      7788      7787
 -1      4860    6    0    1
 -2      3639       312      6171      6376      4121      6812      6813      7530      7531      8865
 -1      4861    6    0    1
 -2      6024      6386      6330      6481      8079      9443      7963      7965      9446      7967
 -1      4862    6    0    1
 -2      3379      3665       265      6487      3982      3978      3980      7914      6732      7913
 -1      4863    6    0    1
 -2       268      6175       269      6428      9010      7420       368      8334      9672      8333
 -1      4864    6    0    1
 -2      3476      3460      3475      6248      4628      4616      4629     10032      7181      7182
 -1      4865    6    0    1
 -2      5469      5452      5517      6485      5808      5829      5828      7766      9749      9750
 -1      4866    6    0    1
 -2      6096      6174      6097      6230      8644      7466      8357      8355      8645      8356
 -1      4867    6    0    1
 -2      1130      1131      1129      6492      2453      2452      2445      7451      7452     10033
 -1      4868    6    0    1
 -2      1487      1140      1119      6331      2400      2390      2398      9372      8528     10034
 -1      4869    6    0    1
 -2      1160      6116      6282      6501      6757      8017      6613      7456      7457      8298
 -1      4870    6    0    1
 -2      3540      6099      3539      6201      7919      7112      5018      7910      9265      7912
 -1      4871    6    0    1
 -2      3504      3703      3505      6151      4854      4853      4694      8539     10035      9461
 -1      4872    6    0    1
 -2      1280      1112      1110      6354      2351      2350      2352      7828      9721      9720
 -1      4873    6    0    1
 -2      5215      5366      5368      5545     10036      5380     10037     10038     10040     10039
 -1      4874    6    0    1
 -2       250       249      1387      6210       349      1757      1756      8862      8090      6631
 -1      4875    6    0    1
 -2      6015      6286      6287      6300      9699     10041      7047      7687      9700      9147
 -1      4876    6    0    1
 -2      1479      1374      1373      6123      3038      2301      2430      9650      7296      7297
 -1      4877    6    0    1
 -2       538      6256      1314      6358     10042      9351      6971      7757      9353      6988
 -1      4878    6    0    1
 -2      1313      6172      1493      6296      7083      7081      3177      9018      9025      9113
 -1      4879    6    0    1
 -2      5559      6284      5553      6371     10043      9252      5956     10044      9054      9255
 -1      4880    6    0    1
 -2      3792      3578      3475      6248      4712      4711      4618      7469      7470      7182
 -1      4881    6    0    1
 -2      1140      6229      1495      6331      7709      6872      2513      8528      9292      7487
 -1      4882    6    0    1
 -2      6271      6326      1296      6441     10045      9167     10046     10047     10049     10048
 -1      4883    6    0    1
 -2       576       457      5287       513     10050      7387     10051       628      9297      9296
 -1      4884    6    0    1
 -2      3579      3788      3701      6430      5122      5126      5124     10052     10054     10053
 -1      4885    6    0    1
 -2      1525      6233      1529      6411     10055     10056      2949      8485     10057      8484
 -1      4886    6    0    1
 -2      3686      6313      6120      6467      9105      9104      9103      7817      9656      8487
 -1      4887    6    0    1
 -2      1493      6172      1375      6178      7081      7082      2157     10058     10060     10059
 -1      4888    6    0    1
 -2      3800      6133      3560      6218      8739      7162      4823      7147      9796      7815
 -1      4889    6    0    1
 -2      6160      6386      6059      6427      6795     10061     10062     10063     10065     10064
 -1      4890    6    0    1
 -2      1236      6267      1353      6416     10066     10067      3018      6683     10068      6682
 -1      4891    6    0    1
 -2      1343      1265      6179      6246      3155      9793      9500      7778      7779     10069
 -1      4892    6    0    1
 -2      6173      6355      6089      6451      9159      7644      7058      6723      9996      7059
 -1      4893    6    0    1
 -2      1097      1098      1099      6384      2271      2277      2276     10070      6934      9710
 -1      4894    6    0    1
 -2      6219      6286      6029      6445      9719      9718      7084      7107      9570      9122
 -1      4895    6    0    1
 -2       510      6077       509      6325      7261     10071       993      7262      7263     10072
 -1      4896    6    0    1
 -2      1187      6211      6203      6493      8996     10073      9135      9667      8232      9666
 -1      4897    6    0    1
 -2      3489      3725      3553      6435      4785      4784      4786      8557      9880      9747
 -1      4898    6    0    1
 -2      5490      5467      6390      6467      5905      9714     10074     10075      8242      9715
 -1      4899    6    0    1
 -2      6072      6046      6158      6233      7474      7373      8011      7476      6770      9911
 -1      4900    6    0    1
 -2      1223      6157      1222      6323      8030      8031      2694     10076      8577     10077
 -1      4901    6    0    1
 -2      6061      6110      6262      6534      7941      6659      7633      7942      7943      9486
 -1      4902    6    0    1
 -2      1448      1447      1250      6324      2439      2960      3091      8134      9984      8133
 -1      4903    6    0    1
 -2       578       550      6110      6312      1019      6655      9309     10078      8026      8027
 -1      4904    6    0    1
 -2      6034      6079      6278      6419     10079      7612     10080     10081      7615      7616
 -1      4905    6    0    1
 -2      6079      6278      6243      6294      7612      7611      7613     10082      8680      8681
 -1      4906    6    0    1
 -2      6028      6239      6038      6401      9425      9943      8430      7526     10083      8908
 -1      4907    6    0    1
 -2      3525      3526      3527      6424      4941      4949      4948     10084     10086     10085
 -1      4908    6    0    1
 -2       271       272      3668      6530       371      3999      3998     10087      8770     10088
 -1      4909    6    0    1
 -2      1195      1194      6136      6269      2794     10089      7599      8135      8136     10090
 -1      4910    6    0    1
 -2      6053      6037      6181      6335      9565      9040      7842      9550     10092     10091
 -1      4911    6    0    1
 -2      3650      3765      3397      6318      4287      4286      4087      7239     10093      7241
 -1      4912    6    0    1
 -2      3663      6169      6168      6279     10094      8514      6670      6668     10095      6669
 -1      4913    6    0    1
 -2      6061      6237      6166      6333      9484      9412      8379      7939     10096      8382
 -1      4914    6    0    1
 -2      1070      1493      1375      6178      2155      2157      1725     10097     10058     10059
 -1      4915    6    0    1
 -2      1087      1329      1376      6178      2233      2153      1719      6711      9398      6713
 -1      4916    6    0    1
 -2      6086      6071      6167      6342      8146      8147      7996     10098     10100     10099
 -1      4917    6    0    1
 -2       468      6236      1068      6484      8779      8780      8778     10101      8526     10102
 -1      4918    6    0    1
 -2      1466      1452      6345      6399      3169      8349      8721      7805      7796     10103
 -1      4919    6    0    1
 -2      1222      1218      1327      6394      2692      2932      2931     10104     10106     10105
 -1      4920    6    0    1
 -2      1089      5533      1318      6204      9931      9932      2240      8338     10107      8389
 -1      4921    6    0    1
 -2      3618       250      6274      6338      3935      6610      6608      8612      8613     10108
 -1      4922    6    0    1
 -2      1230      1344      1243      6367      2994      2993      2731      7416      9390      7524
 -1      4923    6    0    1
 -2      3476      6125      6248      6250      8716     10109     10032      7186      8717     10110
 -1      4924    6    0    1
 -2      3783      3609      6301      6507      5107      8542      8541     10111     10113     10112
 -1      4925    6    0    1
 -2      1423       280      6394      6508      1850      9028      9029      8459      8460     10114
 -1      4926    6    0    1
 -2      1145      1442      1547      6230      2540      2343      2456     10115     10117     10116
 -1      4927    6    0    1
 -2      6095      6175      6088      6182      6624      6622      6619      8287      9670      8465
 -1      4928    6    0    1
 -2      6097      6203      6050      6211     10118      8651      7464      7574     10073      7573
 -1      4929    6    0    1
 -2       292      6130      1416      6316     10119     10120      1886      7314     10121      7313
 -1      4930    6    0    1
 -2      3556      3571      3751      6159      5078      5083      5082      8065     10122      7448
 -1      4931    6    0    1
 -2      6033      6048      6025      6351      8999      7821      9233     10123     10124      8906
 -1      4932    6    0    1
 -2      5471      5466      5475      6283      5845      5903      5902      7550      7865      7876
 -1      4933    6    0    1
 -2      1359      6258      6332      6453     10125     10126      7970      9858     10128     10127
 -1      4934    6    0    1
 -2      6037      6181      6193      6354      9040      6979     10129     10130      6981      6982
 -1      4935    6    0    1
 -2      1262      6296      6242      6509      6932      9449      9448      9046      9047     10131
 -1      4936    6    0    1
 -2      3692      3470      3720      6224      4683      4684      4686      8843      8841      9934
 -1      4937    6    0    1
 -2      3729      5440      3592      6463     10132      7519      3884     10133      8561      8562
 -1      4938    6    0    1
 -2      1407      6258       300      6373      7271     10134      1906      6845     10135      6847
 -1      4939    6    0    1
 -2      6060      6027      6157      6426      6868      7024      8911      8910      8301      8571
 -1      4940    6    0    1
 -2      1147      6211      1148      6498     10136      7411      2538      7888     10137      7887
 -1      4941    6    0    1
 -2      6058      6045      6299      6337      8352      8353      8071     10138     10139      8621
 -1      4942    6    0    1
 -2      1224      1205      1254      6165      2863      2865      2864      6965     10140      7539
 -1      4943    6    0    1
 -2      3521      3522      3523      6424      4923      4928      4927      8260     10141      8262
 -1      4944    6    0    1
 -2      1558      6263      6139      6266      8008     10142      6933      7061      7759      7063
 -1      4945    6    0    1
 -2      3703      6218      3748      6373     10143     10144      4857      9596     10145      9595
 -1      4946    6    0    1
 -2      6059      6113      6192      6471     10146     10147     10148     10149     10151     10150
 -1      4947    6    0    1
 -2      6018      6348      6386      6515     10152      8080      6793      9781      8083      8084
 -1      4948    6    0    1
 -2      1408       270      6175      6277      1816      7421      7419      7064      8669     10153
 -1      4949    6    0    1
 -2      1449      1335      1590      6203      2775      2282      3270      9137      9912     10154
 -1      4950    6    0    1
 -2      3733      3577      3528      6314      4967      4952      4968     10155     10157     10156
 -1      4951    6    0    1
 -2      6032      6097      6050      6319     10158      7464      8653     10159      7543      7544
 -1      4952    6    0    1
 -2      3545      3537      6291      6338      4986     10160     10161      9078      6556     10162
 -1      4953    6    0    1
 -2      6026      6107      6046      6489      7349      7350      7346      7723      7724     10163
 -1      4954    6    0    1
 -2      1163      6267      1235      6364      7354      9471      2592      7221     10164      9760
 -1      4955    6    0    1
 -2      3423      3513      3514      6208      4406      4411      4410      8473      8366      8758
 -1      4956    6    0    1
 -2      3594      3702      3427      6456      4436      4435      4425      9757      9758     10165
 -1      4957    6    0    1
 -2      6164      6224      3719      6403     10166      9600      9494     10167      9603      9602
 -1      4958    6    0    1
 -2      5550       457      5287      5282     10020      7387     10021     10168      6818      5306
 -1      4959    6    0    1
 -2      6028      6078      6096      6401      6905      9145      7525      7526      8041      7527
 -1      4960    6    0    1
 -2      1058      6433      5493      6480      9005     10169      9682      8696      9006      9683
 -1      4961    6    0    1
 -2       265      6135       264      6367     10170      8818       364      7871     10171      7870
 -1      4962    6    0    1
 -2      6157      6426      6189      6506      8571      7937      8570      8912      8913      8673
 -1      4963    6    0    1
 -2      1168      6115      1185      6461      8321      8322      2664      7830     10172      7832
 -1      4964    6    0    1
 -2      6175      6428      6182      6446      9672      9673      9670     10173     10174      7214
 -1      4965    6    0    1
 -2      3529      3531      3532      6291      4970      4973      4972      7776     10176     10175
 -1      4966    6    0    1
 -2      5385      6214       454      6390      8607      9736      5396      8610      7904      9832
 -1      4967    6    0    1
 -2      6087      6138      6042      6385     10177      6996      9590     10178     10179      7580
 -1      4968    6    0    1
 -2      6083      6395      6033      6431     10180     10181     10182     10183     10185     10184
 -1      4969    6    0    1
 -2      3399      3771      3582      6409      4297      4296      4295     10186     10188     10187
 -1      4970    6    0    1
 -2      5501      5496      5497      6069      5998      5995      5999      9991     10189      7364
 -1      4971    6    0    1
 -2      1349      6116      1115      6528      8682      7974      2332     10190      8517     10191
 -1      4972    6    0    1
 -2      5368      5366      5215      5367      5380     10036     10037      5382      5381     10192
 -1      4973    6    0    1
 -2      3377       280       281      6508      4025       380      4026      6721      8460      8461
 -1      4974    6    0    1
 -2      3631      6169      6405      6494      8313     10193     10194     10195     10197     10196
 -1      4975    6    0    1
 -2       528      6091       527      6437      7924      9326      1026      9860      8280      9918
 -1      4976    6    0    1
 -2       457      5287      5282       576      7387      5306      6818     10050     10051     10198
 -1      4977    6    0    1
 -2      6264      6284      6017      6371      9253      8265      7895      8887      9054      7753
 -1      4978    6    0    1
 -2      6078      6246      6213      6368     10199      8783      8039     10200      7559      8785
 -1      4979    6    0    1
 -2      1164      1165      1139      6439      2505      2504      2425      7499      7500     10201
 -1      4980    6    0    1
 -2      3776      6129      3567      6291      7326      7324      4981     10202      9347     10203
 -1      4981    6    0    1
 -2      3670      3748      3474      6373      4704      4703      4081      9597      9595     10204
 -1      4982    6    0    1
 -2      1128      1448      1560      6492      2435      2451      2450     10205     10207     10206
 -1      4983    6    0    1
 -2      3741      3600      3678      6327      5137      5140      5133     10208     10210     10209
 -1      4984    6    0    1
 -2      6193      6247      6113      6488      8708     10211     10212      8710      7479     10213
 -1      4985    6    0    1
 -2      6046      6131      6043      6481      7370      7735      7345     10214     10215      9505
 -1      4986    6    0    1
 -2      3530      3776      6291      6346      4977     10202      8397      8400     10216      8399
 -1      4987    6    0    1
 -2      6034      6413      6162      6503      9045      8132      9275      8437     10217      8691
 -1      4988    6    0    1
 -2      3377      6168       280      6508      7233      7385      4025      6721      6672      8460
 -1      4989    6    0    1
 -2      1215      1337      1583      6397      2914      2917      2916     10218      9764      8503
 -1      4990    6    0    1
 -2      6193      6354      1110      6488      6982      9720      8709      8710      9723      7478
 -1      4991    6    0    1
 -2      6113      6192      6044      6488     10147      7229     10219     10213      7230      7231
 -1      4992    6    0    1
 -2      1310      6139      1558      6263      6568      6933      3294     10220     10142      8008
 -1      4993    6    0    1
 -2       255      1081      1505      6199      1771      1776      1775      9143      9141      9625
 -1      4994    6    0    1
 -2       497      6195      6270      6502      8324      9515      9513     10221     10222      9885
 -1      4995    6    0    1
 -2      1207      1197      6306      6411      2677      8987      8985     10223     10225     10224
 -1      4996    6    0    1
 -2      1177      1182      1252      6364      2639      2716      2715      7222      7223     10226
 -1      4997    6    0    1
 -2      5490      5561      5543      6467      5990      5580      5992     10075      8824      8825
 -1      4998    6    0    1
 -2      5476      5475      6141      6413      5920     10227      9095      9093      7879      9094
 -1      4999    6    0    1
 -2      6153      6281      6174      6452     10228      8927     10229      8592     10230      6540
 -1      5000    6    0    1
 -2      1133      1457      1131      6493      2465      2464      2462     10231     10233     10232
 -1      5001    6    0    1
 -2      1194      1195      6136      6444      2794      7599     10089     10234      9175     10235
 -1      5002    6    0    1
 -2      1232      1342      6246      6352      3005      7391      7392     10236     10238     10237
 -1      5003    6    0    1
 -2      1180      1141      1179      6425      2520      2469      2521      7835      9472      9473
 -1      5004    6    0    1
 -2       245      3613       244      6249      3918      3917       344      7188     10239      7187
 -1      5005    6    0    1
 -2      1201      6138      6205      6398      6849      9356      8888      9015     10240      9017
 -1      5006    6    0    1
 -2      1399      6139      6187      6251      6546      9080      8647      7426      8412      8649
 -1      5007    6    0    1
 -2      6176      6243      6047      6245     10241     10242      9679      8688     10244     10243
 -1      5008    6    0    1
 -2      6053      6335      5504      6371      9550     10245     10246     10247      8776     10248
 -1      5009    6    0    1
 -2      1222      1539      1351      6394      2954      2938      2953     10104      9050      9049
 -1      5010    6    0    1
 -2      6173      5452      6355      6485      9192      9193      9159      6724      9749      9997
 -1      5011    6    0    1
 -2      1186      1256      1246      6167      2763      2762      2755      6762     10249      6761
 -1      5012    6    0    1
 -2       325      6191       326      6470      8881     10250       425      8877     10251      7991
 -1      5013    6    0    1
 -2      1377      1312      1329      6374      3301      3174      2234     10252     10254     10253
 -1      5014    6    0    1
 -2      3564      3565      3421      6347      4402      4401      4399     10255      8897      8896
 -1      5015    6    0    1
 -2      1259      6123      1570      6256      7140      7810      3129      7142      7141     10256
 -1      5016    6    0    1
 -2      1468      1552      1311      6370      3136      2972      2109      7873      7872     10257
 -1      5017    6    0    1
 -2      3764      3411      3695      6338      4355      4356      4358     10258      9165      6555
 -1      5018    6    0    1
 -2      3564      6164      3565      6347      9495      9519      4402     10255      9518      8897
 -1      5019    6    0    1
 -2      3602      3753      3395      6327      4280      4277      4278      7010     10259      7012
 -1      5020    6    0    1
 -2      6063      6134      6095      6255      6907      6986      8110      8236     10260      8235
 -1      5021    6    0    1
 -2      1043      1416      1516      6260      1890      2019      2018     10261     10263     10262
 -1      5022    6    0    1
 -2      1124      1138      1121      6461      2409      2408      2406     10264     10266     10265
 -1      5023    6    0    1
 -2      3530      3534      3776      6346      4964      4978      4977      8400      9971     10216
 -1      5024    6    0    1
 -2      3540      6200      6099      6201      8043      9738      7919      7910      8244      9265
 -1      5025    6    0    1
 -2      6136      6269      6084      6305     10090      9185      8940      8944     10267      8943
 -1      5026    6    0    1
 -2      6058      6466      6241      6510     10268     10269     10270      9675     10272     10271
 -1      5027    6    0    1
 -2       245      6249      1054      6273      7188      7189      1741      8037      8515      7200
 -1      5028    6    0    1
 -2      6034      6243      6079      6419     10273      7613     10079     10081      7614      7615
 -1      5029    6    0    1
 -2      6193      6252      1109      6497      9432      9323      8892      9319     10004     10274
 -1      5030    6    0    1
 -2       508       548       510      6176       994       995       992      7657      9770      7259
 -1      5031    6    0    1
 -2       291      6276       292      6407      7668      7669       391      9465     10275      8795
 -1      5032    6    0    1
 -2      6061      6237      6333      6534      9484     10096      7939      7942      9485      7944
 -1      5033    6    0    1
 -2       241      1380       242      6220      1733      1732       341      6779      7511      9305
 -1      5034    6    0    1
 -2      3586      3560      3587      6133      4205      4821      5091      7161      7162     10276
 -1      5035    6    0    1
 -2      6156      6206      6065      6336      9336      9083      9337      9616      8548      7482
 -1      5036    6    0    1
 -2      5517      6257      5536      6383      9661     10277      5788      9662      8768     10278
 -1      5037    6    0    1
 -2      1268      1469      1577      6192      2413      2906      3166     10279     10281     10280
 -1      5038    6    0    1
 -2      1411      1044      1501      6518      1914      2024      2023      8658     10283     10282
 -1      5039    6    0    1
 -2      3727      3638      3376      6520      4189      4186      4054      9961      9959      9947
 -1      5040    6    0    1
 -2      6132      6065      6206      6336      7131      9083      8546      6925      7482      8548
 -1      5041    6    0    1
 -2      6078      6096      6213      6352      9145      9144      8039     10284     10285      9692
 -1      5042    6    0    1
 -2      1243      1456      1289      6519      3059      2034      3058     10286      9479      9477
 -1      5043    6    0    1
 -2      6034      6036      6413      6503      8436     10287      9045      8437      8438     10217
 -1      5044    6    0    1
 -2      1428      6139      6225      6266      6567      8326      7102      7062      7063     10288
 -1      5045    6    0    1
 -2      3566      6141      3421      6415     10289     10290      4403      8722      9581      8724
 -1      5046    6    0    1
 -2      6289      6335      6017      6505      8775      8774      7749     10291      9998      8267
 -1      5047    6    0    1
 -2      6266      6370      6263      6448      7762      7761      7759     10292     10293      7018
 -1      5048    6    0    1
 -2       509      6325      6077      6495     10072      7263     10071     10294     10296     10295
 -1      5049    6    0    1
 -2      1261      1591      1501      6518      3138      3140      3135      6570     10297     10282
 -1      5050    6    0    1
 -2       243      1382       244      6249      1739      1738       343      7671      7672      7187
 -1      5051    6    0    1
 -2      3414      3641      3711      6200      3958      4370      4369     10298      8406      8405
 -1      5052    6    0    1
 -2      6049      6334      6239      6418     10016      9626     10014     10299     10301     10300
 -1      5053    6    0    1
 -2      1307      1306      6233      6377      2945     10302     10303      9056      9057     10304
 -1      5054    6    0    1
 -2      6112      6323      6324      6436      8576      7889      8578     10305      7891      6786
 -1      5055    6    0    1
 -2      1387      1563      6210      6362      2066      6633      6631      8834      8835     10306
 -1      5056    6    0    1
 -2      6033      6099      6055      6343      9001      9728      9727      9235     10307      9630
 -1      5057    6    0    1
 -2      5563      5473      5530      6340      5930      5620      5729     10308     10310     10309
 -1      5058    6    0    1
 -2      6065      6328      6156      6434      9084      9338      9337     10311     10313     10312
 -1      5059    6    0    1
 -2      6071      6115      6315      6461      9431     10314     10315     10316     10172      8869
 -1      5060    6    0    1
 -2      5483      6241      6466      6510     10027     10269     10317     10318     10271     10272
 -1      5061    6    0    1
 -2      6091      6102      6061      6236      8276      9872      7925      7929      7892      7928
 -1      5062    6    0    1
 -2      1252      1253      1348      6221      2746      3099      3098     10319     10321     10320
 -1      5063    6    0    1
 -2      5211      5385      5383      5384      9127      5397      9130     10322      5399      5398
 -1      5064    6    0    1
 -2      1194      1257      1195      6444      2802      2801      2794     10234      9174      9175
 -1      5065    6    0    1
 -2      1042      1418       278      6196      1845      1844      1840      8603      7675     10323
 -1      5066    6    0    1
 -2      3514      3702      3594      6443      4901      4436      4897      8759      9201      9202
 -1      5067    6    0    1
 -2      3425      3594      3427      6350      4426      4425      4312      9848      9849     10324
 -1      5068    6    0    1
 -2      1094      1095      1096      6312      2088      2261      2260     10325      6552      9365
 -1      5069    6    0    1
 -2      1160      1213      1161      6501      2623      2622      2618      7456      8051      9062
 -1      5070    6    0    1
 -2      1152      1155      1441      6166      2580      2582      2565     10326      8014      8015
 -1      5071    6    0    1
 -2      1321      6340      5473      6460     10327     10310     10328     10329     10331     10330
 -1      5072    6    0    1
 -2      1525      1221      1529      6233      2948      2690      2949     10055     10332     10056
 -1      5073    6    0    1
 -2      3575      3548      6182      6234      4783      9170      9171      9393     10333      9392
 -1      5074    6    0    1
 -2      1526      1430      5524      6480      2094      8694      9637     10334      7208      8695
 -1      5075    6    0    1
 -2      1224      6288      6165      6370      7859     10335      6965      6967      7860      6969
 -1      5076    6    0    1
 -2      6035      6021      6125      6406      7394      8345      6651      9413      8773     10336
 -1      5077    6    0    1
 -2      1378      1069       328      6238      1995      1994      1990      7713      7920      7202
 -1      5078    6    0    1
 -2       326      6148      3737      6470      6892      6893      4163      7991     10337      7990
 -1      5079    6    0    1
 -2      1425       283       282      6483      1855       382      1856     10338     10340     10339
 -1      5080    6    0    1
 -2      1358      1302      6326      6397      3275     10341     10342      9724      9725     10343
 -1      5081    6    0    1
 -2      6243      6245      3426      6442     10244      8689     10344     10345     10347     10346
 -1      5082    6    0    1
 -2      1410      1069      1378      6388      2149      1995      2152      7661      7659     10348
 -1      5083    6    0    1
 -2      3793      3612      3388      6429      4245      4244      4246     10349      9389      9387
 -1      5084    6    0    1
 -2      6027      6112      6082      6440      7020      8520      8300      7610      9014      9158
 -1      5085    6    0    1
 -2      1170      6131      1197      6411      7697      7698      2674     10350     10351     10225
 -1      5086    6    0    1
 -2       511      6022      6101      6469     10352      9277     10353     10354      9279      9280
 -1      5087    6    0    1
 -2      3438      3437      3435      6432      4484      4483      4485     10355     10357     10356
 -1      5088    6    0    1
 -2      3430      3429      6245      6442      4430      9866      9867     10358      8917     10347
 -1      5089    6    0    1
 -2       296      1083      1413      6223      1894      1899      1898     10359      7257     10360
 -1      5090    6    0    1
 -2      3483      3485      3484      6446      4754      4753      4740      7594      7447      7593
 -1      5091    6    0    1
 -2      1256      1510      1393      6379      3114      3113      3073      8933     10362     10361
 -1      5092    6    0    1
 -2      1258      6342      1195      6444     10363      8281      2806      9173     10364      9175
 -1      5093    6    0    1
 -2      1533      6163      1364      6309      8860      8861      2119      8799     10365      8798
 -1      5094    6    0    1
 -2      6026      6386      6330      6515      9444      9443      9290      9405      8084      9566
 -1      5095    6    0    1
 -2      1133      1131      6290      6493      2462      8704      8975     10231     10232      8234
 -1      5096    6    0    1
 -2      3393      6148       327      6238      7052      6894      4166      7204     10366      7203
 -1      5097    6    0    1
 -2      6348      6386      6024      6471      8080      8079      8081     10367     10368      7605
 -1      5098    6    0    1
 -2      6066      6212      6027      6489      7268     10369      9065      8605      8207      9790
 -1      5099    6    0    1
 -2      6072      6304      1279      6411     10370     10371      8755     10372     10373      9313
 -1      5100    6    0    1
 -2      1341      1429      1443      6436      2132      3345      3344      9247     10374      9246
 -1      5101    6    0    1
 -2      6056      6231      6031      6281      7123      8140      8139      8926     10376     10375
 -1      5102    6    0    1
 -2      1076      6301      1336      6444      8628      9377      2183      8247     10377      8246
 -1      5103    6    0    1
 -2      6087      6124      6042      6138     10378      9119      9590     10177      9121      6996
 -1      5104    6    0    1
 -2      6081      6201      6190      6338      7101      9293     10379     10380      9295      6557
 -1      5105    6    0    1
 -2      3500      6107      3797      6405     10381     10382      4831     10383     10385     10384
 -1      5106    6    0    1
 -2      3730      6268      6421      6530      8257     10386     10387      9230     10389     10388
 -1      5107    6    0    1
 -2      3521      3522      6424      6495      4923     10141      8260      9270      9271     10390
 -1      5108    6    0    1
 -2      3779      3741      3591      6232      4338      5134      5131      7719     10391      7718
 -1      5109    6    0    1
 -2      6089      6355      6173      6400      7644      9159      7058      9140      9162      9161
 -1      5110    6    0    1
 -2       274      1065      6268      6530      1828     10392     10393      7601      7602     10389
 -1      5111    6    0    1
 -2      3429      3426      6245      6442      4429      8689      9866      8917     10346     10347
 -1      5112    6    0    1
 -2      1560      1250      1444      6324      3090      3085      2658      7422      8133      7424
 -1      5113    6    0    1
 -2      5434      6204      1285      6399      9881      8339      8635      8637     10394      8636
 -1      5114    6    0    1
 -2      6033      6055      6085      6414      9727      7800      8543     10395      7803      7804
 -1      5115    6    0    1
 -2       523      6091       541      6484     10012      8523      1029     10396      8524      8525
 -1      5116    6    0    1
 -2      6074      6171      6070      6248      6604      6984      6983      9825     10397      9824
 -1      5117    6    0    1
 -2      1082      1397       310      6523      1941      1940      1936      7328      7329      9456
 -1      5118    6    0    1
 -2       491       551       562      6257       876       925       924      8977      8676      8764
 -1      5119    6    0    1
 -2      3662      6168      3663      6378      7235      6670      4192     10398      9571     10399
 -1      5120    6    0    1
 -2      1393      1392      1079      6297      2200      1956      2196      8372      7734      9403
 -1      5121    6    0    1
 -2      6059      6113      6031      6282     10146     10400      9906      9908     10401      9909
 -1      5122    6    0    1
 -2      1428      6225      1589      6266      7102      7103      2043      7062     10288     10402
 -1      5123    6    0    1
 -2      1392      6259       316      6297     10403      9114      1954      7734     10404      6890
 -1      5124    6    0    1
 -2      6123      6219      6029      6358      8000      7084      7999      7812      7731      7732
 -1      5125    6    0    1
 -2      1271      1493      1329      6178      3176      2156      3175      9396     10058      9398
 -1      5126    6    0    1
 -2       494       555       489      6216       915       916       914      9716      7196      6949
 -1      5127    6    0    1
 -2      1197      1171      1198      6382      2675      2682      2681      8583      8584     10405
 -1      5128    6    0    1
 -2      6043      6205      6087      6385     10406     10407      9531      9594     10408     10178
 -1      5129    6    0    1
 -2      6047      6334      6049      6418     10409     10016     10410     10411     10301     10299
 -1      5130    6    0    1
 -2      3792      6067      6265      6275      9306     10412      8850      7554      9636      8852
 -1      5131    6    0    1
 -2       312      6376      3412      6523      7531      7532      4119     10413     10415     10414
 -1      5132    6    0    1
 -2       317      3728       316      6259      4134      4133       416      9180      8480      9114
 -1      5133    6    0    1
 -2      1171      6205      6131      6304      8048      9217      7699     10416     10418     10417
 -1      5134    6    0    1
 -2      6040      6041      6080      6303      7357      7359      7358      7838      7118     10419
 -1      5135    6    0    1
 -2      6141      6264      6045      6299     10420      7624      9579     10421      8070      8353
 -1      5136    6    0    1
 -2      6015      6156      6287      6535      7045      7046      7047     10422      7179      8370
 -1      5137    6    0    1
 -2      3629      6169      3633      6279      9704      9705      5175      9921     10095     10423
 -1      5138    6    0    1
 -2      3588      6159      3595      6402      8497      8496      4371     10424     10426     10425
 -1      5139    6    0    1
 -2      6054      6071      6086      6136      8545      8146      8714      8939     10428     10427
 -1      5140    6    0    1
 -2      3750      3639      3766      6376      4360      4225      4919      9861      7530      8396
 -1      5141    6    0    1
 -2      5483      6241      6058      6299     10027     10270     10429     10028      8467      8071
 -1      5142    6    0    1
 -2      5512      5557      5436      6188      5751      5750      5632      8812      8849      7954
 -1      5143    6    0    1
 -2      6122      6231      1100      6384      9068      6661      6748      6936     10430      6935
 -1      5144    6    0    1
 -2      1545      6321      1196      6380     10431     10432      2813      9904     10433      9903
 -1      5145    6    0    1
 -2      1427      1572      1319      6256      2172      1611      3319      8782      9669      6691
 -1      5146    6    0    1
 -2       309       308      1399      6251       408      1934      1933      7444      7425      7426
 -1      5147    6    0    1
 -2      6029      6252      6122      6511     10434      8499      8534      9079     10435      6702
 -1      5148    6    0    1
 -2      6042      6285      6098      6307      9797     10436      6817      7249      8713      7311
 -1      5149    6    0    1
 -2      1069      1352      6238      6388      2150      7922      7920      7659      7660     10437
 -1      5150    6    0    1
 -2      3386      3567      3617      6524      4234      4233      3934     10438      8440     10439
 -1      5151    6    0    1
 -2      3718      3541      3546      6435      5027      5037      5039      7742      9969      7741
 -1      5152    6    0    1
 -2      6015      6284      6156      6357      7044      7043      7045     10440      8263      9598
 -1      5153    6    0    1
 -2      1383      1506      1585      6221      2180      3054      3355      7050      8453      8454
 -1      5154    6    0    1
 -2      3444      3471      3516      6504      4537      4540      4539      8950      8951     10441
 -1      5155    6    0    1
 -2      6031      6059      6116      6427      9906      9907      8138     10442     10064     10443
 -1      5156    6    0    1
 -2      3451      3448      3446      6285      4548      4547      4549      8712      8711     10444
 -1      5157    6    0    1
 -2      6027      6073      6060      6157      6580      6869      6868      7024      7022      8911
 -1      5158    6    0    1
 -2      1212      1545      6380      6388      2814      9904      9905      9075     10446     10445
 -1      5159    6    0    1
 -2      3382      3761      3724      6430      4217      4219      4216     10447     10449     10448
 -1      5160    6    0    1
 -2      6113      6044      6192      6471     10219      7229     10147     10151      8197     10150
 -1      5161    6    0    1
 -2      1432      6246      1515      6277      9853      9854      3352      8935      8916      9154
 -1      5162    6    0    1
 -2      6313      6389      6120      6467      9655      7850      9104      9656      9657      8487
 -1      5163    6    0    1
 -2      6076      6042      6138      6385      6743      6996      6997      7579      7580     10179
 -1      5164    6    0    1
 -2       480       493       515      6451       865       866       840     10450      8328      8130
 -1      5165    6    0    1
 -2      1426      1520      1288      6391      3229      3228      3076     10451     10452      9416
 -1      5166    6    0    1
 -2      5461      5560      6156      6284      5866     10453      7177      7176     10454      7043
 -1      5167    6    0    1
 -2      5553      6371      6264      6510      9255      8887      9254     10455     10456      9676
 -1      5168    6    0    1
 -2      1509      1080      1388      6416      2203      2201      2204     10457     10459     10458
 -1      5169    6    0    1
 -2      6155      6015      6363      6503      7685     10460      8482      7690      7688      8439
 -1      5170    6    0    1
 -2       327      6148       326      6320      6894      6892       426      7617     10461      8009
 -1      5171    6    0    1
 -2      3494      3495      6104      6202      4800      7916      7917      6898      6899      9227
 -1      5172    6    0    1
 -2      5514      6466      6030      6510      6728      6729      6727     10462     10272     10463
 -1      5173    6    0    1
 -2      3565      3564      3749      6164      4402      5096      4656      9519      9495      9493
 -1      5174    6    0    1
 -2      6042      6218      6285      6307      7652      9799      9797      7249      7653      8713
 -1      5175    6    0    1
 -2      6020      6027      6186      6412     10464     10465      7068      7069      7608      6914
 -1      5176    6    0    1
 -2      6032      6174      6097      6319     10466      7466     10158     10159      7545      7543
 -1      5177    6    0    1
 -2      1560      6179      1166      6492      6737      6738      2449     10206     10468     10467
 -1      5178    6    0    1
 -2       454       473       565      6214     10469       636      9735      9736      9788      7901
 -1      5179    6    0    1
 -2      5447       454      5539      6214     10470      9847      5610     10471      9736      8606
 -1      5180    6    0    1
 -2      6072      6131      6046      6481      8010      7370      7474     10472     10215     10214
 -1      5181    6    0    1
 -2      1366      1241      1367      6497      2483      3047      3046     10473      9237      9238
 -1      5182    6    0    1
 -2      6105      6433      6434      6497      9664     10474     10475      9318      9239     10476
 -1      5183    6    0    1
 -2      5554      5504      6053      6335      6011     10246      7907      9551     10245      9550
 -1      5184    6    0    1
 -2      1105      1109      1106      6247      2319      2318      2314      8407      7443      7441
 -1      5185    6    0    1
 -2      6141      6413      5475      6463      9094      7879     10227     10477     10479     10478
 -1      5186    6    0    1
 -2       292      1416      6130      6474      1886     10120     10119      7351      7352      9090
 -1      5187    6    0    1
 -2      1284      1308      1207      6306      2873      2872      2820      8986      9962      8985
 -1      5188    6    0    1
 -2      3503       290       291      6276      4055       390      4056     10480     10481      7668
 -1      5189    6    0    1
 -2      3511      6325      3581      6462     10482     10483      4887     10484     10486     10485
 -1      5190    6    0    1
 -2      6015      6284      6357      6503      7044      8263     10440      7688     10488     10487
 -1      5191    6    0    1
 -2      6078      6213      6088      6368      8039      8038      6621     10200      8785     10489
 -1      5192    6    0    1
 -2      5522      6264      6141      6299      9935     10420     10490      9936      8070     10421
 -1      5193    6    0    1
 -2      3432      3434      3435      6294      4455      4465      4464     10491      8295      8981
 -1      5194    6    0    1
 -2      3633      6169      3663      6279      9705     10094      5180     10423     10095      6668
 -1      5195    6    0    1
 -2      1271      1493      6178      6296      3176     10058      9396      8183      9113     10492
 -1      5196    6    0    1
 -2      5462      6206      6156      6336     10493      9336      9612      9614      8548      9616
 -1      5197    6    0    1
 -2      6206      6286      6156      6328      9568     10494      9336      9085     10495      9338
 -1      5198    6    0    1
 -2      1345      6256      1570      6358      9352     10256      2429      6798      9353      6886
 -1      5199    6    0    1
 -2       247      1077      1389      6362      1747      1752      1751     10496     10498     10497
 -1      5200    6    0    1
 -2      1046      1289      1456      6322      2032      2034      2033     10499      9476      9475
 -1      5201    6    0    1
 -2       509      6077      6101      6495     10071      9276     10500     10294     10295     10501
 -1      5202    6    0    1
 -2       314      6171       313      6297      7080      6811       413      7575      6606      7577
 -1      5203    6    0    1
 -2      1122      1473      1568      6398      2391      2417      2416     10502      9686      9131
 -1      5204    6    0    1
 -2      3621      6199       255      6396     10503      9143      3950      8124      8754      8126
 -1      5205    6    0    1
 -2      1238      1305      1470      6447      3032      2160      3026     10504      9870     10505
 -1      5206    6    0    1
 -2      3587      3502      3622      6209      4820      4845      4300     10030     10507     10506
 -1      5207    6    0    1
 -2      1290      1364      1293      6163      3230      3237      3236      9172      8861      6853
 -1      5208    6    0    1
 -2      1064      6258      1412      6373     10508     10509      1905      8599     10135      8601
 -1      5209    6    0    1
 -2      3732      3731      3577      6314      5120      4947      5121     10510     10511     10157
 -1      5210    6    0    1
 -2       580      6110       530      6226      9816     10512      1037      9818      9819     10513
 -1      5211    6    0    1
 -2      6102      6267      1163      6364      7880      7354      6593      7032     10164      7221
 -1      5212    6    0    1
 -2      3557      6146      3742      6360      7108      8341      5045      8045      7493     10514
 -1      5213    6    0    1
 -2      1044      1411       301      6207      1914      1913      1909      8790     10515      8792
 -1      5214    6    0    1
 -2      6226      6016      6319      6438     10516      7561     10517     10518      9100      9101
 -1      5215    6    0    1
 -2      6018      6026      6212      6515     10519      8205     10520      9781      9405      9406
 -1      5216    6    0    1
 -2      1489      6262      1274      6534      8642      7344      3181     10521      9486      9922
 -1      5217    6    0    1
 -2      6103      6216      6206      6219      7153      7146      8446      8880      7105      8001
 -1      5218    6    0    1
 -2      1068      1496      1478      6484      2146      2145      1643     10102     10523     10522
 -1      5219    6    0    1
 -2      1167      1138      1139      6461      2499      2423      2500      8749     10266      8868
 -1      5220    6    0    1
 -2      1127      1156      6189      6457      2434      8007      8005      6938     10524      8445
 -1      5221    6    0    1
 -2      1184      6115      1168      6461      7473      8321      2659      8748     10172      7830
 -1      5222    6    0    1
 -2      3593      3588      3595      6402      4383      4371      4343     10525     10424     10425
 -1      5223    6    0    1
 -2      6046      6060      6072      6426      6767      7475      7474     10526      8910     10527
 -1      5224    6    0    1
 -2       541      6091       528      6236      8523      7924      1028      8522      7929      7927
 -1      5225    6    0    1
 -2      6031      6153      6186      6281      9604      8591     10528     10375     10228      8928
 -1      5226    6    0    1
 -2       508       510       509      6325       992       993       989      7658      7262     10072
 -1      5227    6    0    1
 -2      1331      1550      1330      6362      3333      3332      3022     10529     10531     10530
 -1      5228    6    0    1
 -2      5476      6162      6413      6516     10532      8132      9093      9096     10533      9098
 -1      5229    6    0    1
 -2      3797      6107      6387      6473     10382     10534      6916      6920     10535      6919
 -1      5230    6    0    1
 -2      1243      6367      1456      6519      7524     10536      3059     10286     10537      9479
 -1      5231    6    0    1
 -2      6264      6371      6021      6510      8887      7751      8886      9676     10456     10538
 -1      5232    6    0    1
 -2      3391      3735      3672      6197      4259      4258      4015     10539     10541     10540
 -1      5233    6    0    1
 -2      3476      6125      3460      6248      8716      9564      4628     10032     10109      7181
 -1      5234    6    0    1
 -2      5491      5385      5526      6390     10542      9128      5732     10543      8610      9168
 -1      5235    6    0    1
 -2      1192      1191      6269      6439      2650      6856      8137     10544      8701     10545
 -1      5236    6    0    1
 -2      3587      6209      3622      6407     10030     10506      4300      8319     10031      8354
 -1      5237    6    0    1
 -2      3729      3592      3422      6463      3884      4409      4308     10133      8562      8964
 -1      5238    6    0    1
 -2      5489      6355      6214      6390      8024      9822     10546      9069      9070      7904
 -1      5239    6    0    1
 -2      5384      5211      5385      6390     10322      9127      5399      8490      9169      8610
 -1      5240    6    0    1
 -2      6030      6054      6084      6305     10547      8941     10548     10549      8942      8943
 -1      5241    6    0    1
 -2      6049      6278      6243      6419      8678      7611      8677     10550      7616      7614
 -1      5242    6    0    1
 -2      1247      1223      1222      6323      2950      2694      2951     10551     10076     10077
 -1      5243    6    0    1
 -2      1114      6331      1113      6354      8614      7716      2359     10552      7517     10553
 -1      5244    6    0    1
 -2      6025      6174      6319      6351      8905      7545     10554      8906      6961      9359
 -1      5245    6    0    1
 -2       312      1050      1400      6523      1942      1947      1946     10413     10556     10555
 -1      5246    6    0    1
 -2      3626      3769      3723      6450      5161      5163      5160      8786     10557      8788
 -1      5247    6    0    1
 -2      6032      6203      6110      6410      8652     10558     10559      8655      8656      8959
 -1      5248    6    0    1
 -2      1446      6274      1509      6416      7583      7584      3093      7696     10560     10457
 -1      5249    6    0    1
 -2      6129      6291      3776      6346      9347     10202      7326     10561      8399     10216
 -1      5250    6    0    1
 -2      3413      6259      3612      6353      8478      8479      4362      9588     10562      9587
 -1      5251    6    0    1
 -2      1430      6105      6433      6480      7206      9664      9004      7208      7209      9006
 -1      5252    6    0    1
 -2      5451      5492      5558      6408      5820      5823      5822      7706     10563      8992
 -1      5253    6    0    1
 -2       518       477       584      6408       846       848       849     10564      7704      8994
 -1      5254    6    0    1
 -2      1245      1490      1398      6227      3070      2054      3069      6735      9923      9706
 -1      5255    6    0    1
 -2      1164      6150      1190      6439      7184      7039      2643      7499     10565      7501
 -1      5256    6    0    1
 -2      1484      1318      1557      6204      2246      3314      3164      8340      8389      8629
 -1      5257    6    0    1
 -2      3528      6137      6085      6314      7034      8477      7977     10156     10567     10566
 -1      5258    6    0    1
 -2      3691      6147      3481      6254     10568     10569      4571     10570     10572     10571
 -1      5259    6    0    1
 -2       473      6214       454      6475      9788      9736     10469      9789      7959     10573
 -1      5260    6    0    1
 -2      6029      6286      6206      6328      9718      9568      7998      9086     10495      9085
 -1      5261    6    0    1
 -2      6041      6100      6070      6187      8099      8098      6708      9766      8726      9435
 -1      5262    6    0    1
 -2      5510      6053      5504      6532      8173     10246      6007      8174      8175     10574
 -1      5263    6    0    1
 -2      6107      6051      6387      6473      7722      9878     10534     10535      9879      6919
 -1      5264    6    0    1
 -2      3699      6085      3529      6513      7978      7976      4966      9618     10575      9620
 -1      5265    6    0    1
 -2      6071      6136      6054      6305     10428      8939      8545      8186      8944      8942
 -1      5266    6    0    1
 -2      1470      1237      1238      6188      3025      2484      3026     10576     10578     10577
 -1      5267    6    0    1
 -2       473       515       565      6214       829       830       636      9788      7846      7901
 -1      5268    6    0    1
 -2      1230      6367      6213      6368      7416      7523      7522      7417      7418      8785
 -1      5269    6    0    1
 -2      6040      6109      6080      6126      7785     10579      7358     10580     10582     10581
 -1      5270    6    0    1
 -2      3493      6104      3495      6341      7918      7916      4799      9190      8229      8492
 -1      5271    6    0    1
 -2      1430      1255      1433      6433      2927      3108      2092      9004      9663      8855
 -1      5272    6    0    1
 -2       584       494       518      6408       935       919       849      8994      9717     10564
 -1      5273    6    0    1
 -2      5492      5468      5558      6408      5893      5909      5823     10563      9745      8992
 -1      5274    6    0    1
 -2      6032      6170      6029      6295      8536      8537      8535     10583     10584      7087
 -1      5275    6    0    1
 -2      6047      6077      6414      6469      9680      7802     10585      9681      8107     10586
 -1      5276    6    0    1
 -2      6167      6342      1256      6379     10099      7932     10249     10587      8932      8933
 -1      5277    6    0    1
 -2      3413       316      6259      6297      4131      9114      8478      6889      6890     10404
 -1      5278    6    0    1
 -2      5368      5215      5213      5209     10037      5241     10588     10589      5248      5246
 -1      5279    6    0    1
 -2      1183      1527      1242      6296      2717      2751      2750      8807     10590      8457
 -1      5280    6    0    1
 -2      1157      1529      6189      6457      2610      8671      9012      7844      7845      8445
 -1      5281    6    0    1
 -2      6045      6067      6344      6527     10591      7404      9658      9659      7407      7408
 -1      5282    6    0    1
 -2      3378      3669      3668      6530      4198      4197      4003      9231      9232     10088
 -1      5283    6    0    1
 -2      1293      1533      1363      6404      3250      2114      3249      7315     10593     10592
 -1      5284    6    0    1
 -2       584      6349       494      6408      8993      9734       935      8994      7798      9717
 -1      5285    6    0    1
 -2      5468      6349      5558      6408      9743      8991      5909      9745      7798      8992
 -1      5286    6    0    1
 -2      5553      5559      5486      6264      5956      5982      5976      9254     10595     10594
 -1      5287    6    0    1
 -2      6043      6131      6205      6385      7735      9217     10406      9594     10596     10408
 -1      5288    6    0    1
 -2      1238      1470      6188      6447      3026     10576     10577     10504     10505     10597
 -1      5289    6    0    1
 -2      1218      1306      1483      6177      2929      2934      2933     10598     10600     10599
 -1      5290    6    0    1
 -2      6016      6418      6452      6529     10601      6541     10602     10603      8387      8388
 -1      5291    6    0    1
 -2      1475      1253      1330      6273      3102      3020      2188     10604     10606     10605
 -1      5292    6    0    1
 -2      3599       238       239      6477      3899       338      3900     10607      9610      9611
 -1      5293    6    0    1
 -2      5484      5522      5482      6299      5969      5968      5966      8069      9936      9980
 -1      5294    6    0    1
 -2      6136      6084      6269      6321      8940      9185     10090     10608      9186      9187
 -1      5295    6    0    1
 -2      1139      1165      1546      6439      2504      2507      2506     10201      7500     10609
 -1      5296    6    0    1
 -2      6177      6233      1306      6377     10610     10302     10600     10611     10304      9057
 -1      5297    6    0    1
 -2      3756      3615      3616      6272      4241      4349      4999      9260      9261     10612
 -1      5298    6    0    1
 -2      6023      6344      6194      6406     10613      9562     10614     10615     10616      7628
 -1      5299    6    0    1
 -2      1102      6247      6122      6252      6595     10617      7681      7275      8962      8499
 -1      5300    6    0    1
 -2      6065      6156      6336      6434      9337      9616      7482     10311     10312     10618
 -1      5301    6    0    1
 -2      3569      3477      3743      6152      4723      4725      4724      8223      6564      6634
 -1      5302    6    0    1
 -2      5553      6472      6371      6510     10619     10620      9255     10455     10621     10456
 -1      5303    6    0    1
 -2      6035      6067      6023      6406      6706      7115      7806      9413     10622     10615
 -1      5304    6    0    1
 -2      1507       330       329      6402      1996       429      1997      8639      8640     10623
 -1      5305    6    0    1
 -2      1123      6235      6181      6280      8462      7191     10624      6963      7194      7195
 -1      5306    6    0    1
 -2      6118      6313      3702      6456      8624     10625      9200      8220      8625      9758
 -1      5307    6    0    1
 -2      1517      1492      1359      6332      3361      3213      3220     10626      8390      7970
 -1      5308    6    0    1
 -2      6115      6263      6229      6423      8718      7016      8968      8967      7015      7014
 -1      5309    6    0    1
 -2       457       513      5401      6476      9297     10627      5405      7388      9298      9148
 -1      5310    6    0    1
 -2      1429      6215      1443      6436      9677      9503      3345     10374     10628      9246
 -1      5311    6    0    1
 -2      3659      3762      3381      6302      4214      4213      4096      9226      9224      9999
 -1      5312    6    0    1
 -2      5198       436       587      6389      5202      7381     10629     10630      7380      6827
 -1      5313    6    0    1
 -2      3712      3778      6152      6365      4640      6565      6566     10631     10633     10632
 -1      5314    6    0    1
 -2       573       491      6257      6392       888      8977      6647      8308      8978      8310
 -1      5315    6    0    1
 -2      6044      6057      6037      6235     10634      9041     10635      7514      7192      9042
 -1      5316    6    0    1
 -2      1047      1451      1503      6396      1782      2040      2039      9678      8863      6836
 -1      5317    6    0    1
 -2      1518      1408      1231      6368      3001      1818      2999      6833      6831      6857
 -1      5318    6    0    1
 -2      5538      6240      5283      6476      9489      9927      9926     10636      9410     10637
 -1      5319    6    0    1
 -2      6071      6150      6053      6280     10638     10639      7217      7220     10640      7219
 -1      5320    6    0    1
 -2      1206      1225      1261      6370      2867      2870      2869      7861      8270      8587
 -1      5321    6    0    1
 -2      6255      6293      3483      6446     10641      8383      7592      7595      8385      7594
 -1      5322    6    0    1
 -2      6046      6060      6426      6521      6767      8910     10526     10642     10644     10643
 -1      5323    6    0    1
 -2      1417      1426      1042      6391      2012      2011      1842      7621     10451      7623
 -1      5324    6    0    1
 -2      1195      6136      1192      6269      7599     10645      2793      8135     10090      8137
 -1      5325    6    0    1
 -2      3641      3414       257      6396      3958      3954      3956      7855     10646      7857
 -1      5326    6    0    1
 -2      1085       288       287      6450      1870       387      1871      9198     10647      9197
 -1      5327    6    0    1
 -2      6017      6357      6284      6503      8264      8263      8265     10648     10487     10488
 -1      5328    6    0    1
 -2      3726      3433      3777      6244      4476      4472      4475      7809      7807     10649
 -1      5329    6    0    1
 -2      1106      1431      1304      6282      2327      2329      2316     10650     10652     10651
 -1      5330    6    0    1
 -2      1106      6282      1304      6528     10650     10651      2316     10653     10655     10654
 -1      5331    6    0    1
 -2      3552      3793      3611      6250      5077      5076      5075     10656     10657      8179
 -1      5332    6    0    1
 -2      6018      6348      6160      6386     10152     10658      6751      6793      8080      6795
 -1      5333    6    0    1
 -2      5469      6173      5517      6383      7764      9660      5828      9257      8767      9662
 -1      5334    6    0    1
 -2       543      6173       495      6383      8997      8012       854      8998      8767      9259
 -1      5335    6    0    1
 -2      1573      1306      1498      6377      3280      3277      2944      8553      9057      9058
 -1      5336    6    0    1
 -2      1361      6136      1277      6439      7600      7598      2810     10659     10661     10660
 -1      5337    6    0    1
 -2      3426      6176      6245      6350      8470      8688      8689     10662     10664     10663
 -1      5338    6    0    1
 -2      1576      6306      1499      6308      9963      9964      3289      8876     10665      8875
 -1      5339    6    0    1
 -2      3433      6244      3799      6245      7807      7808      4474      9956      9383     10666
 -1      5340    6    0    1
 -2       303       304      3659      6356       403      4095      4094     10667      8376      8377
 -1      5341    6    0    1
 -2      5477      5476      5475      6141      5932      5920      5933     10668      9095     10227
 -1      5342    6    0    1
 -2      6083      6271      6117      6351     10669     10670     10671     10672     10674     10673
 -1      5343    6    0    1
 -2      5479      5559      5553      6371      5957      5956      5952     10675     10044      9255
 -1      5344    6    0    1
 -2      6168      6169      3663      6378      8514     10094      6670      9571      7536     10399
 -1      5345    6    0    1
 -2      6034      6195      6155      6486     10676     10677      8481     10678      7791     10679
 -1      5346    6    0    1
 -2      1207      1170      1197      6411      2676      2674      2677     10223     10350     10225
 -1      5347    6    0    1
 -2      3576      6234      3651      6487      9033      6824      5119      6731     10680      6733
 -1      5348    6    0    1
 -2      1103      1107      6231      6528      2308     10681      6662      7285     10682      7841
 -1      5349    6    0    1
 -2      6174      6401      6028      6412      9371      7526      9423      6915      7529      7460
 -1      5350    6    0    1
 -2      6218      6223      3380      6375     10683     10684      7814      9242     10685      9241
 -1      5351    6    0    1
 -2      6299      6337      6045      6415      8621     10139      8353     10686     10687      9580
 -1      5352    6    0    1
 -2      6214      6451      6355      6485      7007      9996      9822      7009      6667      9997
 -1      5353    6    0    1
 -2      5447      6214      5539      6390     10471      8606      5610     10688      7904      8609
 -1      5354    6    0    1
 -2      6024      6344      6098      6515      9215      8731      6816      8082     10690     10689
 -1      5355    6    0    1
 -2      6082      6096      6056      6412      9157      8643      7933      8299      7528      6913
 -1      5356    6    0    1
 -2      1351      1219      6196      6394      2936      7771      7676      9049      9027     10003
 -1      5357    6    0    1
 -2      1487      6235      6229      6331      9915      9914      7708      9372      7513      9292
 -1      5358    6    0    1
 -2      3488      6182      6144      6234      7212      8144      7854      9391      9392     10691
 -1      5359    6    0    1
 -2      6028      6038      6088      6401      8430      8429      8428      7526      8908      8040
 -1      5360    6    0    1
 -2      1343      6179      6215      6246      9500      9504      9502      7778     10069     10692
 -1      5361    6    0    1
 -2      3656       269       270      6175      3992       369      3993      9708      7420      7421
 -1      5362    6    0    1
 -2      3476      3552      3743      6250      4713      4716      4715      7186     10656      6637
 -1      5363    6    0    1
 -2      3678      3679      3522      6222      4937      4936      4934     10693     10695     10694
 -1      5364    6    0    1
 -2      3463      3491      6337      6365      4641      9688      9689     10696     10698     10697
 -1      5365    6    0    1
 -2      1147      1148      6211      6271      2538      7411     10136      8763      7413      7414
 -1      5366    6    0    1
 -2      6029      6153      6328      6511     10699      9606      9086      9079     10701     10700
 -1      5367    6    0    1
 -2      6023      6067      6344      6406      7115      7404     10613     10615     10622     10616
 -1      5368    6    0    1
 -2      1162      6166      6102      6237      6862      8054      6594      7055      9412      7763
 -1      5369    6    0    1
 -2      1349      1158      1127      6457      2444      2443      2378      6939      7620      6938
 -1      5370    6    0    1
 -2       487      6154       485      6420      8573     10702       879      8574      8402     10703
 -1      5371    6    0    1
 -2      6023      6406      6289      6454     10615      8772     10704      8575      9414      8476
 -1      5372    6    0    1
 -2      1125      1570      1479      6123      2428      2432      2431      7811      7810      9650
 -1      5373    6    0    1
 -2      3492      3491      3716      6241      4644      4793      4792      6543     10705      6542
 -1      5374    6    0    1
 -2      1193      6269      1452      6380      7434      6854      2788      8929      8210      7794
 -1      5375    6    0    1
 -2      3511      3791      3790      6176      4434      4420      4888      8471      8469      8953
 -1      5376    6    0    1
 -2      1458      1146      6217      6271      2547      9166      7429     10706     10708     10707
 -1      5377    6    0    1
 -2      1540      1285      6380      6399      3161      7820      7818      9214      8636      7797
 -1      5378    6    0    1
 -2      1320      1321      1435      6460      3321      2237      3322      7700     10329      7701
 -1      5379    6    0    1
 -2      6031      6186      6056      6281     10528      6912      8139     10375      8928      8926
 -1      5380    6    0    1
 -2      1474      1280      1548      6354      2363      3197      2493      7729      7828      6980
 -1      5381    6    0    1
 -2      3481      6147      3480      6255     10569     10709      4569     10710      8374      8793
 -1      5382    6    0    1
 -2      1440      1240      1260      6132      3043      3041      3044     10711      7740      7739
 -1      5383    6    0    1
 -2      6080      6369      6126      6448      9207     10712     10581      7361      9208     10713
 -1      5384    6    0    1
 -2      1222      6157      1173      6506      8031      8029      2691     10714      8912     10715
 -1      5385    6    0    1
 -2      6198      6029      6286      6445      7086      9718     10716      8060      9122      9570
 -1      5386    6    0    1
 -2      6045      6194      6164      6344      7626      9560      9577      9658      9562      8730
 -1      5387    6    0    1
 -2      1312      1377      1562      6374      3301      3303      3302     10254     10252     10717
 -1      5388    6    0    1
 -2      6048      6052      6025      6351      6788      7823      7821     10124      6960      8906
 -1      5389    6    0    1
 -2      1082      6187      1512      6523      8648     10718      2212      7328     10719      7330
 -1      5390    6    0    1
 -2      3681      3446      3445      6387      4541      4533      4542     10720     10721      6917
 -1      5391    6    0    1
 -2      3730      6421      3669      6530     10387     10722      4199      9230     10388      9232
 -1      5392    6    0    1
 -2      1541      1256      1186      6315      2764      2763      2765     10723     10724      9863
 -1      5393    6    0    1
 -2       454      6214      5447      6475      9736     10471     10470     10573      7959     10725
 -1      5394    6    0    1
 -2      1082      6187       309      6251      8648      8947      1937      7445      8649      7444
 -1      5395    6    0    1
 -2      1446      6274      6114      6397      7583     10726      8500      8502      9468      8504
 -1      5396    6    0    1
 -2       578      6110       514      6312      9309      9815      1010     10078      8027     10727
 -1      5397    6    0    1
 -2      1378      1381      1299      6320      1992      3261      3262      7618      7619      9652
 -1      5398    6    0    1
 -2       574       501      6350      6456       960     10728     10729      8269      8219     10730
 -1      5399    6    0    1
 -2      1149      1441      6333      6512      2562     10731      7663      9150     10732      9152
 -1      5400    6    0    1
 -2      3615      3387       246      6272      3925      3921      3923      9261      8019      8020
 -1      5401    6    0    1
 -2      6085      6245      6244      6462      9382      9383      9380      9639     10734     10733
 -1      5402    6    0    1
 -2       275       276      3672      6197       375      4011      4010     10735     10736     10540
 -1      5403    6    0    1
 -2       254      6199       255      6482      9142      9143       354      7341     10737      7343
 -1      5404    6    0    1
 -2      1482      1464      6165      6331      2515      7067      7540      9978      7488      9516
 -1      5405    6    0    1
 -2      3792      6067      6248      6265      9306      9307      7469      8850     10412      8890
 -1      5406    6    0    1
 -2      5447      5489      6214      6390      5803     10546     10471     10688      9069      7904
 -1      5407    6    0    1
 -2      1353      1181      1535      6416      2740      2735      2741      6682     10739     10738
 -1      5408    6    0    1
 -2      3639      6171      3766      6376      6813      7962      4225      7530      8865      8396
 -1      5409    6    0    1
 -2      1164      1139      6280      6439      2425     10740      8088      7499     10201     10741
 -1      5410    6    0    1
 -2      1388      1563      1331      6416      3338      3337      3336     10458     10742      6681
 -1      5411    6    0    1
 -2      3624      3500      3625      6107      4838      4837      4836      9525     10381      9526
 -1      5412    6    0    1
 -2      3411      6274      6190      6338      7379      8486      6775      9165     10108      6557
 -1      5413    6    0    1
 -2      1307      1306      1221      6233      2945      2930      2946     10303     10302     10332
 -1      5414    6    0    1
 -2      1393      1510      1392      6379      3113      2059      2200     10361     10362      8660
 -1      5415    6    0    1
 -2      5514      6069      6030      6104      9888      7363      6727      6725      9889      6726
 -1      5416    6    0    1
 -2      3606       324      6191      6301      4155      9329     10743      7768      7769     10744
 -1      5417    6    0    1
 -2      6311      6367      1063      6368     10745      9064      8685      8878      7418      7284
 -1      5418    6    0    1
 -2      3719      6403      3447      6417      9602     10746      4556     10747     10749     10748
 -1      5419    6    0    1
 -2      1225      1552      1261      6370      2971      2970      2870      8270      7872      8587
 -1      5420    6    0    1
 -2      1097      6366      1098      6384     10750     10751      2271     10070     10752      6934
 -1      5421    6    0    1
 -2      6151      6307      6109      6318      7250      7786      7784      9463      9464      9754
 -1      5422    6    0    1
 -2       474       472       582      6475       820       822       823      8143     10753      8533
 -1      5423    6    0    1
 -2       492       480       481      6270       863       858       862      9514     10754      9882
 -1      5424    6    0    1
 -2      6150      6269      1191      6439      6855      6856      6601     10565     10545      8701
 -1      5425    6    0    1
 -2      6037      6289      6057      6531      9826      8474      9041     10755     10757     10756
 -1      5426    6    0    1
 -2      6097      6211      6052      6493      7574      7572      7465      9617      8232      8233
 -1      5427    6    0    1
 -2      3641      6200      3414      6396      8406     10298      3958      7855     10758     10646
 -1      5428    6    0    1
 -2      6107      6405      6046      6521     10385     10759      7350     10760     10761     10642
 -1      5429    6    0    1
 -2      6022      6102      6039      6395      8277      6802      8706     10762     10764     10763
 -1      5430    6    0    1
 -2      1468      1591      1261      6518      3139      3138      3137      6571     10297      6570
 -1      5431    6    0    1
 -2      5283      6240       564      6476      9927      9527      9989     10637      9410     10765
 -1      5432    6    0    1
 -2      3782      3738      6141      6299      4318     10766     10767     10768     10769     10421
 -1      5433    6    0    1
 -2      6152      6250      3611      6298      6636      8179      8224      9767      8178      8177
 -1      5434    6    0    1
 -2      6117      6271      6052      6351     10670     10770      8272     10673     10674      6960
 -1      5435    6    0    1
 -2      3434      6185      3684      6293      8293     10771      4478      7438      8292      7440
 -1      5436    6    0    1
 -2      6110      6312      1551      6366      8027      8794      6630      7899     10772      7898
 -1      5437    6    0    1
 -2      1171      6131      1170      6304      7699      7697      2627     10416     10417     10773
 -1      5438    6    0    1
 -2      6053      6181      6105      6335      7842      6591      7906      9550     10091      9552
 -1      5439    6    0    1
 -2      6032      6295      6029      6529     10583      7087      8535     10774     10776     10775
 -1      5440    6    0    1
 -2       270      3486      6175      6277      3995      9709      7421      8669      7982     10153
 -1      5441    6    0    1
 -2      1340      1443      6179      6436      3152      9501      9812      6784      9246      9813
 -1      5442    6    0    1
 -2      6089      6283      6270      6451      7641      9924     10777      7059      9925      9039
 -1      5443    6    0    1
 -2      1273      1489      1274      6534      3182      3181      2980     10778     10521      9922
 -1      5444    6    0    1
 -2      3441      6403      6184      6473      7726     10779     10780      7727      7139     10781
 -1      5445    6    0    1
 -2      3407       236       237      6477      3893       336      3894     10782      8203      8201
 -1      5446    6    0    1
 -2      1365      1364      1289      6519      3232      3231      2031     10783     10784      9477
 -1      5447    6    0    1
 -2      1137      1123      1136      6181      2420      2403      2421      7129     10624      8028
 -1      5448    6    0    1
 -2      6154      6198       485      6420     10785     10786     10702      8402     10787     10703
 -1      5449    6    0    1
 -2      6032      6281      6122      6384      6700      6699      6701      9748     10788      6936
 -1      5450    6    0    1
 -2      1065      1414       274      6436      1833      1832      1828     10789      7947      7948
 -1      5451    6    0    1
 -2      6043      6042      6133      6330      9591      9592      9109      9111      8809      9110
 -1      5452    6    0    1
 -2      6034      6270      6283      6443     10790      9924      9044      9864     10791      9865
 -1      5453    6    0    1
 -2      6056      6116      6292      6457      7124      7973      8442      8444      6760      7175
 -1      5454    6    0    1
 -2      6044      6092      6229      6331      8450      8449      8448      7228      7489      9292
 -1      5455    6    0    1
 -2      3627      3500      3499      6405      4828      4830      4829     10792     10383     10793
 -1      5456    6    0    1
 -2       308       307      6251      6381       407     10794      7425      8804      8805     10795
 -1      5457    6    0    1
 -2      6116      6458      1115      6528      7125      9433      7974      8517      8518     10191
 -1      5458    6    0    1
 -2      6023      6067      6303      6344      7115      7119      7117     10613      7404     10796
 -1      5459    6    0    1
 -2      6066      6027      6145      6147      9065      9466      7267      9066      6579      8373
 -1      5460    6    0    1
 -2      6081      6068      6190      6201      7096     10797     10379      7101      7099      9293
 -1      5461    6    0    1
 -2      1292      1290      6163      6519      3234      9172      6851      8414      8415     10798
 -1      5462    6    0    1
 -2      3526      3536      3535      6424      4958      4957      4956     10086     10800     10799
 -1      5463    6    0    1
 -2       479       475       478      6451       837       832       836      7402      6664      6663
 -1      5464    6    0    1
 -2      6132      6188      5519      6447      6922      8165      8164     10801     10597     10802
 -1      5465    6    0    1
 -2      3432      3434      6294      6442      4455      8295     10491      8919      9807      9808
 -1      5466    6    0    1
 -2      6185      6239      6055      6343     10803      9628     10804      8212      9629      9630
 -1      5467    6    0    1
 -2      3633      3634      3663      6169      5185      5187      5180      9705     10805     10094
 -1      5468    6    0    1
 -2      6062       522      6178      6242      9324     10806     10807      9803      9804     10808
 -1      5469    6    0    1
 -2      5561      5526      5211      6390      5578      9126     10809      9886      9168      9169
 -1      5470    6    0    1
 -2      6357      6363      6015      6503      9780     10460     10440     10487      8439      7688
 -1      5471    6    0    1
 -2       278       279      3468      6196       378      4020      4019     10323      6625      8131
 -1      5472    6    0    1
 -2      3560      3497      3587      6133      4822      4819      4821      7162      8738     10276
 -1      5473    6    0    1
 -2      6016      6155      6153      6452     10810     10811     10812     10602     10813      8592
 -1      5474    6    0    1
 -2      1361      1277      6315      6439      2810      9582     10814     10659     10660     10815
 -1      5475    6    0    1
 -2      1121      1487      6235      6461      2399      9915      9940     10265      9916      9917
 -1      5476    6    0    1
 -2      6062      6178      6091      6242     10807     10816      9327      9803     10808      9805
 -1      5477    6    0    1
 -2       493       480      6270      6451       865     10754      9037      8328     10450      9039
 -1      5478    6    0    1
 -2      5547      5464      5500      6257      5874      5894      5896      6884      6885     10817
 -1      5479    6    0    1
 -2      3471      3516      6504      6533      4540     10441      8951     10818     10820     10819
 -1      5480    6    0    1
 -2      3546      3726      3777      6435      5061      4475      5060      7741      8556      7743
 -1      5481    6    0    1
 -2       533       557       534      6103       799       950       954      7025      7862      8274
 -1      5482    6    0    1
 -2      3528      6314      6085      6462     10156     10566      7977      9640     10821      9639
 -1      5483    6    0    1
 -2      6034      6118      6243      6419     10822      9262     10273     10081     10823      7614
 -1      5484    6    0    1
 -2      6072      6427      6189      6457     10824      9522     10825      8757     10826      8445
 -1      5485    6    0    1
 -2      1473      1118      1482      6331      2392      2393      2395      9684      7715      9978
 -1      5486    6    0    1
 -2      1357      1358      1302      6326      3276      3275      2921      7288     10342     10341
 -1      5487    6    0    1
 -2      3421      6141      3420      6347     10290     10827      4391      8896     10828      9957
 -1      5488    6    0    1
 -2      6212      6426      6027      6489     10829      8301     10369      8207     10830      9790
 -1      5489    6    0    1
 -2      6096      6174      6056      6412      8644      6910      8643      7528      6915      6913
 -1      5490    6    0    1
 -2      6048      6117      6052      6351      8273      8272      6788     10124     10673      6960
 -1      5491    6    0    1
 -2      3560      6133      3380      6218      7162      7163      4206      7815      9796      7814
 -1      5492    6    0    1
 -2      6164      6403      3719      6417     10167      9602      9494     10831     10749     10747
 -1      5493    6    0    1
 -2      3703      3397      3765      6151      4289      4286      4290     10035     10833     10832
 -1      5494    6    0    1
 -2      1342      1265      6246      6352      3150      7779      7391     10238     10834     10237
 -1      5495    6    0    1
 -2      6037      6181      6105      6193      9040      6591     10835     10129      6979      7983
 -1      5496    6    0    1
 -2      6034      6118      6195      6270     10822      8148     10676     10790     10836      9515
 -1      5497    6    0    1
 -2      6035      6125      6067      6406      6651     10837      6706      9413     10336     10622
 -1      5498    6    0    1
 -2      6120      6355      6214      6451      8023      9822      7847      8129      9996      7007
 -1      5499    6    0    1
 -2      1111      1431      1106      6488      2328      2327      2325      8633     10838      7477
 -1      5500    6    0    1
 -2       265      1406      6311      6367      1805      6843      6844      7871     10839     10745
 -1      5501    6    0    1
 -2       481      6270      6451      6502      9882      9039     10840      9884      9885     10841
 -1      5502    6    0    1
 -2      1263      1262      6484      6509      2779     10842     10843      9364      9046     10844
 -1      5503    6    0    1
 -2      1352      6180      1507      6238      8062      8063      2151      7922     10845      7921
 -1      5504    6    0    1
 -2      3426      6245      6243      6350      8689     10244     10344     10662     10663      9994
 -1      5505    6    0    1
 -2      3448      6307      3452      6417      8331      8329      4558     10846     10848     10847
 -1      5506    6    0    1
 -2      1357      6121      6326      6404      7042     10849      7288      7290      9641      7292
 -1      5507    6    0    1
 -2      6202      6470      3509      6491     10850     10851      6900     10852     10854     10853
 -1      5508    6    0    1
 -2      5457      5456      5455      6287      5841      5834      5842      8204      7773      7655
 -1      5509    6    0    1
 -2       314      3384      6171      6297      4125      7079      7080      7575      8106      6606
 -1      5510    6    0    1
 -2      6178      6242       521      6374     10808     10855     10856     10857     10859     10858
 -1      5511    6    0    1
 -2      3734      3629      3633      6279      5177      5175      5178      9920      9921     10423
 -1      5512    6    0    1
 -2      1107      6458      6231      6528     10860      7127     10681     10682      8518      7841
 -1      5513    6    0    1
 -2       295      1415      1083      6223      1891      1896      1895     10861      7256      7257
 -1      5514    6    0    1
 -2      3699      6244      6085      6513      9937      9380      7978      9618     10862     10575
 -1      5515    6    0    1
 -2      6120      6313       493      6389      9104      8973      8327      7850      9655      8572
 -1      5516    6    0    1
 -2      1369      1087       235      6374      1716      1715      1711     10863     10865     10864
 -1      5517    6    0    1
 -2      1398      1309      1245      6422      3068      2761      3069      9707      8845      8250
 -1      5518    6    0    1
 -2      1385      1077       246      6273      1749      1748      1744      8036     10866      8035
 -1      5519    6    0    1
 -2      1462      1332      6150      6361      2785      7040      7041     10867     10869     10868
 -1      5520    6    0    1
 -2      3453      3452      6143      6417      4561      9511      9512     10870     10847     10871
 -1      5521    6    0    1
 -2      1293      6163      1533      6404      6853      8860      3250      7315      7316     10593
 -1      5522    6    0    1
 -2      3641      6146      6200      6396      7004      7490      8406      7855      7885     10758
 -1      5523    6    0    1
 -2      3419      3420      3421      6141      4304      4391      4390     10872     10827     10290
 -1      5524    6    0    1
 -2      3543      3544      6144      6360      5040      9769      9768      9219     10874     10873
 -1      5525    6    0    1
 -2      6226      6319      6016      6529     10517      7561     10516     10875     10876     10603
 -1      5526    6    0    1
 -2      1563      1388      6210      6416      3338      6632      6633     10742     10458     10877
 -1      5527    6    0    1
 -2      6048      6099      6033      6343      9003      9001      8999      9236     10307      9235
 -1      5528    6    0    1
 -2       548      6469      6176      6479      9771      8109      9770     10878     10880     10879
 -1      5529    6    0    1
 -2      1171      6205      6304      6501      8048     10418     10416      9060      9553      7458
 -1      5530    6    0    1
 -2      1456      6367      6322      6519     10536     10881      9475      9479     10537      9478
 -1      5531    6    0    1
 -2      5557      6188      5480      6336      8849      7322      5962     10882      6926      7323
 -1      5532    6    0    1
 -2      6035      6067      6125      6248      6706     10837      6651      9823      9307     10109
 -1      5533    6    0    1
 -2      3571      3556      3555      6491      5078      4812      5079      8801      8495      9330
 -1      5534    6    0    1
 -2      1534      1339      1524      6522      2111      3343      1926     10883      8760      8761
 -1      5535    6    0    1
 -2      1543      1415      6260      6329      2219      8668      8666     10884     10886     10885
 -1      5536    6    0    1
 -2      3586       294       295      6316      4067       394      4068      8847      8336      8337
 -1      5537    6    0    1
 -2      6124      6258      6138      6332     10887     10888      9121     10889     10126     10890
 -1      5538    6    0    1
 -2      3616      6129      6272      6524      7508     10891     10612      8057      8058     10892
 -1      5539    6    0    1
 -2      6033      6048      6351      6490      8999     10124     10123     10893     10895     10894
 -1      5540    6    0    1
 -2      1042      6197       277      6391     10896     10897      1841      7623     10898      7622
 -1      5541    6    0    1
 -2      6237      6262      6061      6525      9483      7633      9484     10899      7636      7637
 -1      5542    6    0    1
 -2      3586      6133      3587      6316      7161     10276      5091      8847     10900      8317
 -1      5543    6    0    1
 -2      6174      6153      6452      6529     10229      8592      6540      8386     10901      8388
 -1      5544    6    0    1
 -2      1055      1502      1420      6306      2077      2076      1881     10902     10904     10903
 -1      5545    6    0    1
 -2       488       506      6295      6358       910     10905      9366      9368     10906      7733
 -1      5546    6    0    1
 -2      1354      1308      1576      6158      3287      3288      2227     10907     10909     10908
 -1      5547    6    0    1
 -2      1184      6315      6115      6461      9354     10314      7473      8748      8869     10172
 -1      5548    6    0    1
 -2      6056      6096      6082      6492      8643      9157      7933     10910      9499     10911
 -1      5549    6    0    1
 -2      1542      1470      1323      6188      3029      2162      3323     10912     10576      7953
 -1      5550    6    0    1
 -2      6123      6256      6219      6358      7141      9055      8000      7812      9353      7731
 -1      5551    6    0    1
 -2      5213      5215      5368      5544      5241     10037     10588     10913     10915     10914
 -1      5552    6    0    1
 -2      6072      6426      6189      6427     10527      7937     10825     10824      9524      9522
 -1      5553    6    0    1
 -2      1468      1311      6356      6370      2109      9897      9895      7873     10257     10916
 -1      5554    6    0    1
 -2      1578      1298      1544      6320      3258      3260      2100     10917      9802      9651
 -1      5555    6    0    1
 -2      1371      1175      1178      6509      2704      2705      2707      8873      7319     10918
 -1      5556    6    0    1
 -2      3399      6234      3771      6409      6825      6823      4297     10186     10919     10188
 -1      5557    6    0    1
 -2      1576      1421      1085      6308      2228      1875      2226      8876      8874     10920
 -1      5558    6    0    1
 -2      1169      6181      6105      6480      6590      6591      6588      8055      9576      7209
 -1      5559    6    0    1
 -2      6283      6355      6120      6451      7645      8023      7684      9925      9996      8129
 -1      5560    6    0    1
 -2      1254      1472      1473      6398      2866      3107      3106     10921     10922      9686
 -1      5561    6    0    1
 -2      1420      1084       291      6276      1884      1883      1879     10923      7667      7668
 -1      5562    6    0    1
 -2      5447      5539      5489      6390      5610      5804      5803     10688      8609      9069
 -1      5563    6    0    1
 -2      3539      3718      3561      6513      5026      5028      4996      9123      9124     10924
 -1      5564    6    0    1
 -2      3513      6142      3423      6463      6944      8472      4406      8966      8563      8965
 -1      5565    6    0    1
 -2      3703      3504      3748      6218      4854      4855      4857     10143      8538     10144
 -1      5566    6    0    1
 -2      6039      6137      6022      6414      8529     10925      8706     10926     10928     10927
 -1      5567    6    0    1
 -2      1550      1331      1563      6362      3333      3337      2070     10531     10529      8835
 -1      5568    6    0    1
 -2      1077      1475      1330      6273      2189      2188      2187     10866     10604     10605
 -1      5569    6    0    1
 -2      1445      6191      1076      6321      6927      8315      2181     10929     10931     10930
 -1      5570    6    0    1
 -2      6369      6370      6126      6448     10932     10933     10712      9208     10293     10713
 -1      5571    6    0    1
 -2      3464      3491      3463      6365      4642      4641      4636      9034     10698     10696
 -1      5572    6    0    1
 -2      1251      1181      1584      6416      2737      2696      2738      7335     10739      7334
 -1      5573    6    0    1
 -2       489       490       494      6216       899       913       914      6949      7072      9716
 -1      5574    6    0    1
 -2      6120      6142      6283      6443      7682      7307      7684      9107      8200      9865
 -1      5575    6    0    1
 -2      5519      6188      5557      6447      8165      8849      5961     10802     10597     10934
 -1      5576    6    0    1
 -2      3674      3630      3663      6508      4033      5179      4194     10935     10936      6671
 -1      5577    6    0    1
 -2      6059      6160      6113      6471     10062     10937     10146     10149     10938     10151
 -1      5578    6    0    1
 -2      1275      1270      1495      6229      2880      3172      2514      7707      6871      6872
 -1      5579    6    0    1
 -2       317      3388      3728      6429      4136      4138      4134     10939      9387      9388
 -1      5580    6    0    1
 -2      6064      6161      6137      6346      7587     10940      8530      6953      7588      9534
 -1      5581    6    0    1
 -2      3409      3614       319      6429      4144      4140      4142      9574      9575     10941
 -1      5582    6    0    1
 -2      6044      6369      6076      6471      8196      6745     10942      8197      7607      9696
 -1      5583    6    0    1
 -2      1195      1258      1277      6342      2806      2809      2808      8281     10363      8283
 -1      5584    6    0    1
 -2      6037      6160      6113      6499     10943     10937     10944     10945     10947     10946
 -1      5585    6    0    1
 -2       320       319      1390      6298       419      1967      1966     10948     10950     10949
 -1      5586    6    0    1
 -2      1357      6121      1358      6326      7042      6834      3276      7288     10849     10342
 -1      5587    6    0    1
 -2      6206      6219      6111      6445      8001      8168      6675      9569      7107      6575
 -1      5588    6    0    1
 -2      3653      3537      3760      6482      5012      5016      5015     10951      7331      7332
 -1      5589    6    0    1
 -2      3423      6347      3420      6463      9420      9957      4396      8965      9751     10952
 -1      5590    6    0    1
 -2      6184      6212      6051      6363      7270      8206      8239     10953     10955     10954
 -1      5591    6    0    1
 -2      1349      1571      1531      6528      2336      2911      2616     10190     10957     10956
 -1      5592    6    0    1
 -2      6062      6178      6172      6296     10807     10060      9022      9026     10492      9025
 -1      5593    6    0    1
 -2      3500      3797      3499      6405      4831      4526      4830     10383     10384     10793
 -1      5594    6    0    1
 -2      1320      6340      1321      6460      7094     10327      3321      7700     10331     10329
 -1      5595    6    0    1
 -2      1503      1356      1047      6404      2038      2037      2039      9642      9009      8617
 -1      5596    6    0    1
 -2      3411       251       252      6274      3938       351      3939      7379      6609      7993
 -1      5597    6    0    1
 -2      6034      6155      6195      6419      8481     10677     10676     10081     10959     10958
 -1      5598    6    0    1
 -2      5508      5473      6340      6460      5929     10310      7255     10960     10330     10331
 -1      5599    6    0    1
 -2      1171      6304      1161      6501     10416     10961      2628      9060      7458      9062
 -1      5600    6    0    1
 -2      6019      6033      6351      6395     10962     10123     10963     10964     10181     10965
 -1      5601    6    0    1
 -2      1487      1463      1275      6229      2412      2881      2511      7708     10966      7707
 -1      5602    6    0    1
 -2      3777      6244      3718      6435     10649     10967      5059      7743      9399      7742
 -1      5603    6    0    1
 -2       272       271      1409      6277       371      1823      1822     10968      7981      9153
 -1      5604    6    0    1
 -2      1343      1429      1515      6215      3347      3349      3348      9502      9677      9647
 -1      5605    6    0    1
 -2       252      6190      3619      6274      7829      6774      3941      7993      8486      7992
 -1      5606    6    0    1
 -2      3551      3656      3767      6421      5071      4769      5072     10969     10970      8567
 -1      5607    6    0    1
 -2       527       540      6022      6062      1007     10971      9763      9325     10972      9762
 -1      5608    6    0    1
 -2      1393      1392      6297      6379      2200      7734      8372     10361      8660     10973
 -1      5609    6    0    1
 -2      3591       546      3590      6232      8857      8858      4379      7718     10974      7720
 -1      5610    6    0    1
 -2      6037      6044      6235      6354     10635      7514      9042     10130      7515      7516
 -1      5611    6    0    1
 -2      3470      6224      3471      6504      8841      8842      4538      8949     10975      8951
 -1      5612    6    0    1
 -2      1205      6165      1224      6288     10140      6965      2863      8004     10335      7859
 -1      5613    6    0    1
 -2       433         3      3694      5198       434      3804      3806      5201      5200     10976
 -1      5614    6    0    1
 -2      6112      6157      6082      6324      7023      8521      8520      8578      8579     10977
 -1      5615    6    0    1
 -2      1557      6204      1352      6388      8629      8630      3315      9308     10978      7660
 -1      5616    6    0    1
 -2      1560      6324      6179      6492      7422      7423      6737     10206     10979     10468
 -1      5617    6    0    1
 -2      1216      1296      1485      6326      2702      2920      2919     10980      9167      7507
 -1      5618    6    0    1
 -2      5290      5253      5549      5252     10981      9951      6806      6807      5281      6698
 -1      5619    6    0    1
 -2      1471      1229      6205      6501      2832      8289      8047      9061      9132      9553
 -1      5620    6    0    1
 -2      1576      1085      1354      6158      2226      2225      2227     10908     10982     10907
 -1      5621    6    0    1
 -2      3679      6161      3522      6222      9988     10983      4936     10695     10984     10694
 -1      5622    6    0    1
 -2       259      3383      6146      6309      3962      8241      7340      7090      7091     10985
 -1      5623    6    0    1
 -2      3386      6338      3567      6524      8611     10986      4234     10438     10987      8440
 -1      5624    6    0    1
 -2      6102      6090      6267      6364      7028      7881      7880      7032      7030     10164
 -1      5625    6    0    1
 -2      6036      6098      6051      6403     10988     10989     10990     10991     10992      9877
 -1      5626    6    0    1
 -2      6174      6281      6153      6529      8927     10228     10229      8386     10993     10901
 -1      5627    6    0    1
 -2      6194      6357      6503      6515     10994     10487     10995     10996      9782     10997
 -1      5628    6    0    1
 -2      6034      6283      6270      6300      9044      9924     10790      8744      9146     10998
 -1      5629    6    0    1
 -2      1444      1265      1166      6179      2656      2655      2657      6739      9793      6738
 -1      5630    6    0    1
 -2       492       493       480      6270       864       865       863      9514      9037     10754
 -1      5631    6    0    1
 -2      3452      6307      6143      6417      8329      8840      9511     10847     10848     10871
 -1      5632    6    0    1
 -2      5482      5483      5484      6058      5963      5967      5966      9979     10429      8066
 -1      5633    6    0    1
 -2      1587      1202      1566      6138      2836      2847      2849      8598      6848     10999
 -1      5634    6    0    1
 -2      1164      6280      6150      6439      8088     10640      7184      7499     10741     10565
 -1      5635    6    0    1
 -2      1589      1048      1524      6522      2044      1929      2045      8762      9839      8761
 -1      5636    6    0    1
 -2      6022      6102      6395      6437      8277     10764     10762      8278      8279     11000
 -1      5637    6    0    1
 -2      6393      6423      6041      6454      7037      7987      7988      9402      8971      8142
 -1      5638    6    0    1
 -2      1112      1111      1110      6488      2349      2326      2350      9722      8633      7478
 -1      5639    6    0    1
 -2      1066      1350      1324      6525      2136      2135      1635     11001     11003     11002
 -1      5640    6    0    1
 -2       581       476       534      6340       841       843       844      7693      9508      8347
 -1      5641    6    0    1
 -2      5498      3419      6141      6463     11004     10872     11005     11006     11007     10477
 -1      5642    6    0    1
 -2      3625      6339      6107      6405      7648      8737      9526      8828      8829     10385
 -1      5643    6    0    1
 -2      5519      5472      5564      6132      5926      5882      5927      8164      9421      6923
 -1      5644    6    0    1
 -2      6118      6350       501      6456     11008     10728      8150      8220     10730      8219
 -1      5645    6    0    1
 -2      6031      6160      6059      6427      9605     10062      9906     10442     10063     10064
 -1      5646    6    0    1
 -2      1516      6260      1416      6474     10262     10263      2019      9469     11009      7352
 -1      5647    6    0    1
 -2      1203      6288      6138      6398      8002      8105     11010     11011     11012     10240
 -1      5648    6    0    1
 -2      5557      6188      6336      6433      8849      6926     10882      9481      7958     11013
 -1      5649    6    0    1
 -2      6065      6188      6132      6372      7481      6922      7131      7134     11014      7136
 -1      5650    6    0    1
 -2      1203      1205      6288      6398      2851      8004      8002     11011     11015     11012
 -1      5651    6    0    1
 -2      3783      3510      3568      6202      4883      4882      4884     11016     11018     11017
 -1      5652    6    0    1
 -2       307       306      1048      6225       406      1928      1927      8920      8921      7104
 -1      5653    6    0    1
 -2      1450      6203      1449      6517      9136      9137      2770     11019     11021     11020
 -1      5654    6    0    1
 -2      1071      5512      1323      6447     11022      8811      1673     11023     11025     11024
 -1      5655    6    0    1
 -2      6108      1243      6367      6425     11026      7524     11027     11028      7836      9811
 -1      5656    6    0    1
 -2      6047      6414      6334      6469     10585     11029     10409      9681     10586     11030
 -1      5657    6    0    1
 -2      1092      1318      5533      6180      2241      9932      9933      9995      9894     11031
 -1      5658    6    0    1
 -2      6117      6351      6048      6490     10673     10124      8273     11032     10894     10895
 -1      5659    6    0    1
 -2      6096      6401      6174      6412      7527      9371      8644      7528      7529      6915
 -1      5660    6    0    1
 -2      6060      6046      6128      6521      6767      6769      6768     10644     10642     11033
 -1      5661    6    0    1
 -2      6060      6169      6489      6521      6870      9791      9792     10644     11035     11034
 -1      5662    6    0    1
 -2      1259      1427      1260      6256      3127      3126      3042      7142      8782      6940
 -1      5663    6    0    1
 -2      1152      1154      1155      6166      2578      2581      2580     10326      6861      8014
 -1      5664    6    0    1
 -2      3800      3560      3549      6218      4823      5069      4702      7147      7815     11036
 -1      5665    6    0    1
 -2      1152      1441      1149      6512      2565      2562      2563     11037     10732      9150
 -1      5666    6    0    1
 -2      3583      3432      3436      6294      4449      4466      4468     11038     10491     11039
 -1      5667    6    0    1
 -2      1358      6326      6199      6397     10342     11040      8752      9724     10343     11041
 -1      5668    6    0    1
 -2      6113      6160      6044      6471     10937     11042     10219     10151     10938      8197
 -1      5669    6    0    1
 -2       247       246      1077      6272       346      1748      1747     11043      8020     11044
 -1      5670    6    0    1
 -2      1358      6121      6199      6326      6834      8753      8752     10342     10849     11040
 -1      5671    6    0    1
 -2      1348      6221      1253      6273     10320     10321      3099      7201     11045     10606
 -1      5672    6    0    1
 -2      1581      1370      1086      6180      2232      2004      2230      9893      9730      8064
 -1      5673    6    0    1
 -2      3620       314       315      6297      4127       414      4128      7950      7575      6891
 -1      5674    6    0    1
 -2      1577      6192      1469      6501     10280     10281      2906      9572     11047     11046
 -1      5675    6    0    1
 -2      6099      6048      6200      6360      9003      7491      9738      8891      7494      7495
 -1      5676    6    0    1
 -2      6086      6136      6071      6342     10427     10428      8146     10098      8282     10100
 -1      5677    6    0    1
 -2      6060      6177      6128      6233     11048     11049      6768      6772     10610      6771
 -1      5678    6    0    1
 -2       300      6207      6318      6373      8791     11050      7240      6847     11051      8848
 -1      5679    6    0    1
 -2      5554      5552      6105      6480      5987     11052      7905      7908     11053      7209
 -1      5680    6    0    1
 -2      3480      6147      3450      6293     10709     11054      4566     11055     11057     11056
 -1      5681    6    0    1
 -2      3382      3724      3642      6381      4216      4215      4111     11058     11059      8806
 -1      5682    6    0    1
 -2      1222      1351      6323      6394      2953     11060     10077     10104      9049     11061
 -1      5683    6    0    1
 -2      6061      6050      6166      6395      8378      8380      8379     11062     11064     11063
 -1      5684    6    0    1
 -2       264      6322      1046      6367      7111     10499      1798      7870     10881      9407
 -1      5685    6    0    1
 -2      3464      3554      3494      6365      4651      4650      4649      9034      9852      9036
 -1      5686    6    0    1
 -2      5477      6141      5475      6463     10668     10227      5933     11065     10477     10478
 -1      5687    6    0    1
 -2      3423      6208      3692      6347      8473     11066      4415      9420      9288     11067
 -1      5688    6    0    1
 -2      1114      6235      1119      6331     11068     11069      2370      8614      7513     10034
 -1      5689    6    0    1
 -2      3447      3719      3604      6403      4556      4555      4536     10746      9602      9498
 -1      5690    6    0    1
 -2      3527      3526      3534      6346      4949      4954      4953      8398     11070      9971
 -1      5691    6    0    1
 -2      3448      3446      6285      6403      4547     10444      8711     11071     11073     11072
 -1      5692    6    0    1
 -2      3494      6241      3493      6365      9967      9968      4648      9036     11074      9035
 -1      5693    6    0    1
 -2      1158      1160      1159      6457      2613      2612      2606      7620      6759     11075
 -1      5694    6    0    1
 -2      6095      6182      6144      6185      8287      8144      8286      9830      7211      8145
 -1      5695    6    0    1
 -2      3637      3675      3723      6449      4253      5159      5172      8510     11076      9856
 -1      5696    6    0    1
 -2      3595      3751      3571      6159      4373      5083      4339      8496      7448     10122
 -1      5697    6    0    1
 -2      3668      6421      6277      6530      8568      8692      7980     10088     10388     11077
 -1      5698    6    0    1
 -2      3663      3377      3674      6508      4193      4030      4194      6671      6721     10935
 -1      5699    6    0    1
 -2      1572      1073       467      6256      1614     11078     11079      9669     11081     11080
 -1      5700    6    0    1
 -2      6105      6434      6193      6497     10475     11082      7983      9318     10476      9319
 -1      5701    6    0    1
 -2      3529      6085      6291      6513      7976      8160      7776      9620     10575     11083
 -1      5702    6    0    1
 -2       311       312      3412      6523       411      4119      4118      9455     10413     10414
 -1      5703    6    0    1
 -2      1543      6223      1415      6329      7258      7256      2219     10884     11084     10886
 -1      5704    6    0    1
 -2      3688      3719      3447      6417      4557      4556      4553     11085     10747     10748
 -1      5705    6    0    1
 -2      3455      6275      3456      6527      8115      8116      4590     11086     11088     11087
 -1      5706    6    0    1
 -2      3537      6201      6190      6482      9294      9293      6554      7331     11089      7333
 -1      5707    6    0    1
 -2      6138      6288      1566      6332      8105      7968     10999     10890      7971      7972
 -1      5708    6    0    1
 -2      1327      1218      1483      6394      2932      2933      2084     10105     10106     11090
 -1      5709    6    0    1
 -2      3758      3567      3386      6338      4235      4234      4236     11091     10986      8611
 -1      5710    6    0    1
 -2      3480      6255      6147      6293      8793      8374     10709     11055     10641     11057
 -1      5711    6    0    1
 -2      6107      6046      6489      6521      7350     10163      7724     10760     10642     11034
 -1      5712    6    0    1
 -2      3598       328       329      6238      4169       428      4170      9176      7202      9941
 -1      5713    6    0    1
 -2      3598      6402      3571      6491      9785      9786      4342      8802     11092      8801
 -1      5714    6    0    1
 -2      3505      3703      3765      6151      4853      4290      4863      9461     10035     10832
 -1      5715    6    0    1
 -2      3404      3581      3790      6325      4319      4322      4321      9316     10483      9821
 -1      5716    6    0    1
 -2      3644      6228      3659      6356     11093      9223      4099      8375     11094      8377
 -1      5717    6    0    1
 -2      3611      3743      3552      6250      5074      4716      5075      8179      6637     10656
 -1      5718    6    0    1
 -2      3524      3523      3525      6424      4930      4940      4939      8261      8262     10084
 -1      5719    6    0    1
 -2      1375      6172       239      6477      7082      6749      1723      9609     11095      9611
 -1      5720    6    0    1
 -2      1431      6282      1106      6488     10652     10650      2327     10838     11096      7477
 -1      5721    6    0    1
 -2      1530      1143      1144      6498      2530      2523      2531     11097     11098      7886
 -1      5722    6    0    1
 -2      6083      6166      6050      6395     11099      8380     11100     10180     11063     11064
 -1      5723    6    0    1
 -2      6053      6150      6071      6305     10639     10638      7217      9156     11101      8186
 -1      5724    6    0    1
 -2      1380       241      1060      6220      1733      1729      1734      7511      6779      8170
 -1      5725    6    0    1
 -2      6229      6263      6092      6448      7016      9873      8449      7017      7018      8505
 -1      5726    6    0    1
 -2      3717      3548      3576      6487      5066      5064      5067     11102     11103      6731
 -1      5727    6    0    1
 -2      5556      6475      6240      6476     11104      7960     11105     11106      9409      9410
 -1      5728    6    0    1
 -2      6098      6403      6164      6417     10992     10167      8732     11107     10749     10831
 -1      5729    6    0    1
 -2      1462      6150      1164      6361      7041      7184      2645     10867     10868     11108
 -1      5730    6    0    1
 -2      6028      6145      6095      6239      8112      8113      8111      9425     11109      9945
 -1      5731    6    0    1
 -2      6021      6071      6054      6305      7396      8545      7432      8185      8186      8942
 -1      5732    6    0    1
 -2       276       277      3391      6197       376      4014      4013     10736     10897     10539
 -1      5733    6    0    1
 -2      6231      6281      6097      6384     10376     11110      8895     10430     10788     11111
 -1      5734    6    0    1
 -2      3459      3458      3460      6265      4610      4615      4614     11112      8889      9450
 -1      5735    6    0    1
 -2      6209      6316      6130      6407     10029     10121     11113     10031      8320     11114
 -1      5736    6    0    1
 -2      1311      1339      1061      6356      2107      2106      2108      9897     11115      9896
 -1      5737    6    0    1
 -2      3621      3589      3759      6482      4366      5022      4229      9919     11117     11116
 -1      5738    6    0    1
 -2      1064      6332      6373      6375      8095     11118      8599      7710      8618     11119
 -1      5739    6    0    1
 -2      3513      3686      3514      6443      4895      4894      4411      8198      8199      8759
 -1      5740    6    0    1
 -2      1123      6280      6181      6361      6963      7195     10624      9622      9623     11120
 -1      5741    6    0    1
 -2      3511      3430      3426      6245      4432      4431      4433      8687      9867      8689
 -1      5742    6    0    1
 -2      3723      6449      3675      6450      9856     11076      5159      8788     11121      8787
 -1      5743    6    0    1
 -2      3642       308      3382      6251      4107      4109      4111     11122      7425     11123
 -1      5744    6    0    1
 -2      3749      3688      3465      6417      4657      4589      4655     11124     11085     11125
 -1      5745    6    0    1
 -2      3386      3617       249      6524      3934      3930      3932     10438     10439      8094
 -1      5746    6    0    1
 -2       501      6350      6118      6479     10728     11008      8150      8152     11126      8151
 -1      5747    6    0    1
 -2      3652      6190       254      6482      7736      7737      3945      9266      7333      7341
 -1      5748    6    0    1
 -2      6041      6139      6187      6423      9765      9080      9766      7987     11128     11127
 -1      5749    6    0    1
 -2      1383      1348      1382      6221      3354      2071      2178      7050     10320      7049
 -1      5750    6    0    1
 -2       538       467      1073      6256       655     11078     11129     10042     11080     11081
 -1      5751    6    0    1
 -2      6198      6226       586      6420     11130     11131     11132     10787     11134     11133
 -1      5752    6    0    1
 -2      3594      3427      6350      6456      4425     10324      9849      9757     10165     10730
 -1      5753    6    0    1
 -2       266      3654      3379      6487      3983      3985      3981      7915     11135      7914
 -1      5754    6    0    1
 -2      1308      1576      6158      6306      3288     10908     10909      9962      9963     11136
 -1      5755    6    0    1
 -2      1141      6290      6213      6425      9794      9795      7226      9472     11137      9474
 -1      5756    6    0    1
 -2      3662      3663      3634      6378      4192      5187      5188     10398     10399     11138
 -1      5757    6    0    1
 -2      6015      6154      6300      6486      9697      9701      7687      9835      8403     11139
 -1      5758    6    0    1
 -2      6039      6129      6137      6291      9346     11140      8529      8158      9347      7775
 -1      5759    6    0    1
 -2      3793      3611      6250      6429      5076      8179     10657     10349      8180      8181
 -1      5760    6    0    1
 -2      1068      6236      1496      6484      8780      9559      2146     10102      8526     10523
 -1      5761    6    0    1
 -2      3783      3606      6202      6301      5147     11141     11016      8541      7768     11142
 -1      5762    6    0    1
 -2      6052      6271      6217      6498     10770     10707     11143     11144     11146     11145
 -1      5763    6    0    1
 -2      1320      1319      1090      6340      2247      1610      2248      7094      7095     10007
 -1      5764    6    0    1
 -2      6165      6331      6192      6398      9516      7227      9540      9543      9685      9545
 -1      5765    6    0    1
 -2      6078      6096      6352      6440      9145     10285     10284      9774      7833     11147
 -1      5766    6    0    1
 -2      3414      3589      3621      6200      4367      4366      3955     10298      8976     11148
 -1      5767    6    0    1
 -2       523       528       541      6091      1027      1028      1029     10012      7924      8523
 -1      5768    6    0    1
 -2      3589      6200      3538      6482      8976      8243      5021     11117     11150     11149
 -1      5769    6    0    1
 -2      6163      6217      1292      6519     11151      7717      6851     10798      9549      8414
 -1      5770    6    0    1
 -2      3411      3764      3618      6338      4355      4354      3940      9165     10258      8612
 -1      5771    6    0    1
 -2      3691      6254      3573      6378     10570     11152      4748      8815     11153      9177
 -1      5772    6    0    1
 -2      6185      6239      6095      6293     10803      9945      9830      8292     11155     11154
 -1      5773    6    0    1
 -2      5497      5501      6030      6093      5999      9990      7365      7367     11156      7366
 -1      5774    6    0    1
 -2      6285      6307      3448      6417      8713      8331      8711     11157     10848     10846
 -1      5775    6    0    1
 -2       279       278      1418      6196       378      1844      1843      6625     10323      7675
 -1      5776    6    0    1
 -2       457      5282       520       576      6818      6821      6822     10050     10198       629
 -1      5777    6    0    1
 -2      1106      6282      6247      6488     10650     11158      7441      7477     11096      7479
 -1      5778    6    0    1
 -2      6044      6057      6229      6393     10634     11159      8448      8195     11160      7036
 -1      5779    6    0    1
 -2      3530      3776      3567      6291      4977      4981      4980      8397     10202     10203
 -1      5780    6    0    1
 -2      3481      3450      3480      6147      4568      4566      4569     10569     11054     10709
 -1      5781    6    0    1
 -2      6019      6016      6261      6438      7560      9340      9339      9099      9100     11161
 -1      5782    6    0    1
 -2      6027      6169      6066      6489      6582      9067      9065      9790      9791      8605
 -1      5783    6    0    1
 -2      1529      1221      1172      6506      2690      2689      2609      8672     11162      8674
 -1      5784    6    0    1
 -2      3731      3515      3680      6495      4904      4905      4906     11163     11165     11164
 -1      5785    6    0    1
 -2      3637      6279      6140      6405      8507      8506      8508     11166     11167      8830
 -1      5786    6    0    1
 -2      1064      6373       298      6375      8599      8600      1900      7710     11119      8404
 -1      5787    6    0    1
 -2      5531      6132      5519      6447     11168      8164      5776     11169     10801     10802
 -1      5788    6    0    1
 -2      6041      6393      6040      6448      7988      6562      7357      7360      7038      7362
 -1      5789    6    0    1
 -2      5480      5564      5462      6336      5886      5883      5884      7323      6924      9614
 -1      5790    6    0    1
 -2      6205      6398      6076      6501      9017      9544     11170      9553      9133     11171
 -1      5791    6    0    1
 -2      5496      5497      6069      6204      5995      7364     10189     11172      9342      9343
 -1      5792    6    0    1
 -2      6042      6098      6285      6330      6817     10436      9797      8809      8810     11173
 -1      5793    6    0    1
 -2      6025      6038      6048      6343      7822      6902      7821      9234     11174      9236
 -1      5794    6    0    1
 -2       240      6172      1060      6220      6642      7546      1730      6780      9191      8170
 -1      5795    6    0    1
 -2      6022      6062       540      6101      9762     10972     10971      9277     11176     11175
 -1      5796    6    0    1
 -2      5475      6413      6142      6463      7879      7877      7875     10478     10479      8563
 -1      5797    6    0    1
 -2      3397      3703      3670      6373      4289      4288      4084      8586      9596      9597
 -1      5798    6    0    1
 -2      1437      1508      1368      6459      2195      3363      3123     11177     11179     11178
 -1      5799    6    0    1
 -2      3790      3739      6176      6350      4323      8952      8953     11180     11181     10664
 -1      5800    6    0    1
 -2      1184      6167      6115      6315      6763      8049      7473      9354      9862     10314
 -1      5801    6    0    1
 -2      6037      6160      6499      6505     10943     10947     10945     11182     11184     11183
 -1      5802    6    0    1
 -2      5557      6336      5528      6433     10882     11185      5752      9481     11013     11186
 -1      5803    6    0    1
 -2      6047      6243      6176      6479     10242     10241      9679     11187     11188     10879
 -1      5804    6    0    1
 -2      6045      6125      6067      6265     11189     10837     10591     11190     11191     10412
 -1      5805    6    0    1
 -2      3690      3518      3766      6353      4909      4918      4227     11192      8393      8392
 -1      5806    6    0    1
 -2      3679      3753      3602      6327      5141      4280      5146     11193     10259      7010
 -1      5807    6    0    1
 -2      6185      6343      6055      6435      8212      9630     10804      8214      8215     11194
 -1      5808    6    0    1
 -2      6043      6131      6130      6382      7735     11195      9332      9532      8585      9087
 -1      5809    6    0    1
 -2      6311      6368       268      6428      8878      6858      6742     11196     11197      8334
 -1      5810    6    0    1
 -2      6036      6347      6208      6413      9287      9288      9286     10287     11199     11198
 -1      5811    6    0    1
 -2      1317      1558      1428      6266      3013      3298      3313      9517      7061      7062
 -1      5812    6    0    1
 -2      6050      6083      6271      6512     11100     10669     11200     11201     11202      9151
 -1      5813    6    0    1
 -2      1536      1497      1146      6217      2550      2549      2527     10000      7431      9166
 -1      5814    6    0    1
 -2       479       482       481      6502       859       860       857     11203      7568      9884
 -1      5815    6    0    1
 -2      6047      6176      6469      6479      9679      8109      9681     11187     10879     10880
 -1      5816    6    0    1
 -2      1230      1180      1179      6213      2725      2521      2726      7522     11204      7224
 -1      5817    6    0    1
 -2       493       516       515      6389       931       932       866      8572     11205      7849
 -1      5818    6    0    1
 -2      1359      6332      6288      6453      7970      7971      7969      9858     10127     11206
 -1      5819    6    0    1
 -2      3769      3628      3723      6140      5170      5171      5163     11207      7647      9059
 -1      5820    6    0    1
 -2      1163      6359      6102      6364      8566      7893      6593      7221      8974      7032
 -1      5821    6    0    1
 -2      3745      3797      3500      6387      4545      4831      4839     11208      6916     11209
 -1      5822    6    0    1
 -2      1412      6258      1064      6332     10509     10508      1905      8391     10126      8095
 -1      5823    6    0    1
 -2      6037      6057      6044      6531      9041     10634     10635     10755     10756     11210
 -1      5824    6    0    1
 -2      1097      1094      1096      6366      2262      2260      2263     10750     11212     11211
 -1      5825    6    0    1
 -2      1408      6246      6277      6368      8914      8916      7064      6831      7559     11213
 -1      5826    6    0    1
 -2      3637      3629      6279      6405      5168      9921      8507     11166     11214     11167
 -1      5827    6    0    1
 -2      3548      3755      3559      6487      5063      5062      4775     11103     11216     11215
 -1      5828    6    0    1
 -2      3452      3490      3454      6143      4581      4580      4579      9511     11217      9510
 -1      5829    6    0    1
 -2      1335      1449      1188      6203      2775      2768      2773      9912      9137      9800
 -1      5830    6    0    1
 -2      3484      3682      3798      6421      4761      4763      4742     11218     11220     11219
 -1      5831    6    0    1
 -2      1529      6233      1221      6506     10056     10332      2690      8672      8901     11162
 -1      5832    6    0    1
 -2      3772      3631      3696      6494      5184      4834      4563     11221     10195     11222
 -1      5833    6    0    1
 -2       498       555      6103      6219       917      7197     11223     11224      8879      8880
 -1      5834    6    0    1
 -2      1300      1450      1449      6517      3268      2770      3269     11225     11019     11020
 -1      5835    6    0    1
 -2       253      6190       252      6274      7738      7829       352      9467      8486      7993
 -1      5836    6    0    1
 -2      3785      3431      3489      6185      4458      4461      4462     11226     11227      9820
 -1      5837    6    0    1
 -2       475       515      6214      6451       828      7846      7008      6664      8130      7007
 -1      5838    6    0    1
 -2      6125      6152      6054      6250      9020     11228      6650      8717      6636      7246
 -1      5839    6    0    1
 -2      6079      6243      6034      6533      7613     10273     10079     11229      9264     11230
 -1      5840    6    0    1
 -2      1292      6163      6117      6217      6851      8091      6973      7717     11151      9164
 -1      5841    6    0    1
 -2      5553      5559      6264      6284      5956     10595      9254      9252     10043      9253
 -1      5842    6    0    1
 -2      6087      6138      6076      6205     10177      6997     11231     10407      9356     11170
 -1      5843    6    0    1
 -2       550       578       519      6312      1019      1020       664      8026     10078      9322
 -1      5844    6    0    1
 -2      6198      6286      6153      6486     10716      9834     11232     11233      9836      9837
 -1      5845    6    0    1
 -2      1296      6271      6117      6326     10046     10670      7631      9167     10045      9077
 -1      5846    6    0    1
 -2      1487      1119      6235      6331      2398     11069      9915      9372     10034      7513
 -1      5847    6    0    1
 -2      1123      1136      6181      6235      2403      8028     10624      8462      8463      7191
 -1      5848    6    0    1
 -2      1230      6213      1232      6368      7522      8784      2727      7417      8785      7557
 -1      5849    6    0    1
 -2      5450      5508      5563      6340      5817      5819      5728      8626      7255     10308
 -1      5850    6    0    1
 -2      6056      6230      6096      6492      8646      8355      8643     10910     11234      9499
 -1      5851    6    0    1
 -2       321      6298       320      6478     11235     10948       420      6990     11236      8348
 -1      5852    6    0    1
 -2      1043      1438      1415      6260      2017      2016      1893     10261      8667      8668
 -1      5853    6    0    1
 -2      6064      6296      6221      6359      9024     11237      6809      8884     11238      9442
 -1      5854    6    0    1
 -2      6064      6022      6137      6161      8707     10925      8530      7587     11239     10940
 -1      5855    6    0    1
 -2      1175      6359      1178      6509      7318     11240      2705      7319      7320     10918
 -1      5856    6    0    1
 -2      1537      1348      1253      6273      2074      3099      3103     11241      7201     10606
 -1      5857    6    0    1
 -2      3587      3400      3722      6316      4301      4066      4302      8317      8316     11242
 -1      5858    6    0    1
 -2       275      6268       274      6436     11243     10393       374      7949     11244      7948
 -1      5859    6    0    1
 -2      6090      6129      6081      6210     11245      9345     11246     11247     11249     11248
 -1      5860    6    0    1
 -2       258      6146      6396      6404      7006      7885      7856      7003      9838      9827
 -1      5861    6    0    1
 -2      1246      1256      1393      6167      2762      3073      3072      6761     10249      8166
 -1      5862    6    0    1
 -2      5548      5475      6142      6463      5934      7875      8813      8814     10478      8563
 -1      5863    6    0    1
 -2      3762      6228      6109      6302      8582      7866      9116      9224      9225      9902
 -1      5864    6    0    1
 -2      1132      6213      6096      6352      7225      9144      8703      9691      9692     10285
 -1      5865    6    0    1
 -2       250      6210      1080      6274      8862      7013      1760      6610     11250      7923
 -1      5866    6    0    1
 -2      6015      6162      6284      6503      7502      7281      7044      7688      8691     10488
 -1      5867    6    0    1
 -2      6047      6077      6055      6414      9680      7801     11251     10585      7802      7803
 -1      5868    6    0    1
 -2      3612      6259      3728      6429      8479      8480      4243      9389     11252      9388
 -1      5869    6    0    1
 -2      1223      1447      1173      6324      2695      2604      2693     10025      9984     10026
 -1      5870    6    0    1
 -2      6034      6155      6300      6486      8481      7686      8744     10678     10679     11139
 -1      5871    6    0    1
 -2      6047      6243      6049      6442     10242      8677     10410     11253     10345     11254
 -1      5872    6    0    1
 -2      3707      3566      3710      6415      5103      5100      4661     11255      8722     11256
 -1      5873    6    0    1
 -2      6119      6146      6048      6360     11257      7492      6715     11258      7493      7494
 -1      5874    6    0    1
 -2      1232      6246      6213      6352      7392      8783      8784     10236     10237      9692
 -1      5875    6    0    1
 -2      1458      1147      1146      6271      2546      2536      2547     10706      8763     10708
 -1      5876    6    0    1
 -2      6371      6472      6021      6510     10620     11259      7751     10456     10621     10538
 -1      5877    6    0    1
 -2      6034      6270      6195      6300     10790      9515     10676      8744     10998     11260
 -1      5878    6    0    1
 -2       487       560       483      6154       881       882       880      8573      8401     11261
 -1      5879    6    0    1
 -2      3679      6222      3678      6327     10695     10693      4937     11193     11262     10209
 -1      5880    6    0    1
 -2      6045      6194      6264      6516      7626      7625      7624     11263     11265     11264
 -1      5881    6    0    1
 -2      6135      6038      6182      6234     11266      8288     11267     11268     11269      9392
 -1      5882    6    0    1
 -2      6116      6056      6292      6458      7124      8442      7973      7125      7126      9434
 -1      5883    6    0    1
 -2      1147      6271      6211      6498      8763      7414     10136      7888     11146     10137
 -1      5884    6    0    1
 -2      3518      3579      3750      6376      4914      4917      4916      8394      8615      9861
 -1      5885    6    0    1
 -2      3545      3764      3695      6338      5057      4358      5014      9078     10258      6555
 -1      5886    6    0    1
 -2      6015      6156      6286      6328      7045     10494      9699     11270      9338     10495
 -1      5887    6    0    1
 -2      6048      6343      6119      6360      9236     11271      6715      7494     11272     11258
 -1      5888    6    0    1
 -2      3376      3676       288      6450      4051      4047      4049     11273     11274     10647
 -1      5889    6    0    1
 -2       562      6383       469      6500      8766     11275       811      9973      9974     11276
 -1      5890    6    0    1
 -2      5250      5419      5532      5418     11277      8216      9976      9977      5432      7130
 -1      5891    6    0    1
 -2      6226      6410       530      6437     11278      8118     10513     11279      8123      8121
 -1      5892    6    0    1
 -2       557       498      6103      6256       951     11223      7862      7863     11280      6693
 -1      5893    6    0    1
 -2      1402      6225      6139      6251      7630      8326      6545      7427     11281      8412
 -1      5894    6    0    1
 -2      6040      6303      6109      6307      7838      9693      7785      7251      8839      7786
 -1      5895    6    0    1
 -2      6083      6267      6395      6431     11282     11283     10180     10183      7884     10185
 -1      5896    6    0    1
 -2      3586      3587      3722      6316      5091      4302      4069      8847      8317     11242
 -1      5897    6    0    1
 -2      1533      6309      1363      6404      8799      9320      2114     10593      9248     10592
 -1      5898    6    0    1
 -2      1559      1042      1426      6323      2014      2011      2015     11284     11286     11285
 -1      5899    6    0    1
 -2      1107      1115      6458      6528      2331      9433     10860     10682     10191      8518
 -1      5900    6    0    1
 -2       556      1090       499      6340     11287     10006       646     11288     10007      9395
 -1      5901    6    0    1
 -2      3567      6338      6129      6524     10986     11289      7324      8440     10987      8058
 -1      5902    6    0    1
 -2      6113      6059      6192      6282     10146     10148     10147     10401      9908     11290
 -1      5903    6    0    1
 -2      1119      1114      1120      6235      2370      2372      2371     11069     11068      8464
 -1      5904    6    0    1
 -2       497      6270       492      6502      9513      9514       871     10221      9885      9883
 -1      5905    6    0    1
 -2      6024      6098      6330      6515      6816      8810      7963      8082     10689      9566
 -1      5906    6    0    1
 -2       265      6311       266      6487      6844      6842       365      7913     11291      7915
 -1      5907    6    0    1
 -2       310      3640      6430      6523      4115     11292     11293      9456      9457     11294
 -1      5908    6    0    1
 -2      1504      1288      1520      6391      3227      3228      3084     11295      9416     10452
 -1      5909    6    0    1
 -2      3485      3689      3553      6185      4755      4768      4767      7446     11296      8248
 -1      5910    6    0    1
 -2      5461      5459      6287      6535      5853     11297      8369      7178     10018      8370
 -1      5911    6    0    1
 -2      6029      6065      6123      6252      9082      7133      7999     10434     11298      8303
 -1      5912    6    0    1
 -2      6026      6426      6212      6489     11299     10829      8205      7723     10830      8207
 -1      5913    6    0    1
 -2      3713      3536      3714      6424      5009      4959      5010     11300     10800     11301
 -1      5914    6    0    1
 -2      1366      1367      6193      6497      3046      8650     11302     10473      9238      9319
 -1      5915    6    0    1
 -2      5554      5511      5552      6480      6013      6014      5987      7908      8425     11053
 -1      5916    6    0    1
 -2      3693      3692      3423      6208      4416      4415      4412     11303     11066      8473
 -1      5917    6    0    1
 -2      6051      6107      6066      6473      7722      8604      8238      9879     10535     11304
 -1      5918    6    0    1
 -2      1054      1348      1537      6273      2072      2074      2073      7200      7201     11241
 -1      5919    6    0    1
 -2      1227      1274      1362      6366      2979      2982      2981      9537      7900      7975
 -1      5920    6    0    1
 -2      5215      5251      5366      5545     11305     11306     10036     10038     11307     10040
 -1      5921    6    0    1
 -2      5475      5516      5548      6142      5904      5771      5934      7875      7304      8813
 -1      5922    6    0    1
 -2      6194      6363      6036      6515     11308      8435     11309     10996      9783     11310
 -1      5923    6    0    1
 -2      1483      1573      1425      6177      3279      2943      2085     10599     11312     11311
 -1      5924    6    0    1
 -2      3437      3439      3440      6184      4494      4497      4496     11313     11315     11314
 -1      5925    6    0    1
 -2      6022      6437      6414      6469      8278     11316     10927      9279     11317     10586
 -1      5926    6    0    1
 -2      1315      1232      1316      6368      2992      3003      3002      8441      7557      7558
 -1      5927    6    0    1
 -2      1376      1070       237      6477      1722      1721      1717      8202     11318      8201
 -1      5928    6    0    1
 -2      6028      6145      6020      6412      8112     11319      9424      7460     11320      7069
 -1      5929    6    0    1
 -2      3429      6243      3426      6442     11321     10344      4429      8917     10345     10346
 -1      5930    6    0    1
 -2       276      6197       275      6391     10736     10735       375      9102     10898      9773
 -1      5931    6    0    1
 -2      1131      6230      6096      6290     11322      8355      8702      8704      8360      8358
 -1      5932    6    0    1
 -2      6037      6053      6289      6335      9565      9155      9826     10092      9550      8775
 -1      5933    6    0    1
 -2      3566      6299      6141      6415     11323     10421     10289      8722     10686      9581
 -1      5934    6    0    1
 -2       306      6225      3645      6522      8921      8922      4103     11324      9840     11325
 -1      5935    6    0    1
 -2      1435      1260      1460      6460      3132      3130      3133      7701      6943      6941
 -1      5936    6    0    1
 -2      6243      6245      6176      6350     10244      8688     10241      9994     10663     10664
 -1      5937    6    0    1
 -2      3603      3536      3713      6455      5007      5009      5008      9051      8956      9052
 -1      5938    6    0    1
 -2      3437      3439      6184      6432      4494     11315     11313     10357     11326      7376
 -1      5939    6    0    1
 -2       331       330      1086      6402       430      2000      1999     11327      8640      8641
 -1      5940    6    0    1
 -2      3496      6285      3681      6387     11328     11329      4552     11330     11331     10720
 -1      5941    6    0    1
 -2      1576      1085      6158      6308      2226     10982     10908      8876     10920     11332
 -1      5942    6    0    1
 -2      3386       249      6210      6524      3932      8090      9063     10438      8094     11333
 -1      5943    6    0    1
 -2      3494      3554      3510      6202      4650      4808      4807      6898      9851     11018
 -1      5944    6    0    1
 -2      1542      6188      1323      6433     10912      7953      3323     11334      7958      7956
 -1      5945    6    0    1
 -2       561       514       580      6226       971      1011      1012     11335      9817      9818
 -1      5946    6    0    1
 -2      6034      6195      6118      6419     10676      8148     10822     10081     10958     10823
 -1      5947    6    0    1
 -2      3661      6168      3662      6378      7234      7235      4190     11336      9571     10398
 -1      5948    6    0    1
 -2      1230      1180      6213      6425      2725     11204      7522      7834      7835      9474
 -1      5949    6    0    1
 -2      6035      6070      6067      6248      6709      6710      6706      9823      9824      9307
 -1      5950    6    0    1
 -2      1045      1432      1409      6277      2029      2028      1824      7065      8935      9153
 -1      5951    6    0    1
 -2      1425      1220       283      6483      1860      1859      1855     10338     11337     10340
 -1      5952    6    0    1
 -2      6141      6264      5522      6516     10420      9935     10490      9097     11264     11338
 -1      5953    6    0    1
 -2       236      1087      6178      6374      1714      6711      6712     11339     10865     10857
 -1      5954    6    0    1
 -2      3711      3540      3589      6200      5034      5020      4368      8405      8043      8976
 -1      5955    6    0    1
 -2      6093      6345      1452      6399      9981      8349      8162      8899     10103      7796
 -1      5956    6    0    1
 -2      6044      6229      6057      6331      8448     11159     10634      7228      9292     11340
 -1      5957    6    0    1
 -2      1355      1164      6280      6361      2427      8088      6962      9621     11108      9623
 -1      5958    6    0    1
 -2      6035      6406      6023      6454      9413     10615      7806      7399      9414      8575
 -1      5959    6    0    1
 -2      3483      6255      3480      6293      7592      8793      4734      8383     10641     11055
 -1      5960    6    0    1
 -2      6213      6401      6108      6425      8042      8909     11341      9474     11342     11028
 -1      5961    6    0    1
 -2      1503      6396      6121      6404      6836      6837      6835      9642      9827      9641
 -1      5962    6    0    1
 -2      5366      5251      5215      5367     11306     11305     10036      5381     11343     10192
 -1      5963    6    0    1
 -2       271       270      1045      6277       370      1820      1819      7981      8669      7065
 -1      5964    6    0    1
 -2      6038      6088      6135      6182      8429     11344     11266      8288      8465     11267
 -1      5965    6    0    1
 -2      6097      6290      6230      6493      8359      8360      8356      9617      8234     11345
 -1      5966    6    0    1
 -2      3611      3409      6298      6429      4346      9303      8177      8180      9574      8182
 -1      5967    6    0    1
 -2      6056      6174      6097      6281      6910      7466      8893      8926      8927     11110
 -1      5968    6    0    1
 -2      6024      6393      6348      6471      6561     11346      8081      7605      7606     10367
 -1      5969    6    0    1
 -2      1160      6304      1159      6457      7454     11347      2612      6759      7480     11075
 -1      5970    6    0    1
 -2      6033      6334      6019      6351     11348      7563     10962     10123     11349     10963
 -1      5971    6    0    1
 -2      3517      3757      3612      6353      4912      4364      4911     11350      9586      9587
 -1      5972    6    0    1
 -2      1192      6136      1195      6439     10645      7599      2793     10544     10661     11351
 -1      5973    6    0    1
 -2       562       551       543      6173       925       856       814      8765      7541      8997
 -1      5974    6    0    1
 -2      6022      6414      6077      6469     10927      7802      9278      9279     10586      8107
 -1      5975    6    0    1
 -2      3691      6254      6378      6494     10570     11153      8815     11352     11354     11353
 -1      5976    6    0    1
 -2      1465      1201      1229      6398      2843      2830      2844     11355      9015      9016
 -1      5977    6    0    1
 -2      1535      1331      1353      6416      3334      3024      2741     10738      6681      6682
 -1      5978    6    0    1
 -2      5493      5552      5524      6480      5994      5993      5638      9683     11053      8695
 -1      5979    6    0    1
 -2      1173      6157      6324      6506      8029      8579     10026     10715      8912     11356
 -1      5980    6    0    1
 -2      6077      6245      6085      6462      9644      9382      7799     11357     10734      9639
 -1      5981    6    0    1
 -2      3684      3434      3689      6185      4478      4480      4479     10771      8293     11296
 -1      5982    6    0    1
 -2       278      3468      3673      6496      4019      4021      4017      7339      8254      7338
 -1      5983    6    0    1
 -2      1403      1468      1061      6518      2112      2110      1920     11358      6571     11359
 -1      5984    6    0    1
 -2       473       474       475      6214       821       826       827      9788      7483      7008
 -1      5985    6    0    1
 -2      3428      3425      3426      6350      4421      4423      4422      9850      9848     10662
 -1      5986    6    0    1
 -2       517       515       516      6389      1015       932      1014      6826      7849     11205
 -1      5987    6    0    1
 -2       582      6475       472      6476      8533     10753       822      9408      9409     11360
 -1      5988    6    0    1
 -2      5448      6240      5556      6475     11361     11105      5797     11362      7960     11104
 -1      5989    6    0    1
 -2      1094      6170      1096      6366     11363      7121      2260     11212     11364     11211
 -1      5990    6    0    1
 -2      1448      1126      1447      6292      2436      2437      2439      9982      9363      9983
 -1      5991    6    0    1
 -2      3490      3469      3454      6275      4594      4595      4580      9555      9554      8117
 -1      5992    6    0    1
 -2      3671      3784      3380      6375      4209      4208      4075     11365      9240      9241
 -1      5993    6    0    1
 -2      1490      1050      1398      6523      2053      2051      2054     11366     10556     11367
 -1      5994    6    0    1
 -2      3567      3786      3617      6524      5104      4353      4233      8440      8059     10439
 -1      5995    6    0    1
 -2      5481      3550      5518      6241     11368      8077      5673      9844      7596      8078
 -1      5996    6    0    1
 -2      3721      3433      3799      6245      4470      4474      4454      9955      9956     10666
 -1      5997    6    0    1
 -2      6194      6503      6363      6515     10995      8439     11308     10996     10997      9783
 -1      5998    6    0    1
 -2      1279      6304      1170      6411     10371     10773      2621      9313     10373     10350
 -1      5999    6    0    1
 -2      3766      6171      3384      6353      7962      7079      4226      8392      8864     11369
 -1      6000    6    0    1
 -2      6169      6378      6147      6494      7536      7534      6583     10197     11353     11370
 -1      6001    6    0    1
 -2      1152      6166      1441      6512     10326      8015      2565     11037     11371     10732
 -1      6002    6    0    1
 -2      3380       295      6223      6316      4070     10861     10684      8846      8337     11372
 -1      6003    6    0    1
 -2      1483      1306      1573      6177      2934      3280      3279     10599     10600     11312
 -1      6004    6    0    1
 -2      6105      6181      6037      6335      6591      9040     10835      9552     10091     10092
 -1      6005    6    0    1
 -2      1399      6187      6139      6422      8647      9080      6546      7485      8936      9008
 -1      6006    6    0    1
 -2      1160      1161      6304      6501      2618     10961      7454      7456      9062      7458
 -1      6007    6    0    1
 -2      3382       309      3643      6251      4110      4112      4114     11123      7444      9221
 -1      6008    6    0    1
 -2      1200      6205      6138      6329      9355      9356      6850      9376     11373      9375
 -1      6009    6    0    1
 -2      6035      6115      6071      6454      8960      9431      7395      7399      8969      7398
 -1      6010    6    0    1
 -2      6020      6174      6028      6412      6538      9423      9424      7069      6915      7460
 -1      6011    6    0    1
 -2      3772      3634      3632      6169      4667      5186      5183      8312     10805      8311
 -1      6012    6    0    1
 -2      3411      3618      6274      6338      3940      6608      7379      9165      8612     10108
 -1      6013    6    0    1
 -2      1573      6177      1306      6377     11312     10600      3280      8553     10611      9057
 -1      6014    6    0    1
 -2       277      6197       278      6496     10897     11374       377      7337     11375      7339
 -1      6015    6    0    1
 -2      3558      3582      3544      6409      5054      5053      5042     11376     10187     11377
 -1      6016    6    0    1
 -2      1321      1322      5473      6340      3320     11378     10328     10327     11379     10310
 -1      6017    6    0    1
 -2      1575      1492      1064      6332      2129      2126      2127      7496      8390      8095
 -1      6018    6    0    1
 -2      6034      6300      6195      6486      8744     11260     10676     10678     11139      7791
 -1      6019    6    0    1
 -2      3390      3637      3734      6449      4254      4256      4255     11380      8510     11381
 -1      6020    6    0    1
 -2      3407      3741      3779      6232      4336      4338      4335      8086     10391      7719
 -1      6021    6    0    1
 -2      5538      6240      5469      6383      9489      7765      5914      9490      9258      9257
 -1      6022    6    0    1
 -2       564       495      6240      6383       940      8013      9527      9529      9259      9258
 -1      6023    6    0    1
 -2      6064      6091      6062      6296      8883      9327      9021      9024     11382      9026
 -1      6024    6    0    1
 -2      6015      6286      6154      6486      9699      9698      9697      9835      9836      8403
 -1      6025    6    0    1
 -2       527       522       540      6062      1024       819      1007      9325      9324     10972
 -1      6026    6    0    1
 -2      1171      6205      1198      6382      8048     11383      2682      8584      9218     10405
 -1      6027    6    0    1
 -2      1509      1251      1446      6416      3092      3094      3093     10457      7335      7696
 -1      6028    6    0    1
 -2      1247      1288      1249      6323      3075      3074      2957     10551      7890      7979
 -1      6029    6    0    1
 -2      3784      3549      3560      6218      5068      5069      4207      7813     11036      7815
 -1      6030    6    0    1
 -2      6023      6194      6017      6406     10614      7894     11384     10615      7628      7896
 -1      6031    6    0    1
 -2      3788      3478      3580      6526      4728      4732      4733     11385     11387     11386
 -1      6032    6    0    1
 -2       300      6207       301      6318      8791      8792       400      7240     11050      8297
 -1      6033    6    0    1
 -2      6031      6113      6059      6160     10400     10146      9906      9605     10937     10062
 -1      6034    6    0    1
 -2      6029      6065      6252      6511      9082     11298     10434      9079     11388     10435
 -1      6035    6    0    1
 -2      6213      6290      6052      6425      9795      8231     11389      9474     11137     11390
 -1      6036    6    0    1
 -2      1103      1104      1107      6528      2303      2309      2308      7285      7286     10682
 -1      6037    6    0    1
 -2      3551      3656      6421      6428      5071     10970     10969     11391     11393     11392
 -1      6038    6    0    1
 -2      3489      3553      6185      6435      4786      8248      9820      8557      9747      8214
 -1      6039    6    0    1
 -2      3596      3779      3418      6317      4334      4389      3892      8923     11395     11394
 -1      6040    6    0    1
 -2      3636      6378      3573      6496      8817      9177      5113     11396     11398     11397
 -1      6041    6    0    1
 -2      6107      6209      3624      6464      8699      9250      9525     11399      9204     11400
 -1      6042    6    0    1
 -2      1065       274      6268      6436      1828     10393     10392     10789      7948     11244
 -1      6043    6    0    1
 -2      3557      3742      3542      6360      5045      5044      5031      8045     10514      7236
 -1      6044    6    0    1
 -2      1365      6322      1364      6519      8596      8597      3232     10783      9478     10784
 -1      6045    6    0    1
 -2      6072      6189      1529      6457     10825      8671      8756      8757      8445      7845
 -1      6046    6    0    1
 -2      1505      6199      1358      6396      9625      8752      2206      8194      8754      6838
 -1      6047    6    0    1
 -2      6040      6075      6109      6126      6685      8413      7785     10580     11401     10582
 -1      6048    6    0    1
 -2      6115      6070      6227      6423      8050      6985      6876      8967      9742     11402
 -1      6049    6    0    1
 -2      1442      1145      1586      6517      2540      2542      2541     11403     11405     11404
 -1      6050    6    0    1
 -2      6017      6264      6194      6516      7895      7625      7894     11406     11264     11265
 -1      6051    6    0    1
 -2      1192      1195      1361      6439      2793      2795      2652     10544     11351     10659
 -1      6052    6    0    1
 -2      1447      6292      6189      6324      9983      8443      9312      9984      9985     11407
 -1      6053    6    0    1
 -2      3419      3782      3738      6141      4392      4318      3880     10872     10767     10766
 -1      6054    6    0    1
 -2      6040      6303      6143      6344      7838      8838      8837      9216     10796      7403
 -1      6055    6    0    1
 -2      3621       256      3414      6396      3951      3953      3955      8124      8125     10646
 -1      6056    6    0    1
 -2       526       490      6257      6408       920      6646      9507     11408      7073      7783
 -1      6057    6    0    1
 -2      3510      3554      3568      6202      4808      4718      4882     11018      9851     11017
 -1      6058    6    0    1
 -2      1206      6288      6370      6453      7858      7860      7861      8588     11206      8590
 -1      6059    6    0    1
 -2      3505      3768      3649      6318      4862      4861      4860      9462     11410     11409
 -1      6060    6    0    1
 -2      1470      1542      1237      6188      3029      3028      3025     10576     10912     10578
 -1      6061    6    0    1
 -2      3791      6176      3426      6350      8469      8470      4424     11411     10664     10662
 -1      6062    6    0    1
 -2       522      6091       523      6242      9328     10012      1021      9804      9805     11412
 -1      6063    6    0    1
 -2      6029      6123      6122      6252      7999      8498      8534     10434      8303      8499
 -1      6064    6    0    1
 -2      1226      1227      1188      6333      2772      2771      2568     11413      9210      9801
 -1      6065    6    0    1
 -2      1190      6150      1191      6439      7039      6601      2648      7501     10565      8701
 -1      6066    6    0    1
 -2      3548      6234      3576      6487     10333      9033      5064     11103     10680      6731
 -1      6067    6    0    1
 -2      3756      3667      3387      6346      4242      4239      4240     11414      9031      9032
 -1      6068    6    0    1
 -2      6024      6330      6386      6515      7963      9443      8079      8082      9566      8084
 -1      6069    6    0    1
 -2      5286        98       531      5285      5316       740      7299      5321      5320      7298
 -1      6070    6    0    1
 -2       501       503      6350      6479       959     11415     10728      8152     11416     11126
 -1      6071    6    0    1
 -2      1413      6329      1455      6332      9282      9283      2216      7498     11417      7497
 -1      6072    6    0    1
 -2      3421      3566      3782      6141      4403      4405      4393     10290     10289     10767
 -1      6073    6    0    1
 -2      3701      3788      3580      6430      5126      4733      5129     10053     10054     11418
 -1      6074    6    0    1
 -2      3707      6299      3566      6415     11419     11323      5103     11255     10686      8722
 -1      6075    6    0    1
 -2      3497      6133      3800      6464      8738      8739      4699      8167      9205      7151
 -1      6076    6    0    1
 -2      6028      6095      6038      6239      8111      8284      8430      9425      9945      9943
 -1      6077    6    0    1
 -2      1333      1562      1377      6374      1652      3303      2252     11420     10717     10252
 -1      6078    6    0    1
 -2      6038      6239      6025      6401      9943      9829      7822      8908     10083      9370
 -1      6079    6    0    1
 -2      3621       255      6199      6482      3950      9143     10503      9919      7343     10737
 -1      6080    6    0    1
 -2      6039      6064      6022      6137      6799      8707      8706      8529      8530     10925
 -1      6081    6    0    1
 -2      1506      1242      6221      6296      3053      8452      8453      8456      8457     11237
 -1      6082    6    0    1
 -2      3531      3537      3533      6201      4985      4984      4983     11421      9294     11422
 -1      6083    6    0    1
 -2      6221      6273      6094      6364     11045     11423      6808      7604     11424      7031
 -1      6084    6    0    1
 -2      6363      6503      6357      6515      8439     10487      9780      9783     10997      9782
 -1      6085    6    0    1
 -2      6025      6239      6334      6418      9829      9626      9828     11425     10300     10301
 -1      6086    6    0    1
 -2      6153      6198      6486      6529     11232     11233      9837     10901     11427     11426
 -1      6087    6    0    1
 -2      3555      3495      3509      6491      4809      4804      4810      9330      8493     10853
 -1      6088    6    0    1
 -2      1455      1083      1543      6329      2217      2218      2220      9283      9281     10884
 -1      6089    6    0    1
 -2      6052      6117      6217      6271      8272      9164     11143     10770     10670     10707
 -1      6090    6    0    1
 -2      1588      1272      1466      6399      3179      3178      3180     11428      7795      7805
 -1      6091    6    0    1
 -2      1094      1096      6170      6312      2260      7121     11363     10325      9365      8304
 -1      6092    6    0    1
 -2      6102      6395      6267      6431     10764     11283      7880      7882     10185      7884
 -1      6093    6    0    1
 -2      6044      6057      6235      6331     10634      7192      7514      7228     11340      7513
 -1      6094    6    0    1
 -2      6107      6043      6209      6330      7348      8698      8699      9291      9111      9112
 -1      6095    6    0    1
 -2      6028      6020      6145      6239      9424     11319      8112      9425      9426     11109
 -1      6096    6    0    1
 -2      1497      1536      1291      6217      2550      3240      3238      7431     10000      9548
 -1      6097    6    0    1
 -2      1353      6267      1181      6416     10067     11429      2740      6682     10068     10739
 -1      6098    6    0    1
 -2      5285      5286       201      5505      5321      5334      5335      7309      7308      5714
 -1      6099    6    0    1
 -2      6085      6244      3699      6462      9380      9937      7978      9639     10733      9638
 -1      6100    6    0    1
 -2      1477      5340      5530      6340     11430     11431     11432     11433     11434     10309
 -1      6101    6    0    1
 -2      6043      6087      6042      6385      9531      9590      9591      9594     10178      7580
 -1      6102    6    0    1
 -2      6171      6227      1394      6297      6603      6765      8208      6606      6607      7576
 -1      6103    6    0    1
 -2      6096      6213      1132      6290      9144      7225      8703      8358      9795      8705
 -1      6104    6    0    1
 -2      1296      1458      6117      6271      2577      8096      7631     10046     10706     10670
 -1      6105    6    0    1
 -2      1482      1140      1464      6331      2394      2516      2515      9978      8528      7488
 -1      6106    6    0    1
 -2      6223      6332      1413      6375     11435      7498     10360     10685      8618      7711
 -1      6107    6    0    1
 -2      3601      3603      3602      6455      5143      5142      4279      8745      9051      8945
 -1      6108    6    0    1
 -2      6080      6040      6126      6369      7358     10580     10581      9207      6559     10712
 -1      6109    6    0    1
 -2      3694      6313      3686      6389     11436      9105      4182     11437      9655      9654
 -1      6110    6    0    1
 -2      1055      1420      6276      6306      1881     10923     11438     10902     10903     11439
 -1      6111    6    0    1
 -2      6201      6291      3537      6338      8291     10160      9294      9295     10162      6556
 -1      6112    6    0    1
 -2      6100      6183      6070      6430      8102      8100      8098      8728     11440      9436
 -1      6113    6    0    1
 -2      3484      3798      6255      6421      4742      9302      7591     11218     11219     11441
 -1      6114    6    0    1
 -2      1096      1098      1097      6170      2272      2271      2263      7121      6778     11442
 -1      6115    6    0    1
 -2      5490      5467      5489      6390      5905      5840      5906     10074      9714      9069
 -1      6116    6    0    1
 -2       267       266      1063      6311       366      1808      1807      6741      6842      8685
 -1      6117    6    0    1
 -2      1566      1587      6138      6332      2849      8598     10999      7972      9965     10890
 -1      6118    6    0    1
 -2      3380      6218      6133      6223      7814      9796      7163     10684     10683     11443
 -1      6119    6    0    1
 -2      1509      6274      1080      6416      7584      7923      2203     10457     10560     10459
 -1      6120    6    0    1
 -2      3520      6222      3522      6495     11444     10694      4924      9269     11445      9271
 -1      6121    6    0    1
 -2      6063      6147      6073      6254      8073      6578      8072     11446     10572     11447
 -1      6122    6    0    1
 -2      6031      6056      6186      6427      8139      6912     10528     10442      9523     11448
 -1      6123    6    0    1
 -2      3647       260       261      6309      3965       360      3966      9118      7092      9350
 -1      6124    6    0    1
 -2      1107      1349      1115      6528      2333      2332      2331     10682     10190     10191
 -1      6125    6    0    1
 -2      5462      5564      5472      6206      5883      5882      5881     10493      8547      7677
 -1      6126    6    0    1
 -2       302      6207       301      6518     11449      8792       401      8657     11450      8659
 -1      6127    6    0    1
 -2      3590      3418      3779      6317      4387      4389      4388     11451     11394     11395
 -1      6128    6    0    1
 -2      6153      6015      6155      6486      9833      7685     10811      9837      9835     10679
 -1      6129    6    0    1
 -2      1241      1542      6433      6497      3027     11334      8853      9237     11452      9239
 -1      6130    6    0    1
 -2      6094      6039      6129      6346      6801      9346     11453      6955     11454     10561
 -1      6131    6    0    1
 -2      3457      3455      3456      6527      4597      4590      4598     11455     11086     11087
 -1      6132    6    0    1
 -2      6289      6406      6021      6454      8772      8773      7750      8476      9414      7397
 -1      6133    6    0    1
 -2      3705      3457      3709      6265      4600      4611      4613     11456     11458     11457
 -1      6134    6    0    1
 -2      6040      6143      6307      6344      8837      8840      7251      9216      7403     11459
 -1      6135    6    0    1
 -2      6083      6351      6033      6395     10672     10123     10182     10180     10965     10181
 -1      6136    6    0    1
 -2       312      6171      6376      6523      6812      8865      7531     10413     11460     10415
 -1      6137    6    0    1
 -2      3460      6248      6125      6265      7181     10109      9564      9450      8890     11191
 -1      6138    6    0    1
 -2      3549      3473      3800      6218      4701      4698      4702     11036      7148      7147
 -1      6139    6    0    1
 -2      6135      6234      3651      6322     11268      6824      8819      8820      9072      7110
 -1      6140    6    0    1
 -2      6049      6243      6047      6419      8677     10242     10410     10550      7614     11461
 -1      6141    6    0    1
 -2      1238      6188      6372      6447     10577     11014     11462     10504     10597     11463
 -1      6142    6    0    1
 -2      1280      1110      6193      6354      2352      8709      7827      7828      9720      6982
 -1      6143    6    0    1
 -2      3455      3454      6275      6527      4586      8117      8115     11086     11464     11088
 -1      6144    6    0    1
 -2      1198      1171      1199      6205      2682      2684      2683     11383      8048      8046
 -1      6145    6    0    1
 -2      1055      1420       290      6520      1881      1880      1876     11465     11467     11466
 -1      6146    6    0    1
 -2      1450      6493      6203      6517      9665      9666      9136     11019     11468     11021
 -1      6147    6    0    1
 -2       483      6392      6154      6502     11469     11470     11261     11471      7569     11472
 -1      6148    6    0    1
 -2      1167      1186      1184      6315      2662      2661      2660      8867      9863      9354
 -1      6149    6    0    1
 -2      1556      6166      6237      6333      8016      9412      6976     11473      8382     10096
 -1      6150    6    0    1
 -2       569      5198       587      6389     11474     10629       606     11475     10630      6827
 -1      6151    6    0    1
 -2      6181      6361      6053      6480     11120     11476      7842      9576     11477      7909
 -1      6152    6    0    1
 -2      3516      3471      3754      6533      4540      4688      4687     10820     10818     11478
 -1      6153    6    0    1
 -2      6103      6206      6132      6219      8446      8546      9422      8880      8001      8958
 -1      6154    6    0    1
 -2      5523      5476      6264      6284      5939     11479     11480     11481     11482      9253
 -1      6155    6    0    1
 -2      1386      1488       322      6301      1977      1976      1972      8432      9378      8431
 -1      6156    6    0    1
 -2      5447      6475      6214      6485     10725      7959     10471     11483      7961      7009
 -1      6157    6    0    1
 -2      1392       316      6259      6379      1954      9114     10403      8660      8661     11484
 -1      6158    6    0    1
 -2      3628      3637      6140      6405      5167      8508      7647      9775     11166      8830
 -1      6159    6    0    1
 -2      3735      6254      3572      6268     11485      8519      5110      7986      8259      7985
 -1      6160    6    0    1
 -2      3496      3446      3681      6285      4551      4541      4552     11328     10444     11329
 -1      6161    6    0    1
 -2      6065      6123      6252      6372      7133      8303     11298      7134      7135      8410
 -1      6162    6    0    1
 -2      6058      6299      6241      6337      8071      8467     10270     10138      8621      8619
 -1      6163    6    0    1
 -2      6067      6275      6100      6303      9636     11486      9357      7119     11487      9358
 -1      6164    6    0    1
 -2      1425      6377      1220      6483      8554      8552      1860     10338     11488     11337
 -1      6165    6    0    1
 -2      3381      3649      3648      6318      4211      4210      4093     11489     11409      8979
 -1      6166    6    0    1
 -2       284      6377      1424      6449     11490     11491      1862      8743     11492      8742
 -1      6167    6    0    1
 -2      6067      6045      6265      6527     10591     11190     10412      7407      9659     11493
 -1      6168    6    0    1
 -2       239      6172      3395      6327      6749      6643      3902      8750     10009      7012
 -1      6169    6    0    1
 -2      6154      6287      6089      6392     11494      7654     11495     11470     11496      7056
 -1      6170    6    0    1
 -2      6063      6078      6134      6215      6904      6909      6907     11497     11499     11498
 -1      6171    6    0    1
 -2      3785      3434      3431      6185      4457      4456      4458     11226      8293     11227
 -1      6172    6    0    1
 -2      6186      6412      6027      6426      6914      7608     10465     11500      8302      8301
 -1      6173    6    0    1
 -2      3527      6291      6137      6346      7774      7775      7033      8398      8399      9534
 -1      6174    6    0    1
 -2      3616      3410      3786      6524      4350      4352      4351      8057      9547      8059
 -1      6175    6    0    1
 -2       292      6276      6130      6407      7669     11501     10119      8795     10275     11114
 -1      6176    6    0    1
 -2      6175      6277      3486      6421     10153      7982      9709      9778      8692      8569
 -1      6177    6    0    1
 -2      1227      1335      6203      6366      2774      9912      9211      9537     11502      9538
 -1      6178    6    0    1
 -2      1442      6230      1145      6517     10117     10115      2540     11403     11503     11405
 -1      6179    6    0    1
 -2      3659      3644      3570      6228      4099      4281      5108      9223     11093      8581
 -1      6180    6    0    1
 -2      1570      6256      6123      6358     10256      7141      7810      6886      9353      7812
 -1      6181    6    0    1
 -2       312      6227      6171      6523      7185      6603      6812     10413     11504     11460
 -1      6182    6    0    1
 -2      3601      6172      6220      6455      6641      9191      6781      8745     11506     11505
 -1      6183    6    0    1
 -2       518       494       490      6408       919       913       918     10564      9717      7073
 -1      6184    6    0    1
 -2      5492      5464      5468      6408      5892      5887      5893     10563     10005      9745
 -1      6185    6    0    1
 -2      6027      6020      6145      6412     10464     11319      9466      7608      7069     11320
 -1      6186    6    0    1
 -2      3406      3716      3715      6241      4331      4333      4330      7597      6542     11507
 -1      6187    6    0    1
 -2       517       516       587      6389      1014      1016      1017      6826     11205      6827
 -1      6188    6    0    1
 -2       246      6272       245      6273      8020      8018       345      8035     11508      8037
 -1      6189    6    0    1
 -2      1349      1531      6116      6528      2616      6756      8682     10190     10956      8517
 -1      6190    6    0    1
 -2      6134      6095      6255      6421      6986      8235     10260      9776      9777     11441
 -1      6191    6    0    1
 -2      5449      6214      5489      6355     11509     10546      5802     11510      9822      8024
 -1      6192    6    0    1
 -2       527       523       522      6091      1025      1021      1024      9326     10012      9328
 -1      6193    6    0    1
 -2      1433      1241      1542      6433      3049      3027      3050      8855      8853     11334
 -1      6194    6    0    1
 -2      5552      5493      6433      6480      5994     10169     11511     11053      9683      9006
 -1      6195    6    0    1
 -2      1121      1120      1123      6235      2397      2402      2401      9940      8464      8462
 -1      6196    6    0    1
 -2      1069       329       328      6238      1993       428      1994      7920      9941      7202
 -1      6197    6    0    1
 -2      1554      1407      1517      6258      2022      3371      3223      7273      7271     11512
 -1      6198    6    0    1
 -2      6037      6113      6044      6354     10944     10219     10635     10130     11513      7515
 -1      6199    6    0    1
 -2      3423      3514      3693      6208      4410      4413      4412      8473      8758     11303
 -1      6200    6    0    1
 -2      3730      3657      3482      6268      4196      4009      4751      8257     11514      8789
 -1      6201    6    0    1
 -2      1243      6108      6367      6519     11026     11027      7524     10286     11515     10537
 -1      6202    6    0    1
 -2      5462      5463      5460      6206      5871      5870      5863     10493      7665      6674
 -1      6203    6    0    1
 -2      6164      6347      6141      6415      9518     10828      9578      9520      8898      9581
 -1      6204    6    0    1
 -2      3726      3489      3431      6442      4459      4461      4460      8558      8559     11516
 -1      6205    6    0    1
 -2      6115      6229      1185      6461      8968      8222      8322     10172      9585      7832
 -1      6206    6    0    1
 -2       213      5450      5337      6349      5725      9451      5362     11517      8627      9453
 -1      6207    6    0    1
 -2      6054      6084      6136      6149      8941      8940      8939     11518     11520     11519
 -1      6208    6    0    1
 -2      5512      6188      1323      6447      8812      7953      8811     11025     10597     11024
 -1      6209    6    0    1
 -2      3772      6169      3631      6494      8312      8313      5184     11221     10197     10195
 -1      6210    6    0    1
 -2      6122      6231      6031      6247      9068      8140     11521     10617      7840      9496
 -1      6211    6    0    1
 -2      1368      1508      1401      6459      3363      3362      3110     11178     11179     11522
 -1      6212    6    0    1
 -2      1581      1092      1370      6180      2255      2256      2232      9893      9995      9730
 -1      6213    6    0    1
 -2      6030      6305      6093      6472     10549     11523      7366     11524     11526     11525
 -1      6214    6    0    1
 -2      1425      6177      1573      6377     11311     11312      2943      8554     10611      8553
 -1      6215    6    0    1
 -2      6044      6165      6076      6369     11527      9542     10942      8196     11528      6745
 -1      6216    6    0    1
 -2       319      1390      6298      6459      1967     10949     10950      8188      8189     11529
 -1      6217    6    0    1
 -2      6089      6283      6287      6300      7641      7656      7654     11530      9146      9147
 -1      6218    6    0    1
 -2      5552      6433      6105      6480     11511      9664     11052     11053      9006      7209
 -1      6219    6    0    1
 -2      1282      1200      6329      6382      2826      9376      9458     11531     11533     11532
 -1      6220    6    0    1
 -2       284      1220      1424      6377      1858      1863      1862     11490      8552     11491
 -1      6221    6    0    1
 -2      1307      1519      1498      6377      3285      3286      3278      9056     11534      9058
 -1      6222    6    0    1
 -2      6036      6034      6208      6224      8436     11535      9286      9284     11536      9285
 -1      6223    6    0    1
 -2      3531      3545      3537      6291      4975      4986      4985     10176     10161     10160
 -1      6224    6    0    1
 -2      1300      1449      1590      6384      3269      3270      2292     11537     11539     11538
 -1      6225    6    0    1
 -2      6015      6286      6156      6535      9699     10494      7045     10422     11540      7179
 -1      6226    6    0    1
 -2      3692      6208      3471      6224     11066     11541      4682      8843      9285      8842
 -1      6227    6    0    1
 -2      6072      6158      6131      6411      8011      7374      8010     10372     11542     10351
 -1      6228    6    0    1
 -2      3778      3712      3462      6365      4640      4639      4626     10633     10631     11543
 -1      6229    6    0    1
 -2      6144      6239      6185      6343      9944     10803      8145      8211      9629      8212
 -1      6230    6    0    1
 -2      6157      6189      6082      6324      8570      7935      8521      8579     11407     10977
 -1      6231    6    0    1
 -2      3702      6313      6118      6443     10625      8624      9200      9201      9106      9203
 -1      6232    6    0    1
 -2      3777      3561      3718      6244      5092      5028      5059     10649     11544     10967
 -1      6233    6    0    1
 -2      5558      5499      5451      6349      5825      5824      5822      8991      7756      6783
 -1      6234    6    0    1
 -2       525       584       477      6349       851       848       850      7747      8993      6617
 -1      6235    6    0    1
 -2      3608      3613      3535      6249      3919      5005      5006     11545     10239     11546
 -1      6236    6    0    1
 -2      6097      6231      6056      6281      8895      7123      8893     11110     10376      8926
 -1      6237    6    0    1
 -2      6156      6328      6357      6505      9338      9787      9598      9599     11547      8268
 -1      6238    6    0    1
 -2      1415      1043      6260      6316      1893     10261      8668      8335      8527     11548
 -1      6239    6    0    1
 -2       245      6272      6249      6273      8018     11549      7188      8037     11508      8515
 -1      6240    6    0    1
 -2      6027      6066      6145      6212      9065      7267      9466     10369      7268      7269
 -1      6241    6    0    1
 -2      1080      1396       251      6274      1764      1763      1759      7923      7585      6609
 -1      6242    6    0    1
 -2      6022      6395      6039      6414     10762     10763      8706     10927     11550     10926
 -1      6243    6    0    1
 -2      1361      1301      1546      6439      3190      2510      2653     10659     11551     10609
 -1      6244    6    0    1
 -2      6057      6115      6071      6461     11552      9431      7216     11553     10172     10316
 -1      6245    6    0    1
 -2      1232      1179      1481      6213      2728      2471      2729      8784      7224      8346
 -1      6246    6    0    1
 -2      6056      6412      6186      6426      6913      6914      6912      7938      8302     11500
 -1      6247    6    0    1
 -2      1119      1121      1487      6235      2396      2399      2398     11069      9940      9915
 -1      6248    6    0    1
 -2      1416      6260      1043      6316     10263     10261      1890      7313     11548      8527
 -1      6249    6    0    1
 -2      5561       436      5197      6390     11554      5206      8822      9886      7382      9887
 -1      6250    6    0    1
 -2      1545      6320      1298      6321      9653      9802      2817     10431     11556     11555
 -1      6251    6    0    1
 -2      6059      6116      6304      6501      9907      7455     11557     11558      7457      7458
 -1      6252    6    0    1
 -2      6026      6046      6043      6481      7346      7345      7347      9445     10214      9505
 -1      6253    6    0    1
 -2      6095      6185      6144      6239      9830      8145      8286      9945     10803      9944
 -1      6254    6    0    1
 -2      5462      5478      6156      6535      5867      9613      9612     11559     11560      7179
 -1      6255    6    0    1
 -2      3733      3699      3721      6462      4969      5093      4891      9952      9638     11561
 -1      6256    6    0    1
 -2       265      1404      1406      6367      1801      1806      1805      7871      7869     10839
 -1      6257    6    0    1
 -2      3390      3734      3660      6483      4255      4257      4039     11562     11564     11563
 -1      6258    6    0    1
 -2      6100      6139      6080      6225      9081     11565     11566     11567      8326     11568
 -1      6259    6    0    1
 -2      3775      3568      3569      6507      4251      4722      5106     11569     11571     11570
 -1      6260    6    0    1
 -2      1103      1278      1100      6231      2297      2289      2295      6662     11572      6661
 -1      6261    6    0    1
 -2       530       580       536      6262      1037      1038      1033      9482     11573      7634
 -1      6262    6    0    1
 -2       533      6103       534      6340      7025      8274       954      8631      7167      8347
 -1      6263    6    0    1
 -2      6145      6095      6239      6293      8113      9945     11109     11574     11154     11155
 -1      6264    6    0    1
 -2      1368      1401      1256      6379      3110      3109      3111      8931     11575      8933
 -1      6265    6    0    1
 -2      1563      6362      1331      6416      8835     10529      3337     10742     11576      6681
 -1      6266    6    0    1
 -2      1201      1200      1199      6205      2828      2824      2829      8888      9355      8046
 -1      6267    6    0    1
 -2      1097      1099      1590      6384      2276      2279      2278     10070      9710     11538
 -1      6268    6    0    1
 -2      6195      6419      6155      6486     10958     10959     10677      7791     11577     10679
 -1      6269    6    0    1
 -2      3628      3629      3637      6405      5164      5168      5167      9775     11214     11166
 -1      6270    6    0    1
 -2      1561      1279      1170      6411      2680      2621      2678      8483      9313     10350
 -1      6271    6    0    1
 -2      5466      5454      5467      6283      5837      5839      5838      7865     11578      7305
 -1      6272    6    0    1
 -2      1418      1219       279      6196      1848      1847      1843      7675      7771      6625
 -1      6273    6    0    1
 -2      1109      1366      1110      6193      2345      2344      2324      8892     11302      8709
 -1      6274    6    0    1
 -2      1567      1117      1454      6252      2387      2322      2388      8408      9440      7276
 -1      6275    6    0    1
 -2      1271      6178      1312      6242      9396      9397      3144      9447     10808     10008
 -1      6276    6    0    1
 -2      1545      1212      1549      6388      2814      2899      2901     10446      9075      9073
 -1      6277    6    0    1
 -2      5419      5551        20       448     11579      5594      5426      5427     11580       450
 -1      6278    6    0    1
 -2      1081      6199       254      6397      9141      9142      1772      8833     11041      6895
 -1      6279    6    0    1
 -2      6208      6347      6142      6413      9288      9419      8367     11198     11199      7877
 -1      6280    6    0    1
 -2      1415      6223       295      6316      7256     10861      1891      8335     11372      8337
 -1      6281    6    0    1
 -2      1420       291       290      6276      1879       390      1880     10923      7668     10481
 -1      6282    6    0    1
 -2      1457      1486      1145      6493      2544      2543      2466     10233     11582     11581
 -1      6283    6    0    1
 -2      5434      5533      1089      6204      5656      9931      9492      9881     10107      8338
 -1      6284    6    0    1
 -2      1100      6231      1278      6384      6661     11572      2289      6935     10430     11583
 -1      6285    6    0    1
 -2      1211      1452      1272      6380      2800      2896      2895      8930      7794      7793
 -1      6286    6    0    1
 -2      3699      6244      3721      6462      9937      9938      5093      9638     10733     11561
 -1      6287    6    0    1
 -2      3476      6248      3517      6250     10032     11584      4706      7186     10110     11585
 -1      6288    6    0    1
 -2       500      5198       569      6389     11586     11474       601     11587     10630     11475
 -1      6289    6    0    1
 -2      3428      3426      6243      6350      4422     10344      9993      9850     10662      9994
 -1      6290    6    0    1
 -2      1121      1463      1487      6461      2410      2412      2399     10265     11588      9916
 -1      6291    6    0    1
 -2      1514      1491      1432      6246      3309      3350      2030      8915      8240      9853
 -1      6292    6    0    1
 -2       472       473       454      6475       634     10469     11589     10753      9789     10573
 -1      6293    6    0    1
 -2      1080      6210      1388      6416      7013      6632      2201     10459     10877     10458
 -1      6294    6    0    1
 -2       310      3640      3643      6430      4115      4117      4113     11293     11292     11590
 -1      6295    6    0    1
 -2      6334      6414      6019      6469     11029     11591      7563     11030     10586     11592
 -1      6296    6    0    1
 -2      5552      5488      6105      6433      5984     11593     11052     11511     11594      9664
 -1      6297    6    0    1
 -2       468       541      6236      6484       806      8522      8779     10101      8525      8526
 -1      6298    6    0    1
 -2      3624      3745      3500      6387      4840      4839      4838     11595     11208     11209
 -1      6299    6    0    1
 -2      6038      6239      6144      6343      9943      9944      8285     11174      9629      8211
 -1      6300    6    0    1
 -2      6152      6202      3554      6365     11596      9851      8803     10632      9229      9852
 -1      6301    6    0    1
 -2      1267      1285      1484      6204      3157      2242      3162     11597      8339      8340
 -1      6302    6    0    1
 -2      1124      1164      1139      6280      2426      2425      2424      6964      8088     10740
 -1      6303    6    0    1
 -2      6047      6055      6049      6334     11251     10015     10410     10409      9627     10016
 -1      6304    6    0    1
 -2      1528      1228      1297      6480      2983      2924      2984     11598     11600     11599
 -1      6305    6    0    1
 -2      3450      3481      3691      6147      4568      4571      4570     11054     10569     10568
 -1      6306    6    0    1
 -2      1340      6179      1444      6324      9812      6739      3089      6638      7423      7424
 -1      6307    6    0    1
 -2      3492      3491      6241      6337      4644     10705      6543      8620      9688      8619
 -1      6308    6    0    1
 -2      6130      6316       292      6407     10121      7314     10119     11114      8320      8795
 -1      6309    6    0    1
 -2      1132      6352      6096      6492      9691     10285      8703      7453      9842      9499
 -1      6310    6    0    1
 -2       461      1328      1066      6262     11601      1631     11602     11603      7590     11604
 -1      6311    6    0    1
 -2       271      3668      6277      6530      3998      7980      7981     10087     10088     11077
 -1      6312    6    0    1
 -2      3479      3480      3450      6293      4567      4566      4503     11605     11055     11056
 -1      6313    6    0    1
 -2      6091      6296      6064      6359     11382      9024      8883      8885     11238      8884
 -1      6314    6    0    1
 -2      6230      6292      1129      6492     11606     11607     11608     11234     11609     10033
 -1      6315    6    0    1
 -2      6055      6435      6244      6442     11194      9399      9379     11610      8560      9400
 -1      6316    6    0    1
 -2      6257      6392      6173      6400      8310      7057      8675      9942     10019      9161
 -1      6317    6    0    1
 -2      3606      6191       324      6470     10743      9329      4155      8193     10251      8192
 -1      6318    6    0    1
 -2      1447      6189      1173      6324      9312     11611      2604      9984     11407     10026
 -1      6319    6    0    1
 -2      1341      1340      1288      6436      3224      3088      3225      9247      6784      6785
 -1      6320    6    0    1
 -2      1067      1347      5509      6253      1689     11612     11613     11614     11616     11615
 -1      6321    6    0    1
 -2      1409      6277      1419      6530      9153     11617      1827      8769     11077      8771
 -1      6322    6    0    1
 -2      1267      1557      1549      6388      3163      3165      2900      9074      9308      9073
 -1      6323    6    0    1
 -2      5385       454      5384      6390      5396      5388      5399      8610      9832      8490
 -1      6324    6    0    1
 -2      1159      1160      1161      6304      2612      2618      2617     11347      7454     10961
 -1      6325    6    0    1
 -2      3730      3657      6268      6530      4196     11514      8257      9230      9761     10389
 -1      6326    6    0    1
 -2      3726      3799      6244      6442      4463      7808      7809      8558     11618      9400
 -1      6327    6    0    1
 -2      1240      6132      1440      6447      7740     10711      3043      9869     10801      9871
 -1      6328    6    0    1
 -2      1360      1270      1209      6263      2882      2878      2883      7077      7533      7158
 -1      6329    6    0    1
 -2      6031      6116      6056      6427      8138      7124      8139     10442     10443      9523
 -1      6330    6    0    1
 -2      6141      6347      3421      6415     10828      8896     10290      9581      8898      8724
 -1      6331    6    0    1
 -2      1445      6321      1076      6444     10929     10930      2181      8245     11619      8247
 -1      6332    6    0    1
 -2      3456      6275      6265      6527      8116      8852      8851     11087     11088     11493
 -1      6333    6    0    1
 -2      6124      6042      6218      6223      9119      7652     11620     11621     11622     10683
 -1      6334    6    0    1
 -2      5481      5483      5482      6299      5964      5963      5754      9845     10028      9980
 -1      6335    6    0    1
 -2       583      6312       554      6358      6680     11623       778      8169      7758     11624
 -1      6336    6    0    1
 -2       300      6258      6207      6373     10134     11625      8791      6847     10135     11051
 -1      6337    6    0    1
 -2      1118      1114      1119      6331      2365      2370      2369      7715      8614     10034
 -1      6338    6    0    1
 -2      6033      6081      6068      6431      7097      7096      7098     10184     11627     11626
 -1      6339    6    0    1
 -2      1137      6361      6181      6480      9913     11120      7129      9632     11477      9576
 -1      6340    6    0    1
 -2      3634      3663      6169      6378      5187     10094     10805     11138     10399      7536
 -1      6341    6    0    1
 -2      6027      6212      6186      6426     10369     11628     10465      8301     10829     11500
 -1      6342    6    0    1
 -2      6079      6184      6145      6294      9428      7266      9429     10082      8871      8870
 -1      6343    6    0    1
 -2      1189      1183      6296      6509      2721      8807      6931      9048     11629      9047
 -1      6344    6    0    1
 -2      3726      6244      3777      6435      7809     10649      4475      8556      9399      7743
 -1      6345    6    0    1
 -2      6249      6346      3535      6455      6954     11630     11546      9875      9876      8957
 -1      6346    6    0    1
 -2       523       567      6242      6484      1023     11631     11412     10396     11633     11632
 -1      6347    6    0    1
 -2      5446      5402      5400      6476     11634      5414     11635     11636      7390     11637
 -1      6348    6    0    1
 -2      6016      6486      6420      6529     11638      7792     11639     10603     11426     11640
 -1      6349    6    0    1
 -2      1218      6177      1483      6394     10598     10599      2933     10106     11641     11090
 -1      6350    6    0    1
 -2      3487      3488      6182      6446      4764      7212     11642     11643      7213      7214
 -1      6351    6    0    1
 -2      3466      3709      3459      6265      4623      4612      4621     11644     11457     11112
 -1      6352    6    0    1
 -2       474       473       472      6475       821       634       820      8143      9789     10753
 -1      6353    6    0    1
 -2      6107      6330      6209      6464      9291      9112      8699     11399      9206      9204
 -1      6354    6    0    1
 -2      3382      6251      3724      6381     11123     11645      4216     11058     10795     11059
 -1      6355    6    0    1
 -2      1083      1413      6223      6329      1899     10360      7257      9281      9282     11084
 -1      6356    6    0    1
 -2      3735      6197      3391      6496     10541     10539      4259      9900     11375      9899
 -1      6357    6    0    1
 -2      6102      6236      6091      6359      7892      7929      8276      7893      7317      8885
 -1      6358    6    0    1
 -2      6161      6222      3679      6327     10984     10695      9988     11646     11262     11193
 -1      6359    6    0    1
 -2      1527      6221      1242      6296      9480      8452      2751     10590     11237      8457
 -1      6360    6    0    1
 -2      5447      6214      5449      6485     10471     11509      5801     11483      7009     11647
 -1      6361    6    0    1
 -2      1277      1368      1541      6342      3121      3112      3192      8283      7930      7931
 -1      6362    6    0    1
 -2      6025      6174      6239      6418      8905      9427      9829     11425      6537     10300
 -1      6363    6    0    1
 -2      6183      6248      6171      6376      7471     10397      9953      8616     11648      8865
 -1      6364    6    0    1
 -2      5488      5554      6105      6335      5985      7905     11593     11649      9551      9552
 -1      6365    6    0    1
 -2       253      6190      6274      6397      7738      8486      9467      6897      9178      9468
 -1      6366    6    0    1
 -2      6089      6287      6154      6300      7654     11494     11495     11530      9147      9701
 -1      6367    6    0    1
 -2       110      5337       476      6349      5357      9712       751     11650      9453      9509
 -1      6368    6    0    1
 -2      3453      6143      3454      6527      9512      9510      4578     11651      7406     11464
 -1      6369    6    0    1
 -2      3616      6129      3776      6346      7508      7326      5002     11652     10561     10216
 -1      6370    6    0    1
 -2      3788      6183      3478      6526      7839      7553      4728     11385     11653     11387
 -1      6371    6    0    1
 -2      6122      6281      6231      6384      6699     10376      9068      6936     10788     10430
 -1      6372    6    0    1
 -2      1175      1177      1178      6359      2637      2706      2705      7318      8565     11240
 -1      6373    6    0    1
 -2      1070      1376      1329      6178      1722      2153      2154     10097      6713      9398
 -1      6374    6    0    1
 -2      6112      6324      6179      6436      8578      7423     11654     10305      6786      9813
 -1      6375    6    0    1
 -2      3689      6185      3485      6293     11296      7446      4755      8700      8292      8384
 -1      6376    6    0    1
 -2      3707      6337      6299      6415     11655      8621     11419     11255     10687     10686
 -1      6377    6    0    1
 -2      6110      6032      6295      6366     10559     10583     11656      7899     11658     11657
 -1      6378    6    0    1
 -2      3566      3782      6141      6299      4405     10767     10289     11323     10768     10421
 -1      6379    6    0    1
 -2      6118      6034      6243      6533     10822     10273      9262      7782     11230      9264
 -1      6380    6    0    1
 -2      6016      6418      6334      6419     10601     10301      7565     11659     11661     11660
 -1      6381    6    0    1
 -2      6032      6174      6319      6529     10466      7545     10159     10774      8386     10876
 -1      6382    6    0    1
 -2      1578      6191      1445      6321      6929      6927      3257     11662     10931     10929
 -1      6383    6    0    1
 -2      5564      6206      5462      6336      8547     10493      5883      6924      8548      9614
 -1      6384    6    0    1
 -2       502      6195       549      6261     11663      8419       965     11664      8418      8417
 -1      6385    6    0    1
 -2       309      6187       310      6251      8947      8948       409      7444      8649      9222
 -1      6386    6    0    1
 -2       548      6261      6469      6479     11665     11666      9771     10878     11667     10880
 -1      6387    6    0    1
 -2      6125      6406      6021      6466     10336      8773      8345      6653     11668      7433
 -1      6388    6    0    1
 -2      1093      1551      1522      6312      2257      2259      1627     11669      8794      8025
 -1      6389    6    0    1
 -2      6089      6355      6283      6451      7644      7645      7641      7059      9996      9925
 -1      6390    6    0    1
 -2      6131      6158      6106      6306      7374      7372      7369     11670     11136      9333
 -1      6391    6    0    1
 -2      1083      6223      1543      6329      7257      7258      2218      9281     11084     10884
 -1      6392    6    0    1
 -2      6178      6242      1271      6296     10808      9447      9396     10492      9449      8183
 -1      6393    6    0    1
 -2      5476      5522      6264      6516      5935      9935     11479      9096     11338     11264
 -1      6394    6    0    1
 -2      6118      6313      6270      6443      8624      9220     10836      9203      9106     10791
 -1      6395    6    0    1
 -2      6154      6287      6286      6300     11494     10041      9698      9701      9147      9700
 -1      6396    6    0    1
 -2      3571      3408      3595      6402      4341      4340      4339      9786      9784     10425
 -1      6397    6    0    1
 -2      3640       311      3412      6376      4116      4118      4120     11671     11672      7532
 -1      6398    6    0    1
 -2      1166      6179      1265      6352      6738      9793      2655     11673     11674     10834
 -1      6399    6    0    1
 -2       326      1059      1381      6320      1984      1989      1988      8009     11675      7619
 -1      6400    6    0    1
 -2      1517      1412      1492      6258      3372      2125      3361     11512     10509     11676
 -1      6401    6    0    1
 -2      1350      1338      1500      6534      3184      3341      3326     11677     11679     11678
 -1      6402    6    0    1
 -2      1390      1078      1437      6459      1968      2192      2191      8189      8190     11177
 -1      6403    6    0    1
 -2      1284      1197      1281      6306      2821      2818      2822      8986      8987     11680
 -1      6404    6    0    1
 -2       436        16      5561      5197       438      5579     11554      5206      5204      8822
 -1      6405    6    0    1
 -2       296      6223      1413      6375     10359     10360      1898      9418     10685      7711
 -1      6406    6    0    1
 -2      6062      6064      6022      6091      9021      8707      9762      9327      8883      8275
 -1      6407    6    0    1
 -2      6042      6285      6133      6330      9797      9798      9592      8809     11173      9110
 -1      6408    6    0    1
 -2      6044      6113      6037      6160     10219     10944     10635     11042     10937     10943
 -1      6409    6    0    1
 -2      1046      6322      1456      6367     10499      9475      2033      9407     10881     10536
 -1      6410    6    0    1
 -2      3621      3414      6200      6396      3955     10298     11148      8124     10646     10758
 -1      6411    6    0    1
 -2         4       436       587      5198       437      7381       605      5199      5202     10629
 -1      6412    6    0    1
 -2       525       110       476      6349       747       751       752      7747     11650      9509
 -1      6413    6    0    1
 -2       213      5499      5450      6349      5721      5726      5725     11517      7756      8627
 -1      6414    6    0    1
 -2      6143      6307      3490      6468      8840      8426     11217     11681      8427      6879
 -1      6415    6    0    1
 -2      6140      6308      6158      6450     11682     11332     11683     11684     11686     11685
 -1      6416    6    0    1
 -2       255      6199      1505      6396      9143      9625      1775      8126      8754      8194
 -1      6417    6    0    1
 -2      1463      6229      1487      6461     10966      7708      2412     11588      9585      9916
 -1      6418    6    0    1
 -2       566       508       463      6325       782       779       781     11687      7658      9317
 -1      6419    6    0    1
 -2      1528      6253      1228      6480     11688     11689      2983     11598      8344     11600
 -1      6420    6    0    1
 -2       264       263      1046      6322       363      1799      1798      7111      7109     10499
 -1      6421    6    0    1
 -2      5504      5510      5554      6053      6007      6012      6011     10246      8173      7907
 -1      6422    6    0    1
 -2      1419      1429      1065      6215      2134      2133      1830      9649      9677     11690
 -1      6423    6    0    1
 -2       562       543       469      6383       814       812       811      8766      8998     11275
 -1      6424    6    0    1
 -2      5517      5536      5443      6383      5788      5785      5786      9662     10278     11691
 -1      6425    6    0    1
 -2      1428      1589      1317      6266      2043      3312      3313      7062     10402      9517
 -1      6426    6    0    1
 -2       479       481      6451      6502       857     10840      7402     11203      9884     10841
 -1      6427    6    0    1
 -2      3481      6254      6147      6255     10571     10572     10569     10710     11692      8374
 -1      6428    6    0    1
 -2       574       501       503      6350       960       959       944     10729     10728     11415
 -1      6429    6    0    1
 -2      3707      3492      6299      6337      4796      8468     11419     11655      8620      8621
 -1      6430    6    0    1
 -2      3452      3490      6143      6307      4581     11217      9511      8329      8426      8840
 -1      6431    6    0    1
 -2      6037      6193      6113      6354     10129     10212     10944     10130      6982     11513
 -1      6432    6    0    1
 -2      3684      6185      3689      6293     10771     11296      4479      7440      8292      8700
 -1      6433    6    0    1
 -2      5483      6058      5482      6299     10429      9979      5963     10028      8071      9980
 -1      6434    6    0    1
 -2      6063      6215      6112      6440     11497     11693      8128      7463     11694      9014
 -1      6435    6    0    1
 -2      3382      3724      6251      6430      4216     11645     11123     10447     10448      8729
 -1      6436    6    0    1
 -2      1229      1568      1465      6398      2989      2988      2844      9016      9131     11355
 -1      6437    6    0    1
 -2      6145      6239      6020      6278     11109      9426     11319     11695     11697     11696
 -1      6438    6    0    1
 -2      1177      1252      6359      6364      2715     11698      8565      7222     10226      8974
 -1      6439    6    0    1
 -2      1441      6166      1556      6333      8015      8016      2597     10731      8382     11473
 -1      6440    6    0    1
 -2      1126      6189      1447      6292      8006      9312      2437      9363      8443      9983
 -1      6441    6    0    1
 -2      1208      1270      6229      6263      2877      6871      8221      7160      7533      7016
 -1      6442    6    0    1
 -2      1307      1221      1525      6233      2946      2948      2947     10303     10332     10055
 -1      6443    6    0    1
 -2      1554      1044      6258      6453      2021      7272      7273     11699     11700     10128
 -1      6444    6    0    1
 -2       301      6207       302      6302      8792     11449       401     11701     11703     11702
 -1      6445    6    0    1
 -2      1254      1473      6165      6398      3106      7538      7539     10921      9686      9543
 -1      6446    6    0    1
 -2      1195      6136      1361      6439      7599      7600      2795     11351     10661     10659
 -1      6447    6    0    1
 -2      1478      1496      1434      6484      2145      3366      3148     10522     10523     11704
 -1      6448    6    0    1
 -2      1419      1515      1429      6215      3373      3349      2134      9649      9647      9677
 -1      6449    6    0    1
 -2      6030      6021      6054      6305     11705      7432     10547     10549      8185      8942
 -1      6450    6    0    1
 -2      6319      6334      6025      6351      7564      9828     10554      9359     11349      8906
 -1      6451    6    0    1
 -2      3541      6360      3543      6435      7238      9219      5035      9969     11707     11706
 -1      6452    6    0    1
 -2      6108      6217      6163      6519     11708     11151      6717     11515      9549     10798
 -1      6453    6    0    1
 -2      1355      1462      1164      6361      2646      2645      2427      9621     10867     11108
 -1      6454    6    0    1
 -2      6078      6213      6246      6352      8039      8783     10199     10284      9692     10237
 -1      6455    6    0    1
 -2      3532      6291      3531      6513     10175     10176      4973      9619     11083     11709
 -1      6456    6    0    1
 -2       554      6312      6295      6358     11623     11710     11711     11624      7758      7733
 -1      6457    6    0    1
 -2      6213      6290      6096      6401      9795      8358      9144      8042     11712      7527
 -1      6458    6    0    1
 -2      3707      3466      6337      6415      4658     11713     11655     11255     11714     10687
 -1      6459    6    0    1
 -2      1081      1580      6199      6397      2209      9506      9141      8833      9726     11041
 -1      6460    6    0    1
 -2      5544      5215      5368      5545     10915     10037     10914      5690     10038     10039
 -1      6461    6    0    1
 -2      3584      3754      6208      6533      4900     11715      6863      6865     11478      6867
 -1      6462    6    0    1
 -2      6060      6072      6426      6506      7475     10527      8910      8902      8900      8913
 -1      6463    6    0    1
 -2      3483      3684      3689      6293      4736      4479      4756      8383      7440      8700
 -1      6464    6    0    1
 -2      1300      1449      6384      6517      3269     11539     11537     11225     11020     11716
 -1      6465    6    0    1
 -2      1223      1247      1249      6324      2950      2957      2956     10025     11717      6640
 -1      6466    6    0    1
 -2      6041      6187      6070      6423      9766      9435      6708      7987     11127      9742
 -1      6467    6    0    1
 -2      1534      6356      1339      6522     11718     11115      2111     10883     11719      8760
 -1      6468    6    0    1
 -2      5490      6390      5561      6467     10074      9886      5990     10075      9715      8824
 -1      6469    6    0    1
 -2      6073      6157      6112      6323      7022      7023      7021     11720      8577      8576
 -1      6470    6    0    1
 -2       304      3644      6356      6522      4097      8375      8376      8032      8033     11719
 -1      6471    6    0    1
 -2      1279      1157      1159      6457      2607      2605      2608      7843      7844     11075
 -1      6472    6    0    1
 -2      3623      3638      3796      6407      5155      4850      5151     11721     11723     11722
 -1      6473    6    0    1
 -2       477       531        98      5285       745       740       744      7505      7298      5320
 -1      6474    6    0    1
 -2      1480      1363      1569      6404      3358      2116      1788      7002     10592      8097
 -1      6475    6    0    1
 -2       549       560       487      6420       902       881       901      8420      7787      8574
 -1      6476    6    0    1
 -2      3778      3462      6125      6365      4626      9563      8715     10633     11543     11724
 -1      6477    6    0    1
 -2      5454      6283      5455      6355     11578      7640      5832      8961      7645      7643
 -1      6478    6    0    1
 -2      6015      6357      6153      6452     10440      6753      9833     11725      8740      8592
 -1      6479    6    0    1
 -2      1232      1481      1342      6352      2729      3006      3005     10236      9690     10238
 -1      6480    6    0    1
 -2      6068      6099      6200      6201      9002      9738      9737      7099      9265      8244
 -1      6481    6    0    1
 -2      3742      6146      3383      6409      8341      8241      4220     11726     11728     11727
 -1      6482    6    0    1
 -2      1408      6277      6175      6368      7064     10153      7419      6831     11213      9011
 -1      6483    6    0    1
 -2      6204      6238      1352      6388     11729      7922      8630     10978     10437      7660
 -1      6484    6    0    1
 -2      6017      6348      6023      6531     11730     11731     11384     11732     11734     11733
 -1      6485    6    0    1
 -2      3578      6183      3518      6248      7468      8364      4710      7470      7471     11735
 -1      6486    6    0    1
 -2      3707      3466      3706      6337      4658      4635      4659     11655     11713     11736
 -1      6487    6    0    1
 -2      1372      6236      1496      6525      9454      9559      3364     11737      9245     11738
 -1      6488    6    0    1
 -2      1443      6215      6179      6436      9503      9504      9501      9246     10628      9813
 -1      6489    6    0    1
 -2      6051      6224      6184      6363     11739     11740      8239     10954     11741     10953
 -1      6490    6    0    1
 -2      6240      6475      5448      6485      7960     11362     11361      7166      7961     11742
 -1      6491    6    0    1
 -2      1085      1421       288      6308      1875      1874      1870     10920      8874     11743
 -1      6492    6    0    1
 -2      1132      1264      1481      6352      2459      2473      2472      9691     10010      9690
 -1      6493    6    0    1
 -2      1098      6366      6170      6384     10751     11364      6778      6934     10752      9117
 -1      6494    6    0    1
 -2      5530      5340      5563      6340     11431     11744      5729     10309     11434     10308
 -1      6495    6    0    1
 -2      6153      6486      6016      6529      9837     11638     10812     10901     11426     10603
 -1      6496    6    0    1
 -2      6058      6406      6125      6466     11745     10336     11746     10268     11668      6653
 -1      6497    6    0    1
 -2       323      1488      1076      6301      1975      1980      1979      7770      9378      8628
 -1      6498    6    0    1
 -2      1442      1586      1278      6517      2541      3194      2341     11403     11404     11747
 -1      6499    6    0    1
 -2       312      1400      6227      6523      1946      6766      7185     10413     10555     11504
 -1      6500    6    0    1
 -2      3575      3576      3548      6234      5065      5064      4783      9393      9033     10333
 -1      6501    6    0    1
 -2      6045      6344      6067      6406      9658      7404     10591      7627     10616     10622
 -1      6502    6    0    1
 -2      6036      6051      6098      6515     10990     10989     10988     11310      9404     10689
 -1      6503    6    0    1
 -2      3553      3785      3489      6185      4787      4462      4786      8248     11226      9820
 -1      6504    6    0    1
 -2      1446      6114      6274      6416      8500     10726      7583      7696      9643     10560
 -1      6505    6    0    1
 -2      5483      6058      6241      6510     10429     10270     10027     10318      9675     10271
 -1      6506    6    0    1
 -2      5451      5285       201      5505      7705      5335      5718      5719      7309      5714
 -1      6507    6    0    1
 -2      1579      1372      1496      6525      3328      3364      2147     11748     11737     11738
 -1      6508    6    0    1
 -2      6177      6233      6060      6506     10610      6772     11048     11749      8901      8902
 -1      6509    6    0    1
 -2      1124      1121      6280      6461      2406      7679      6964     10264     10265     11750
 -1      6510    6    0    1
 -2      6050      6166      6083      6512      8380     11099     11100     11201     11371     11202
 -1      6511    6    0    1
 -2      6023      6303      6040      6344      7117      7838      7837     10613     10796      9216
 -1      6512    6    0    1
 -2      6037      6113      6193      6499     10944     10212     10129     10945     10946     11751
 -1      6513    6    0    1
 -2      3567      6291      6129      6338     10203      9347      7324     10986     10162     11289
 -1      6514    6    0    1
 -2      6059      6386      6160      6471     10061      6795     10062     10149     10368     10938
 -1      6515    6    0    1
 -2      6029      6295      6170      6358      7087     10584      8537      7732      7733      7548
 -1      6516    6    0    1
 -2      3386      6210       250      6338      9063      8862      3933      8611     11752      8613
 -1      6517    6    0    1
 -2      6029      6153      6511      6529     10699     10701      9079     10775     10901     11753
 -1      6518    6    0    1
 -2      6127      6269      6093      6305      9184      8163      9740     11754     10267     11523
 -1      6519    6    0    1
 -2      6090      6362      1331      6364     11755     10529     11756      7030     11758     11757
 -1      6520    6    0    1
 -2      3790      3424      3739      6350      4419      3844      4323     11180     11759     11181
 -1      6521    6    0    1
 -2      1141      1133      1132      6290      2467      2463      2468      9794      8975      8705
 -1      6522    6    0    1
 -2      6042      6330      6043      6385      8809      9111      9591      7580      7964      9594
 -1      6523    6    0    1
 -2      1279      1159      6304      6457      2608     11347     10371      7843     11075      7480
 -1      6524    6    0    1
 -2      3623      3796      3622      6407      5151      5150      4846     11721     11722      8354
 -1      6525    6    0    1
 -2      3393      3737      6148      6491      4168      6893      7052     11760     11762     11761
 -1      6526    6    0    1
 -2       484      6154       483      6392     11763     11261       873     11764     11470     11469
 -1      6527    6    0    1
 -2      3538      3537      3653      6482      4993      5012      5011     11149      7331     10951
 -1      6528    6    0    1
 -2      1187      1188      1449      6203      2566      2768      2767      9135      9800      9137
 -1      6529    6    0    1
 -2      6029      6198      6153      6529      7086     11232     10699     10775     11427     10901
 -1      6530    6    0    1
 -2      6025      6334      6033      6351      9828     11348      9233      8906     11349     10123
 -1      6531    6    0    1
 -2      5445      6069      5496      6159     11765     10189      5790     11766      9892     11767
 -1      6532    6    0    1
 -2      3565      3749      3465      6415      4656      4655      4654      8723     11769     11768
 -1      6533    6    0    1
 -2      6144      6185      3553      6435      8145      8248      7853      8213      8214      9747
 -1      6534    6    0    1
 -2      6295      6312      6110      6366     11710      8027     11656     11657     10772      7899
 -1      6535    6    0    1
 -2      3630      6279      3663      6508     11770      6668      5179     10936      6673      6671
 -1      6536    6    0    1
 -2      1116      1128      1129      6292      2379      2382      2381     11771     11772     11607
 -1      6537    6    0    1
 -2      6235      6280      1121      6461      7194      7679      9940      9917     11750     10265
 -1      6538    6    0    1
 -2      1343      1432      1491      6246      3351      3350      3346      7778      9853      8240
 -1      6539    6    0    1
 -2       306      3645      3396      6522      4103      4105      4101     11324     11325     11773
 -1      6540    6    0    1
 -2      6112      6215      6179      6440     11693      9504     11654      9014     11694     11774
 -1      6541    6    0    1
 -2      3567      3758      3545      6338      4235      5056      4979     10986     11091      9078
 -1      6542    6    0    1
 -2      6096      6230      1131      6492      8355     11322      8702      9499     11234      7452
 -1      6543    6    0    1
 -2      6076      6165      6044      6192      9542     11527     10942      9541      9540      7229
 -1      6544    6    0    1
 -2      3487      3485      3488      6446      4758      4765      4764     11643      7447      7213
 -1      6545    6    0    1
 -2      1171      1170      1161      6304      2627      2620      2628     10416     10773     10961
 -1      6546    6    0    1
 -2      6015      6300      6155      6486      7687      7686      7685      9835     11139     10679
 -1      6547    6    0    1
 -2      1176      6236      1372      6237      6841      9454      2708      7053      8821     11775
 -1      6548    6    0    1
 -2      6050      6097      6032      6203      7464     10158      8653      8651     10118      8652
 -1      6549    6    0    1
 -2      1180      1179      6213      6425      2521      7224     11204      7835      9473      9474
 -1      6550    6    0    1
 -2      5468      5463      5529      6216      5888      5890      5889      9744      7666      7152
 -1      6551    6    0    1
 -2      3651      6234      6135      6487      6824     11268      8819      6733     10680     11776
 -1      6552    6    0    1
 -2      3794      6159      3415      6341      7449      7450      4375      9437     11777      9439
 -1      6553    6    0    1
 -2      1122      1568      6192      6398      2416     11778     11779     10502      9131      9545
 -1      6554    6    0    1
 -2      3748      3474      6373      6375      4703     10204      9595     11780     11781     11119
 -1      6555    6    0    1
 -2      3632      3631      6169      6405      5174      8313      8311     11782     10194     10193
 -1      6556    6    0    1
 -2      1090       556      1453      6340     11287     11783      1606     10007     11288     11784
 -1      6557    6    0    1
 -2      6083      6351      6117      6490     10672     10673     10671     11785     10894     11032
 -1      6558    6    0    1
 -2      1312      6178      1329      6374      9397      9398      3174     10254     10857     10253
 -1      6559    6    0    1
 -2      1313      1060      6172      6296      2102      7546      7083      9018      9019      9025
 -1      6560    6    0    1
 -2      3450      6293      6147      6432     11056     11057     11054     11786     11788     11787
 -1      6561    6    0    1
 -2      1430      1433      1058      6433      2092      2091      2093      9004      8855      9005
 -1      6562    6    0    1
 -2      6136      6315      1277      6439      9583      9582      7598     10661     10815     10660
 -1      6563    6    0    1
 -2      1289      1046      1365      6322      2032      1800      2031      9476     10499      8596
 -1      6564    6    0    1
 -2      3468      3662      3685      6496      4671      4673      4672      8254     11790     11789
 -1      6565    6    0    1
 -2      3600      3679      3678      6327      5139      4937      5140     10210     11193     10209
 -1      6566    6    0    1
 -2      3568      3783      6202      6507      4884     11016     11017     11571     10111     11791
 -1      6567    6    0    1
 -2      1506      6221      6220      6296      8453     11792      7510      8456     11237      8555
 -1      6568    6    0    1
 -2      3601      6327      6172      6455      7011     10009      6641      8745      8946     11506
 -1      6569    6    0    1
 -2      5538      5556      6240      6476      5915     11105      9489     10636     11106      9410
 -1      6570    6    0    1
 -2       564      6240       582      6476      9527      8532       941     10765      9410      9408
 -1      6571    6    0    1
 -2      3406      6241      3715      6341      7597     11507      4330     11793      8228     11794
 -1      6572    6    0    1
 -2      3511      3581      3512      6462      4887      4886      4451     10484     10485     11795
 -1      6573    6    0    1
 -2      3554      3464      3712      6365      4651      4638      4652      9852      9034     10631
 -1      6574    6    0    1
 -2      1358      6199      1580      6397      8752      9506      2208      9724     11041      9726
 -1      6575    6    0    1
 -2      6063      6078      6215      6440      6904     11499     11497      7463      9774     11694
 -1      6576    6    0    1
 -2      1517      6258      1359      6453     11512     10125      3220     11796     10128      9858
 -1      6577    6    0    1
 -2      3464      3493      3491      6241      4647      4646      4642     11797      9968     10705
 -1      6578    6    0    1
 -2      1137      1123      6181      6361      2420     10624      7129      9913      9622     11120
 -1      6579    6    0    1
 -2      1391       317      6379      6459      1961      8903      8904      8984      8982     11798
 -1      6580    6    0    1
 -2      3615       246       247      6272      3923       346      3924      9261      8020     11043
 -1      6581    6    0    1
 -2      1577      1268      6192      6282      3166     10279     10280     11799     11800     11290
 -1      6582    6    0    1
 -2      3741      3407      3597      6477      4336      3898      4337     11801     10782     11802
 -1      6583    6    0    1
 -2      6027      6020      6186      6212     10464      7068     10465     10369     11803     11628
 -1      6584    6    0    1
 -2      6036      6164      6098      6403     11804      8732     10988     10991     10167     10992
 -1      6585    6    0    1
 -2      3521      6424      3524      6495      8260      8261      4929      9270     10390     11805
 -1      6586    6    0    1
 -2      3691      6378      3467      6494      8815      8816      4669     11352     11353     11806
 -1      6587    6    0    1
 -2       322      3389       321      6507      4149      4148       421     11807     11809     11808
 -1      6588    6    0    1
 -2      1135      6252      1567      6372      9441      8408      2386     11810      8410      8411
 -1      6589    6    0    1
 -2      5457      5461      5459      6287      5854      5853      5852      8204      8369     11297
 -1      6590    6    0    1
 -2      6136      6084      6321      6444      8940      9186     10608     10235     11811     11619
 -1      6591    6    0    1
 -2      1507      6180      1086      6402      8063      8064      2001      8639     11812      8641
 -1      6592    6    0    1
 -2      1531      1571      6282      6528      2911      9645      6612     10956     10957     10655
 -1      6593    6    0    1
 -2      3797      6107      3500      6387     10382     10381      4831      6916     10534     11209
 -1      6594    6    0    1
 -2      1334      1400      1490      6227      3339      2055      3071      6736      6766      9923
 -1      6595    6    0    1
 -2      6203      6366      6110      6534      9538      7899     10558      9212      9539      7943
 -1      6596    6    0    1
 -2      1136      6181      6235      6354      8028      7191      8463      7730      6981      7516
 -1      6597    6    0    1
 -2      6130      6131      6043      6306     11195      7735      9332      9089     11670      9334
 -1      6598    6    0    1
 -2      5498      6141      3738      6299     11005     10766     11813     11814     10421     10769
 -1      6599    6    0    1
 -2       577        86      5250       448       619      5271     11815     11816     11818     11817
 -1      6600    6    0    1
 -2      3634      3467      3636      6378      4665      4664      4663     11138      8816      8817
 -1      6601    6    0    1
 -2      1197      1281      6306      6382      2818     11680      8987      8583     11819      9088
 -1      6602    6    0    1
 -2      3661      6196      6378      6496      6626     11820     11336      8252      8253     11398
 -1      6603    6    0    1
 -2      6027      6145      6020      6212      9466     11319     10464     10369      7269     11803
 -1      6604    6    0    1
 -2      3661      6196      6168      6378      6626      9373      7234     11336     11820      9571
 -1      6605    6    0    1
 -2      5472      6103      6132      6460      8447      9422      9421     11821      9759      8686
 -1      6606    6    0    1
 -2      3536      6161      3713      6455     11822      9986      5009      8956      9874      9052
 -1      6607    6    0    1
 -2      3756      3387      6272      6346      4240      8019      9260     11414      9032      9182
 -1      6608    6    0    1
 -2      1149      1441      1150      6333      2562      2561      2557      7663     10731      7662
 -1      6609    6    0    1
 -2      1333       559      1562      6374     11823     11824      1652     11420     11825     10717
 -1      6610    6    0    1
 -2      1364      6309      6163      6322      8798     10365      8861      8597      9868     11826
 -1      6611    6    0    1
 -2      6175       268      6368      6428      9010      6858      9011      9672      8334     11197
 -1      6612    6    0    1
 -2      3790      6176      3791      6350      8953      8469      4420     11180     10664     11411
 -1      6613    6    0    1
 -2      6143      6303      6067      6344      8838      7119      7405      7403     10796      7404
 -1      6614    6    0    1
 -2      3563      3421      3420      6347      4394      4391      4395      9958      8896      9957
 -1      6615    6    0    1
 -2       324      1076      6191      6301      1978      8315      9329      7769      8628     10744
 -1      6616    6    0    1
 -2       254      6199      6190      6397      9142     11827      7737      6895     11041      9178
 -1      6617    6    0    1
 -2      6200      6201      3538      6482      8244      7911      8243     11150     11089     11149
 -1      6618    6    0    1
 -2      5501      6030      6093      6472      9990      7366     11156     11828     11524     11525
 -1      6619    6    0    1
 -2      5532      5253      5250      5252      9950      5279      9976      6697      5281      5273
 -1      6620    6    0    1
 -2      6047      6055      6334      6414     11251      9627     10409     10585      7803     11029
 -1      6621    6    0    1
 -2      6109      6303      6228      6468      9693     11829      7866      6881      9694      7868
 -1      6622    6    0    1
 -2      6108      6213      6088      6401     11341      8038     11830      8909      8042      8040
 -1      6623    6    0    1
 -2      5517      5452      5525      6173      5829      5826      5830      9660      9192      9267
 -1      6624    6    0    1
 -2       551       478       543      6173       852       855       856      7541      6722      8997
 -1      6625    6    0    1
 -2      1512      1082      1436      6422      2212      2213      2215     11831      7945      7486
 -1      6626    6    0    1
 -2      6048      6033      6068      6490      8999      7098      9000     10895     10893     11832
 -1      6627    6    0    1
 -2      1468      6356      1061      6518      9895      9896      2110      6571     11833     11359
 -1      6628    6    0    1
 -2       296       295      1083      6223       395      1895      1894     10359     10861      7257
 -1      6629    6    0    1
 -2       536       528       530      6061      1034      1032      1033      7632      7926      8120
 -1      6630    6    0    1
 -2      1374      6252      6123      6372      7428      8303      7296      8409      8410      7135
 -1      6631    6    0    1
 -2      1536      1142      6217      6498      2528     10001     10000     11834     11835     11145
 -1      6632    6    0    1
 -2      6080      6225      6139      6266     11568      8326     11565     11836     10288      7063
 -1      6633    6    0    1
 -2      6083      6326      6271      6441     11837     10045     10669     11838     10049     10047
 -1      6634    6    0    1
 -2      3571      6159      3556      6491     10122      8065      5078      8801     11839      8495
 -1      6635    6    0    1
 -2      1412       299       298      6373      1903       398      1904      8601      6846      8600
 -1      6636    6    0    1
 -2      3554      3712      6152      6365      4652      6566      8803      9852     10631     10632
 -1      6637    6    0    1
 -2      6031      6231      6122      6281      8140      9068     11521     10375     10376      6699
 -1      6638    6    0    1
 -2      3690      3766      3384      6353      4227      4226      4223     11192      8392     11369
 -1      6639    6    0    1
 -2      1572      1427      1073      6256      2172      2171      1614      9669      8782     11081
 -1      6640    6    0    1
 -2      1237      6188      1542      6497     10578     10912      3028     11840     11841     11452
 -1      6641    6    0    1
 -2      6304      6427      6072      6457     11842     10824     10370      7480     10826      8757
 -1      6642    6    0    1
 -2      6119      6343      6144      6360     11271      8211     11843     11258     11272     10873
 -1      6643    6    0    1
 -2      6145      6212      6079      6278      7269      9430      9429     11695     11844      7612
 -1      6644    6    0    1
 -2       321      3610       320      6507      4146      4145       420     11808     11846     11845
 -1      6645    6    0    1
 -2      1340      1443      1265      6179      3152      3151      3153      9812      9501      9793
 -1      6646    6    0    1
 -2      6094      6272      6129      6362     11847     10891     11453     11848     11850     11849
 -1      6647    6    0    1
 -2      1587      1283      1200      6329      2839      2838      2835      9374      9459      9376
 -1      6648    6    0    1
 -2      3474       297       298      6375      4076       397      4077     11781      7712      8404
 -1      6649    6    0    1
 -2      6150      6280      1164      6361     10640      8088      7184     10868      9623     11108
 -1      6650    6    0    1
 -2      1397      1512      1398      6523      2211      3293      2052      7329      7330     11367
 -1      6651    6    0    1
 -2       533      1572       467      6256      9668     11079       652      7027      9669     11080
 -1      6652    6    0    1
 -2      5497      5501      6093      6532      5999     11156      7367     11851     11853     11852
 -1      6653    6    0    1
 -2      3717      3576      3665      6487      5067      5118      4202     11102      6731      6732
 -1      6654    6    0    1
 -2      1264      1166      1265      6352      2461      2655      2654     10010     11673     10834
 -1      6655    6    0    1
 -2      5508      6340      6103      6460      7255      7167      7254     10960     10331      9759
 -1      6656    6    0    1
 -2      1229      1469      1568      6501      2990      2415      2989      9132     11046      9134
 -1      6657    6    0    1
 -2      3686      3702      3514      6443      4902      4901      4894      8199      9201      8759
 -1      6658    6    0    1
 -2      1154      1153      6267      6512      2579      9703      7355     11854     11856     11855
 -1      6659    6    0    1
 -2      1559      1351      6196      6323      3079      7676      7674     11284     11060     11857
 -1      6660    6    0    1
 -2      6017      6289      6023      6406      7749     10704     11384      7896      8772     10615
 -1      6661    6    0    1
 -2      6348      6393      6044      6471     11346      8195     11858     10367      7606      8197
 -1      6662    6    0    1
 -2      3471      6224      6208      6504      8842      9285     11541      8951     10975     11859
 -1      6663    6    0    1
 -2      3677      3522      3520      6222      4925      4924      4926     11860     10694     11444
 -1      6664    6    0    1
 -2      3749      6164      3465      6415      9493     11861      4655     11769      9520     11768
 -1      6665    6    0    1
 -2      3618      3758      3386      6338      4237      4236      3937      8612     11091      8611
 -1      6666    6    0    1
 -2       295       296      3380      6223       395      4071      4070     10861     10359     10684
 -1      6667    6    0    1
 -2      6143      6067      6275      6527      7405      9636     11862      7406      7407     11088
 -1      6668    6    0    1
 -2      6084      6202      6152      6466     11863     11596     11864     11865     11867     11866
 -1      6669    6    0    1
 -2      3563      3423      3692      6347      4398      4415      4414      9958      9420     11067
 -1      6670    6    0    1
 -2      1579      6236       468      6525      8781      8779      8777     11748      9245     11868
 -1      6671    6    0    1
 -2      1251      1535      1181      6416      2736      2735      2737      7335     10738     10739
 -1      6672    6    0    1
 -2      5215      5368      5367      5209     10037      5382     10192      5248     10589     11869
 -1      6673    6    0    1
 -2      1056      6177      1425      6508     11870     11311      1857     11871     11873     11872
 -1      6674    6    0    1
 -2      1325      1555      1067      6345      2141      2140      1692     11874      8422     11875
 -1      6675    6    0    1
 -2      5250      5418      5252       558      9977      7070      5273     11876      8831      8832
 -1      6676    6    0    1
 -2       481      6270       480      6451      9882     10754       858     10840      9039     10450
 -1      6677    6    0    1
 -2      6159      6341      3556      6491     11777      8491      8065     11839      8494      8495
 -1      6678    6    0    1
 -2      1139      1301      1167      6315      2509      2508      2500      8866     11877      8867
 -1      6679    6    0    1
 -2      6175      6421      3656      6428      9778     10970      9708      9672     11392     11393
 -1      6680    6    0    1
 -2      3466      3459      3461      6337      4621      4619      4622     11713     11879     11878
 -1      6681    6    0    1
 -2       495       474       582      6240       833       823       835      8013      7378      8532
 -1      6682    6    0    1
 -2      5469      5556      5448      6240      5809      5797      5807      7765     11105     11361
 -1      6683    6    0    1
 -2      1533      6163      6309      6404      8860     10365      8799     10593      7316      9248
 -1      6684    6    0    1
 -2      6053      6361      6253      6480     11476     11880      8172      7909     11477      8344
 -1      6685    6    0    1
 -2      6050      6351      6083      6395      6959     10672     11100     11064     10965     10180
 -1      6686    6    0    1
 -2      6158      6306      1576      6308     11136      9963     10908     11332     10665      8876
 -1      6687    6    0    1
 -2      1363      6309      1569      6404      9320      7409      2116     10592      9248      8097
 -1      6688    6    0    1
 -2      3538      3539      3533      6201      4995      4994      4992      7911      7912     11422
 -1      6689    6    0    1
 -2      6243      6294      6049      6442      8681      8679      8677     10345      9808     11254
 -1      6690    6    0    1
 -2      6149      6152      6301      6507     11881     11882     11883     11884     11885     10112
 -1      6691    6    0    1
 -2      5251      5215      5367      5210     11305     10192     11343     11886      5243     11887
 -1      6692    6    0    1
 -2      1215      6326      1302      6397     11888     10341      2912     10218     10343      9725
 -1      6693    6    0    1
 -2      5526      5561      5491      6390      5578      5991      5732      9168      9886     10543
 -1      6694    6    0    1
 -2      1489      1066      1328      6262      2137      1631      2138      8642     11604      7590
 -1      6695    6    0    1
 -2      1569      1062       260      6309      1791      1790      1786      7409      8797      7092
 -1      6696    6    0    1
 -2      1458      6217      6117      6271      7429      9164      8096     10706     10707     10670
 -1      6697    6    0    1
 -2      1449      6203      1590      6384      9137     10154      3270     11539     11889     11538
 -1      6698    6    0    1
 -2      1419      6215      1065      6530      9649     11690      1830      8771     11890      7602
 -1      6699    6    0    1
 -2      3742      3383      3647      6409      4220      3967      4221     11726     11727     11891
 -1      6700    6    0    1
 -2      5552      5488      5554      6105      5984      5985      5987     11052     11593      7905
 -1      6701    6    0    1
 -2      3730      3498      3669      6421      4824      4827      4199     10387     11892     10722
 -1      6702    6    0    1
 -2      3652      3760      6190      6482      5149      6598      7736      9266      7332      7333
 -1      6703    6    0    1
 -2      6125      6152      3778      6365      9020      6565      8715     11724     10632     10633
 -1      6704    6    0    1
 -2      1181      1353      1461      6267      2740      2739      2587     11429     10067      9702
 -1      6705    6    0    1
 -2      1117      1105      1454      6252      2321      2307      2322      9440      8963      7276
 -1      6706    6    0    1
 -2      1406      1344      1063      6367      2120      2121      1809     10839      9390      9064
 -1      6707    6    0    1
 -2      6111      6287      6154      6392      8937     11494     11893      8309     11496     11470
 -1      6708    6    0    1
 -2      5511      6253      5435      6480      8424     11894      5746      8425      8344     11895
 -1      6709    6    0    1
 -2      3396      3644       305      6522      4102      4098      4100     11773      8033      8034
 -1      6710    6    0    1
 -2      3769      3676      3635      6450      5162      4188      5169     10557     11274     11896
 -1      6711    6    0    1
 -2      5508      5473      5563      6340      5929      5930      5819      7255     10310     10308
 -1      6712    6    0    1
 -2      1053      6362       249      6524      8836     11897      1753      8092     11898      8094
 -1      6713    6    0    1
 -2      3686      6313      3702      6443      9105     10625      4902      8199      9106      9201
 -1      6714    6    0    1
 -2      6106      6043      6131      6306      7702      7735      7369      9333      9334     11670
 -1      6715    6    0    1
 -2      6019      6395      6351      6410     10964     10965     10963     11899     11901     11900
 -1      6716    6    0    1
 -2      6063      6254      6197      6268     11446     11902     11903     11904      8259     11905
 -1      6717    6    0    1
 -2      6115      6227      6422      6423      6876      8251      8249      8967     11402     11906
 -1      6718    6    0    1
 -2       504      6198       485      6445     11907     10786       894     11908      8060     11909
 -1      6719    6    0    1
 -2      6057      6071      6115      6454      7216      9431     11552      8475      7398      8969
 -1      6720    6    0    1
 -2      5469      6240      5448      6485      7765     11361      5807      7766      7166     11742
 -1      6721    6    0    1
 -2      5514      6241      5483      6341      8226     10027      5973      8227      8228     11910
 -1      6722    6    0    1
 -2      5250      5418       577       448      9977     11911     11815     11817      5422     11816
 -1      6723    6    0    1
 -2      1462      1228      1332      6361      2985      2986      2785     10867     11912     10869
 -1      6724    6    0    1
 -2      3482       274       275      6268      4007       374      4008      8789     10393     11243
 -1      6725    6    0    1
 -2      1280      1366      1367      6193      2353      3046      3196      7827     11302      8650
 -1      6726    6    0    1
 -2      6038      6108      6088      6401      6903     11830      8429      8908      8909      8040
 -1      6727    6    0    1
 -2      1365      1289      6322      6519      2031      9476      8596     10783      9477      9478
 -1      6728    6    0    1
 -2      3381      3648       302      6302      4093      4089      4091      9999     11913     11702
 -1      6729    6    0    1
 -2      3615      3616      6272      6524      4349     10612      9261      9546      8057     10892
 -1      6730    6    0    1
 -2      6130      6106      6276      6306      9331     11914     11501      9089      9333     11439
 -1      6731    6    0    1
 -2       520        92      5290       575       725      5291      7000       726       612      8075
 -1      6732    6    0    1
 -2      1540      1266      1272      6380      3159      2894      3160      7818      7819      7793
 -1      6733    6    0    1
 -2      6032      6097      6281      6384     10158     11110      6700      9748     11111     10788
 -1      6734    6    0    1
 -2      6018      6186      6026      6386      6792     11915     10519      6793      6794      9444
 -1      6735    6    0    1
 -2      1279      6304      6072      6457     10371     10370      8755      7843      7480      8757
 -1      6736    6    0    1
 -2      1343      6215      1515      6246      9502      9647      3348      7778     10692      9854
 -1      6737    6    0    1
 -2      3413      3620      6297      6353      4132      7950      6889      9588     11917     11916
 -1      6738    6    0    1
 -2      5476      6141      5522      6516      9095     10490      5935      9096      9097     11338
 -1      6739    6    0    1
 -2      6087      6130      6260      6382      9530     11918     11919      9533      9087     11920
 -1      6740    6    0    1
 -2      6016      6418      6155      6452     10601     11921     10810     10602      6541     10813
 -1      6741    6    0    1
 -2      1267      1212      6380      6388      2897      9905     11922      9074      9075     10445
 -1      6742    6    0    1
 -2      3765      6151      3397      6318     10832     10833      4286     10093      9463      7241
 -1      6743    6    0    1
 -2      3407      6232       236      6477      8086      8087      3893     10782     11923      8203
 -1      6744    6    0    1
 -2      6018      6357      6348      6515      6754     11924     10152      9781      9782      8083
 -1      6745    6    0    1
 -2       311      3412      6376      6523      4118      7532     11672      9455     10414     10415
 -1      6746    6    0    1
 -2      3649      6302      6109      6318      9901      9902      9115     11409     11925      9754
 -1      6747    6    0    1
 -2      3429      3583      6243      6442      4439     11926     11321      8917      8918     10345
 -1      6748    6    0    1
 -2      5561      5211       436      6390     10809      5224     11554      9886      9169      7382
 -1      6749    6    0    1
 -2      1146      6217      6271      6498      9166     10707     10708     11927     11145     11146
 -1      6750    6    0    1
 -2      3472      3505      3574      6307      4693      4695      4583     11928      9460      8856
 -1      6751    6    0    1
 -2      1318      6180      1352      6204      9894      8062      3316      8389     11929      8630
 -1      6752    6    0    1
 -2      1406      1063      6311      6367      1809      8685      6843     10839      9064     10745
 -1      6753    6    0    1
 -2      1128      1129      6292      6492      2382     11607     11772     10205     10033     11609
 -1      6754    6    0    1
 -2      1545      6127      6321      6380     11930      9188     10431      9904     11931     10433
 -1      6755    6    0    1
 -2      3707      3492      3708      6299      4796      4797      4314     11419      8468      8466
 -1      6756    6    0    1
 -2       501      6195       497      6479      8149      8324       928      8152      8153     11932
 -1      6757    6    0    1
 -2      6143      3490      6275      6468     11217      9555     11862     11681      6879      9557
 -1      6758    6    0    1
 -2      6044      6160      6037      6348     11042     10943     10635     11858     10658     11933
 -1      6759    6    0    1
 -2      6079      6294      6243      6533     10082      8681      7613     11229     11934      9264
 -1      6760    6    0    1
 -2      6107      6140      6046      6405      9756      9755      7350     10385      8830     10759
 -1      6761    6    0    1
 -2      5500      6257      5464      6408     10817      6885      5894     11935      7783     10005
 -1      6762    6    0    1
 -2      6122      6252      6247      6499      8499      8962     10617     11936     11938     11937
 -1      6763    6    0    1
 -2      3746      3677      3520      6222      4382      4926      3828     11939     11860     11444
 -1      6764    6    0    1
 -2       484      6154      6392      6445     11763     11470     11764     11940     11942     11941
 -1      6765    6    0    1
 -2      1223      6157      6323      6324      8030      8577     10076     10025      8579      7889
 -1      6766    6    0    1
 -2      1532      1315      1405      6368      2996      2997      2124      7283      8441      7282
 -1      6767    6    0    1
 -2       488       506       504      6295       910       911       893      9366     10905     11943
 -1      6768    6    0    1
 -2      1325      1582      1588      6399      1694      2167      3330     11944     11945     11428
 -1      6769    6    0    1
 -2      6168      6169      6060      6279      8514      6870      8512      6669     10095     11946
 -1      6770    6    0    1
 -2      3498      3572      3481      6254      4745      4744      4737      8256      8519     10571
 -1      6771    6    0    1
 -2       326      6191      6320      6470     10250     11947      8009      7991     10251     11948
 -1      6772    6    0    1
 -2      5505      5492      5451      6408      5821      5820      5719      7310     10563      7706
 -1      6773    6    0    1
 -2       477       518       531      6408       846       847       745      7704     10564      7302
 -1      6774    6    0    1
 -2      6026      6186      6212      6426     11915     11628      8205     11299     11500     10829
 -1      6775    6    0    1
 -2      3630      3633      3663      6279      5181      5180      5179     11770     10423      6668
 -1      6776    6    0    1
 -2       528       530      6061      6437      1032      8120      7926      9860      8121      8122
 -1      6777    6    0    1
 -2      6025      6033      6334      6343      9233     11348      9828      9234      9235      9631
 -1      6778    6    0    1
 -2      1234      1317      1311      6266      3012      3011      2969      7760      9517     11949
 -1      6779    6    0    1
 -2      3737      3585      3607      6470      4266      5130      4165      7990     11950      7989
 -1      6780    6    0    1
 -2      1055       289      1421      6520      1877      1873      1878     11465      9948     11951
 -1      6781    6    0    1
 -2      5483      6466      5514      6510     10317      6728      5973     10318     10272     10462
 -1      6782    6    0    1
 -2      6051      6066      6184      6473      8238      7265      8239      9879     11304     10781
 -1      6783    6    0    1
 -2      6171      6183      6070      6248      9953      8100      6984     10397      7471      9824
 -1      6784    6    0    1
 -2       522      6178       521      6374     10806     10856       817     11952     10857     10858
 -1      6785    6    0    1
 -2      6153      6186      6281      6452      8591      8928     10228      8592      8593     10230
 -1      6786    6    0    1
 -2      1043       294       293      6316      1888       393      1889      8527      8336      7312
 -1      6787    6    0    1
 -2      6213      6367      6088      6368      7523     11953      8038      8785      7418     10489
 -1      6788    6    0    1
 -2      3671      3380       296      6375      4075      4071      4073     11365      9241      9418
 -1      6789    6    0    1
 -2      3479      6293      3450      6432     11605     11056      4503     11954     11788     11786
 -1      6790    6    0    1
 -2      3518      6353      6248      6376      8393     11955     11735      8394      8395     11648
 -1      6791    6    0    1
 -2      3594      6243      6118      6350      9263      9262      7781      9849      9994     11008
 -1      6792    6    0    1
 -2      1124      6280      1138      6461      6964     11956      2409     10264     11750     10266
 -1      6793    6    0    1
 -2      6243      6350      6176      6479      9994     10664     10241     11188     11126     10879
 -1      6794    6    0    1
 -2      3494      6104      6241      6365      7917      8225      9967      9036      9228     11074
 -1      6795    6    0    1
 -2      1151      6271      1296      6512     11957     10046      2576     11958      9151     11959
 -1      6796    6    0    1
 -2      1236      6364      6267      6416     11960     10164     10066      6683     11961     10068
 -1      6797    6    0    1
 -2      3648      3650       301      6318      4090      4086      4088      8979      7239      8297
 -1      6798    6    0    1
 -2      6271      6441      1296      6512     10047     10048     10046      9151     11962     11959
 -1      6799    6    0    1
 -2      3797      6405      6107      6473     10384     10385     10382      6920     11963     10535
 -1      6800    6    0    1
 -2      1526      5435       135      1297     11964      5640      1680      1686     11965      1685
 -1      6801    6    0    1
 -2      6052      6211      6271      6498      7572      7414     10770     11144     10137     11146
 -1      6802    6    0    1
 -2      3518      6248      6183      6376     11735      7471      8364      8394     11648      8616
 -1      6803    6    0    1
 -2      3643      6251       310      6430      9221      9222      4113     11590      8729     11293
 -1      6804    6    0    1
 -2      5209      5212       451       570      5233     11966     11967     11968     11970     11969
 -1      6805    6    0    1
 -2      1455      1286      1575      6332      3218      3217      3216      7497      9966      7496
 -1      6806    6    0    1
 -2      3573      6378      6254      6496      9177     11153     11152     11397     11398     11971
 -1      6807    6    0    1
 -2      6052      6163      6108      6217      6789      6717      6787     11143     11151     11708
 -1      6808    6    0    1
 -2      6211      6052      6290      6498      7572      8231      8230     10137     11144     11972
 -1      6809    6    0    1
 -2      6082      6189      6056      6292      7935      7934      7933     11973      8443      8442
 -1      6810    6    0    1
 -2      3678      3591      3741      6222      5132      5134      5133     10693     11975     11974
 -1      6811    6    0    1
 -2      3713      6161      3602      6455      9986      9987      5144      9052      9874      8945
 -1      6812    6    0    1
 -2      6130      6133      6087      6316     11976      9593      9530     10121     10900     11977
 -1      6813    6    0    1
 -2      3707      3706      3492      6337      4659      4645      4796     11655     11736      8620
 -1      6814    6    0    1
 -2      3417      3588      3593      6514      4384      4383      4180     11978     11980     11979
 -1      6815    6    0    1
 -2      3419      3738      5498      6141      3880     11813     11004     10872     10766     11005
 -1      6816    6    0    1
 -2      6170      6366      6032      6384     11364     11658      8536      9117     10752      9748
 -1      6817    6    0    1
 -2      3599       239      6327      6477      3900      8750      8751     10607      9611     11981
 -1      6818    6    0    1
 -2       301      6302       302      6318     11701     11702       401      8297     11925      8980
 -1      6819    6    0    1
 -2       507      3697      3515      6495     11982      3836     11983     11984     11985     11165
 -1      6820    6    0    1
 -2      3738      3403      5437      6299      3875     11986     11987     10769     11989     11988
 -1      6821    6    0    1
 -2      1444      1340      1265      6179      3089      3153      2656      6739      9812      9793
 -1      6822    6    0    1
 -2      6233      1307      6377      6465     10303      9056     10304     11990     11992     11991
 -1      6823    6    0    1
 -2      6194      6344      6045      6406      9562      9658      7626      7628     10616      7627
 -1      6824    6    0    1
 -2      3396      3645      3646      6381      4105      4285      4284     11993     11995     11994
 -1      6825    6    0    1
 -2      1545      1298      1196      6321      2817      2816      2813     10431     11555     10432
 -1      6826    6    0    1
 -2      3529      6291      3532      6513      7776     10175      4972      9620     11083      9619
 -1      6827    6    0    1
 -2      1425      6483       282      6508     10338     10339      1856     11872     11997     11996
 -1      6828    6    0    1
 -2      1227      6333      1226      6534      9210     11413      2772      9213      7944     11998
 -1      6829    6    0    1
 -2      1237      1135      6372      6497      2480     11810     11999     11840      8550     12000
 -1      6830    6    0    1
 -2      3528      3525      6137      6314      4950      8455      7034     10156     12001     10567
 -1      6831    6    0    1
 -2      6112      6391      6323      6436     12002      9415      8576     10305      9417      7891
 -1      6832    6    0    1
 -2      6094      6137      6039      6346      8531      8529      6801      6955      9534     11454
 -1      6833    6    0    1
 -2      6261      6334      6019      6469      9341      7563      9339     11666     11030     11592
 -1      6834    6    0    1
 -2      3707      3710      3466      6415      4661      4660      4658     11255     11256     11714
 -1      6835    6    0    1
 -2      1493      1070      1329      6178      2155      2154      2156     10058     10097      9398
 -1      6836    6    0    1
 -2      6030      6054      6021      6466     10547      7432     11705      6729      6654      7433
 -1      6837    6    0    1
 -2      3399      6322      6234      6409      9071      9072      6825     10186     12003     10919
 -1      6838    6    0    1
 -2      3740      3393      3598      6491      4269      4171      4270      8800     11760      8802
 -1      6839    6    0    1
 -2      6141      6164      6045      6516      9578      9577      9579      9097     12004     11263
 -1      6840    6    0    1
 -2      3680      3524      3731      6314      4931      4946      4906     12005     12006     10511
 -1      6841    6    0    1
 -2      3620      3384      6297      6353      4129      8106      7950     11917     11369     11916
 -1      6842    6    0    1
 -2      1500      1350      6237      6525      3326     12007     12008     12009     11003     10899
 -1      6843    6    0    1
 -2      3399      3582      3664      6409      4295      4294      3973     10186     10187     12010
 -1      6844    6    0    1
 -2      1070      6178      1375      6477     10097     10059      1725     11318      9076      9609
 -1      6845    6    0    1
 -2      3406      5518      6241      6341      8076      8078      7597     11793     12011      8228
 -1      6846    6    0    1
 -2      6107      6489      6405      6521      7724     12012     10385     10760     11034     10761
 -1      6847    6    0    1
 -2      1257      1258      6444      6478      2807      9173      9174      9360      9361     12013
 -1      6848    6    0    1
 -2       484       485      6154      6445       877     10702     11763     11940     11909     11942
 -1      6849    6    0    1
 -2      3698      3715      3493      6341      4803      4795      4801      9189     11794      9190
 -1      6850    6    0    1
 -2      6109      6207      6151      6318     12014     12015      7784      9754     11050      9463
 -1      6851    6    0    1
 -2       243       242      6249      6455       342     12016      7671      9633      9634      9875
 -1      6852    6    0    1
 -2      6047      6419      6243      6479     11461      7614     10242     11187     12017     11188
 -1      6853    6    0    1
 -2      3496      3497      3473      6464      4697      4696      4577     12018      8167      7149
 -1      6854    6    0    1
 -2      3455      3453      3454      6527      4585      4578      4586     11086     11651     11464
 -1      6855    6    0    1
 -2      1512      6187      1082      6422     10718      8648      2212     11831      8936      7945
 -1      6856    6    0    1
 -2      6203      6211      1187      6333     10073      8996      9135      9209      8844      9855
 -1      6857    6    0    1
 -2      6126      6302      6109      6356     12019      9902     10582     12020     12022     12021
 -1      6858    6    0    1
 -2      3414      3711      3589      6200      4369      4368      4367     10298      8405      8976
 -1      6859    6    0    1
 -2      1361      1277      1301      6315      2810      3191      3190     10814      9582     11877
 -1      6860    6    0    1
 -2      5533      6180      1318      6204     11031      9894      9932     10107     11929      8389
 -1      6861    6    0    1
 -2      1056      1425       282      6508      1857      1856      1852     11871     11872     11996
 -1      6862    6    0    1
 -2      6105      6181      6053      6480      6591      7842      7906      7209      9576      7909
 -1      6863    6    0    1
 -2      1409       272      6277      6530      1822     10968      9153      8769      8770     11077
 -1      6864    6    0    1
 -2      6054      6086      6250      6298      8714      8808      7246     12023     12024      8178
 -1      6865    6    0    1
 -2      6075      6138      6124      6258      6995      9121      9120     12025     10888     10887
 -1      6866    6    0    1
 -2      5462      6206      5460      6535     10493      6674      5863     11559      6679      6677
 -1      6867    6    0    1
 -2      1277      1541      6315      6342      3192     10723      9582      8283      7931      9584
 -1      6868    6    0    1
 -2       526      6257       562      6500      9507      8764       810     12026      9975      9973
 -1      6869    6    0    1
 -2      6040      6307      6098      6344      7251      7311      6815      9216     11459      8731
 -1      6870    6    0    1
 -2      1210      1313      1271      6296      2887      2891      2890      6930      9018      8183
 -1      6871    6    0    1
 -2      3479      3435      3684      6293      4487      4477      4488     11605      7439      7440
 -1      6872    6    0    1
 -2      3446      3681      6285      6387      4541     11329     10444     10721     10720     11331
 -1      6873    6    0    1
 -2      1530      6493      1143      6498     12027     12028      2530     11097     12029     11098
 -1      6874    6    0    1
 -2      6133      6209      3587      6316      9108     10030     10276     10900     10029      8317
 -1      6875    6    0    1
 -2      6022      6101      6077      6137      9277      9276      9278     10925     12031     12030
 -1      6876    6    0    1
 -2      1056      1483      1425      6177      2083      2085      1857     11870     10599     11311
 -1      6877    6    0    1
 -2      1423      1056       281      6508      1854      1853      1849      8459     11871      8461
 -1      6878    6    0    1
 -2      6037      6044      6348      6531     10635     11858     11933     10755     11210     11734
 -1      6879    6    0    1
 -2      1321      1477      5473      1322      1659     12032     10328      3320      1710     11378
 -1      6880    6    0    1
 -2       499       533       534      6340       649       954       955      9395      8631      8347
 -1      6881    6    0    1
 -2       483       484       485      6154       873       877       878     11261     11763     10702
 -1      6882    6    0    1
 -2      6015      6287      6286      6535      7047     10041      9699     10422      8370     11540
 -1      6883    6    0    1
 -2      6107      6339      6140      6405      8737      7650      9756     10385      8829      8830
 -1      6884    6    0    1
 -2      6247      6252      6193      6499      8962      9432      8708     11937     11938     11751
 -1      6885    6    0    1
 -2      6120      6283      6270      6443      7684      9924      9038      9107      9865     10791
 -1      6886    6    0    1
 -2       332      1370      1565      6514      2002      2005      1603     12033     12035     12034
 -1      6887    6    0    1
 -2      1097      6170      1098      6366     11442      6778      2271     10750     11364     10751
 -1      6888    6    0    1
 -2      3399       262       263      6322      3971       362      3972      9071     12036      7109
 -1      6889    6    0    1
 -2      6156      6206      5462      6535      9336     10493      9612      7179      6679     11559
 -1      6890    6    0    1
 -2       553       541       528      6236       807      1028      1036      9809      8522      7927
 -1      6891    6    0    1
 -2      6097      6174      6032      6281      7466     10466     10158     11110      8927      6700
 -1      6892    6    0    1
 -2      6062      6091      6178      6296      9327     10816     10807      9026     11382     10492
 -1      6893    6    0    1
 -2      1204      1205      1206      6288      2850      2856      2855      8003      8004      7858
 -1      6894    6    0    1
 -2      1113      6354      6331      6488     10553      7517      7716     12037      9723      7232
 -1      6895    6    0    1
 -2      6122      6123      6029      6170      8498      7999      8534      7537      8516      8537
 -1      6896    6    0    1
 -2      6113      6354      6193      6488     11513      6982     10212     10213      9723      8710
 -1      6897    6    0    1
 -2      3645      6381      3396      6522     11995     11993      4105     11325     12038     11773
 -1      6898    6    0    1
 -2      3376       288      6308      6450      4049     11743     12039     11273     10647     11686
 -1      6899    6    0    1
 -2      6191      6301      1076      6321     10744      8628      8315     10931     12040     10930
 -1      6900    6    0    1
 -2      6022       511      6437      6469     10352     12041      8278      9279     10354     11317
 -1      6901    6    0    1
 -2      6025      6319      6174      6418     10554      7545      8905     11425     12042      6537
 -1      6902    6    0    1
 -2      3431      6185      3434      6442     11227      8293      4456     11516      9806      9807
 -1      6903    6    0    1
 -2      1438      1283      1543      6329      3203      3207      3206     12043      9459     10884
 -1      6904    6    0    1
 -2       236      6232      6178      6477      8087     12044      6712      8203     11923      9076
 -1      6905    6    0    1
 -2      1250      1249      1444      6324      2959      3086      3085      8133      6640      7424
 -1      6906    6    0    1
 -2      1107      1115      1108      6458      2331      2330      2311     10860      9433     12045
 -1      6907    6    0    1
 -2      1469      1268      1122      6192      2413      2368      2414     10281     10279     11779
 -1      6908    6    0    1
 -2       536       553       528      6525      1035      1036      1034      7635      9810      9244
 -1      6909    6    0    1
 -2       265      6135      6311      6487     10170     12046      6844      7913     11776     11291
 -1      6910    6    0    1
 -2      3748      6373      6218      6375      9595     10145     10144     11780     11119      9242
 -1      6911    6    0    1
 -2      1461      6267      1153      6441      9702      9703      2584     12047     12049     12048
 -1      6912    6    0    1
 -2      1088      5441       130      1440     12050      5625      1661      1665     12051      1666
 -1      6913    6    0    1
 -2      6248      6353      6171      6376     11955      8864     10397     11648      8395      8865
 -1      6914    6    0    1
 -2      6141      6299      6045      6415     10421      8353      9579      9581     10686      9580
 -1      6915    6    0    1
 -2      3601      6220       241      6455      6781      6779      3906      8745     11505      8747
 -1      6916    6    0    1
 -2      1306      1221      6233      6506      2930     10332     10302     12052     11162      8901
 -1      6917    6    0    1
 -2      3687      6313       466      6456     12053     12054     12055     12056      8625     12057
 -1      6918    6    0    1
 -2       566       463       524      6176       781       705       783     12058      9314     12059
 -1      6919    6    0    1
 -2      3393      6238      3598      6491      7204      9176      4171     11760     12060      8802
 -1      6920    6    0    1
 -2       560       483      6154      6502       882     11261      8401     12061     11471     11472
 -1      6921    6    0    1
 -2      6052      6401      6213      6425      8907      8042     11389     11390     11342      9474
 -1      6922    6    0    1
 -2      1044      6207      1501      6518      8790     12062      2024     10283     11450     10282
 -1      6923    6    0    1
 -2      1170      6304      6131      6411     10773     10417      7697     10350     10373     10351
 -1      6924    6    0    1
 -2      6289      6454      6057      6531      8476      8475      8474     10757     12063     10756
 -1      6925    6    0    1
 -2      6023      6454      6289      6531      8575      8476     10704     11733     12063     10757
 -1      6926    6    0    1
 -2      3770      3573      3735      6496      5115      5109      4262      9898     11397      9900
 -1      6927    6    0    1
 -2      6081      6291      6201      6338      8159      8291      7101     10380     10162      9295
 -1      6928    6    0    1
 -2      6119      6163      6146      6309      6718     12064     11257     12065     10365     10985
 -1      6929    6    0    1
 -2       524       463      3739      6176       705      9401     12066     12059      9314      8952
 -1      6930    6    0    1
 -2      5448      6475      5447      6485     11362     10725      5795     11742      7961     11483
 -1      6931    6    0    1
 -2      3733      6314      3528      6462     10155     10156      4968      9952     10821      9640
 -1      6932    6    0    1
 -2      6144      6182      6038      6234      8144      8288      8285     10691      9392     11269
 -1      6933    6    0    1
 -2      3448      6403      6285      6417     11071     11072      8711     10846     10749     11157
 -1      6934    6    0    1
 -2      1437      1258      1459      6478      3124      3115      3125     12067      9361      9362
 -1      6935    6    0    1
 -2      3704      3656      3551      6428      4292      5071      4776     12068     11393     11391
 -1      6936    6    0    1
 -2      6148      6191      6084      6470     12069     12070     12071     10337     10251     12072
 -1      6937    6    0    1
 -2       280      6168      6196      6394      7385      9373      6627      9028     12073     10003
 -1      6938    6    0    1
 -2      6078      6352      6179      6440     10284     11674     12074      9774     11147     11774
 -1      6939    6    0    1
 -2      6026      6018      6386      6515     10519      6793      9444      9405      9781      8084
 -1      6940    6    0    1
 -2      1094      6312      6170      6366     10325      8304     11363     11212     10772     11364
 -1      6941    6    0    1
 -2      6048      6038      6119      6343      6902      7327      6715      9236     11174     11271
 -1      6942    6    0    1
 -2      6052      6117      6163      6217      8272      8091      6789     11143      9164     11151
 -1      6943    6    0    1
 -2      6071      6315      6280      6461     10315     12075      7220     10316      8869     11750
 -1      6944    6    0    1
 -2      3634      3633      3632      6169      5185      5176      5186     10805      9705      8311
 -1      6945    6    0    1
 -2      6229      6235      6057      6331      9914      7192     11159      9292      7513     11340
 -1      6946    6    0    1
 -2      1559      6196      1042      6323      7674      8603      2014     11284     11857     11286
 -1      6947    6    0    1
 -2       498      6219      6103      6256     11224      8880     11223     11280      9055      6693
 -1      6948    6    0    1
 -2      6088      6108      6038      6135     11830      6903      8429     11344     12076     11266
 -1      6949    6    0    1
 -2      3582      6234      3544      6409     12077      9535      5053     10187     10919     11377
 -1      6950    6    0    1
 -2      6026      6186      6018      6212     11915      6792     10519      8205     11628     10520
 -1      6951    6    0    1
 -2      1274      1227      1273      6534      2979      2973      2980      9922      9213     10778
 -1      6952    6    0    1
 -2      1331      6362      6090      6416     10529     11755     11756      6681     11576     12078
 -1      6953    6    0    1
 -2      1286      1455      1587      6329      3218      3209      3219     12079      9283      9374
 -1      6954    6    0    1
 -2      3746      3416      3677      6222      3823      4380      4382     11939     12080     11860
 -1      6955    6    0    1
 -2       482      6392       483      6502      7567     11469       867      7568      7569     11471
 -1      6956    6    0    1
 -2       475       515       473      6214       828       829       827      7008      7846      9788
 -1      6957    6    0    1
 -2      5449      5447      5489      6214      5801      5803      5802     11509     10471     10546
 -1      6958    6    0    1
 -2      6017      6194      6023      6348      7894     10614     11384     11730     12081     11731
 -1      6959    6    0    1
 -2      1094      1362      1551      6366      2264      2266      2258     11212      7975      7898
 -1      6960    6    0    1
 -2      6039      6137      6085      6291      8529      8477      8155      8158      7775      8160
 -1      6961    6    0    1
 -2      6172      6178      1493      6296     10060     10058      7081      9025     10492      9113
 -1      6962    6    0    1
 -2      3456      3454      3787      6275      4591      4593      4592      8116      8117     12082
 -1      6963    6    0    1
 -2      6114      6083      6416      6441     12083     12084      9643     12085     11838     12086
 -1      6964    6    0    1
 -2      3457      3456      6265      6527      4598      8851     11458     11455     11087     11493
 -1      6965    6    0    1
 -2      1382      6221      1348      6273      7049     10320      2071      7199     11045      7201
 -1      6966    6    0    1
 -2      6103      6256      6132      6460      6693      7691      9422      9759      6942      8686
 -1      6967    6    0    1
 -2      3511      6176      6325      6462      8471      7264     10482     10484     12087     10486
 -1      6968    6    0    1
 -2      1061      1339      1534      6356      2106      2111      1923      9896     11115     11718
 -1      6969    6    0    1
 -2      1440      5441      1346      6447     12051     12088      1667      9871     12090     12089
 -1      6970    6    0    1
 -2      3594      6350      6118      6456      9849     11008      7781      9757     10730      8220
 -1      6971    6    0    1
 -2      5541      6204      5434      6399     12091      9881      5741     12092     10394      8637
 -1      6972    6    0    1
 -2      6226      6295      6032      6529     12093     10583     12094     10875     10776     10774
 -1      6973    6    0    1
 -2      6068      6048      6121      6200      9000     12095     12096      9737      7491     12097
 -1      6974    6    0    1
 -2      6078      6215      6179      6246     11499      9504     12074     10199     10692     10069
 -1      6975    6    0    1
 -2      6029      6170      6123      6358      8537      8516      7999      7732      7548      7812
 -1      6976    6    0    1
 -2      1146      6271      1147      6498     10708      8763      2536     11927     11146      7888
 -1      6977    6    0    1
 -2      6182      6234      3548      6487      9392     10333      9170     12098     10680     11103
 -1      6978    6    0    1
 -2      1403      6356       303      6518     12099     10667      1915     11358     11833     12100
 -1      6979    6    0    1
 -2      6135      6322       264      6367      8820      7111      8818     10171     10881      7870
 -1      6980    6    0    1
 -2      1170      1279      1159      6304      2621      2608      2619     10773     10371     11347
 -1      6981    6    0    1
 -2      1453       556      5341      6340     11783     12101     12102     11784     11288     12103
 -1      6982    6    0    1
 -2      1232      1230      1179      6213      2727      2726      2728      8784      7522      7224
 -1      6983    6    0    1
 -2      3627      3625      3500      6405      4841      4837      4828     10792      8828     10383
 -1      6984    6    0    1
 -2      6043      6130      6106      6209      9332      9331      7702      8698     11113      8697
 -1      6985    6    0    1
 -2      6204      6380      1285      6399     12104      7820      8339     10394      7797      8636
 -1      6986    6    0    1
 -2      6108      6425      6217      6519     11028     10002     11708     11515     12105      9549
 -1      6987    6    0    1
 -2      1492      6258      1412      6332     11676     10509      2125      8390     10126      8391
 -1      6988    6    0    1
 -2      6168      6394       280      6508     12073      9028      7385      6672     10114      8460
 -1      6989    6    0    1
 -2      6142      6413      6347      6463      7877     11199      9419      8563     10479      9751
 -1      6990    6    0    1
 -2      6031      6116      6282      6528      8138      8017      9909      8602      8517     10655
 -1      6991    6    0    1
 -2      6206      6286      6111      6535      9568      9567      6675      6679     11540      6678
 -1      6992    6    0    1
 -2      1139      6280      6315      6461     10740     12075      8866      8868     11750      8869
 -1      6993    6    0    1
 -2      1093      1522       519      6312      1627      9321     12106     11669      8025      9322
 -1      6994    6    0    1
 -2      1139      6315      6280      6439      8866     12075     10740     10201     10815     10741
 -1      6995    6    0    1
 -2        79      5212      5209       570      5228      5233      5232       638     11970     11968
 -1      6996    6    0    1
 -2       511       527      6022      6437      1004      9763     10352     12041      9918      8278
 -1      6997    6    0    1
 -2      6022      6137      6077      6414     10925     12030      9278     10927     10928      7802
 -1      6998    6    0    1
 -2       512       548       502      6469       964       961       963     12107      9771     12108
 -1      6999    6    0    1
 -2      1238      6188      1237      6372     10577     10578      2484     11462     11014     11999
 -1      7000    6    0    1
 -2      1590      6203      1335      6366     10154      9912      2282     12109      9538     11502
 -1      7001    6    0    1
 -2      6040      6393      6369      6448      6562      6563      6559      7362      7038      9208
 -1      7002    6    0    1
 -2      1147      1151      1149      6271      2554      2553      2552      8763     11957      7412
 -1      7003    6    0    1
 -2      6130      6131      6306      6382     11195     11670      9089      9087      8585      9088
 -1      7004    6    0    1
 -2      5468      5464      5463      6216      5887      5873      5888      9744      7680      7666
 -1      7005    6    0    1
 -2       502       560       549      6195       947       902       965     11663      7789      8419
 -1      7006    6    0    1
 -2      6269      6305      6136      6439     10267      8944     10090     10545     12110     10661
 -1      7007    6    0    1
 -2      6076      6138      6087      6385      6997     10177     11231      7579     10179     10178
 -1      7008    6    0    1
 -2      1099      1100      1278      6384      2283      2289      2288      9710      6935     11583
 -1      7009    6    0    1
 -2      6220      6221      1075      6249     11792      7051      7512     12111     10013      7673
 -1      7010    6    0    1
 -2      6137      6291      6129      6346      7775      9347     11140      9534      8399     10561
 -1      7011    6    0    1
 -2      5461      5560      5459      6156      5866      5865      5853      7177     10453     10017
 -1      7012    6    0    1
 -2      5208      5211      5383      5214      5237      9130     12112      5247      5242     12113
 -1      7013    6    0    1
 -2      6117      6271      6083      6326     10670     10669     10671      9077     10045     11837
 -1      7014    6    0    1
 -2      6042      6124      6087      6223      9119     10378      9590     11622     11621     12114
 -1      7015    6    0    1
 -2      6131      6306      1197      6411     11670      8987      7698     10351     10224     10225
 -1      7016    6    0    1
 -2      1432      1514      6246      6277      2030      8915      9853      8935      7066      8916
 -1      7017    6    0    1
 -2       468      6236       553      6525      8779      9809       803     11868      9245      9810
 -1      7018    6    0    1
 -2      3505      6151      3765      6318      9461     10832      4863      9462      9463     10093
 -1      7019    6    0    1
 -2      1156      1173      1447      6189      2602      2604      2438      8007     11611      9312
 -1      7020    6    0    1
 -2      1556      6237      1338      6534      6976      8622      2977     12115      9485     11679
 -1      7021    6    0    1
 -2      1337      1049      1446      6397      2047      2049      2048      9764      8665      8502
 -1      7022    6    0    1
 -2      3509      3494      3510      6202      4805      4807      4806      6900      6898     11018
 -1      7023    6    0    1
 -2      1207      6306      1308      6411      8985      9962      2872     10223     10224     12116
 -1      7024    6    0    1
 -2      6043      6133      6130      6209      9109     11976      9332      8698      9108     11113
 -1      7025    6    0    1
 -2      5494       195      5549      5290      5699      5586      5700      6887      5298      6806
 -1      7026    6    0    1
 -2       308      6251      3642      6381      7425     11122      4107      8804     10795      8806
 -1      7027    6    0    1
 -2      5534      5476      5523      6162      5921      5939      5876      7278     10532     12117
 -1      7028    6    0    1
 -2       529       505       530      6437       974       975       976     12118     12119      8121
 -1      7029    6    0    1
 -2       266       267      3654      6311       366      3984      3983      6842      6741     12120
 -1      7030    6    0    1
 -2      6110      6333      6203      6534      7940      9209     10558      7943      7944      9212
 -1      7031    6    0    1
 -2      6070      6376      6187      6430      9954     12121      9435      9436     12122      8727
 -1      7032    6    0    1
 -2      6024      6344      6194      6348      9215      9562     12123      8081     12124     12081
 -1      7033    6    0    1
 -2      1074      1303      1523      6484      1647      2174      2173     12125     12127     12126
 -1      7034    6    0    1
 -2      3544      3547      6144      6234      5048      7852      9769      9535      9536     10691
 -1      7035    6    0    1
 -2      3452      3574      3490      6307      4582      4584      4581      8329      8856      8426
 -1      7036    6    0    1
 -2       566      6176       508      6325     12058      7657       782     11687      7264      7658
 -1      7037    6    0    1
 -2      6103      6219      6132      6256      8880      8958      9422      6693      9055      7691
 -1      7038    6    0    1
 -2      1088      1435      1321      6460      2238      2237      1662     12128      7701     10329
 -1      7039    6    0    1
 -2      6056      6426      6186      6427      7938     11500      6912      9523      9524     11448
 -1      7040    6    0    1
 -2      5338       213      5337      6349      5361      5362      5358      7746     11517      9453
 -1      7041    6    0    1
 -2      6032      6110      6226      6410     10559      9819     12094      8655      8959     11278
 -1      7042    6    0    1
 -2      1398      6422      6227      6523      9707      8251      9706     11367     12129     11504
 -1      7043    6    0    1
 -2      6179      6352      6096      6440     11674     10285     12130     11774     11147      7833
 -1      7044    6    0    1
 -2       488       590       506      6358       909       912       910      9368     12131     10906
 -1      7045    6    0    1
 -2      6179      6215      6078      6440      9504     11499     12074     11774     11694      9774
 -1      7046    6    0    1
 -2      3531      3537      6201      6291      4985      9294     11421     10176     10160      8291
 -1      7047    6    0    1
 -2      6024      6348      6194      6515      8081     12081     12123      8082      8083     10996
 -1      7048    6    0    1
 -2      6160      6348      6044      6471     10658     11858     11042     10938     10367      8197
 -1      7049    6    0    1
 -2      6020      6239      6174      6418      9426      9427      6538      6536     10300      6537
 -1      7050    6    0    1
 -2      6247      6282      6113      6488     11158     10401     10211      7479     11096     10213
 -1      7051    6    0    1
 -2      1387      6210      1053      6362      6631      8089      1758      8834     10306      8836
 -1      7052    6    0    1
 -2      6143      6275      3454      6527     11862      8117      9510      7406     11088     11464
 -1      7053    6    0    1
 -2      6017      6023      6289      6531     11384     10704      7749     11732     11733     10757
 -1      7054    6    0    1
 -2      6016      6419      6261      6486     11659     12132      9340     11638     11577     12133
 -1      7055    6    0    1
 -2      1540      1072      1511      6399      2163      1700      2164      9214     12134      8638
 -1      7056    6    0    1
 -2      1322      5340      1477      6340     12135     11430      1710     11379     11434     11433
 -1      7057    6    0    1
 -2      6115      6167      6071      6315      8049      8147      9431     10314      9862     10315
 -1      7058    6    0    1
 -2      6118      6243      6419      6479      9262      7614     10823      8151     11188     12017
 -1      7059    6    0    1
 -2      1311      6266      1339      6356     11949     12136      2107      9897     12137     11115
 -1      7060    6    0    1
 -2      6082      6179      6096      6440     12138     12130      9157      9158     11774      7833
 -1      7061    6    0    1
 -2      6063      6073      6197      6254      8072     12139     11903     11446     11447     11902
 -1      7062    6    0    1
 -2      3797      3499      6405      6473      4526     10793     10384      6920     12140     11963
 -1      7063    6    0    1
 -2      5520      6402      3588      6514     12141     10424     12142     12143     12144     11980
 -1      7064    6    0    1
 -2      6057      6115      6229      6454     11552      8968     11159      8475      8969      8970
 -1      7065    6    0    1
 -2      6176      6245      6077      6462      8688      9644      7260     12087     10734     11357
 -1      7066    6    0    1
 -2       523       541       567      6484      1029      1030      1023     10396      8525     11633
 -1      7067    6    0    1
 -2      6130      6276       292      6474     11501      7669     10119      9090      9411      7351
 -1      7068    6    0    1
 -2      6111      6286      6154      6287      9567      9698     11893      8937     10041     11494
 -1      7069    6    0    1
 -2      3783      6202      3606      6470     11016     11141      5147     12145     10850      8193
 -1      7070    6    0    1
 -2      3769      6140      3723      6450     11207      9059      5163     10557     11684      8788
 -1      7071    6    0    1
 -2      1053      6210       249      6362      8089      8090      1753      8836     10306     11897
 -1      7072    6    0    1
 -2      1527      1252      1585      6221      2719      3100      3056      9480     10319      8454
 -1      7073    6    0    1
 -2      6050      6052      6211      6271      6958      7572      7573     11200     10770      7414
 -1      7074    6    0    1
 -2      1070      1375       238      6477      1725      1724      1720     11318      9609      9610
 -1      7075    6    0    1
 -2      1236      1235      1353      6267      2743      3019      3018     10066      9471     10067
 -1      7076    6    0    1
 -2      1110      1366      1280      6193      2344      2353      2352      8709     11302      7827
 -1      7077    6    0    1
 -2      1187      1188      6203      6333      2566      9800      9135      9855      9801      9209
 -1      7078    6    0    1
 -2      1152      1154      6166      6512      2578      6861     10326     11037     11854     11371
 -1      7079    6    0    1
 -2      1097      1096      6170      6366      2263      7121     11442     10750     11211     11364
 -1      7080    6    0    1
 -2       468       541       553      6236       806       807       803      8779      8522      9809
 -1      7081    6    0    1
 -2      1515      6215      1409      6277      9647      9648      3374      9154     12146      9153
 -1      7082    6    0    1
 -2      1135      1238      1237      6372      2485      2484      2480     11810     11462     11999
 -1      7083    6    0    1
 -2      3790      3791      3424      6350      4420      4418      4419     11180     11411     11759
 -1      7084    6    0    1
 -2      6032      6110      6203      6366     10559     10558      8652     11658      7899      9538
 -1      7085    6    0    1
 -2      1247      6323      1249      6324     10551      7979      2957     11717      7889      6640
 -1      7086    6    0    1
 -2      6118      6208      6034      6533      7780     11535     10822      7782      6867     11230
 -1      7087    6    0    1
 -2      3518      3690      3517      6353      4909      4908      4708      8393     11192     11350
 -1      7088    6    0    1
 -2      6221      6359      1252      6364      9442     11698     10319      7604      8974     10226
 -1      7089    6    0    1
 -2      3476      3475      3517      6248      4629      4707      4706     10032      7182     11584
 -1      7090    6    0    1
 -2      3495      6341      6104      6491      8492      8229      7916      8493      8494     12147
 -1      7091    6    0    1
 -2      6133      6330      6285      6464      9110     11173      9798      9205      9206     12148
 -1      7092    6    0    1
 -2      5498      5470      3419      6463      5682     12149     11004     11006     12150     11007
 -1      7093    6    0    1
 -2      5213      5368        22      5544     10588      5378     12151     10913     10914      5599
 -1      7094    6    0    1
 -2      3613      6249      6272      6346     10239     11549      9181      9030      6954      9182
 -1      7095    6    0    1
 -2       252      1396      1049      6274      1762      1767      1766      7993      7585      9335
 -1      7096    6    0    1
 -2      1051      6259       316      6379      9179      9114      1958      8662     11484      8661
 -1      7097    6    0    1
 -2      3526      3535      6346      6424      4956     11630     11070     10086     10799     12152
 -1      7098    6    0    1
 -2      5536      6257      5500      6500     10277     10817      5784     12153      9975     12154
 -1      7099    6    0    1
 -2      3527      6137      3526      6346      7033     12155      4949      8398      9534     11070
 -1      7100    6    0    1
 -2      3647      3383      6309      6409      3967      7091      9118     11891     11727     12156
 -1      7101    6    0    1
 -2      6242      6484      1262      6509     11632     10842      9448     10131     10844      9046
 -1      7102    6    0    1
 -2      6148      6069      6238      6491     12157     12158     10366     11761     12159     12060
 -1      7103    6    0    1
 -2      3699      3562      6244      6513      4991      9939      9937      9618     12160     10862
 -1      7104    6    0    1
 -2      1104      1105      1106      6247      2305      2314      2313      6597      8407      7441
 -1      7105    6    0    1
 -2      1545      6320      6127      6388      9653     12161     11930     10446     12163     12162
 -1      7106    6    0    1
 -2      6139      6263      1310      6422     10142     10220      6568      9008      8719      9007
 -1      7107    6    0    1
 -2      6042      6075      6124      6151      6684      9120      9119      7248      7670     12164
 -1      7108    6    0    1
 -2      1275      1463      1208      6229      2881      2668      2879      7707     10966      8221
 -1      7109    6    0    1
 -2      6076      6024      6385      6471      8632      7728      7579      9696      7605     12165
 -1      7110    6    0    1
 -2      5210      5209      5367       570      5234     11869     11887     12166     11968     12167
 -1      7111    6    0    1
 -2      6093      6204      5541      6399      9344     12091     12168      8899     10394     12092
 -1      7112    6    0    1
 -2      3413      3757      3620      6353      4363      4365      4132      9588      9586     11917
 -1      7113    6    0    1
 -2      5465      5547      6257      6400      5862      6884     12169     12170      8988      9942
 -1      7114    6    0    1
 -2      1486      1586      1145      6517      2545      2542      2543     12171     11404     11405
 -1      7115    6    0    1
 -2      6261      6420      6016      6486      8421     11639      9340     12133      7792     11638
 -1      7116    6    0    1
 -2      1232      6213      1481      6352      8784      8346      2729     10236      9692      9690
 -1      7117    6    0    1
 -2      6019      6414      6437      6469     11591     11316     12172     11592     10586     11317
 -1      7118    6    0    1
 -2       521      6178       522      6242     10856     10806       817     10855     10808      9804
 -1      7119    6    0    1
 -2      3435      6294      6293      6432      8981      8296      7439     10356      8872     11788
 -1      7120    6    0    1
 -2      3736      3592      5474      6467      3886      9194     12173     12174      6947      9195
 -1      7121    6    0    1
 -2      6072      6304      6131      6481     10370     10417      8010     10472     12175     10215
 -1      7122    6    0    1
 -2      5449      6214      6355      6485     11509      9822     11510     11647      7009      9997
 -1      7123    6    0    1
 -2      6147      6073      6254      6378      6578     11447     10572      7534      7535     11153
 -1      7124    6    0    1
 -2       314      1394      1079      6297      1948      1953      1952      7575      7576      9403
 -1      7125    6    0    1
 -2      1235      1154      1461      6267      2593      2583      2594      9471      7355      9702
 -1      7126    6    0    1
 -2      3637      6279      3734      6449      8507      9920      4256      8510      8511     11381
 -1      7127    6    0    1
 -2      6066      6169      6147      6494      9067      6583      9066     12176     10197     11370
 -1      7128    6    0    1
 -2      6067      6070      6183      6248      6710      8100      9243      9307      9824      7471
 -1      7129    6    0    1
 -2      3679      3602      6161      6327      5146      9987      9988     11193      7010     11646
 -1      7130    6    0    1
 -2      3664      3647       261      6409      3970      3966      3968     12010     11891     12177
 -1      7131    6    0    1
 -2       286       285      1041      6310       385      1865      1864     12178      9272      9273
 -1      7132    6    0    1
 -2      3654      3559      3755      6487      5090      5062      4201     11135     11215     11216
 -1      7133    6    0    1
 -2      6019      6334      6319      6351      7563      7564      7562     10963     11349      9359
 -1      7134    6    0    1
 -2      6029      6153      6286      6328     10699      9834      9718      9086      9606     10495
 -1      7135    6    0    1
 -2      6194      6344      6023      6348      9562     10613     10614     12081     12124     11731
 -1      7136    6    0    1
 -2      6131      6385      6043      6481     10596      9594      7735     10215      7966      9505
 -1      7137    6    0    1
 -2      3754      3514      3584      6208      4899      4898      4900     11715      8758      6863
 -1      7138    6    0    1
 -2      6049      6047      6418      6419     10410     10411     10299     10550     11461     11661
 -1      7139    6    0    1
 -2      1282      6329      6260      6382      9458     10885     12179     11531     11532     11920
 -1      7140    6    0    1
 -2      1067      1528      1347      6253      2143      2142      1689     11614     11688     11616
 -1      7141    6    0    1
 -2      3703      6151      3504      6218     10035      8539      4854     10143      7651      8538
 -1      7142    6    0    1
 -2      5551       189        20       448      5593      5590      5594     11580     12180       450
 -1      7143    6    0    1
 -2      1354      6158      1085      6310     10907     10982      2225      9733     12181      9732
 -1      7144    6    0    1
 -2      3591      3677      3416      6222      4381      4380      4378     11975     11860     12080
 -1      7145    6    0    1
 -2      6127      6380      1545      6388     11931      9904     11930     12162     10445     10446
 -1      7146    6    0    1
 -2      6033      6351      6083      6490     10123     10672     10182     10893     10894     11785
 -1      7147    6    0    1
 -2       504      6226      6198      6295     12182     11130     11907     11943     12093      7088
 -1      7148    6    0    1
 -2       507      6325       509      6495     12183     10072       990     11984     10296     10294
 -1      7149    6    0    1
 -2      1284      1499      1308      6306      3211      3210      2873      8986      9964      9962
 -1      7150    6    0    1
 -2       110      5338      5337      6349      5353      5358      5357     11650      7746      9453
 -1      7151    6    0    1
 -2      5472      5519      5531      6132      5926      5776      5925      9421      8164     11168
 -1      7152    6    0    1
 -2      1242      1210      1183      6296      2749      2748      2750      8457      6930      8807
 -1      7153    6    0    1
 -2      6072      6233      6158      6411      7476      9911      8011     10372     10057     11542
 -1      7154    6    0    1
 -2      6192      6398      1568      6501      9545      9131     11778     11047      9133      9134
 -1      7155    6    0    1
 -2      6032      6281      6174      6529      6700      8927     10466     10774     10993      8386
 -1      7156    6    0    1
 -2      6057      6229      6393      6454     11159      7036     11160      8475      8970      9402
 -1      7157    6    0    1
 -2      3541      6099      6360      6435      7114      8891      7238      9969      9970     11707
 -1      7158    6    0    1
 -2      3429      3428      3426      6243      4428      4422      4429     11321      9993     10344
 -1      7159    6    0    1
 -2      6065      6029      6328      6511      9082      9086      9084     11388      9079     10700
 -1      7160    6    0    1
 -2      1131      6230      1129      6492     11322     11608      2452      7452     11234     10033
 -1      7161    6    0    1
 -2       471      6232      6062      6374     12184     12185     12186     12187     12189     12188
 -1      7162    6    0    1
 -2      1266      1267      1212      6380      2898      2897      2892      7819     11922      9905
 -1      7163    6    0    1
 -2      6117      6326      6121      6404      9077     10849     12190      9163      7292      9641
 -1      7164    6    0    1
 -2      1392       315      1079      6297      1955      1951      1956      7734      6891      9403
 -1      7165    6    0    1
 -2      6042      6087      6133      6223      9590      9593      9592     11622     12114     11443
 -1      7166    6    0    1
 -2      1116      1115      1126      6292      2338      2375      2374     11771      7174      9363
 -1      7167    6    0    1
 -2      1409      6215      1419      6277      9648      9649      1827      9153     12146     11617
 -1      7168    6    0    1
 -2      3420      3422      3423      6463      4306      4397      4396     10952      8964      8965
 -1      7169    6    0    1
 -2       329      3408      3598      6402      4172      4174      4170     10623      9784      9785
 -1      7170    6    0    1
 -2      3793      3614      3611      6429      4247      4348      5076     10349      9575      8180
 -1      7171    6    0    1
 -2       317       318      6429      6459       417     12191     10939      8982      8983     12192
 -1      7172    6    0    1
 -2       247      6272      1077      6362     11043     11044      1747     10496     11850     10498
 -1      7173    6    0    1
 -2      3437      6294      3435      6432     12193      8981      4483     10357      8872     10356
 -1      7174    6    0    1
 -2      1398      1512      6422      6523      3293     11831      9707     11367      7330     12129
 -1      7175    6    0    1
 -2      1344      1532      1063      6367      2123      2122      2121      9390      7415      9064
 -1      7176    6    0    1
 -2       566       463      6176      6325       781      9314     12058     11687      9317      7264
 -1      7177    6    0    1
 -2       320      1390      1052      6478      1966      1971      1970      8348     12194      6989
 -1      7178    6    0    1
 -2      3482       275      3672      6268      4008      4010      4012      8789     11243      7984
 -1      7179    6    0    1
 -2      1204      1359      6288      6453      2859      7969      8003      9857      9858     11206
 -1      7180    6    0    1
 -2      1045      1409       271      6277      1824      1823      1819      7065      9153      7981
 -1      7181    6    0    1
 -2       525      5338       110      6349      7744      5353       747      7747      7746     11650
 -1      7182    6    0    1
 -2      1585      1348      1383      6221      3101      3354      3355      8454     10320      7050
 -1      7183    6    0    1
 -2      1119      1120      1121      6235      2371      2397      2396     11069      8464      9940
 -1      7184    6    0    1
 -2      1491      1514      1316      6246      3309      3308      3306      8240      8915      7393
 -1      7185    6    0    1
 -2      1088      1321      5507      6460      1662     12195     12196     12128     10329     12197
 -1      7186    6    0    1
 -2       307      3645      6225      6381      4104      8922      8920      8805     11995     12198
 -1      7187    6    0    1
 -2      3442      6224      6184      6403     12199     11740     12200      9497      9603     10779
 -1      7188    6    0    1
 -2      6015      6328      6153      6357     11270      9606      9833     10440      9787      6753
 -1      7189    6    0    1
 -2      6254      6255      3498      6268     11692     12201      8256      8259     12202      8258
 -1      7190    6    0    1
 -2       213      5338      5499      6349      5361      7754      5721     11517      7746      7756
 -1      7191    6    0    1
 -2      3718      6244      6099      6435     10967     12203      7113      7742      9399      9970
 -1      7192    6    0    1
 -2      1350      6237      6525      6534     12007     10899     11003     11677      9485     12204
 -1      7193    6    0    1
 -2      1486      1145      6493      6517      2543     11581     11582     12171     11405     11468
 -1      7194    6    0    1
 -2      1055      1499      6306      6308      2078      9964     10902      9624      8875     10665
 -1      7195    6    0    1
 -2      1060      6220      6172      6296      8170      9191      7546      9019      8555      9025
 -1      7196    6    0    1
 -2      6289      6335      6053      6371      8775      9550      9155      7752      8776     10247
 -1      7197    6    0    1
 -2       275      6197      3672      6268     10735     10540      4010     11243     11905      7984
 -1      7198    6    0    1
 -2      3539      6201      6099      6513      7912      9265      7112      9123     12205      9125
 -1      7199    6    0    1
 -2       327      6238      6148      6320      7203     10366      6894      7617      8934     10461
 -1      7200    6    0    1
 -2      6032      6366      6203      6384     11658      9538      8652      9748     10752     11889
 -1      7201    6    0    1
 -2      1371      1496      1372      6236      3365      3364      2709      6839      9559      9454
 -1      7202    6    0    1
 -2      3604      6224      3442      6403      9601     12199      4527      9498      9603      9497
 -1      7203    6    0    1
 -2      3697      3680      3515      6495      4328      4905      3836     11985     11164     11165
 -1      7204    6    0    1
 -2      3489      6185      3431      6442      9820     11227      4461      8559      9806     11516
 -1      7205    6    0    1
 -2       309      3382       308      6251      4110      4109       408      7444     11123      7425
 -1      7206    6    0    1
 -2      1069      6238      1378      6388      7920      7713      1995      7659     10437     10348
 -1      7207    6    0    1
 -2      6087      6130      6043      6133      9530      9332      9531      9593     11976      9109
 -1      7208    6    0    1
 -2      1085      6310      6308      6450      9732     12206     10920      9198     12207     11686
 -1      7209    6    0    1
 -2      1436      1513      1310      6422      3299      3296      3290      7486      7484      9007
 -1      7210    6    0    1
 -2      6205      6329      1200      6382     11373      9376      9355      9218     11532     11533
 -1      7211    6    0    1
 -2      3552      3476      3517      6250      4713      4706      4714     10656      7186     11585
 -1      7212    6    0    1
 -2      6015      6156      6328      6357      7045      9338     11270     10440      9598      9787
 -1      7213    6    0    1
 -2      6351      6395      6050      6410     10965     11064      6959     11900     11901      8654
 -1      7214    6    0    1
 -2      6047      6334      6418      6419     10409     10301     10411     11461     11660     11661
 -1      7215    6    0    1
 -2       505      6226       530      6437     12208     10513       975     12119     11279      8121
 -1      7216    6    0    1
 -2      3625      6107      3500      6405      9526     10381      4837      8828     10385     10383
 -1      7217    6    0    1
 -2       319      6429       318      6459     10941     12191       418      8188     12192      8983
 -1      7218    6    0    1
 -2      6205      6385      6131      6481     10408     10596      9217     12209      7966     10215
 -1      7219    6    0    1
 -2      6265      6275      6067      6527      8852      9636     10412     11493     11088      7407
 -1      7220    6    0    1
 -2      6049      6293      6185      6294     12210      8292     12211      8679      8296      8294
 -1      7221    6    0    1
 -2      6078      6246      6179      6352     10199     10069     12074     10284     10237     11674
 -1      7222    6    0    1
 -2      1156      1157      1172      6189      2440      2601      2600      8007      9012      8670
 -1      7223    6    0    1
 -2      6052      6290      6213      6401      8231      9795     11389      8907     11712      8042
 -1      7224    6    0    1
 -2      3470      3444      3442      6504      4529      4516      4530      8949      8950     12212
 -1      7225    6    0    1
 -2      6051      6184      6403      6473      8239     10779      9877      9879     10781      7139
 -1      7226    6    0    1
 -2      1064      6332      6258      6373      8095     10126     10508      8599     11118     10135
 -1      7227    6    0    1
 -2      6079      6212      6184      6363      9430      7270      9428     12213     10955     10953
 -1      7228    6    0    1
 -2      6061      6395      6102      6437     11062     10764      9872      8122     11000      8279
 -1      7229    6    0    1
 -2      3431      3434      3432      6442      4456      4455      4446     11516      9807      8919
 -1      7230    6    0    1
 -2       271      6277       272      6530      7981     10968       371     10087     11077      8770
 -1      7231    6    0    1
 -2      3503       290      6276      6520      4055     10481     10480      9960     11466     12214
 -1      7232    6    0    1
 -2      1222      1351      1247      6323      2953      2952      2951     10077     11060     10551
 -1      7233    6    0    1
 -2      1440      6132      1260      6460     10711      7739      3044     12215      8686      6943
 -1      7234    6    0    1
 -2      1173      6324      6189      6506     10026     11407     11611     10715     11356      8673
 -1      7235    6    0    1
 -2      3703      6151      6218      6373     10035      7651     10143      9596     12216     10145
 -1      7236    6    0    1
 -2      6036      6051      6224      6403     10990     11739      9284     10991      9877      9603
 -1      7237    6    0    1
 -2      6141      3420      6347      6463     10827      9957     10828     10477     10952      9751
 -1      7238    6    0    1
 -2       310      6430      6187      6523     11293      8727      8948      9456     11294     10719
 -1      7239    6    0    1
 -2      6063      6215      6134      6268     11497     11498      6907     11904     12218     12217
 -1      7240    6    0    1
 -2      6099      6244      3718      6513     12203     10967      7113      9125     10862      9124
 -1      7241    6    0    1
 -2      6192      6282      6059      6501     11290      9908     10148     11047      8298     11558
 -1      7242    6    0    1
 -2       511      6022       540      6101     10352     10971       998     10353      9277     11175
 -1      7243    6    0    1
 -2      6118      6270      6034      6443     10836     10790     10822      9203     10791      9864
 -1      7244    6    0    1
 -2      5435      1297      5524      6480     11965     12219      5641     11895     11599      8695
 -1      7245    6    0    1
 -2       514       578       580      6110      1010      1013      1011      9815      9309      9816
 -1      7246    6    0    1
 -2      6106      6130      6276      6407      9331     11501     11914     12220     11114     10275
 -1      7247    6    0    1
 -2       487       483       485      6154       880       878       879      8573     11261     10702
 -1      7248    6    0    1
 -2      6058      6264      6045      6406      8067      7624      8352     11745      7629      7627
 -1      7249    6    0    1
 -2      1248      1417       276      6391      1839      1838      1834      9772      7621      9102
 -1      7250    6    0    1
 -2      3453      3448      3452      6417      4560      4558      4561     10870     10846     10847
 -1      7251    6    0    1
 -2      1577      1214      6282      6501      2903      6611     11799      9572      8052      8298
 -1      7252    6    0    1
 -2      1577      1469      1213      6501      2906      2905      2902      9572     11046      8051
 -1      7253    6    0    1
 -2      6050      6032      6319      6410      8653     10159      7544      8654      8655     12221
 -1      7254    6    0    1
 -2      1259      1570      1427      6256      3129      3128      3127      7142     10256      8782
 -1      7255    6    0    1
 -2      3719      3720      6224      6347      5097      9934      9600     12222     12223      9289
 -1      7256    6    0    1
 -2      1253      6221      1252      6364     10321     10319      2746     12224      7604     10226
 -1      7257    6    0    1
 -2      5534      6162      5523      6284      7278     12117      5876      7280      7281     11481
 -1      7258    6    0    1
 -2      6025      6334      6319      6418      9828      7564     10554     11425     10301     12042
 -1      7259    6    0    1
 -2      6136      6269      1194      6444     10090      8136     10089     10235     12225     10234
 -1      7260    6    0    1
 -2      5383       451      5208      5214      5393     12226     12112     12113     12227      5247
 -1      7261    6    0    1
 -2      3694      5198       500      6389     10976     11586     12228     11437     10630     11587
 -1      7262    6    0    1
 -2      3719      6224      6164      6347      9600     10166      9494     12222      9289      9518
 -1      7263    6    0    1
 -2      3402      3425      3427      6350      4309      4312      4311     12229      9848     10324
 -1      7264    6    0    1
 -2      3440      3441      3442      6184      4506      4514      4513     11314     10780     12200
 -1      7265    6    0    1
 -2      1517      1407      1412      6258      3371      1908      3372     11512      7271     10509
 -1      7266    6    0    1
 -2      1488       323       322      6301      1975       422      1976      9378      7770      8431
 -1      7267    6    0    1
 -2      1337      1215      1302      6397      2914      2912      2915      9764     10218      9725
 -1      7268    6    0    1
 -2      1517      6258      1492      6332     11512     11676      3361     10626     10126      8390
 -1      7269    6    0    1
 -2      3606      3609       323      6301      4156      4152      4154      7768      8542      7770
 -1      7270    6    0    1
 -2      1547      6230      1442      6458     10116     10117      2343     12230      9199     12231
 -1      7271    6    0    1
 -2      3783      6301      6202      6507      8541     11142     11016     10111     10112     11791
 -1      7272    6    0    1
 -2      6021      6371      6305      6472      7751     12232      8185     11259     10620     11526
 -1      7273    6    0    1
 -2      6016      6452      6153      6529     10602      8592     10812     10603      8388     10901
 -1      7274    6    0    1
 -2      6230      6290      1131      6493      8360      8704     11322     11345      8234     10232
 -1      7275    6    0    1
 -2      6076      6165      6288      6369      9542     10335      8103      6745     11528      9695
 -1      7276    6    0    1
 -2      3631      3627      3499      6405      4832      4829      4833     10194     10792     10793
 -1      7277    6    0    1
 -2      6015      6286      6153      6328      9699      9834      9833     11270     10495      9606
 -1      7278    6    0    1
 -2      1082       310      6187      6523      1936      8948      8648      7328      9456     10719
 -1      7279    6    0    1
 -2      3597      3600      3741      6327      5135      5137      4337     12233     10210     10208
 -1      7280    6    0    1
 -2      1457      1145      1131      6230      2466      2455      2464     12234     10115     11322
 -1      7281    6    0    1
 -2      1557      1267      1484      6204      3163      3162      3164      8629     11597      8340
 -1      7282    6    0    1
 -2      6045      6264      6141      6516      7624     10420      9579     11263     11264      9097
 -1      7283    6    0    1
 -2      1243      6425      6108      6519      7836     11028     11026     10286     12105     11515
 -1      7284    6    0    1
 -2      1129      1547      1116      6458      2383      2340      2381     12235     12230     12236
 -1      7285    6    0    1
 -2      6161      6424      6346      6455     12237     12152      7588      9874     12238      9876
 -1      7286    6    0    1
 -2       548      6261       502      6469     11665     11664       961      9771     11666     12108
 -1      7287    6    0    1
 -2      3391      3672       276      6197      4015      4011      4013     10539     10540     10736
 -1      7288    6    0    1
 -2      3457      3456      3458      6265      4598      4603      4602     11458      8851      8889
 -1      7289    6    0    1
 -2      3562      3433      3721      6244      4471      4470      4469      9939      7807      9938
 -1      7290    6    0    1
 -2      1215      1216      1302      6326      2698      2913      2912     11888     10980     10341
 -1      7291    6    0    1
 -2      1077      1330      1389      6362      2187      2186      1752     10498     10530     10497
 -1      7292    6    0    1
 -2       586       485      6198      6420       891     10786     11132     11133     10703     10787
 -1      7293    6    0    1
 -2      3590      3779      6232      6317      4388      7719      7720     11451     11395     12239
 -1      7294    6    0    1
 -2      3473      6218      6285      6464      7148      9799     12240      7149      7150     12148
 -1      7295    6    0    1
 -2      6039      6137      6129      6346      8529     11140      9346     11454      9534     10561
 -1      7296    6    0    1
 -2      1051       317      6259      6379      1957      9180      9179      8662      8903     11484
 -1      7297    6    0    1
 -2      6336      6434      6433      6497     10618     10474     11013     12241     10476      9239
 -1      7298    6    0    1
 -2      5254      5251      5367      5210      5280     11343     12242     12243     11886     11887
 -1      7299    6    0    1
 -2      5367      5210       570       571     11887     12166     12167     12244     12245       716
 -1      7300    6    0    1
 -2       322       321      6301      6507       421      8433      8431     11807     11808     10112
 -1      7301    6    0    1
 -2      3543      3542      3544      6360      5036      5041      5040      9219      7236     10874
 -1      7302    6    0    1
 -2       488      6219       590      6358      9367     12246       909      9368      7731     12131
 -1      7303    6    0    1
 -2      6146      6309      6163      6404     10985     10365     12064      9838      9248      7316
 -1      7304    6    0    1
 -2      1312      1523      1262      6242      3145      3142      3143     10008     12247      9448
 -1      7305    6    0    1
 -2      5341       589      5337      6340     12248     12249      5359     12103     12250      9452
 -1      7306    6    0    1
 -2       560      6195       497      6502      7789      8324       883     12061     10222     10221
 -1      7307    6    0    1
 -2      1563      1053      1550      6362      2067      2068      2070      8835      8836     10531
 -1      7308    6    0    1
 -2      5367      5254      5210       571     12242     12243     11887     12244     12251     12245
 -1      7309    6    0    1
 -2      6044      6192      6165      6331      7229      9540     11527      7228      7227      9516
 -1      7310    6    0    1
 -2      6077      6325      6314      6495      7263     12252     12253     10295     10296     12254
 -1      7311    6    0    1
 -2      1193      1194      1192      6269      2792      2791      2786      7434      8136      8137
 -1      7312    6    0    1
 -2      6109      6126      6075      6207     10582     11401      8413     12014     12256     12255
 -1      7313    6    0    1
 -2       590      6219       498      6358     12246     11224       908     12131      7731     12257
 -1      7314    6    0    1
 -2      3782      3419      3421      6141      4392      4390      4393     10767     10872     10290
 -1      7315    6    0    1
 -2      1472      1205      1203      6398      2852      2851      2853     10922     11015     11011
 -1      7316    6    0    1
 -2      1234      1225      1233      6370      2966      2961      2967      7384      8270      6968
 -1      7317    6    0    1
 -2       254      6190      6199      6482      7737     11827      9142      7341      7333     10737
 -1      7318    6    0    1
 -2      1564      1369       234      6317      1713      1712      1597     12258     12260     12259
 -1      7319    6    0    1
 -2      6179      6246      1265      6352     10069      7779      9793     11674     10237     10834
 -1      7320    6    0    1
 -2      3382      3642      6251      6381      4111     11122     11123     11058      8806     10795
 -1      7321    6    0    1
 -2      1422      6310      1085      6450      9731      9732      1872      9196     12207      9198
 -1      7322    6    0    1
 -2      6126      6370      6288      6453     10933      7860     12261     12262      8590     11206
 -1      7323    6    0    1
 -2      6045      6036      6164      6194     12263     11804      9577      7626     11309      9560
 -1      7324    6    0    1
 -2      1194      6321      1276      6444     12264     12265      2803     10234     11619     12266
 -1      7325    6    0    1
 -2      5540      5522      6141      6299      5942     10490     12267     12268      9936     10421
 -1      7326    6    0    1
 -2       469        96      5284      6383       738      5314     12269     11275     12271     12270
 -1      7327    6    0    1
 -2      1426      6323      1042      6391     11285     11286      2011     10451      9415      7623
 -1      7328    6    0    1
 -2      3596       236      6232      6317      3891      8087      8085      8923      8924     12239
 -1      7329    6    0    1
 -2      6284      6335      6156      6505      9053     12272      7043      8266      9998      9599
 -1      7330    6    0    1
 -2      6230      1442      6458      6517     10117     12231      9199     11503     11403     12273
 -1      7331    6    0    1
 -2      6110      6226       514      6295      9819      9817      9815     11656     12093     12274
 -1      7332    6    0    1
 -2      5521      5443       199      6383      5713      5712      5708     12275     11691     12276
 -1      7333    6    0    1
 -2       469       547        96      6383       739       734       738     11275     12277     12271
 -1      7334    6    0    1
 -2       301      6207      1411      6518      8792     10515      1913      8659     11450      8658
 -1      7335    6    0    1
 -2      3634      3467      6378      6494      4665      8816     11138     12278     11806     11353
 -1      7336    6    0    1
 -2      3479      3450      3438      6432      4503      4504      4486     11954     11786     10355
 -1      7337    6    0    1
 -2      3397      6151      3703      6373     10833     10035      4289      8586     12216      9596
 -1      7338    6    0    1
 -2      3487      3488      3548      6182      4764      4773      4772     11642      7212      9170
 -1      7339    6    0    1
 -2      6096      6352      6179      6492     10285     11674     12130      9499      9842     10468
 -1      7340    6    0    1
 -2      1578      1445      1298      6321      3257      3189      3258     11662     10929     11555
 -1      7341    6    0    1
 -2      6099      6201      6085      6513      9265      8290      9711      9125     12205     10575
 -1      7342    6    0    1
 -2      6016      6334      6261      6419      7565      9341      9340     11659     11660     12132
 -1      7343    6    0    1
 -2      3768      3505      3765      6318      4862      4863      4864     11410      9462     10093
 -1      7344    6    0    1
 -2      6055      6334      6033      6343      9627     11348      9727      9630      9631      9235
 -1      7345    6    0    1
 -2      6039      6414      6395      6431     10926     11550     10763     12279     12280     10185
 -1      7346    6    0    1
 -2      6108      6135      6088      6367     12076     11344     11830     11027     10171     11953
 -1      7347    6    0    1
 -2      6079      6208      6034      6224     12281     11535     10079     12282      9285     11536
 -1      7348    6    0    1
 -2      1456      1243      1344      6367      3059      2993      3060     10536      7524      9390
 -1      7349    6    0    1
 -2      5547      5465      5458      6400      5862      5849      5860      8988     12170      8990
 -1      7350    6    0    1
 -2      1055      6306      6276      6520     10902     11439     11438     11465     12283     12214
 -1      7351    6    0    1
 -2      1517      1359      1287      6453      3220      2860      3221     11796      9858      9859
 -1      7352    6    0    1
 -2      6022      6064      6062      6161      8707      9021      9762     11239      7587     12284
 -1      7353    6    0    1
 -2       586      6198       504      6226     11132     11907       895     11131     11130     12182
 -1      7354    6    0    1
 -2      1539      1222      1327      6394      2954      2931      2955      9050     10104     10105
 -1      7355    6    0    1
 -2      1414      1504      1248      6436      3081      3080      1836      7947     12286     12285
 -1      7356    6    0    1
 -2      6068      6114      6081      6190     12287     12288      7096     10797     12289     10379
 -1      7357    6    0    1
 -2      6110      6295       514      6312     11656     12274      9815      8027     11710     10727
 -1      7358    6    0    1
 -2      6115      6422      6263      6423      8249      8719      8718      8967     11906      7015
 -1      7359    6    0    1
 -2      5209      5367      5215      5210     11869     10192      5248      5234     11887      5243
 -1      7360    6    0    1
 -2      5556      5469      5538      6240      5809      5914      5915     11105      7765      9489
 -1      7361    6    0    1
 -2       564       495       582      6240       940       835       941      9527      8013      8532
 -1      7362    6    0    1
 -2      6016      6420      6226      6529     11639     11134     10516     10603     11640     10875
 -1      7363    6    0    1
 -2      1351      6196      6323      6394      7676     11857     11060      9049     10003     11061
 -1      7364    6    0    1
 -2       523      6242      6091      6484     11412      9805     10012     10396     11632      8524
 -1      7365    6    0    1
 -2      6018      6160      6348      6357      6751     10658     10152      6754      6755     11924
 -1      7366    6    0    1
 -2      3437      6184      6294      6432     11313      8871     12193     10357      7376      8872
 -1      7367    6    0    1
 -2      3705      3457      6265      6527      4600     11458     11456     12290     11455     11493
 -1      7368    6    0    1
 -2       524      6176      3739      6350     12059      8952     12066     12291     10664     11181
 -1      7369    6    0    1
 -2      3579      6183      3788      6430      8365      7839      5122     10052     11440     10054
 -1      7370    6    0    1
 -2      1411      6207      1044      6518     10515      8790      1914      8658     11450     10283
 -1      7371    6    0    1
 -2       199      5443      5284      6383      5712     12292      5331     12276     11691     12270
 -1      7372    6    0    1
 -2      3718      6244      3561      6513     10967     11544      5028      9124     10862     10924
 -1      7373    6    0    1
 -2      3631      6405      6473      6494     10194     11963     12293     10195     10196     12294
 -1      7374    6    0    1
 -2      5509      1325      1067      6345     12295      1692     11613     12296     11874     11875
 -1      7375    6    0    1
 -2       493      6313       568      6389      8973     12297       933      8572      9655     12298
 -1      7376    6    0    1
 -2      6124      6087      6223      6329     10378     12114     11621     12299     12300     11084
 -1      7377    6    0    1
 -2      6081      6114      6068      6431     12288     12287      7096     11627     12301     11626
 -1      7378    6    0    1
 -2      1330      6362      6273      6364     10530     12302     10605     12303     11758     11424
 -1      7379    6    0    1
 -2      1350      1066      1489      6262      2136      2137      2139     12304     11604      8642
 -1      7380    6    0    1
 -2      6033      6334      6055      6414     11348      9627      9727     10395     11029      7803
 -1      7381    6    0    1
 -2       464      6222      3520      6495     12305     11444     12306     12307     11445      9269
 -1      7382    6    0    1
 -2      6195      6486      6300      6502      7791     11139     11260     10222     12309     12308
 -1      7383    6    0    1
 -2      1521       262      6309      6322      1792      9348      9349      8595     12036      9868
 -1      7384    6    0    1
 -2      6021      6466      6406      6510      7433     11668      8773     10538     10272     12310
 -1      7385    6    0    1
 -2      3417      3773      3588      6514      4385      3856      4384     11978     12311     11980
 -1      7386    6    0    1
 -2      1589      6266      6225      6522     10402     10288      7103      8762     12312      9840
 -1      7387    6    0    1
 -2      6092      6263      6370      6448      9873      7761      8323      8505      7018     10293
 -1      7388    6    0    1
 -2      1438      1543      6260      6329      3206      8666      8667     12043     10884     10885
 -1      7389    6    0    1
 -2      1516      1438      1043      6260      2020      2017      2018     10262      8667     10261
 -1      7390    6    0    1
 -2      5520      3588      5444      6514     12142     12313      5664     12143     11980     12314
 -1      7391    6    0    1
 -2      5540      6141      5498      6299     12267     11005      5757     12268     10421     11814
 -1      7392    6    0    1
 -2      6252      6372      1135      6497      8410     11810      9441     10004     12000      8550
 -1      7393    6    0    1
 -2      1196      1276      1194      6321      2804      2803      2796     10432     12265     12264
 -1      7394    6    0    1
 -2      6092      6165      6044      6369      7897     11527      8450     12315     11528      8196
 -1      7395    6    0    1
 -2      1579      1496      6236      6525      2147      9559      8781     11748     11738      9245
 -1      7396    6    0    1
 -2      3380      6223       296      6375     10684     10359      4071      9241     10685      9418
 -1      7397    6    0    1
 -2      1538      6444      1386      6478     12316     12317      2061      9814     12013      6991
 -1      7398    6    0    1
 -2      1116      6292      1129      6458     11771     11607      2381     12236      9434     12235
 -1      7399    6    0    1
 -2      6184      6224      6051      6403     11740     11739      8239     10779      9603      9877
 -1      7400    6    0    1
 -2      1308      1354      1326      6465      3287      3282      2875     12318     12320     12319
 -1      7401    6    0    1
 -2      1197      6306      6131      6382      8987     11670      7698      8583      9088      8585
 -1      7402    6    0    1
 -2      1306      6233      6177      6506     10302     10610     10600     12052      8901     11749
 -1      7403    6    0    1
 -2      1237      1134      1135      6497      2479      2384      2480     11840      8549      8550
 -1      7404    6    0    1
 -2      6060      6157      6073      6168      8911      7022      6869      8512     12321      8513
 -1      7405    6    0    1
 -2      1252      6221      1527      6359     10319      9480      2719     11698      9442     12322
 -1      7406    6    0    1
 -2      5523      5476      5486      6264      5939      5937      5940     11480     11479     10594
 -1      7407    6    0    1
 -2      6108      6367      6213      6425     11027      7523     11341     11028      9811      9474
 -1      7408    6    0    1
 -2      6026      6386      6186      6427      9444      6794     11915     12323     10065     11448
 -1      7409    6    0    1
 -2      6112      6063      6197      6268      8128     11903     12324     12325     11904     11905
 -1      7410    6    0    1
 -2      6091      6359      6236      6509      8885      7317      7929     12326      7320      7321
 -1      7411    6    0    1
 -2      6140      6339      6308      6450      7650     12327     11682     11684     12328     11686
 -1      7412    6    0    1
 -2      6055      6077      6047      6245      7801      9680     11251      9381      9644     10243
 -1      7413    6    0    1
 -2       275      6391      6268      6436      9773     12329     11243      7949      9417     11244
 -1      7414    6    0    1
 -2       549       585      6261      6420       904     12330      8417      8420     12331      8421
 -1      7415    6    0    1
 -2      6077      6176      6047      6245      7260      9679      9680      9644      8688     10243
 -1      7416    6    0    1
 -2      6342      6444      1258      6478     10364      9173     10363     12332     12013      9361
 -1      7417    6    0    1
 -2      3692      3693      3471      6208      4416      4689      4682     11066     11303     11541
 -1      7418    6    0    1
 -2      5539      5385      5491      6390      8608     10542      5734      8609      8610     10543
 -1      7419    6    0    1
 -2      5523      6162      5476      6284     12117     10532      5939     11481      7281     11482
 -1      7420    6    0    1
 -2      3410       247       248      6524      3926       347      3927      9547      9386      8093
 -1      7421    6    0    1
 -2      6106      6209      6130      6407      8697     11113      9331     12220     10031     11114
 -1      7422    6    0    1
 -2      6016      6226      6420      6438     10516     11134     11639      9100     10518     12333
 -1      7423    6    0    1
 -2      3420      6141      3419      6463     10827     10872      4304     10952     10477     11007
 -1      7424    6    0    1
 -2      3525      3527      6137      6424      4948      7033      8455     10084     10085     12334
 -1      7425    6    0    1
 -2      3523      3522      3714      6424      4928      4933      4932      8262     10141     11301
 -1      7426    6    0    1
 -2      3745      3624      3501      6387      4840      4843      4844     11208     11595     12335
 -1      7427    6    0    1
 -2      6048      6146      6121      6200      7492     12336     12095      7491      7490     12097
 -1      7428    6    0    1
 -2       573       491       526      6257       888       923       922      6647      8977      9507
 -1      7429    6    0    1
 -2      1066      6262      1350      6525     11604     12304      2136     11001      7636     11003
 -1      7430    6    0    1
 -2      1120      1114      1474      6354      2372      2361      2373      9646     10552      7729
 -1      7431    6    0    1
 -2       589      5341       556      6340     12248     12101       755     12250     12103     11288
 -1      7432    6    0    1
 -2      6185      6435      6055      6442      8214     11194     10804      9806      8560     11610
 -1      7433    6    0    1
 -2      1218      1221      1306      6506      2688      2930      2929     12337     11162     12052
 -1      7434    6    0    1
 -2      6124      6138      6329      6332      9121      9375     12299     10889     10890     11417
 -1      7435    6    0    1
 -2      6050      6052      6271      6351      6958     10770     11200      6959      6960     10674
 -1      7436    6    0    1
 -2      6114      6416      6083      6431      9643     12084     12083     12301     12338     10183
 -1      7437    6    0    1
 -2      5529      5472      5508      6103      5891      5922      5923      7154      8447      7254
 -1      7438    6    0    1
 -2       534       498       555      6103       948       917       949      8274     11223      7197
 -1      7439    6    0    1
 -2      6095      6293      6255      6446     11154     10641      8235      9831      8385      7595
 -1      7440    6    0    1
 -2      6270      6283      6089      6300      9924      7641     10777     10998      9146     11530
 -1      7441    6    0    1
 -2      6236      6237      6061      6525      8821      9484      7928      9245     10899      7637
 -1      7442    6    0    1
 -2      5400      6475      5446      6476     12339     12340     11635     11637      9409     11636
 -1      7443    6    0    1
 -2      3400      3622      3658      6407      4299      4303      4063      8318      8354      8796
 -1      7444    6    0    1
 -2      1547      1129      1145      6230      2383      2454      2456     10116     11608     10115
 -1      7445    6    0    1
 -2      6016      6153      6155      6486     10812     10811     10810     11638      9837     10679
 -1      7446    6    0    1
 -2      6030      6127      6093      6305      9739      9740      7366     10549     11754     11523
 -1      7447    6    0    1
 -2       475       480       515      6451       839       840       828      6664     10450      8130
 -1      7448    6    0    1
 -2      1451      1047       257      6396      1782      1781      1777      8863      9678      7857
 -1      7449    6    0    1
 -2      1198      1199      1200      6205      2683      2824      2823     11383      8046      9355
 -1      7450    6    0    1
 -2       566       524       503      6176       783       943       967     12058     12059     12341
 -1      7451    6    0    1
 -2      5496      6069      5495      6204     10189     12342      5791     11172      9343     12343
 -1      7452    6    0    1
 -2      6026      6186      6426      6427     11915     11500     11299     12323     11448      9524
 -1      7453    6    0    1
 -2      6034      6208      6142      6413     11535      8367      9043      9045     11198      7877
 -1      7454    6    0    1
 -2      6034      6036      6208      6413      8436      9286     11535      9045     10287     11198
 -1      7455    6    0    1
 -2      3580      3478      3752      6526      4732      4731      4730     11386     11387     12344
 -1      7456    6    0    1
 -2      1053       248      6362      6524      1754     12345      8836      8092      8093     11898
 -1      7457    6    0    1
 -2      3567      3545      6291      6338      4979     10161     10203     10986      9078     10162
 -1      7458    6    0    1
 -2       274      3482      3657      6268      4007      4009      4005     10393      8789     11514
 -1      7459    6    0    1
 -2      6076      6205      6059      6385     11170     12346     12347      7579     10408     12348
 -1      7460    6    0    1
 -2      1055      6308      6306      6520      9624     10665     10902     11465     12349     12283
 -1      7461    6    0    1
 -2      6020      6278      6239      6418     11696     11697      9426      6536     12350     10300
 -1      7462    6    0    1
 -2      6047      6245      6243      6442     10243     10244     10242     11253     10347     10345
 -1      7463    6    0    1
 -2      6121      6163      6117      6404     12351      8091     12190      9641      7316      9163
 -1      7464    6    0    1
 -2      3502      3624      3623      6209      4842      4848      4847     10507      9250      9251
 -1      7465    6    0    1
 -2      1296      1151      1458      6271      2576      2555      2577     10046     11957     10706
 -1      7466    6    0    1
 -2      6096      6179      6082      6492     12130     12138      9157      9499     10468     10911
 -1      7467    6    0    1
 -2      1332      6253      1555      6345     12352     12353      3168      8423     12354      8422
 -1      7468    6    0    1
 -2      3736      3686      3592      6467      4184      4896      3886     12174      7817      6947
 -1      7469    6    0    1
 -2      5485      6030      5501      6472     12355      9990      5978     12356     11524     11828
 -1      7470    6    0    1
 -2      1332      1228      1528      6253      2986      2983      2987     12352     11689     11688
 -1      7471    6    0    1
 -2       275      6197      6268      6391     10735     11905     11243      9773     10898     12329
 -1      7472    6    0    1
 -2      3526      6137      3527      6424     12155      7033      4949     10086     12334     10085
 -1      7473    6    0    1
 -2      6045      6067      6125      6406     10591     10837     11189      7627     10622     10336
 -1      7474    6    0    1
 -2      3789      3441      3439      6184      4508      4507      4509     12357     10780     11315
 -1      7475    6    0    1
 -2      5436      1323       132      5512      7955      1674      5631      5632      8811      5627
 -1      7476    6    0    1
 -2      6038      6144      6119      6343      8285     11843      7327     11174      8211     11271
 -1      7477    6    0    1
 -2      6188      6433      1542      6497      7958     11334     10912     11841      9239     11452
 -1      7478    6    0    1
 -2      5472      5463      5462      6206      5880      5871      5881      7677      7665     10493
 -1      7479    6    0    1
 -2      1065      6436      6268      6530     10789     11244     10392      7602     12358     10389
 -1      7480    6    0    1
 -2      6223      6329      1413      6332     11084      9282     10360     11435     11417      7498
 -1      7481    6    0    1
 -2      6176      6077      6325      6462      7260      7263      7264     12087     11357     10486
 -1      7482    6    0    1
 -2      6050      6271      6211      6333     11200      7414      7573      8381      9149      8844
 -1      7483    6    0    1
 -2       498       489       555      6219       906       916       917     11224      7106      8879
 -1      7484    6    0    1
 -2      6053      6371      5504      6532     10247     10248     10246      8175     12359     10574
 -1      7485    6    0    1
 -2      6133      6218      6042      6223      9796      7652      9592     11443     10683     11622
 -1      7486    6    0    1
 -2      1256      1393      6167      6379      3073      8166     10249      8933     10361     10587
 -1      7487    6    0    1
 -2      3564      3719      6164      6347      5098      9494      9495     10255     12222      9518
 -1      7488    6    0    1
 -2      1046      1456      1404      6367      2033      2035      1803      9407     10536      7869
 -1      7489    6    0    1
 -2      1256      6167      1186      6315     10249      6762      2763     10724      9862      9863
 -1      7490    6    0    1
 -2       317      3728      6259      6429      4134      8480      9180     10939      9388     11252
 -1      7491    6    0    1
 -2      1554      1501      1044      6453      2025      2024      2021     11699     12360     11700
 -1      7492    6    0    1
 -2      6034      6278      6155      6419     10080     12361      8481     10081      7616     10959
 -1      7493    6    0    1
 -2      3376      6308       288      6520     12039     11743      4049      9947     12349      9949
 -1      7494    6    0    1
 -2      6195      6300      6270      6502     11260     10998      9515     10222     12308      9885
 -1      7495    6    0    1
 -2      3510      3747      3509      6202      4878      4877      4806     11018     12362      6900
 -1      7496    6    0    1
 -2      3771      6234      3582      6409      6823     12077      4296     10188     10919     10187
 -1      7497    6    0    1
 -2      1403      1061       303      6356      1920      1919      1915     12099      9896     10667
 -1      7498    6    0    1
 -2      3787      3478      3456      6275      4606      4607      4592     12082      7556      8116
 -1      7499    6    0    1
 -2      6130      6209      6133      6316     11113      9108     11976     10121     10029     10900
 -1      7500    6    0    1
 -2      3666      3654       267      6311      3988      3984      3986      9573     12120      6741
 -1      7501    6    0    1
 -2      5446      6475      5556      6476     12340     11104      5796     11636      9409     11106
 -1      7502    6    0    1
 -2      6089      6392      6287      6400      7056     11496      7654      9140     10019      9256
 -1      7503    6    0    1
 -2      3515      3404       463      6325      3834      9315     12363     12364      9316      9317
 -1      7504    6    0    1
 -2      6046      6405      6140      6521     10759      8830      9755     10642     10761     12365
 -1      7505    6    0    1
 -2      6279      6483      6177      6508     12366     12367     12368      6673     11997     11873
 -1      7506    6    0    1
 -2       557       498       534      6103       951       948       950      7862     11223      8274
 -1      7507    6    0    1
 -2      6303      6307      6143      6468      8839      8840      8838      9694      8427     11681
 -1      7508    6    0    1
 -2      6128      6233      6177      6377      6771     10610     11049     12369     10304     10611
 -1      7509    6    0    1
 -2       485      6198      6154      6445     10786     10785     10702     11909      8060     11942
 -1      7510    6    0    1
 -2      3517      6250      6248      6353     11585     10110     11584     11350     12370     11955
 -1      7511    6    0    1
 -2      1500      1176      1372      6237      2710      2708      2711     12008      7053     11775
 -1      7512    6    0    1
 -2      6075      6126      6040      6369     11401     10580      6685      6688     10712      6559
 -1      7513    6    0    1
 -2      6225      6251       307      6381     11281     10794      8920     12198     10795      8805
 -1      7514    6    0    1
 -2      6128      6279      6140      6449     12371      8506     12372     12373      8511      8509
 -1      7515    6    0    1
 -2      6019      6410      6319      6438     11899     12221      7562      9099     12374      9101
 -1      7516    6    0    1
 -2      3564      3720      3719      6347      5094      5097      5098     10255     12223     12222
 -1      7517    6    0    1
 -2      6160      6357      6328      6505      6755      9787      9607     11184      8268     11547
 -1      7518    6    0    1
 -2       321       320      6298      6507       420     10948     11235     11808     11845     12375
 -1      7519    6    0    1
 -2      6047      6469      6261      6479      9681     11666     12376     11187     10880     11667
 -1      7520    6    0    1
 -2      5495      6069      6180      6204     12342     12377     12378     12343      9343     11929
 -1      7521    6    0    1
 -2      6131      6205      6059      6304      9217     12346     12379     10417     10418     11557
 -1      7522    6    0    1
 -2      6066      6405      6107      6489     12380     10385      8604      8605     12012      7724
 -1      7523    6    0    1
 -2       311      6376      3640      6523     11672     11671      4116      9455     10415      9457
 -1      7524    6    0    1
 -2      5452      5449      5453      6355      5806      5811      5810      9193     11510      8580
 -1      7525    6    0    1
 -2      3632      6169      3629      6405      8311      9704      5173     11782     10193     11214
 -1      7526    6    0    1
 -2      1041      1354      1422      6310      2007      2006      1869      9273      9733      9731
 -1      7527    6    0    1
 -2      3742      6360      6146      6409     10514      7493      8341     11726     12381     11728
 -1      7528    6    0    1
 -2      1173      1156      1172      6189      2602      2600      2603     11611      8007      8670
 -1      7529    6    0    1
 -2      3446      3448      3447      6403      4547      4546      4535     11073     11071     10746
 -1      7530    6    0    1
 -2      1122      1568      1469      6192      2416      2415      2414     11779     11778     10281
 -1      7531    6    0    1
 -2      5523      6264      5486      6284     11480     10594      5940     11481      9253     12382
 -1      7532    6    0    1
 -2      1556      6333      6237      6534     11473     10096      6976     12115      7944      9485
 -1      7533    6    0    1
 -2      5449      5489      5454      6355      5802      5814      5813     11510      8024      8961
 -1      7534    6    0    1
 -2      3446      6387      6285      6403     10721     11331     10444     11073      7137     11072
 -1      7535    6    0    1
 -2      3464      3493      6241      6365      4647      9968     11797      9034      9035     11074
 -1      7536    6    0    1
 -2      1498      1220      1573      6377      2941      2942      2944      9058      8552      8553
 -1      7537    6    0    1
 -2      6202      6301      3606      6470     11142      7768     11141     10850     12383      8193
 -1      7538    6    0    1
 -2      1222      1218      6394      6506      2692     10106     10104     10714     12337     12384
 -1      7539    6    0    1
 -2       580       537       536      6262      1039       771      1038     11573      9752      7634
 -1      7540    6    0    1
 -2      6293      6294      6145      6432      8296      8870     11574     11788      8872      7377
 -1      7541    6    0    1
 -2      6088      6213      6108      6367      8038     11341     11830     11953      7523     11027
 -1      7542    6    0    1
 -2       548       512       510      6469       964      1000       995      9771     12107      8108
 -1      7543    6    0    1
 -2      6136      6149      6084      6444     11519     11520      8940     10235     12385     11811
 -1      7544    6    0    1
 -2      6158      6308      1085      6310     11332     10920     10982     12181     12206      9732
 -1      7545    6    0    1
 -2      1382      6249      6221      6273      7672     10013      7049      7199      8515     11045
 -1      7546    6    0    1
 -2      1252      1348      1585      6221      3098      3101      3100     10319     10320      8454
 -1      7547    6    0    1
 -2      3471      6504      6208      6533      8951     11859     11541     10818     10819      6867
 -1      7548    6    0    1
 -2      5518      5483      5481      6241      5965      5964      5673      8078     10027      9844
 -1      7549    6    0    1
 -2      3632      3629      3631      6405      5173      5166      5174     11782     11214     10194
 -1      7550    6    0    1
 -2      6085      6137      6039      6414      8477      8529      8155      7804     10928     10926
 -1      7551    6    0    1
 -2      3504      3473      3549      6218      4692      4701      4700      8538      7148     11036
 -1      7552    6    0    1
 -2      1154      6267      6166      6512      7355      7356      6861     11854     11855     11371
 -1      7553    6    0    1
 -2       265      6311      6135      6367      6844     12046     10170      7871     10745     10171
 -1      7554    6    0    1
 -2      3623      3625      3635      6339      5152      5154      5153      9521      7648     10011
 -1      7555    6    0    1
 -2      6190      6199      6068      6397     11827     12386     10797      9178     11041     12387
 -1      7556    6    0    1
 -2      3568      3477      3569      6152      4719      4723      4722     12388      6564      8223
 -1      7557    6    0    1
 -2      1577      6282      6192      6501     11799     11290     10280      9572      8298     11047
 -1      7558    6    0    1
 -2      6191      3606      6301      6470     10743      7768     10744     10251      8193     12383
 -1      7559    6    0    1
 -2      6134      6255      6063      6268     10260      8236      6907     12217     12202     11904
 -1      7560    6    0    1
 -2      6030      6127      6084      6148      9739      9183     10548     12389     12390     12071
 -1      7561    6    0    1
 -2      6196      6197      1042      6391     12391     10896      8603     12392     10898      7623
 -1      7562    6    0    1
 -2      6104      6202      6084      6466      9227     11863     12393      6730     11867     11865
 -1      7563    6    0    1
 -2       512       502      6261      6469       963     11664     12394     12107     12108     11666
 -1      7564    6    0    1
 -2      6166      6333      1441      6512      8382     10731      8015     11371      9152     10732
 -1      7565    6    0    1
 -2      1377      1329      1087      6374      2234      2233      2235     10252     10253     10865
 -1      7566    6    0    1
 -2       538       545       467      6256       800       801       655     10042     12395     11080
 -1      7567    6    0    1
 -2       583       545       538      6358       987       800       777      8169     12396      7757
 -1      7568    6    0    1
 -2       462       554       583      6312       775       778       776      6551     11623      6680
 -1      7569    6    0    1
 -2      1336      1386      1538      6444      3340      2061      3120      8246     12317     12316
 -1      7570    6    0    1
 -2      5284       469      6383      6500     12269     11275     12270     12397     11276      9974
 -1      7571    6    0    1
 -2      6241      6337      3491      6365      8619      9688     10705     11074     10697     10698
 -1      7572    6    0    1
 -2      1526      5524      5435      1297      9637      5641     11964      1686     12219     11965
 -1      7573    6    0    1
 -2      1523      1562      1074      6242      2175      1651      2173     12247     12399     12398
 -1      7574    6    0    1
 -2      1315      1316      1518      6368      3002      3305      3000      8441      7558      6833
 -1      7575    6    0    1
 -2      3466      6265      3459      6337     11644     11112      4621     11713     12400     11879
 -1      7576    6    0    1
 -2      6038      6135      6119      6234     11266     12401      7327     11269     11268     12402
 -1      7577    6    0    1
 -2      6288      6332      6258      6453      7971     10126     12403     11206     10127     10128
 -1      7578    6    0    1
 -2      6105      6433      6336      6434      9664     11013     12404     10475     10474     10618
 -1      7579    6    0    1
 -2      6029      6153      6198      6286     10699     11232      7086      9718      9834     10716
 -1      7580    6    0    1
 -2      3794      3698      3556      6341      4922      4813      5084      9437      9189      8491
 -1      7581    6    0    1
 -2      5282        92      5290       520      5302      5291      5303      6821       725      7000
 -1      7582    6    0    1
 -2      1244      1180      1243      6425      2732      2730      2733     12405      7835      7836
 -1      7583    6    0    1
 -2      6016      6155      6418      6419     10810     11921     10601     11659     10959     11661
 -1      7584    6    0    1
 -2      3381      3648      6302      6318      4093     11913      9999     11489      8979     11925
 -1      7585    6    0    1
 -2      6175      6095      6421      6446      6624      9777      9778     10173      9831     12406
 -1      7586    6    0    1
 -2      6048      6099      6343      6360      9003     10307      9236      7494      8891     11272
 -1      7587    6    0    1
 -2      5456      6287      5458      6400      7773      8938      5846      9139      9256      8990
 -1      7588    6    0    1
 -2      6037      6499      6434      6505     10945     12407     12408     11182     11183     12409
 -1      7589    6    0    1
 -2      6080      6100      6041      6139     11566      8099      7359     11565      9081      9765
 -1      7590    6    0    1
 -2      6098      6164      6036      6194      8732     11804     10988      9561      9560     11309
 -1      7591    6    0    1
 -2       302      6302      3648      6318     11702     11913      4089      8980     11925      8979
 -1      7592    6    0    1
 -2      6017      6194      6503      6516      7894     10995     10648     11406     11265     12410
 -1      7593    6    0    1
 -2      1217      1255      1430      6480      2669      2927      2926      8056      7207      7208
 -1      7594    6    0    1
 -2      6203      6384      1449      6517     11889     11539      9137     11021     11716     11020
 -1      7595    6    0    1
 -2      1507       329      6238      6402      1997      9941      7921      8639     10623     12411
 -1      7596    6    0    1
 -2      1457      6230      1131      6493     12234     11322      2464     10233     11345     10232
 -1      7597    6    0    1
 -2      3460      6265      6125      6337      9450     11191      9564     12412     12400     12413
 -1      7598    6    0    1
 -2      1222      1173      1218      6506      2691      2686      2692     10714     10715     12337
 -1      7599    6    0    1
 -2      1085      6308       288      6450     10920     11743      1870      9198     11686     10647
 -1      7600    6    0    1
 -2      6033      6083      6431      6490     10182     10183     10184     10893     11785     12414
 -1      7601    6    0    1
 -2      1545      6127      6320      6321     11930     12161      9653     10431      9188     11556
 -1      7602    6    0    1
 -2      1420      6276       290      6520     10923     10481      1880     11467     12214     11466
 -1      7603    6    0    1
 -2      3692      6224      3720      6347      8843      9934      4686     11067      9289     12223
 -1      7604    6    0    1
 -2      1114      6235      6331      6354     11068      7513      8614     10552      7516      7517
 -1      7605    6    0    1
 -2      5541      6093      5497      6204     12168      7367      5997     12091      9344      9342
 -1      7606    6    0    1
 -2      1297      1526      5524      6480      1686      9637     12219     11599     10334      8695
 -1      7607    6    0    1
 -2      6056      6292      6230      6492      8442     11606      8646     10910     11609     11234
 -1      7608    6    0    1
 -2      1299      6320      1545      6388      9652      9653      3267     12415     12163     10446
 -1      7609    6    0    1
 -2      5453      5456      5525      6400      5833      5835      5827      9138      9139      9268
 -1      7610    6    0    1
 -2      5284      6383      5443      6500     12270     11691     12292     12397      9974     12416
 -1      7611    6    0    1
 -2      6170      6295      6032      6366     10584     10583      8536     11364     11657     11658
 -1      7612    6    0    1
 -2      6129      6291      6081      6338      9347      8159      9345     11289     10162     10380
 -1      7613    6    0    1
 -2      3445      6387      3446      6403      6917     10721      4533      7138      7137     11073
 -1      7614    6    0    1
 -2      6156      6286      6206      6535     10494      9568      9336      7179     11540      6679
 -1      7615    6    0    1
 -2      1427      1570      1345      6256      3128      2429      2170      8782     10256      9352
 -1      7616    6    0    1
 -2      6228      6302      3659      6356      9225      9226      9223     11094     12022      8377
 -1      7617    6    0    1
 -2      6058      6125      6045      6337     11746     11189      8352     10138     12413     10139
 -1      7618    6    0    1
 -2      3646      3506      3570      6228      4866      4867      4283     12417      9687      8581
 -1      7619    6    0    1
 -2      5419      5532      5551      5250      8216      5695     11579     11277      9976     12418
 -1      7620    6    0    1
 -2      5488      6336      6105      6433     12419     12404     11593     11594     11013      9664
 -1      7621    6    0    1
 -2      3732      6314      3577      6462     10510     10157      5121     12420     10821     12421
 -1      7622    6    0    1
 -2      6098      6417      6164      6527     11107     10831      8732      8734     12422      8733
 -1      7623    6    0    1
 -2      6326      6397      1215      6441     10343     10218     11888     10049     12423     10022
 -1      7624    6    0    1
 -2      1270      1275      1208      6229      2880      2879      2877      6871      7707      8221
 -1      7625    6    0    1
 -2      6030      6069      6127      6148      7363      9741      9739     12389     12157     12390
 -1      7626    6    0    1
 -2      3429      3583      3428      6243      4439      4438      4428     11321     11926      9993
 -1      7627    6    0    1
 -2      6124      6042      6151      6218      9119      7248     12164     11620      7652      7651
 -1      7628    6    0    1
 -2      6238      6402      3598      6491     12411      9785      9176     12060     11092      8802
 -1      7629    6    0    1
 -2      6287      6392      6111      6400     11496      8309      8937      9256     10019      8989
 -1      7630    6    0    1
 -2      1138      1124      1139      6280      2409      2424      2423     11956      6964     10740
 -1      7631    6    0    1
 -2      1385      1054      1537      6273      1746      2073      2075      8036      7200     11241
 -1      7632    6    0    1
 -2      6119      6135      6108      6322     12401     12076      6716     12424      8820     12425
 -1      7633    6    0    1
 -2      6047      6334      6261      6469     10409      9341     12376      9681     11030     11666
 -1      7634    6    0    1
 -2      1326      1525      1561      6411      3284      3331      2876     12426      8485      8483
 -1      7635    6    0    1
 -2      1059      1578      1544      6320      2098      2100      2097     11675     10917      9651
 -1      7636    6    0    1
 -2      3437      3438      3439      6432      4484      4495      4494     10357     10355     11326
 -1      7637    6    0    1
 -2      1350      1500      6237      6534      3326     12008     12007     11677     11678      9485
 -1      7638    6    0    1
 -2      1517      1359      6258      6332      3220     10125     11512     10626      7970     10126
 -1      7639    6    0    1
 -2      1215      1216      6326      6441      2698     10980     11888     10022     12427     10049
 -1      7640    6    0    1
 -2      6125      6265      6045      6337     11191     11190     11189     12413     12400     10139
 -1      7641    6    0    1
 -2      3669      6421      3668      6530     10722      8568      4197      9232     10388     10088
 -1      7642    6    0    1
 -2      3418      3590      3774      6317      4387      3820      4386     11394     11451     12428
 -1      7643    6    0    1
 -2      6083      6050      6271      6351     11100     11200     10669     10672      6959     10674
 -1      7644    6    0    1
 -2      1434      1496      1371      6236      3366      3365      2724     12429      9559      6839
 -1      7645    6    0    1
 -2      3395      3753      3599      6327      4277      4276      3904      7012     10259      8751
 -1      7646    6    0    1
 -2      3713      6161      3536      6424      9986     11822      5009     11300     12237     10800
 -1      7647    6    0    1
 -2      3625      3627      3628      6405      4841      5157      5156      8828     10792      9775
 -1      7648    6    0    1
 -2      6065      6499      6252      6511     12430     11938     11298     11388     12431     10435
 -1      7649    6    0    1
 -2      3748      3784      3671      6375      5070      4209      4705     11780      9240     11365
 -1      7650    6    0    1
 -2      3630       282       283      6483      4031       382      4032     12432     10339     10340
 -1      7651    6    0    1
 -2      1352      6204      6180      6238      8630     11929      8062      7922     11729     10845
 -1      7652    6    0    1
 -2      6202      6301      6152      6507     11142     11882     11596     11791     10112     11885
 -1      7653    6    0    1
 -2      3450      3795      6432      6494      4505     12433     11786     12434     12436     12435
 -1      7654    6    0    1
 -2      6189      6426      6072      6506      7937     10527     10825      8673      8913      8900
 -1      7655    6    0    1
 -2      5453      5454      5455      6355      5812      5832      5831      8580      8961      7643
 -1      7656    6    0    1
 -2      3783      3606      3747      6470      5147      4263      4885     12145      8193     12437
 -1      7657    6    0    1
 -2      6090      6094      6273      6364      7029     11423     12438      7030      7031     11424
 -1      7658    6    0    1
 -2      3522      6222      6161      6424     10694     10984     10983     10141     12439     12237
 -1      7659    6    0    1
 -2      1131      1145      1129      6230      2455      2454      2452     11322     10115     11608
 -1      7660    6    0    1
 -2      1072      5513      1511      6399     12440     12441      1700     12134     12442      8638
 -1      7661    6    0    1
 -2      3785      3689      3434      6185      4481      4480      4457     11226     11296      8293
 -1      7662    6    0    1
 -2      1077      6273      1330      6362     10866     10605      2187     10498     12302     10530
 -1      7663    6    0    1
 -2      1120      6235      1114      6354      8464     11068      2372      9646      7516     10552
 -1      7664    6    0    1
 -2      1425      6177      6483      6508     11311     12367     10338     11872     11873     11997
 -1      7665    6    0    1
 -2      6121      6048      6163      6404     12095      6719     12351      9641     12443      7316
 -1      7666    6    0    1
 -2       307      3642      3645      6381      4106      4108      4104      8805      8806     11995
 -1      7667    6    0    1
 -2       326      6320      6148      6470      8009     10461      6892      7991     11948     10337
 -1      7668    6    0    1
 -2      3636      3573      3685      6496      5113      5112      5111     11396     11397     11789
 -1      7669    6    0    1
 -2      3386      6210      6338      6524      9063     11752      8611     10438     11333     10987
 -1      7670    6    0    1
 -2      1090        26       499      1319      1604       644     10006      1610      1609      9394
 -1      7671    6    0    1
 -2      5512      5557      6188      6447      5751      8849      8812     11025     10934     10597
 -1      7672    6    0    1
 -2       482       484       483      6392       872       873       867      7567     11764     11469
 -1      7673    6    0    1
 -2      6426      6427      6072      6481      9524     10824     10527     12444     12445     10472
 -1      7674    6    0    1
 -2      3413      6297      6259      6353      6889     10404      8478      9588     11916     10562
 -1      7675    6    0    1
 -2      6063      6112      6215      6268      8128     11693     11497     11904     12325     12218
 -1      7676    6    0    1
 -2      1183      1527      6296      6359      2717     10590      8807     12446     12322     11238
 -1      7677    6    0    1
 -2      5486      6264      5559      6284     10594     10595      5982     12382      9253     10043
 -1      7678    6    0    1
 -2      1323      5436      1574      6433      7955     12447      1675      7956      7957     12448
 -1      7679    6    0    1
 -2       325      3607      3392      6470      4160      4162      4158      8877      7989      8191
 -1      7680    6    0    1
 -2      1531      6282      6116      6528      6612      8017      6756     10956     10655      8517
 -1      7681    6    0    1
 -2       256      1505      1451      6396      1774      1779      1778      8125      8194      8863
 -1      7682    6    0    1
 -2       252       251      1396      6274       351      1763      1762      7993      6609      7585
 -1      7683    6    0    1
 -2      6100      6067      6183      6275      9357      9243      8102     11486      9636      7555
 -1      7684    6    0    1
 -2      5488      6335      6105      6336     11649      9552     11593     12419     12449     12404
 -1      7685    6    0    1
 -2      5447      5449      5448      6485      5801      5800      5795     11483     11647     11742
 -1      7686    6    0    1
 -2      6161      3536      6424      6455     11822     10800     12237      9874      8956     12238
 -1      7687    6    0    1
 -2      6073      6112      6063      6197      7021      8128      8072     12139     12324     11903
 -1      7688    6    0    1
 -2      1218      1306      6177      6506      2929     10600     10598     12337     12052     11749
 -1      7689    6    0    1
 -2      6086      6250      6298      6429      8808      8178     12024     12450      8181      8182
 -1      7690    6    0    1
 -2       259      6309      6146      6404      7090     10985      7340      7001      9248      9838
 -1      7691    6    0    1
 -2      1074       460      1303      6484     12451     12452      1647     12125     12453     12127
 -1      7692    6    0    1
 -2      3677      3678      3522      6222      4935      4934      4925     11860     10693     10694
 -1      7693    6    0    1
 -2       278      6196      3468      6496     10323      8131      4019      7339      8253      8254
 -1      7694    6    0    1
 -2      1181      1461      1153      6441      2587      2584      2585     12454     12047     12048
 -1      7695    6    0    1
 -2      3414       256       257      6396      3953       356      3954     10646      8125      7857
 -1      7696    6    0    1
 -2      1237      6372      6188      6497     11999     11014     10578     11840     12000     11841
 -1      7697    6    0    1
 -2      1466      1269      1555      6345      3170      3167      3171      8721      8350      8422
 -1      7698    6    0    1
 -2      6164      6347      6036      6516      9518      9287     11804     12004     12456     12455
 -1      7699    6    0    1
 -2      3694       500      6313      6389     12228     12457     11436     11437     11587      9655
 -1      7700    6    0    1
 -2      1416      6130      6260      6316     10120     11918     10263      7313     10121     11548
 -1      7701    6    0    1
 -2       332       331      1370      6514       431      2003      2002     12033     12458     12035
 -1      7702    6    0    1
 -2      3639      3750      3412      6376      4360      4359      4123      7530      9861      7532
 -1      7703    6    0    1
 -2      1563      6210      6362      6416      6633     10306      8835     10742     10877     11576
 -1      7704    6    0    1
 -2      1500      1338      1553      6237      3341      3342      2712     12008      8622      6977
 -1      7705    6    0    1
 -2      6060      6177      6168      6508     11048     12459      8512     12460     11873      6672
 -1      7706    6    0    1
 -2      5520      3415      3588      6159     12461      3855     12142     12462      7450      8497
 -1      7707    6    0    1
 -2      6146      6163      6048      6404     12064      6719      7492      9838      7316     12443
 -1      7708    6    0    1
 -2      3669      3767      3668      6421      5195      4771      4197     10722      8567      8568
 -1      7709    6    0    1
 -2      3470      3604      3720      6224      4531      4685      4684      8841      9601      9934
 -1      7710    6    0    1
 -2      6194      6036      6363      6503     11309      8435     11308     10995      8438      8439
 -1      7711    6    0    1
 -2      5400       454        23      6475      5410       456      5408     12339     10573     12463
 -1      7712    6    0    1
 -2      3692      6208      6224      6347     11066      9285      8843     11067      9288      9289
 -1      7713    6    0    1
 -2       529       511       579      6437      1005      1003       977     12118     12041     12464
 -1      7714    6    0    1
 -2      5485      5514      5501      6030      5972      5981      5978     12355      6727      9990
 -1      7715    6    0    1
 -2      6036      6098      6194      6515     10988      9561     11309     11310     10689     10996
 -1      7716    6    0    1
 -2      6154      6392      6089      6502     11470      7056     11495     11472      7569      7570
 -1      7717    6    0    1
 -2      5290      5494       195      5282      6887      5699      5298      5303      7509      5323
 -1      7718    6    0    1
 -2      1192      6269      6136      6439      8137     10090     10645     10544     10545     10661
 -1      7719    6    0    1
 -2      3722      3400       293      6316      4066      4062      4064     11242      8316      7312
 -1      7720    6    0    1
 -2      1364      6163      1290      6519      8861      9172      3230     10784     10798      8415
 -1      7721    6    0    1
 -2      1108      1442      1278      6231      2342      2341      2312     12465     12466     11572
 -1      7722    6    0    1
 -2      3569      6152      6298      6507      8223      9767      9304     11570     11885     12375
 -1      7723    6    0    1
 -2      1415      6260      6223      6316      8668     12467      7256      8335     11548     11372
 -1      7724    6    0    1
 -2      1076      6321      6301      6444     10930     12040      8628      8247     11619     10377
 -1      7725    6    0    1
 -2        12       451      5212       570       452     11966     12468       639     11969     11970
 -1      7726    6    0    1
 -2      1308      6158      1354      6465     10909     10907      3287     12318     12469     12320
 -1      7727    6    0    1
 -2      1048      6225       306      6522      7104      8921      1928      9839      9840     11324
 -1      7728    6    0    1
 -2      6049      6239      6145      6278     10014     11109     12470      8678     11697     11695
 -1      7729    6    0    1
 -2      3631      6473      3696      6494     12293     12471      4834     10195     12294     11222
 -1      7730    6    0    1
 -2      3565      6164      3749      6415      9519      9493      4656      8723      9520     11769
 -1      7731    6    0    1
 -2      6080      6126      6109      6356     10581     10582     10579     12472     12020     12021
 -1      7732    6    0    1
 -2      6054      6250      6152      6298      7246      6636     11228     12023      8178      9767
 -1      7733    6    0    1
 -2      1326      1525      6411      6465      3284      8485     12426     12319     12474     12473
 -1      7734    6    0    1
 -2      6045      6125      6058      6406     11189     11746      8352      7627     10336     11745
 -1      7735    6    0    1
 -2      5541      5515      6093      6399      6004     12475     12168     12092     12476      8899
 -1      7736    6    0    1
 -2      6122      6252      6499      6511      8499     11938     11936      6702     10435     12431
 -1      7737    6    0    1
 -2      6126      6369      6288      6370     10712      9695     12261     10933     10932      7860
 -1      7738    6    0    1
 -2      6054      6084      6152      6466      8941     11864     11228      6654     11865     11866
 -1      7739    6    0    1
 -2      1521      1365       262      6322      1797      1796      1792      8595      8596     12036
 -1      7740    6    0    1
 -2      1293      1363      1356      6404      3249      3248      3247      7315     10592      9009
 -1      7741    6    0    1
 -2      1080      6274      6210      6416      7923     11250      7013     10459     10560     10877
 -1      7742    6    0    1
 -2      6113      6160      6031      6499     10937      9605     10400     10946     10947     12477
 -1      7743    6    0    1
 -2      1313      1242      1467      6296      2888      3051      2104      9018      8457      8458
 -1      7744    6    0    1
 -2       261      1062      1521      6309      1789      1794      1793      9350      8797      9349
 -1      7745    6    0    1
 -2      1339      6266      1589      6522     12136     10402      3311      8760     12312      8762
 -1      7746    6    0    1
 -2      1335      1227      1362      6366      2774      2981      2280     11502      9537      7975
 -1      7747    6    0    1
 -2      1223      6323      1247      6324     10076     10551      2950     10025      7889     11717
 -1      7748    6    0    1
 -2      3447      3604      3443      6403      4536      4528      4534     10746      9498      8564
 -1      7749    6    0    1
 -2      1321      5473      5507      6460     10328      5623     12195     10329     10330     12197
 -1      7750    6    0    1
 -2      3752      3478      6275      6526      4731      7556     12478     12344     11387     12479
 -1      7751    6    0    1
 -2      1427      1345      1073      6256      2170      2169      2171      8782      9352     11081
 -1      7752    6    0    1
 -2      3666      6311       268      6428      9573      6742      3987     12480     11196      8334
 -1      7753    6    0    1
 -2      6395      6414      6033      6431     11550     10395     10181     10185     12280     10184
 -1      7754    6    0    1
 -2      3450      6432      6147      6494     11786     11787     11054     12434     12435     11370
 -1      7755    6    0    1
 -2      6319      6334      6016      6418      7564      7565      7561     12042     10301     10601
 -1      7756    6    0    1
 -2      3453      6417      6143      6527     10870     10871      9512     11651     12422      7406
 -1      7757    6    0    1
 -2      6076      6059      6205      6501     12347     12346     11170     11171     11558      9553
 -1      7758    6    0    1
 -2      6081      6090      6039      6129     11246      7946      8157      9345     11245      9346
 -1      7759    6    0    1
 -2      1165      1191      1192      6439      2647      2650      2649      7500      8701     10544
 -1      7760    6    0    1
 -2      6155      6418      6278      6452     11921     12350     12361     10813      6541     12481
 -1      7761    6    0    1
 -2      6295      6312      6170      6358     11710      8304     10584      7733      7758      7548
 -1      7762    6    0    1
 -2      6052      6108      6401      6425      6787      8909      8907     11390     11028     11342
 -1      7763    6    0    1
 -2      6032      6226      6110      6295     12094      9819     10559     10583     12093     11656
 -1      7764    6    0    1
 -2       579      6437       511      6469     12464     12041      1003     12482     11317     10354
 -1      7765    6    0    1
 -2      1364      6322      6163      6519      8597     11826      8861     10784      9478     10798
 -1      7766    6    0    1
 -2      5418      5250      5419       448      9977     11277      5432      5422     11817      5427
 -1      7767    6    0    1
 -2      3731      6314      3732      6462     10511     10510      5120     12483     10821     12420
 -1      7768    6    0    1
 -2      3571      3595      6159      6402      4339      8496     10122      9786     10425     10426
 -1      7769    6    0    1
 -2      6181      6280      6053      6361      7195      7219      7842     11120      9623     11476
 -1      7770    6    0    1
 -2      1177      1252      1527      6359      2715      2719      2718      8565     11698     12322
 -1      7771    6    0    1
 -2      1438      1516      1282      6260      2020      3204      3202      8667     10262     12179
 -1      7772    6    0    1
 -2       320      3409       319      6298      4143      4142       419     10948      9303     10950
 -1      7773    6    0    1
 -2      3689      3785      3553      6185      4481      4787      4768     11296     11226      8248
 -1      7774    6    0    1
 -2      3624      3500      6107      6387      4838     10381      9525     11595     11209     10534
 -1      7775    6    0    1
 -2      1357      1302      1216      6326      2921      2913      2922      7288     10341     10980
 -1      7776    6    0    1
 -2      6348      6357      6194      6515     11924     10994     12081      8083      9782     10996
 -1      7777    6    0    1
 -2      1393      6297      6167      6379      8372      7582      8166     10361     10973     10587
 -1      7778    6    0    1
 -2      5449      6355      5452      6485     11510      9193      5806     11647      9997      9749
 -1      7779    6    0    1
 -2      6057      6071      6280      6461      7216      7220      7193     11553     10316     11750
 -1      7780    6    0    1
 -2       274      6268      3657      6530     10393     11514      4005      7601     10389      9761
 -1      7781    6    0    1
 -2      1200      1198      6205      6382      2823     11383      9355     11533     10405      9218
 -1      7782    6    0    1
 -2       476      5337       589      6340      9712     12249       754      9508      9452     12250
 -1      7783    6    0    1
 -2      3583      6243      6294      6533     11926      8681     11038     12484      9264     11934
 -1      7784    6    0    1
 -2      6049      6294      6185      6442      8679      8294     12211     11254      9808      9806
 -1      7785    6    0    1
 -2      6124      6138      6087      6329      9121     10177     10378     12299      9375     12300
 -1      7786    6    0    1
 -2      6054      6136      6086      6149      8939     10427      8714     11518     11519     12485
 -1      7787    6    0    1
 -2      6054      6152      6125      6466     11228      9020      6650      6654     11866      6653
 -1      7788    6    0    1
 -2      5514      6030      5485      6510      6727     12355      5972     10462     10463     12486
 -1      7789    6    0    1
 -2      6104      6148      6084      6202     12487     12071     12393      9227     12488     11863
 -1      7790    6    0    1
 -2      6063      6255      6254      6268      8236     11692     11446     11904     12202      8259
 -1      7791    6    0    1
 -2      3463      3462      3464      6365      4632      4637      4636     10696     11543      9034
 -1      7792    6    0    1
 -2      1416      6260      6130      6474     10263     11918     10120      7352     11009      9090
 -1      7793    6    0    1
 -2      1469      1229      1471      6501      2990      2832      2904     11046      9132      9061
 -1      7794    6    0    1
 -2      6067      6143      6275      6303      7405     11862      9636      7119      8838     11487
 -1      7795    6    0    1
 -2      6059      6205      6131      6481     12346      9217     12379     12489     12209     10215
 -1      7796    6    0    1
 -2      6060      6168      6279      6508      8512      6669     11946     12460      6672      6673
 -1      7797    6    0    1
 -2      6058      6406      6466      6510     11745     11668     10268      9675     12310     10272
 -1      7798    6    0    1
 -2      1146      1147      1144      6498      2536      2535      2525     11927      7888      7886
 -1      7799    6    0    1
 -2       461       550      1328      6262       667      7589     11601     11603      6657      7590
 -1      7800    6    0    1
 -2      3472      3452      3451      6307      4573      4559      4574     11928      8329      8330
 -1      7801    6    0    1
 -2      5472      5531      5508      6460      5925      5924      5922     11821     12490     10960
 -1      7802    6    0    1
 -2      1253      6273      6221      6364     10606     11045     10321     12224     11424      7604
 -1      7803    6    0    1
 -2      3686       433      6389      6467      4183     12491      9654      7817     12492      9657
 -1      7804    6    0    1
 -2       545      6256       538      6358     12395     10042       800     12396      9353      7757
 -1      7805    6    0    1
 -2      6069      6030      6104      6148      7363      6726      9889     12157     12389     12487
 -1      7806    6    0    1
 -2      5522      5476      5477      6141      5935      5932      5936     10490      9095     10668
 -1      7807    6    0    1
 -2      5535      5504      6335      6371      5954     10245     12493     12494     10248      8776
 -1      7808    6    0    1
 -2      1308      6306      6158      6411      9962     11136     10909     12116     10224     11542
 -1      7809    6    0    1
 -2      1457      1145      6230      6493      2466     10115     12234     10233     11581     11345
 -1      7810    6    0    1
 -2      6266      6356      1311      6370     12137      9897     11949      7762     10916     10257
 -1      7811    6    0    1
 -2      6305      6371      6053      6532     12232     10247      9156     12495     12359      8175
 -1      7812    6    0    1
 -2      6141      6347      6164      6516     10828      9518      9578      9097     12456     12004
 -1      7813    6    0    1
 -2      1357      1216      1485      6326      2922      2919      2923      7288     10980      7507
 -1      7814    6    0    1
 -2      6060      6279      6177      6508     11946     12368     11048     12460      6673     11873
 -1      7815    6    0    1
 -2      3621      6200      3589      6482     11148      8976      4366      9919     11150     11117
 -1      7816    6    0    1
 -2      1051      1392      1510      6379      1959      2059      2058      8662      8660     10362
 -1      7817    6    0    1
 -2      6196      1042      6323      6391      8603     11286     11857     12392      7623      9415
 -1      7818    6    0    1
 -2      5442      1325      5509      6345     12496     12295      5647     12497     11874     12296
 -1      7819    6    0    1
 -2        23       454      5447      6475       456     10470      5609     12463     10573     10725
 -1      7820    6    0    1
 -2      6057      6235      6229      6461      7192      9914     11159     11553      9917      9585
 -1      7821    6    0    1
 -2      3511      6245      6176      6462      8687      8688      8471     10484     10734     12087
 -1      7822    6    0    1
 -2      6260      6329      6087      6382     10885     12300     11919     11920     11532      9533
 -1      7823    6    0    1
 -2      6024      6194      6344      6515     12123      9562      9215      8082     10996     10690
 -1      7824    6    0    1
 -2       522      6062      6178      6374      9324     10807     10806     11952     12188     10857
 -1      7825    6    0    1
 -2      3758      3618      3764      6338      4237      4354      5058     11091      8612     10258
 -1      7826    6    0    1
 -2      6087      6205      6076      6385     10407     11170     11231     10178     10408      7579
 -1      7827    6    0    1
 -2      6038      6119      6144      6234      7327     11843      8285     11269     12402     10691
 -1      7828    6    0    1
 -2      5484      5486      5522      6264      5974      5938      5969      8068     10594      9935
 -1      7829    6    0    1
 -2       561      6226       504      6295     11335     12182       972     12498     12093     11943
 -1      7830    6    0    1
 -2      6071      6315      6167      6342     10315      9862      8147     10100      9584     10099
 -1      7831    6    0    1
 -2      3715      3519      3406      6341      4329      3863      4330     11794     12499     11793
 -1      7832    6    0    1
 -2      3587      3502      6209      6464      4820     10507     10030     12500     12501      9204
 -1      7833    6    0    1
 -2      1368      1401      6379      6459      3110     11575      8931     11178     11522     11798
 -1      7834    6    0    1
 -2      6032      6319      6226      6529     10159     10517     12094     10774     10876     10875
 -1      7835    6    0    1
 -2       277      6197       276      6391     10897     10736       376      7622     10898      9102
 -1      7836    6    0    1
 -2      6258      6288      6138      6332     12403      8105     10888     10126      7971     10890
 -1      7837    6    0    1
 -2      6116      6427      6304      6457     10443     11842      7455      6760     10826      7480
 -1      7838    6    0    1
 -2      3679      3600      3753      6327      5139      5138      5141     11193     10210     10259
 -1      7839    6    0    1
 -2      1055      6276      1420      6520     11438     10923      1881     11465     12214     11467
 -1      7840    6    0    1
 -2      1447      1223      1250      6324      2695      2958      2960      9984     10025      8133
 -1      7841    6    0    1
 -2       500       568      6313      6389       793     12297     12457     11587     12298      9655
 -1      7842    6    0    1
 -2      5538      5469      5521      6383      5914      5913      5710      9490      9257     12275
 -1      7843    6    0    1
 -2       564       547       495      6383       736       939       940      9529     12277      9259
 -1      7844    6    0    1
 -2      5459      6156      5478      6535     10017      9613      5868     10018      7179     11560
 -1      7845    6    0    1
 -2      6305      6472      6371      6532     11526     10620     12232     12495     12502     12359
 -1      7846    6    0    1
 -2       457      5550        24      5417     10020      5615       459      5430     12503      5428
 -1      7847    6    0    1
 -2      6081      6416      6114      6431     12504      9643     12288     11627     12338     12301
 -1      7848    6    0    1
 -2      1403      1061      6356      6518      1920      9896     12099     11358     11359     11833
 -1      7849    6    0    1
 -2      5560      6156      6284      6335     10453      7043     10454     12505     12272      9053
 -1      7850    6    0    1
 -2      1130      1264      6352      6492      2460     10010      9841      7451     12506      9842
 -1      7851    6    0    1
 -2      6059      6282      6116      6501      9908      8017      9907     11558      8298      7457
 -1      7852    6    0    1
 -2      6068      6190      6201      6482     10797      9293      7099     12507      7333     11089
 -1      7853    6    0    1
 -2      5472      5508      6103      6460      5922      7254      8447     11821     10960      9759
 -1      7854    6    0    1
 -2      6068      6199      6121      6490     12386      8753     12096     11832     12509     12508
 -1      7855    6    0    1
 -2      3732      3577      3733      6462      5121      4967      4893     12420     12421      9952
 -1      7856    6    0    1
 -2      1520      1248      1504      6391      3083      3080      3084     10452      9772     11295
 -1      7857    6    0    1
 -2      3440      3437      6184      6504      4496     11313     11314     12510     12512     12511
 -1      7858    6    0    1
 -2      1431      1571      1304      6282      2907      2335      2329     10652      9645     10651
 -1      7859    6    0    1
 -2      1074      1523      6242      6484      2173     12247     12398     12125     12126     11632
 -1      7860    6    0    1
 -2      6049      6055      6185      6239     10015     10804     12211     10014      9628     10803
 -1      7861    6    0    1
 -2      5531      6132      6447      6460     11168     10801     11169     12490      8686     12513
 -1      7862    6    0    1
 -2       586       504       561      6226       895       972       973     11131     12182     11335
 -1      7863    6    0    1
 -2      1299      1381      1544      6320      3261      2096      3264      9652      7619      9651
 -1      7864    6    0    1
 -2      6160      6328      6031      6499      9607      9608      9605     10947     12514     12477
 -1      7865    6    0    1
 -2      5554      5535      5504      6335      5986      5954      6011      9551     12493     10245
 -1      7866    6    0    1
 -2      3498      6254      3481      6255      8256     10571      4737     12201     11692     10710
 -1      7867    6    0    1
 -2      3568      3609      3783      6507      4248      5107      4884     11571     10113     10111
 -1      7868    6    0    1
 -2      6142      6208      6034      6443      8367     11535      9043      8200      8368      9864
 -1      7869    6    0    1
 -2       538      1073        28      1314     11129      1612       654      6971      1617      1616
 -1      7870    6    0    1
 -2      3621      6199      6396      6482     10503      8754      8124      9919     10737     12515
 -1      7871    6    0    1
 -2      6210      6274       250      6338     11250      6610      8862     11752     10108      8613
 -1      7872    6    0    1
 -2      1496      6236      1434      6484      9559     12429      3366     10523      8526     11704
 -1      7873    6    0    1
 -2      5458      5456      5457      6287      5846      5841      5847      8938      7773      8204
 -1      7874    6    0    1
 -2      5213        22       182      5544     12151      5597      5238     10913      5599      5598
 -1      7875    6    0    1
 -2      5472      6132      5531      6460      9421     11168      5925     11821      8686     12490
 -1      7876    6    0    1
 -2      3705      3455      3457      6527      4599      4597      4600     12290     11086     11455
 -1      7877    6    0    1
 -2      3738      3782      3403      6299      4318      4317      3875     10769     10768     11989
 -1      7878    6    0    1
 -2      3568      3554      3477      6152      4718      4720      4719     12388      8803      6564
 -1      7879    6    0    1
 -2      6076      6192      6044      6471      9541      7229     10942      9696     10150      8197
 -1      7880    6    0    1
 -2      6092      6369      6044      6393     12315      8196      8450      8451      6563      8195
 -1      7881    6    0    1
 -2      3772      3696      3449      6494      4563      4511      4564     11221     11222     12516
 -1      7882    6    0    1
 -2      3543      6144      3547      6435      9768      7852      5047     11706      8213      9746
 -1      7883    6    0    1
 -2      6133      6285      6218      6464      9798      9799      9796      9205     12148      7150
 -1      7884    6    0    1
 -2      1053       248      1389      6362      1754      1750      1755      8836     12345     10497
 -1      7885    6    0    1
 -2      3480      3798      3498      6255      4741      4743      4738      8793      9302     12201
 -1      7886    6    0    1
 -2      1196      1211      1212      6380      2798      2812      2811      9903      8930      9905
 -1      7887    6    0    1
 -2      6029      6295      6198      6529      7087      7088      7086     10775     10776     11427
 -1      7888    6    0    1
 -2      3793      6250      3612      6429     10657     12517      4245     10349      8181      9389
 -1      7889    6    0    1
 -2      6309      6322       262      6409      9868     12036      9348     12156     12003     12518
 -1      7890    6    0    1
 -2      3490      3454      6143      6275      4580      9510     11217      9555      8117     11862
 -1      7891    6    0    1
 -2      1215      1174      1216      6441      2700      2699      2698     10022     12519     12427
 -1      7892    6    0    1
 -2      5208      5368        22      5213     12520      5378     12521      5240     10588     12151
 -1      7893    6    0    1
 -2       533       499        26      1319       649       644       648      7026      9394      1609
 -1      7894    6    0    1
 -2      6160      6386      6348      6471      6795      8080     10658     10938     10368     10367
 -1      7895    6    0    1
 -2      1530      6211      6493      6498      8995      8232     12027     11097     10137     12029
 -1      7896    6    0    1
 -2      5446      5487      5402      6476      5735      7824     11634     11636      8127      7390
 -1      7897    6    0    1
 -2      3659      3381       303      6302      4096      4092      4094      9226      9999     12522
 -1      7898    6    0    1
 -2      6107      3624      6387      6464      9525     11595     10534     11399     11400     12523
 -1      7899    6    0    1
 -2      3589      3538      3759      6482      5021      5023      5022     11117     11149     11116
 -1      7900    6    0    1
 -2      6261      6334      6047      6419      9341     10409     12376     12132     11660     11461
 -1      7901    6    0    1
 -2      6065      6328      6499      6511      9084     12514     12430     11388     10700     12431
 -1      7902    6    0    1
 -2       468      1068      1478      6484      8778      1643     12524     10101     10102     10522
 -1      7903    6    0    1
 -2      5384      5383      5211      5214      5398      9130     10322      9929     12113      5242
 -1      7904    6    0    1
 -2      1455      6329      1286      6332      9283     12079      3218      7497     11417      9966
 -1      7905    6    0    1
 -2      3516      3436      3700      6533      4492      4489      4493     10820     12526     12525
 -1      7906    6    0    1
 -2      6154      6089      6300      6502     11495     11530      9701     11472      7570     12308
 -1      7907    6    0    1
 -2      6084      6104      6030      6148     12393      6726     10548     12071     12487     12389
 -1      7908    6    0    1
 -2      5496      5495      5497      6204      5791      5996      5995     11172     12343      9342
 -1      7909    6    0    1
 -2      6170      6312      6295      6366      8304     11710     10584     11364     10772     11657
 -1      7910    6    0    1
 -2      1173      6189      1172      6506     11611      8670      2603     10715      8673      8674
 -1      7911    6    0    1
 -2      5538      5521      5288      6383      5710     12527      9487      9490     12275      9491
 -1      7912    6    0    1
 -2       540      6101      6062      6222     11175     11176     10972     12528     12530     12529
 -1      7913    6    0    1
 -2       244      3608       243      6249      3915      3914       343      7187     11545      7671
 -1      7914    6    0    1
 -2      3638      3503      6407      6520      4849     12531     11723      9959      9960     12532
 -1      7915    6    0    1
 -2      6257      6111      6392      6400      6648      8309      8310      9942      8989     10019
 -1      7916    6    0    1
 -2      3761      3382      3643      6430      4217      4114      4218     10449     10447     11590
 -1      7917    6    0    1
 -2      1578      6320      6191      6321     10917     11947      6929     11662     11556     10931
 -1      7918    6    0    1
 -2      3396      6228      3644      6522     12533     11093      4102     11773     12534      8033
 -1      7919    6    0    1
 -2      1307      6233      1525      6465     10303     10055      2947     11992     11990     12474
 -1      7920    6    0    1
 -2      5284        96      5288      6383      5314      5310      5315     12270     12271      9491
 -1      7921    6    0    1
 -2       451      5383      5384      5214      5393      5398      5390     12227     12113      9929
 -1      7922    6    0    1
 -2      3687      3702      6313      6456      4437     10625     12053     12056      9758      8625
 -1      7923    6    0    1
 -2      6177      6279      6128      6483     12368     12371     11049     12367     12366     12535
 -1      7924    6    0    1
 -2       533       467       557      6256       652       798       799      7027     11080      7863
 -1      7925    6    0    1
 -2      1555      6253      1067      6345     12353     11614      2140      8422     12354     11875
 -1      7926    6    0    1
 -2      6264      6406      6058      6510      7629     11745      8067      9676     12310      9675
 -1      7927    6    0    1
 -2      6195      6420      6261      6486      7788      8421      8418      7791      7792     12133
 -1      7928    6    0    1
 -2      3670      3474       298      6373      4081      4077      4079      9597     10204      8600
 -1      7929    6    0    1
 -2      1578      1298      6320      6321      3258      9802     10917     11662     11555     11556
 -1      7930    6    0    1
 -2      3498      3481      3480      6255      4737      4569      4738     12201     10710      8793
 -1      7931    6    0    1
 -2      6121      6146      6048      6404     12336      7492     12095      9641      9838     12443
 -1      7932    6    0    1
 -2       526      6408      6257      6500     11408      7783      9507     12026      8307      9975
 -1      7933    6    0    1
 -2      6048      6117      6121      6163      8273     12190     12095      6719      8091     12351
 -1      7934    6    0    1
 -2      6267      6416      6083      6441     10068     12084     11282     12049     12086     11838
 -1      7935    6    0    1
 -2      6077      6314      6101      6495     12253     12536      9276     10295     12254     10501
 -1      7936    6    0    1
 -2      1323      1071       132      5512      1673      1669      1674      8811     11022      5627
 -1      7937    6    0    1
 -2      5212        79        12       570      5228       637     12468     11970       638       639
 -1      7938    6    0    1
 -2      3797      3441      3499      6473      4523      4525      4526      6920      7727     12140
 -1      7939    6    0    1
 -2      6051      6363      6212      6515     10954     10955      8206      9404      9783      9406
 -1      7940    6    0    1
 -2      3524      6314      3680      6495     12006     12005      4931     11805     12254     11164
 -1      7941    6    0    1
 -2      6175      6182      6095      6446      9670      8287      6624     10173      7214      9831
 -1      7942    6    0    1
 -2       466      3687      3694      6313     12055      3848     12537     12054     12053     11436
 -1      7943    6    0    1
 -2      5438      3744      3415      6341     12538      3859     12539     12540      9438      9439
 -1      7944    6    0    1
 -2      3398      3666       268      6428      3991      3987      3989      8332     12480      8334
 -1      7945    6    0    1
 -2      1338      6237      1500      6534      8622     12008      3341     11679      9485     11678
 -1      7946    6    0    1
 -2      1347       135      5435      1297      1682      5640     12541      1684      1685     11965
 -1      7947    6    0    1
 -2      5284      5288       199      6383      5315      5330      5331     12270      9491     12276
 -1      7948    6    0    1
 -2      1138      6280      1139      6461     11956     10740      2423     10266     11750      8868
 -1      7949    6    0    1
 -2      1378      6238      6320      6388      7713      8934      7618     10348     10437     12163
 -1      7950    6    0    1
 -2      6288      6369      6165      6370      9695     11528     10335      7860     10932      6969
 -1      7951    6    0    1
 -2       507      3515       463      6325     11983     12363       702     12183     12364      9317
 -1      7952    6    0    1
 -2      3575      3544      3582      6234      5052      5053      5055      9393      9535     12077
 -1      7953    6    0    1
 -2      1375      6178      6172      6477     10059     10060      7082      9609      9076     11095
 -1      7954    6    0    1
 -2      3555      3740      3571      6491      5081      5080      5079      9330      8800      8801
 -1      7955    6    0    1
 -2      3511      3512      6245      6462      4451     12542      8687     10484     11795     10734
 -1      7956    6    0    1
 -2      3731      6325      3515      6495     12543     12364      4904     11163     10296     11165
 -1      7957    6    0    1
 -2      6046      6426      6489      6521     10526     10830     10163     10642     10643     11034
 -1      7958    6    0    1
 -2      5435      5524      5511      6480      5641      5747      5746     11895      8695      8425
 -1      7959    6    0    1
 -2      1500      1324      1350      6525      3325      2135      3326     12009     11002     11003
 -1      7960    6    0    1
 -2      1066      1324       461      6525      1635     12544     11602     11001     11002     12545
 -1      7961    6    0    1
 -2      3538      6201      3537      6482      7911      9294      4993     11149     11089      7331
 -1      7962    6    0    1
 -2      6253      6361      1228      6480     11880     11912     11689      8344     11477     11600
 -1      7963    6    0    1
 -2        29       462      1314      1057       657      6970      1615      1619      7436      1620
 -1      7964    6    0    1
 -2      1369      1564      1091       465      1713      1656      2253     12546     12548     12547
 -1      7965    6    0    1
 -2       568       493       542      6313       933       927       796     12297      8973      8623
 -1      7966    6    0    1
 -2      1065      6215      6436      6530     11690     10628     10789      7602     11890     12358
 -1      7967    6    0    1
 -2       564      5288       547      6383      9528     12549       736      9529      9491     12277
 -1      7968    6    0    1
 -2      5487      5506       197      6476      5706      5705      5701      8127     12551     12550
 -1      7969    6    0    1
 -2       513        94       532      6476       727       731       732      9298     12553     12552
 -1      7970    6    0    1
 -2      1549      1299      1545      6388      3266      3267      2901      9073     12415     10446
 -1      7971    6    0    1
 -2      6199      6326      6121      6490     11040     10849      8753     12509     12554     12508
 -1      7972    6    0    1
 -2      6223      6260      1415      6329     12467      8668      7256     11084     10885     10886
 -1      7973    6    0    1
 -2      1133      1142      1143      6290      2474      2477      2476      8975     12556     12555
 -1      7974    6    0    1
 -2      6044      6165      6092      6331     11527      7897      8450      7228      9516      7489
 -1      7975    6    0    1
 -2       508       566       548      6176       782       968       994      7657     12058      9770
 -1      7976    6    0    1
 -2      6118      6419      6195      6479     10823     10958      8148      8151     12017      8153
 -1      7977    6    0    1
 -2      6328      6499      6160      6505     12514     10947      9607     11547     11183     11184
 -1      7978    6    0    1
 -2      3479      3483      3480      6293      4735      4734      4567     11605      8383     11055
 -1      7979    6    0    1
 -2      1580      1337      1302      6397      3273      2915      3274      9726      9764      9725
 -1      7980    6    0    1
 -2      3704      3487      3559      6428      4777      4774      4778     12068     12558     12557
 -1      7981    6    0    1
 -2       296       297      3671      6375       396      4074      4073      9418      7712     11365
 -1      7982    6    0    1
 -2      1376      6178      1070      6477      6713     10097      1722      8202      9076     11318
 -1      7983    6    0    1
 -2      3614       318       319      6429      4139       418      4140      9575     12191     10941
 -1      7984    6    0    1
 -2      1577      1431      1268      6282      2910      2358      3166     11799     10652     11800
 -1      7985    6    0    1
 -2      3576      3582      3771      6234      5116      4296      5117      9033     12077      6823
 -1      7986    6    0    1
 -2      6153      6281      6031      6511     10228     10375      9604     10701      6704     12559
 -1      7987    6    0    1
 -2      6062      6232      6178      6374     12185     12044     10807     12188     12189     10857
 -1      7988    6    0    1
 -2       163      5518      3550      3406      5668      8077      3865      3861      8076      3867
 -1      7989    6    0    1
 -2      6171      6248      6074      6353     10397      9825      6604      8864     11955     12560
 -1      7990    6    0    1
 -2      6022      6062      6101      6161      9762     11176      9277     11239     12284     12561
 -1      7991    6    0    1
 -2      5501      6472      6093      6532     11828     11525     11156     11853     12502     11852
 -1      7992    6    0    1
 -2      1489      1273      1350      6534      3182      3183      2139     10521     10778     11677
 -1      7993    6    0    1
 -2      1062       261       260      6309      1789       360      1790      8797      9350      7092
 -1      7994    6    0    1
 -2      1370      1092      1565      5439      2256      1707      2005     12562     12564     12563
 -1      7995    6    0    1
 -2       507      3515      6325      6495     11983     12364     12183     11984     11165     10296
 -1      7996    6    0    1
 -2      5435      5509      1347      6253      5644     11612     12541     11894     11615     11616
 -1      7997    6    0    1
 -2      5524      5435       135      1526      5641      5640      5636      9637     11964      1680
 -1      7998    6    0    1
 -2      6017      6284      6264      6503      8265      9253      7895     10648     10488     12565
 -1      7999    6    0    1
 -2      1419       273       272      6530      1825       372      1826      8771      7603      8770
 -1      8000    6    0    1
 -2       247      6362      1389      6524     10496     10497      1751      9386     11898      9385
 -1      8001    6    0    1
 -2      6165      6288      1205      6398     10335      8004     10140      9543     11012     11015
 -1      8002    6    0    1
 -2      6183      6275      3478      6526      7555      7556      7553     11653     12479     11387
 -1      8003    6    0    1
 -2      5250      5418       558       577      9977      8831     11876     11815     11911       721
 -1      8004    6    0    1
 -2      6026      6427      6426      6481     12323      9524     11299      9445     12445     12444
 -1      8005    6    0    1
 -2      3390      3675      3637      6449      4042      4253      4254     11380     11076      8510
 -1      8006    6    0    1
 -2      6092      6370      6369      6448      8323     10932     12315      8505     10293      9208
 -1      8007    6    0    1
 -2      6149      6152      6084      6301     11881     11864     11520     11883     11882     12566
 -1      8008    6    0    1
 -2      1106      6247      6282      6528      7441     11158     10650     10653      7287     10655
 -1      8009    6    0    1
 -2      1346       130      5441      1440      1663      5625     12088      1667      1666     12051
 -1      8010    6    0    1
 -2      6037      6193      6105      6434     10129      7983     10835     12408     11082     10475
 -1      8011    6    0    1
 -2      5539      5447        23       454      5610      5609      5604      9847     10470       456
 -1      8012    6    0    1
 -2       468      1478       539      6484     12524     12567       676     10101     10522     12568
 -1      8013    6    0    1
 -2      6187      6422      6227      6423      8936      8251     12569     11127     11906     11402
 -1      8014    6    0    1
 -2      1195      6342      6136      6444      8281      8282      7599      9175     10364     10235
 -1      8015    6    0    1
 -2      6261      6420       585      6438      8421     12331     12330     11161     12333     12570
 -1      8016    6    0    1
 -2      3687      3427      3702      6456      4313      4435      4437     12056     10165      9758
 -1      8017    6    0    1
 -2      6028      6078      6063      6440      6905      6904      6906      7461      9774      7463
 -1      8018    6    0    1
 -2      6126      6207      6109      6302     12256     12014     10582     12019     11703      9902
 -1      8019    6    0    1
 -2      6376      6430      3640      6523     12122     11292     11671     10415     11294      9457
 -1      8020    6    0    1
 -2      3381      6302      3649      6318      9999      9901      4211     11489     11925     11409
 -1      8021    6    0    1
 -2      6108      6119      6038      6135      6716      7327      6903     12076     12401     11266
 -1      8022    6    0    1
 -2      6066      6107      6405      6473      8604     10385     12380     11304     10535     11963
 -1      8023    6    0    1
 -2      5539      5491      5489      6390      5734      5989      5804      8609     10543      9069
 -1      8024    6    0    1
 -2      3610      3409       320      6298      4147      4143      4145     12571      9303     10948
 -1      8025    6    0    1
 -2      1499      1502      1055      6306      2080      2077      2078      9964     10904     10902
 -1      8026    6    0    1
 -2      6073      6168      6157      6196      8513     12321      7022     12572      9373     12573
 -1      8027    6    0    1
 -2      6056      6082      6292      6492      7933     11973      8442     10910     10911     11609
 -1      8028    6    0    1
 -2      6019      6351      6319      6410     10963      9359      7562     11899     11900     12221
 -1      8029    6    0    1
 -2      3745      3445      3797      6387      4544      4522      4545     11208      6917      6916
 -1      8030    6    0    1
 -2       554       578       514      6312      1009      1010       985     11623     10078     10727
 -1      8031    6    0    1
 -2      6270      6313      6120      6443      9220      9104      9038     10791      9106      9107
 -1      8032    6    0    1
 -2      5495      5541      5497      6204      5740      5997      5996     12343     12091      9342
 -1      8033    6    0    1
 -2      3573      3691      3481      6254      4748      4571      4746     11152     10570     10571
 -1      8034    6    0    1
 -2      1515      6246      6215      6277      9854     10692      9647      9154      8916     12146
 -1      8035    6    0    1
 -2      3748      3504      3549      6218      4855      4700      4856     10144      8538     11036
 -1      8036    6    0    1
 -2      6192      6076      6398      6501      9541      9544      9545     11047     11171      9133
 -1      8037    6    0    1
 -2      6068      6431      6114      6490     11626     12301     12287     11832     12414     12574
 -1      8038    6    0    1
 -2      1281      1502      1284      6306      3201      3200      2822     11680     10904      8986
 -1      8039    6    0    1
 -2      1500      1553      1176      6237      2712      2636      2710     12008      6977      7053
 -1      8040    6    0    1
 -2      6278      6418      6155      6419     12350     11921     12361      7616     11661     10959
 -1      8041    6    0    1
 -2      6109      6075      6151      6207      8413      7670      7784     12014     12255     12015
 -1      8042    6    0    1
 -2      1122      1268      1113      6488      2368      2357      2366     12575     12576     12037
 -1      8043    6    0    1
 -2      6031      6122      6247      6511     11521     10617      9496     12559      6702     12577
 -1      8044    6    0    1
 -2      5523      5486      5559      6284      5940      5982      5878     11481     12382     10043
 -1      8045    6    0    1
 -2      1366      1134      1241      6497      2348      2481      2483     10473      8549      9237
 -1      8046    6    0    1
 -2      3588      6402      3593      6514     10424     10525      4383     11980     12144     11979
 -1      8047    6    0    1
 -2      1078       318      1391      6459      1964      1960      1965      8190      8983      8984
 -1      8048    6    0    1
 -2      6059      6385      6205      6481     12348     10408     12346     12489      7966     12209
 -1      8049    6    0    1
 -2      1277      1541      1301      6315      3192      2766      3191      9582     10723     11877
 -1      8050    6    0    1
 -2      6093      6472      6305      6532     11525     11526     11523     11852     12502     12495
 -1      8051    6    0    1
 -2      1088      5441      1440      6460     12050     12051      1665     12128     12578     12215
 -1      8052    6    0    1
 -2      6059      6072      6304      6427     12579     10370     11557     10064     10824     11842
 -1      8053    6    0    1
 -2      1222      6394      6157      6506     10104     12580      8031     10714     12384      8912
 -1      8054    6    0    1
 -2      1350      6525      6262      6534     11003      7636     12304     11677     12204      9486
 -1      8055    6    0    1
 -2      3554      6152      3568      6202      8803     12388      4718      9851     11596     11017
 -1      8056    6    0    1
 -2      3436      6294      3700      6533     11039     12581      4489     12526     11934     12525
 -1      8057    6    0    1
 -2      6154      6286      6198      6486      9698     10716     10785      8403      9836     11233
 -1      8058    6    0    1
 -2      3799      6245      6244      6442     10666      9383      7808     11618     10347      9400
 -1      8059    6    0    1
 -2      6102      6359      6221      6364      7893      9442      6810      7032      8974      7604
 -1      8060    6    0    1
 -2      6018      6363      6212      6452      9779     10955     10520      8594     12583     12582
 -1      8061    6    0    1
 -2      3578      3518      3475      6248      4710      4709      4711      7470     11735      7182
 -1      8062    6    0    1
 -2      1127      1157      1156      6457      2441      2440      2434      6938      7844     10524
 -1      8063    6    0    1
 -2      1312      1562      6242      6374      3302     12399     10008     10254     10717     10859
 -1      8064    6    0    1
 -2      6269      6321      1194      6444      9187     12264      8136     12225     11619     10234
 -1      8065    6    0    1
 -2       248      1389      6362      6524      1750     10497     12345      8093      9385     11898
 -1      8066    6    0    1
 -2      3501      6387      3624      6464     12335     11595      4843     12584     12523     11400
 -1      8067    6    0    1
 -2      3652      3653      3760      6482      4230      5015      5149      9266     10951      7332
 -1      8068    6    0    1
 -2       526       562       469      6500       810       811       808     12026      9973     11276
 -1      8069    6    0    1
 -2      5536      5500      5443      6500      5784      5782      5785     12153     12154     12416
 -1      8070    6    0    1
 -2      3391      3673      3770      6496      4018      4261      4260      9899      7338      9898
 -1      8071    6    0    1
 -2      5402      5401      5400      6476      5416      5415      5414      7390      9148     11637
 -1      8072    6    0    1
 -2       470      3590       546      6317     12585      8858       690     12586     11451     12587
 -1      8073    6    0    1
 -2       488       504       485      6445       893       894       890      9972     11908     11909
 -1      8074    6    0    1
 -2      5553      6264      5486      6510      9254     10594      5976     10455      9676     12588
 -1      8075    6    0    1
 -2       454       472        11       473     11589       631       455     10469       634       635
 -1      8076    6    0    1
 -2      6098      6051      6330      6515     10989      9384      8810     10689      9404      9566
 -1      8077    6    0    1
 -2      3464      3462      3712      6365      4637      4639      4638      9034     11543     10631
 -1      8078    6    0    1
 -2       248       249      3617      6524       348      3930      3929      8093      8094     10439
 -1      8079    6    0    1
 -2      3459      3709      3457      6265      4612      4611      4609     11112     11457     11458
 -1      8080    6    0    1
 -2      1426      1288      6323      6391      3076      7890     11285     10451      9416      9415
 -1      8081    6    0    1
 -2      3756      6272      3616      6346      9260     10612      4999     11414      9182     11652
 -1      8082    6    0    1
 -2      1372      1324      1500      6525      3327      3325      2711     11737     11002     12009
 -1      8083    6    0    1
 -2      6226      6437       505      6438     11279     12119     12208     10518     12590     12589
 -1      8084    6    0    1
 -2      5466      5471      5455      6283      5845      5844      5836      7865      7550      7640
 -1      8085    6    0    1
 -2       303      3659      6302      6356      4094      9226     12522     10667      8377     12022
 -1      8086    6    0    1
 -2      5487       197      5287      6476      5701      5326      7826      8127     12550      7389
 -1      8087    6    0    1
 -2      1425      6177      6377      6483     11311     10611      8554     10338     12367     11488
 -1      8088    6    0    1
 -2      6106      6306      6158      6308      9333     11136      7372     12591     10665     11332
 -1      8089    6    0    1
 -2      6257      6408      5500      6500      7783     11935     10817      9975      8307     12154
 -1      8090    6    0    1
 -2       507       508       509      6325       780       989       990     12183      7658     10072
 -1      8091    6    0    1
 -2      1311      1234      6266      6370      2969      7760     11949     10257      7384      7762
 -1      8092    6    0    1
 -2      5385       222      5526      5383      5394      5733      9128      5397      5392      9129
 -1      8093    6    0    1
 -2      6138      6258      6075      6288     10888     12025      6995      8105     12403      8104
 -1      8094    6    0    1
 -2      6130      6306      6276      6474      9089     11439     11501      9090      9091      9411
 -1      8095    6    0    1
 -2      1151      1149      6271      6512      2553      7412     11957     11958      9150      9151
 -1      8096    6    0    1
 -2      6138      6205      6087      6329      9356     10407     10177      9375     11373     12300
 -1      8097    6    0    1
 -2      3424       524      3739      6350     12592     12066      3844     11759     12291     11181
 -1      8098    6    0    1
 -2      1469      6192      1568      6501     10281     11778      2415     11046     11047      9134
 -1      8099    6    0    1
 -2      1240      1239      1259      6372      3031      3035      3034      7767      8664      7143
 -1      8100    6    0    1
 -2      1097      1590      6366      6384      2278     12109     10750     10070     11538     10752
 -1      8101    6    0    1
 -2      6228      6356      3644      6522     11094      8375     11093     12534     11719      8033
 -1      8102    6    0    1
 -2      5521       199      5288      6383      5708      5330     12527     12275     12276      9491
 -1      8103    6    0    1
 -2       503       548       566      6176       962       968       967     12341      9770     12058
 -1      8104    6    0    1
 -2      3397      3670       299      6373      4084      4080      4082      8586      9597      6846
 -1      8105    6    0    1
 -2      3621      6396      6200      6482      8124     10758     11148      9919     12515     11150
 -1      8106    6    0    1
 -2       502       501       497      6479       946       928       945     12593      8152     11932
 -1      8107    6    0    1
 -2      1112      1280      1474      6354      2351      2363      2362      9721      7828      7729
 -1      8108    6    0    1
 -2      6336      6433      6188      6497     11013      7958      6926     12241      9239     11841
 -1      8109    6    0    1
 -2      3394       243      3608      6249      3912      3914      3916     12594      7671     11545
 -1      8110    6    0    1
 -2      1310      1558      1360      6263      3294      3017      2886     10220      8008      7077
 -1      8111    6    0    1
 -2      3420      3419      3401      6463      4304      3879      4305     10952     11007     12595
 -1      8112    6    0    1
 -2      1330      6273      1253      6364     10605     10606      3020     12303     11424     12224
 -1      8113    6    0    1
 -2      1166      6179      6352      6492      6738     11674     11673     10467     10468      9842
 -1      8114    6    0    1
 -2      3538      3533      3537      6201      4992      4984      4993      7911     11422      9294
 -1      8115    6    0    1
 -2      1281      6306      6382      6474     11680      9088     11819     12596      9091      9092
 -1      8116    6    0    1
 -2       579       529      6437      6438       977     12118     12464     12597     12598     12590
 -1      8117    6    0    1
 -2       547      5288        96      6383     12549      5310       734     12277      9491     12271
 -1      8118    6    0    1
 -2      6169      6279      3629      6405     10095      9921      9704     10193     11167     11214
 -1      8119    6    0    1
 -2      6153      6031      6328      6511      9604      9608      9606     10701     12559     10700
 -1      8120    6    0    1
 -2      5553      5485      6472      6510      5977     12356     10619     10455     12486     10621
 -1      8121    6    0    1
 -2      6158      6233      6128      6465      9911      6771      9910     12469     11990     12599
 -1      8122    6    0    1
 -2      1244      6425      1243      6519     12405      7836      2733     12600     12105     10286
 -1      8123    6    0    1
 -2      1392      6259      6297      6379     10403     10404      7734      8660     11484     10973
 -1      8124    6    0    1
 -2      1055      1421      6308      6520      1878      8874      9624     11465     11951     12349
 -1      8125    6    0    1
 -2      1492      1286      1359      6332      3212      3214      3213      8390      9966      7970
 -1      8126    6    0    1
 -2      3691      6147      6254      6494     10568     10572     10570     11352     11370     11354
 -1      8127    6    0    1
 -2      1235      1236      1182      6364      2743      2742      2641      9760     11960      7223
 -1      8128    6    0    1
 -2      5524      5552      5511      6480      5993      6014      5747      8695     11053      8425
 -1      8129    6    0    1
 -2      1542      1323      1433      6433      3323      3324      3050     11334      7956      8855
 -1      8130    6    0    1
 -2       513      5287        94      6476      9296      5304       727      9298      7389     12553
 -1      8131    6    0    1
 -2      3789      6184      3439      6473     12357     11315      4509     12601     10781     12602
 -1      8132    6    0    1
 -2      1555      1528      1067      6253      2144      2143      2140     12353     11688     11614
 -1      8133    6    0    1
 -2       551       491       482      6392       876       874       861      7542      8978      7567
 -1      8134    6    0    1
 -2      3741      6232      3407      6477     10391      8086      4336     11801     11923     10782
 -1      8135    6    0    1
 -2      3464      6241      3491      6365     11797     10705      4642      9034     11074     10698
 -1      8136    6    0    1
 -2      3634      3772      3467      6494      4667      4666      4665     12278     11221     11806
 -1      8137    6    0    1
 -2      6112      6082      6179      6324      8520     12138     11654      8578     10977      7423
 -1      8138    6    0    1
 -2       310      6251      6187      6430      9222      8649      8948     11293      8729      8727
 -1      8139    6    0    1
 -2       472      6475      5401      6476     10753     12603     12604     11360      9409      9148
 -1      8140    6    0    1
 -2      3696      6473      3449      6494     12471     12605      4511     11222     12294     12516
 -1      8141    6    0    1
 -2      6098      6344      6194      6515      8731      9562      9561     10689     10690     10996
 -1      8142    6    0    1
 -2      3502      3624      6209      6464      4842      9250     10507     12501     11400      9204
 -1      8143    6    0    1
 -2      1556      1338      1226      6534      2977      2976      2978     12115     11679     11998
 -1      8144    6    0    1
 -2       225      5446      5402      5400      5606     11634      5411      5409     11635      5414
 -1      8145    6    0    1
 -2      1489      1350      6262      6534      2139     12304      8642     10521     11677      9486
 -1      8146    6    0    1
 -2      3763      3646      6381      6468      4873     11994     12606     12607     12609     12608
 -1      8147    6    0    1
 -2      1152      1153      1154      6512      2571      2579      2578     11037     11856     11854
 -1      8148    6    0    1
 -2      6081      6190      6114      6274     10379     12289     12288     12610      8486     10726
 -1      8149    6    0    1
 -2       472       454      5401      6475     11589      5407     12604     10753     10573     12603
 -1      8150    6    0    1
 -2      5552      5528      5488      6433      5983      5959      5984     11511     11186     11594
 -1      8151    6    0    1
 -2      6024      6330      6042      6385      7963      8809      6814      7728      7964      7580
 -1      8152    6    0    1
 -2      6068      6201      6200      6482      7099      8244      9737     12507     11089     11150
 -1      8153    6    0    1
 -2      6059      6192      6076      6471     10148      9541     12347     10149     10150      9696
 -1      8154    6    0    1
 -2      1153      6441      6267      6512     12048     12049      9703     11856     11962     11855
 -1      8155    6    0    1
 -2      6081      6274      6114      6416     12610     10726     12288     12504     10560      9643
 -1      8156    6    0    1
 -2      1077      6272       246      6273     11044      8020      1748     10866     11508      8035
 -1      8157    6    0    1
 -2      6021      6406      6264      6510      8773      7629      8886     10538     12310      9676
 -1      8158    6    0    1
 -2      5401      6475      5400      6476     12603     12339      5415      9148      9409     11637
 -1      8159    6    0    1
 -2      5507      5441       130      1088      5626      5625      5621     12196     12050      1661
 -1      8160    6    0    1
 -2      6088      6175      6078      6368      6622      6623      6621     10489      9011     10200
 -1      8161    6    0    1
 -2      3533      3531      6201      6513      4983     11421     11422     12611     11709     12205
 -1      8162    6    0    1
 -2      3749      3465      6164      6417      4655     11861      9493     11124     11125     10831
 -1      8163    6    0    1
 -2      1332      6253      6150      6361     12352     12612      7040     10869     11880     10868
 -1      8164    6    0    1
 -2       554       514      6295      6312       985     12274     11711     11623     10727     11710
 -1      8165    6    0    1
 -2      6086      6149      6136      6342     12485     11519     10427     10098     12613      8282
 -1      8166    6    0    1
 -2      6153      6155      6015      6452     10811      7685      9833      8592     10813     11725
 -1      8167    6    0    1
 -2      3401      5470      3729      6463     12614     12615      3883     12595     12150     10133
 -1      8168    6    0    1
 -2       321      6298      6478      6507     11235     11236      6990     11808     12375     12616
 -1      8169    6    0    1
 -2      5435      5511      5510      6253      5746      5745      5744     11894      8424      8171
 -1      8170    6    0    1
 -2      1094      1551      6312      6366      2258      8794     10325     11212      7898     10772
 -1      8171    6    0    1
 -2      3450      6147      3691      6494     11054     10568      4570     12434     11370     11352
 -1      8172    6    0    1
 -2      1200      1282      1198      6382      2826      2825      2823     11533     11531     10405
 -1      8173    6    0    1
 -2      1524       305      1534      6522      1925      1921      1926      8761      8034     10883
 -1      8174    6    0    1
 -2      5455      5454      5466      6283      5832      5837      5836      7640     11578      7865
 -1      8175    6    0    1
 -2      3599      3600      3597      6327      5136      5135      3901      8751     10210     12233
 -1      8176    6    0    1
 -2      6051      6285      6330      6387     12617     11173      9384      9878     11331     12618
 -1      8177    6    0    1
 -2       589       534       476      6340       845       843       754     12250      8347      9508
 -1      8178    6    0    1
 -2       497       492       481      6502       871       862       870     10221      9883      9884
 -1      8179    6    0    1
 -2      1161      1213      1471      6501      2622      2631      2630      9062      8051      9061
 -1      8180    6    0    1
 -2      1253      1252      1182      6364      2746      2716      2744     12224     10226      7223
 -1      8181    6    0    1
 -2      1422       286      1041      6310      1868      1864      1869      9731     12178      9273
 -1      8182    6    0    1
 -2      1309      1310      1209      6422      2885      2884      2759      8845      9007      9369
 -1      8183    6    0    1
 -2      6330      6387      6285      6464     12618     11331     11173      9206     12523     12148
 -1      8184    6    0    1
 -2      1434      6236      1371      6509     12429      6839      2724     12619      7321      8873
 -1      8185    6    0    1
 -2      6017      6503      6264      6516     10648     12565      7895     11406     12410     11264
 -1      8186    6    0    1
 -2      3623      6339      3638      6407      9521     12620      5155     11721     12621     11723
 -1      8187    6    0    1
 -2      6061      6166      6102      6395      8379      8054      9872     11062     11063     10764
 -1      8188    6    0    1
 -2      6150      6280      6071      6439     10640      7220     10638     10565     10741     12622
 -1      8189    6    0    1
 -2      6264      6503      6284      6516     12565     10488      9253     11264     12410     12623
 -1      8190    6    0    1
 -2      1341      1288      1504      6436      3225      3227      3226      9247      6785     12286
 -1      8191    6    0    1
 -2      6278      6418      6020      6452     12350      6536     11696     12481      6541      6539
 -1      8192    6    0    1
 -2      3528      3577      3525      6314      4952      4945      4950     10156     10157     12001
 -1      8193    6    0    1
 -2       580       530       561      6226      1037       980      1012      9818     10513     11335
 -1      8194    6    0    1
 -2      1440      6447      6132      6460      9871     10801     10711     12215     12513      8686
 -1      8195    6    0    1
 -2      6080      6266      6126      6356     11836     12624     10581     12472     12137     12020
 -1      8196    6    0    1
 -2      6134      6421      6268      6530      9776     10386     12217     12625     10388     10389
 -1      8197    6    0    1
 -2      5495      5434      5541      6204      5738      5741      5740     12343      9881     12091
 -1      8198    6    0    1
 -2      3384      3620      3690      6353      4129      4224      4223     11369     11917     11192
 -1      8199    6    0    1
 -2      6049      6418      6278      6419     10299     12350      8678     10550     11661      7616
 -1      8200    6    0    1
 -2      6101      6137      6022      6161     12031     10925      9277     12561     10940     11239
 -1      8201    6    0    1
 -2      1116      1115      6292      6458      2338      7174     11771     12236      9433      9434
 -1      8202    6    0    1
 -2      1257      1194      1276      6444      2802      2803      2805      9174     10234     12266
 -1      8203    6    0    1
 -2      3587      6133      3497      6464     10276      8738      4819     12500      9205      8167
 -1      8204    6    0    1
 -2      6124      6329      6223      6332     12299     11084     11621     10889     11417     11435
 -1      8205    6    0    1
 -2      1170      1159      1161      6304      2619      2617      2620     10773     11347     10961
 -1      8206    6    0    1
 -2      6044      6057      6393      6531     10634     11160      8195     11210     10756     12626
 -1      8207    6    0    1
 -2      1129      6292      6230      6458     11607     11606     11608     12235      9434      9199
 -1      8208    6    0    1
 -2      6347      6413      6141      6463     11199      9094     10828      9751     10479     10477
 -1      8209    6    0    1
 -2       535      1579       468      6525     12627      8777       673     12628     11748     11868
 -1      8210    6    0    1
 -2      5527      6345      6253      6532     12629     12354     12630     12631     12632      8176
 -1      8211    6    0    1
 -2      1112      1114      1113      6354      2360      2359      2355      9721     10552     10553
 -1      8212    6    0    1
 -2       511       527       540      6022      1004      1007       998     10352      9763     10971
 -1      8213    6    0    1
 -2      1129      6230      1547      6458     11608     10116      2383     12235      9199     12230
 -1      8214    6    0    1
 -2      3503      3727       290      6520      4057      4053      4055      9960      9961     11466
 -1      8215    6    0    1
 -2      3419      5470      3401      6463     12149     12614      3879     11007     12150     12595
 -1      8216    6    0    1
 -2       502      6195      6261      6479     11663      8418     11664     12593      8153     11667
 -1      8217    6    0    1
 -2      3722       294      3586      6316      4065      4067      4069     11242      8336      8847
 -1      8218    6    0    1
 -2      3605       242      3394      6455      3909      3911      3913      8746      9634      9635
 -1      8219    6    0    1
 -2      3701      6376      3579      6430     12633      8615      5124     10053     12122     10052
 -1      8220    6    0    1
 -2      3518      3517      6248      6353      4708     11584     11735      8393     11350     11955
 -1      8221    6    0    1
 -2       550        31      1522       519       663      1626      6656       664       659      9321
 -1      8222    6    0    1
 -2      6189      6292      6082      6324      8443     11973      7935     11407      9985     10977
 -1      8223    6    0    1
 -2      6202      6365      6152      6466      9229     10632     11596     11867     12634     11866
 -1      8224    6    0    1
 -2      1247      1426      1288      6323      3077      3076      3075     10551     11285      7890
 -1      8225    6    0    1
 -2      1426      1417      1520      6391      2012      3082      3229     10451      7621     10452
 -1      8226    6    0    1
 -2      6203      6366      1590      6384      9538     12109     10154     11889     10752     11538
 -1      8227    6    0    1
 -2      6111      6392      6154      6445      8309     11470     11893      6575     11941     11942
 -1      8228    6    0    1
 -2      3708      5481      5437      6299      9843      5676     12635      8466      9845     11988
 -1      8229    6    0    1
 -2      6081      6210      6274      6416     11248     11250     12610     12504     10877     10560
 -1      8230    6    0    1
 -2      6041      6100      6080      6303      8099     11566      7359      7118      9358     10419
 -1      8231    6    0    1
 -2      6089      6451      6270      6502      7059      9039     10777      7570     10841      9885
 -1      8232    6    0    1
 -2      6049      6278      6145      6294      8678     11695     12470      8679      8680      8870
 -1      8233    6    0    1
 -2      1081      1395      1580      6397      1773      2210      2209      8833      6896      9726
 -1      8234    6    0    1
 -2      6230      6493      1145      6517     11345     11581     10115     11503     11468     11405
 -1      8235    6    0    1
 -2      6217      6290      1142      6425     12636     12556     10001     10002     11137      8362
 -1      8236    6    0    1
 -2      3614      3793      3388      6429      4247      4246      4141      9575     10349      9387
 -1      8237    6    0    1
 -2      6413      6503      6036      6516     10217      8438     10287      9098     12410     12455
 -1      8238    6    0    1
 -2      1442      1278      6231      6517      2341     11572     12466     11403     11747     12637
 -1      8239    6    0    1
 -2      3465      6415      6164      6527     11768      9520     11861     12638     12639      8733
 -1      8240    6    0    1
 -2      6027      6082      6412      6440      8300      8299      7608      7610      9158      7462
 -1      8241    6    0    1
 -2      3463      3461      3462      6337      4631      4624      4632      9689     11878     12640
 -1      8242    6    0    1
 -2      1321      1320      1322      6340      3321      2249      3320     10327      7094     11379
 -1      8243    6    0    1
 -2      6098      6307      6285      6417      7311      8713     10436     11107     10848     11157
 -1      8244    6    0    1
 -2      5518      5483      6241      6341      5965     10027      8078     12011     11910      8228
 -1      8245    6    0    1
 -2      1368      1277      1258      6342      3121      2809      3122      7930      8283     10363
 -1      8246    6    0    1
 -2      1135      1567      1239      6372      2386      2488      2487     11810      8411      8664
 -1      8247    6    0    1
 -2      1157      6189      1156      6457      9012      8007      2440      7844      8445     10524
 -1      8248    6    0    1
 -2      3566      3565      3710      6415      4404      5101      5100      8722      8723     11256
 -1      8249    6    0    1
 -2      3794      3556      6159      6341      5084      8065      7449      9437      8491     11777
 -1      8250    6    0    1
 -2      3731      6314      6325      6495     10511     12252     12543     11163     12254     10296
 -1      8251    6    0    1
 -2      6145      6278      6079      6294     11695      7612      9429      8870      8680     10082
 -1      8252    6    0    1
 -2      1465      1203      1201      6398      2842      2841      2843     11355     11011      9015
 -1      8253    6    0    1
 -2      6065      6434      6336      6497     10311     10618      7482     12641     10476     12241
 -1      8254    6    0    1
 -2      3608       244      3613      6249      3915      3917      3919     11545      7187     10239
 -1      8255    6    0    1
 -2      3616      6272      6129      6346     10612     10891      7508     11652      9182     10561
 -1      8256    6    0    1
 -2      1181      1584      6416      6441      2696      7334     10739     12454     10023     12086
 -1      8257    6    0    1
 -2      3603      3683      3536      6455      4273      5004      5007      9051      8955      8956
 -1      8258    6    0    1
 -2      3517      3612      3552      6250      4911      4910      4714     11585     12517     10656
 -1      8259    6    0    1
 -2      6255      6268      6134      6421     12202     12217     10260     11441     10386      9776
 -1      8260    6    0    1
 -2      1463      1121      1138      6461      2410      2408      2411     11588     10265     10266
 -1      8261    6    0    1
 -2       448      5249      5366      5367     12642     12643      5376      5371     12644      5381
 -1      8262    6    0    1
 -2      3530      3567      3545      6291      4980      4979      4976      8397     10203     10161
 -1      8263    6    0    1
 -2      3396      3646      6228      6381      4284     12417     12533     11993     11994     12645
 -1      8264    6    0    1
 -2      3748      3549      3784      6218      4856      5068      5070     10144     11036      7813
 -1      8265    6    0    1
 -2      5251      5366      5249      5367     11306     12643      5276     11343      5381     12644
 -1      8266    6    0    1
 -2      6140      6449      3723      6450      8509      9856      9059     11684     11121      8788
 -1      8267    6    0    1
 -2      6081      6090      6210      6416     11246     11247     11248     12504     12078     10877
 -1      8268    6    0    1
 -2       500       569       568      6389       601       957       793     11587     11475     12298
 -1      8269    6    0    1
 -2      6135      6182      6088      6311     11267      8465     11344     12046     12647     12646
 -1      8270    6    0    1
 -2      3428      6243      3583      6533      9993     11926      4438     12648      9264     12484
 -1      8271    6    0    1
 -2      6062      6161      6064      6172     12284      7587      9021      9022     12649      9023
 -1      8272    6    0    1
 -2      1288      6391      1504      6436      9416     11295      3227      6785      9417     12286
 -1      8273    6    0    1
 -2      5498      3738      5437      6299     11813     11987      5679     11814     10769     11988
 -1      8274    6    0    1
 -2      6050      6395      6061      6410     11064     11062      8378      8654     11901      8119
 -1      8275    6    0    1
 -2       466      6313       542      6456     12054      8623       795     12057      8625      8218
 -1      8276    6    0    1
 -2       329      3598      6238      6402      4170      9176      9941     10623      9785     12411
 -1      8277    6    0    1
 -2      3741      3678      6222      6327      5133     10693     11974     10208     10209     11262
 -1      8278    6    0    1
 -2       502       497      6195      6479       945      8324     11663     12593     11932      8153
 -1      8279    6    0    1
 -2      1058      1574      5493      6433      1678     12650      9682      9005     12448     10169
 -1      8280    6    0    1
 -2      6144      6360      6099      6435     10873      8891     12651      8213     11707      9970
 -1      8281    6    0    1
 -2      3604      3470      3442      6224      4531      4530      4527      9601      8841     12199
 -1      8282    6    0    1
 -2      1536      6217      1146      6498     10000      9166      2527     11834     11145     11927
 -1      8283    6    0    1
 -2      3731      3680      6314      6495      4906     12005     10511     11163     11164     12254
 -1      8284    6    0    1
 -2      5484      6058      5483      6510      8066     10429      5967      9674      9675     10318
 -1      8285    6    0    1
 -2      6285      6387      6051      6403     11331      9878     12617     11072      7137      9877
 -1      8286    6    0    1
 -2      1526       134      5524      1058      1679      5637      9637      1681      1677      8693
 -1      8287    6    0    1
 -2       451      5208      5214      5212     12226      5247     12227     11966      5244      5230
 -1      8288    6    0    1
 -2      5500      6408      5505      6500     11935      7310      5783     12154      8307      8314
 -1      8289    6    0    1
 -2       531      6408       526      6500      7302     11408       809      8306      8307     12026
 -1      8290    6    0    1
 -2      6119      6048      6146      6163      6715      7492     11257      6718      6719     12064
 -1      8291    6    0    1
 -2      1286      6329      1587      6332     12079      9374      3219      9966     11417      9965
 -1      8292    6    0    1
 -2      5557      5480      5528      6336      5962      5958      5752     10882      7323     11185
 -1      8293    6    0    1
 -2      3682      3498      3798      6421      4826      4743      4763     11220     11892     11219
 -1      8294    6    0    1
 -2      6097      6032      6203      6384     10158      8652     10118     11111      9748     11889
 -1      8295    6    0    1
 -2      6139      6266      6263      6448      7063      7759     10142     12652     10292      7018
 -1      8296    6    0    1
 -2      6093      6269      6150      6305      8163      6855      8161     11523     10267     11101
 -1      8297    6    0    1
 -2      5485      6030      6472      6510     12355     11524     12356     12486     10463     10621
 -1      8298    6    0    1
 -2       589       556       499      6340       755       646       956     12250     11288      9395
 -1      8299    6    0    1
 -2      1566      1359      1286      6332      2861      3214      3215      7972      7970      9966
 -1      8300    6    0    1
 -2      3793      3552      3612      6250      5077      4910      4245     10657     10656     12517
 -1      8301    6    0    1
 -2      6125      6248      6067      6265     10109      9307     10837     11191      8890     10412
 -1      8302    6    0    1
 -2      3548      3559      3487      6182      4775      4774      4772      9170     12653     11642
 -1      8303    6    0    1
 -2      1511      1072       139      5513      1700      1696      1698     12441     12440      5648
 -1      8304    6    0    1
 -2      6147      6254      6063      6255     10572     11446      8073      8374     11692      8236
 -1      8305    6    0    1
 -2      3526      3535      3534      6346      4956      4955      4954     11070     11630      9971
 -1      8306    6    0    1
 -2      6036      6045      6164      6516     12263      9577     11804     12455     11263     12004
 -1      8307    6    0    1
 -2      3658      3503       291      6407      4060      4056      4058      8796     12531      9465
 -1      8308    6    0    1
 -2      3446      3496      3451      6285      4551      4550      4549     10444     11328      8712
 -1      8309    6    0    1
 -2      6144      6343      6099      6360      8211     10307     12651     10873     11272      8891
 -1      8310    6    0    1
 -2      6221      6296      1527      6359     11237     10590      9480      9442     11238     12322
 -1      8311    6    0    1
 -2      6070      6187      6376      6523      9435     12121      9954     12654     10719     10415
 -1      8312    6    0    1
 -2      3393      3585      3737      6491      4267      4266      4168     11760     12655     11762
 -1      8313    6    0    1
 -2      3473      3472      3451      6285      4575      4574      4576     12240     12656      8712
 -1      8314    6    0    1
 -2       569       587       516      6389       606      1016      1018     11475      6827     11205
 -1      8315    6    0    1
 -2      6289      6505      6348      6531     10291     12657     12658     10757     12659     11734
 -1      8316    6    0    1
 -2      6108      6052      6217      6425      6787     11143     11708     11028     11390     10002
 -1      8317    6    0    1
 -2      3577      6314      3733      6462     10157     10155      4967     12421     10821      9952
 -1      8318    6    0    1
 -2      1562       460      1074      6242     12660     12451      1651     12399     12661     12398
 -1      8319    6    0    1
 -2      1308      1326      6411      6465      2875     12426     12116     12318     12319     12473
 -1      8320    6    0    1
 -2      6036      6224      6164      6403      9284     10166     11804     10991      9603     10167
 -1      8321    6    0    1
 -2      3617      3786      3410      6524      4353      4352      3931     10439      8059      9547
 -1      8322    6    0    1
 -2      1416      1084      1476      6474      1887      2222      2221      7352      7353      9470
 -1      8323    6    0    1
 -2      6198      6420      6154      6486     10787      8402     10785     11233      7792      8403
 -1      8324    6    0    1
 -2      6068      6326      6199      6490     12662     11040     12386     11832     12554     12509
 -1      8325    6    0    1
 -2      5509      1067      6253      6345     11613     11614     11615     12296     11875     12354
 -1      8326    6    0    1
 -2      3562      3777      3433      6244      4473      4472      4471      9939     10649      7807
 -1      8327    6    0    1
 -2      6118      6034      6208      6443     10822     11535      7780      9203      9864      8368
 -1      8328    6    0    1
 -2      1337      1395      1049      6397      2046      1770      2047      9764      6896      8665
 -1      8329    6    0    1
 -2      6031      6282      6247      6528      9909     11158      9496      8602     10655      7287
 -1      8330    6    0    1
 -2      1356      1480      1047      6404      2036      1785      2037      9009      7002      8617
 -1      8331    6    0    1
 -2      3725      3543      3547      6435      5050      5047      5051      9880     11706      9746
 -1      8332    6    0    1
 -2      6112      6179      6082      6440     11654     12138      8520      9014     11774      9158
 -1      8333    6    0    1
 -2      3569      6298      3409      6507      9304      9303      4345     11570     12375     12663
 -1      8334    6    0    1
 -2      6059      6304      6116      6427     11557      7455      9907     10064     11842     10443
 -1      8335    6    0    1
 -2       285       286      3675      6449       385      4041      4040      8741     12664     11076
 -1      8336    6    0    1
 -2      6071      6136      6305      6439     10428      8944      8186     12622     10661     12110
 -1      8337    6    0    1
 -2      1066        33       461      1324      1629       665     11602      1635      1634     12544
 -1      8338    6    0    1
 -2      1093       519      1057      6312     12106     12665      1623     11669      9322      7437
 -1      8339    6    0    1
 -2      5540      5482      5522      6299      5756      5968      5942     12268      9980      9936
 -1      8340    6    0    1
 -2      1181      6267      1461      6441     11429      9702      2587     12454     12049     12047
 -1      8341    6    0    1
 -2      3396      3570      3644      6228      4282      4281      4102     12533      8581     11093
 -1      8342    6    0    1
 -2      3626       286       287      6450      4043       386      4044      8786     12666      9197
 -1      8343    6    0    1
 -2      1386      6444      6301      6478     12317     10377      8432      6991     12013     12667
 -1      8344    6    0    1
 -2      6124      6075      6258      6373      9120     12025     10887     12668     12669     10135
 -1      8345    6    0    1
 -2      3529      3530      3531      6291      4962      4971      4970      7776      8397     10176
 -1      8346    6    0    1
 -2      6037      6335      6289      6505     10092      8775      9826     11182      9998     10291
 -1      8347    6    0    1
 -2      5283       197      5506      6476      5327      5705     12670     10637     12550     12551
 -1      8348    6    0    1
 -2      5459      5458      6287      6535      5851      8938     11297     10018      8684      8370
 -1      8349    6    0    1
 -2      5530      5473       128      1477      5620      5619      5565     11432     12032      1599
 -1      8350    6    0    1
 -2      3763      3507      3646      6468      4872      4865      4873     12607     12671     12609
 -1      8351    6    0    1
 -2       574       503       496      6350       944       942       792     10729     11415     12672
 -1      8352    6    0    1
 -2      1237      1542      1241      6497      3028      3027      2482     11840     11452      9237
 -1      8353    6    0    1
 -2      6219      6256       498      6358      9055     11280     11224      7731      9353     12257
 -1      8354    6    0    1
 -2      1197      1198      1281      6382      2681      2819      2818      8583     10405     11819
 -1      8355    6    0    1
 -2      1423      6394      1056      6508      9029     12673      1854      8459     10114     11871
 -1      8356    6    0    1
 -2      6059      6471      6385      6481     10149     12165     12348     12489     12674      7966
 -1      8357    6    0    1
 -2      3787      3752      3478      6275      4681      4731      4606     12082     12478      7556
 -1      8358    6    0    1
 -2       315       314      1079      6297       414      1952      1951      6891      7575      9403
 -1      8359    6    0    1
 -2      3747      3510      3783      6202      4878      4883      4885     12362     11018     11016
 -1      8360    6    0    1
 -2      3447      6403      3448      6417     10746     11071      4546     10748     10749     10846
 -1      8361    6    0    1
 -2      1355      1137      1228      6361      2422      2496      2498      9621      9913     11912
 -1      8362    6    0    1
 -2      3544      6234      6144      6360      9535     10691      9769     10874     12675     10873
 -1      8363    6    0    1
 -2      6050      6211      6203      6333      7573     10073      8651      8381      8844      9209
 -1      8364    6    0    1
 -2      1108      1442      6231      6458      2342     12466     12465     12045     12231      7127
 -1      8365    6    0    1
 -2      5457      5459      5458      6287      5852      5851      5847      8204     11297      8938
 -1      8366    6    0    1
 -2      5538      5506      5556      6476      5707      5799      5915     10636     12551     11106
 -1      8367    6    0    1
 -2       564       582       532      6476       941       825       733     10765      9408     12552
 -1      8368    6    0    1
 -2      6094      6129      6090      6362     11453     11245      7029     11848     11849     11755
 -1      8369    6    0    1
 -2      1587      6329      6138      6332      9374      9375      8598      9965     11417     10890
 -1      8370    6    0    1
 -2      3397      6318      6151      6373      7241      9463     10833      8586      8848     12216
 -1      8371    6    0    1
 -2       504       586       485      6198       895       891       894     11907     11132     10786
 -1      8372    6    0    1
 -2      1300      6384      1278      6517     11537     11583      2291     11225     11716     11747
 -1      8373    6    0    1
 -2      6031      6113      6247      6282     10400     10211      9496      9909     10401     11158
 -1      8374    6    0    1
 -2      3606      3392      3747      6470      4159      4264      4263      8193      8191     12437
 -1      8375    6    0    1
 -2      1550      1389      1330      6362      2069      2186      3332     10531     10497     10530
 -1      8376    6    0    1
 -2      3471      6208      3754      6533     11541     11715      4688     10818      6867     11478
 -1      8377    6    0    1
 -2      6217      6425      1291      6519     10002     12676      9548      9549     12105      8416
 -1      8378    6    0    1
 -2      3746       546      3416      6222     12677      8859      3823     11939     12678     12080
 -1      8379    6    0    1
 -2       236      6232      6317      6374      8087     12239      8924     11339     12189     12679
 -1      8380    6    0    1
 -2       331      1086      6180      6402      1999      8064      9729     11327      8641     11812
 -1      8381    6    0    1
 -2      6045      6036      6194      6516     12263     11309      7626     11263     12455     11265
 -1      8382    6    0    1
 -2      6107      6387      6330      6464     10534     12618      9291     11399     12523      9206
 -1      8383    6    0    1
 -2      1122      6192      1268      6488     11779     10279      2368     12575      7230     12576
 -1      8384    6    0    1
 -2      3509      6202      3747      6470      6900     12362      4877     10851     10850     12437
 -1      8385    6    0    1
 -2      5520      6159      3588      6402     12462      8497     12142     12141     10426     10424
 -1      8386    6    0    1
 -2      1066       461      6262      6525     11602     11603     11604     11001     12545      7636
 -1      8387    6    0    1
 -2      1094      1057      1095      6312      2087      2089      2088     10325      7437      6552
 -1      8388    6    0    1
 -2      5440      3729      5470      6463     10132     12615      5685      8561     10133     12150
 -1      8389    6    0    1
 -2      6148      6084      6202      6470     12071     11863     12488     10337     12072     10850
 -1      8390    6    0    1
 -2      6145      6293      6049      6294     11574     12210     12470      8870      8296      8679
 -1      8391    6    0    1
 -2      6140      6158      6310      6450     11683     12181     12680     11684     11685     12207
 -1      8392    6    0    1
 -2      1261      1287      1206      6453      2871      2858      2869      8589      9859      8588
 -1      8393    6    0    1
 -2      3654      6428      3559      6487     12681     12557      5090     11135     12682     11215
 -1      8394    6    0    1
 -2      1236      1330      1253      6364      3021      3020      2745     11960     12303     12224
 -1      8395    6    0    1
 -2      6098      6307      6143      6344      7311      8840      9946      8731     11459      7403
 -1      8396    6    0    1
 -2      6187      6422      1512      6523      8936     11831     10718     10719     12129      7330
 -1      8397    6    0    1
 -2      3517      3612      6250      6353      4911     12517     11585     11350      9587     12370
 -1      8398    6    0    1
 -2       552       587         4      5214       604       605       603      9928     12683      5217
 -1      8399    6    0    1
 -2      6150      6305      6269      6439     11101     10267      6855     10565     12110     10545
 -1      8400    6    0    1
 -2      3605      3603      3601      6455      4271      5143      3910      8746      9051      8745
 -1      8401    6    0    1
 -2      3533      6201      3539      6513     11422      7912      4994     12611     12205      9123
 -1      8402    6    0    1
 -2       461      1324       535      6525     12544     12684       670     12545     11002     12628
 -1      8403    6    0    1
 -2       464      3520       544      6495     12306     12685       696     12307      9269     12686
 -1      8404    6    0    1
 -2      1147      1458      1151      6271      2546      2555      2554      8763     10706     11957
 -1      8405    6    0    1
 -2      1193      1196      1194      6269      2797      2796      2792      7434     12687      8136
 -1      8406    6    0    1
 -2      1244      1291      6425      6519      3063     12676     12405     12600      8416     12105
 -1      8407    6    0    1
 -2      3512      3581      3732      6462      4886      4890      4889     11795     10485     12420
 -1      8408    6    0    1
 -2      3509      3585      3555      6491      4880      4879      4810     10853     12655      9330
 -1      8409    6    0    1
 -2      1074      6242       460      6484     12398     12661     12451     12125     11632     12453
 -1      8410    6    0    1
 -2      3568      3775      3389      6507      4251      4250      4249     11571     11569     11809
 -1      8411    6    0    1
 -2       236      6178      6232      6374      6712     12044      8087     11339     10857     12189
 -1      8412    6    0    1
 -2      3737      3585      6470      6491      4266     11950      7990     11762     12655     10854
 -1      8413    6    0    1
 -2      1475      1537      1253      6273      3104      3103      3102     10604     11241     10606
 -1      8414    6    0    1
 -2       243      6249      3394      6455      7671     12594      3912      9633      9875      9635
 -1      8415    6    0    1
 -2      1477      5473       128      1321     12032      5619      1599      1659     10328      1657
 -1      8416    6    0    1
 -2      6242      6296      6091      6509      9449     11382      9805     10131      9047     12326
 -1      8417    6    0    1
 -2      6294      6504      3700      6533     12688     12689     12581     11934     10819     12525
 -1      8418    6    0    1
 -2      6075      6126      6288      6453     11401     12261      8104     12690     12262     11206
 -1      8419    6    0    1
 -2      3566      3707      3782      6299      5103      4316      4405     11323     11419     10768
 -1      8420    6    0    1
 -2      6175      6277      6246      6368     10153      8916     12691      9011     11213      7559
 -1      8421    6    0    1
 -2      6040      6080      6109      6303      7358     10579      7785      7838     10419      9693
 -1      8422    6    0    1
 -2      6081      6090      6416      6431     11246     12078     12504     11627      7883     12338
 -1      8423    6    0    1
 -2      3493      3715      3491      6241      4795      4794      4646      9968     11507     10705
 -1      8424    6    0    1
 -2       585       512       549      6261      1008       966       904     12330     12394      8417
 -1      8425    6    0    1
 -2      3699      3532      3562      6513      4974      4989      4991      9618      9619     12160
 -1      8426    6    0    1
 -2      3390      3734      6279      6449      4255      9920     12692     11380     11381      8511
 -1      8427    6    0    1
 -2      5385      5539        23       454      8608      5604      5395      5396      9847       456
 -1      8428    6    0    1
 -2      3493      6241      6104      6341      9968      8225      7918      9190      8228      8229
 -1      8429    6    0    1
 -2      1166      6352      1264      6492     11673     10010      2461     10467      9842     12506
 -1      8430    6    0    1
 -2      1181      6416      6267      6441     10739     10068     11429     12454     12086     12049
 -1      8431    6    0    1
 -2      1457      1133      1143      6493      2465      2476      2478     10233     10231     12028
 -1      8432    6    0    1
 -2      5514      6159      6104      6341      9890      9891      6725      8227     11777      8229
 -1      8433    6    0    1
 -2      1519      1424      1498      6377      2010      2940      3286     11534     11491      9058
 -1      8434    6    0    1
 -2      1228      6253      1332      6361     11689     12352      2986     11912     11880     10869
 -1      8435    6    0    1
 -2       473        11       454       565       635       455     10469       636       632      9735
 -1      8436    6    0    1
 -2      6113      6247      6193      6499     10211      8708     10212     10946     11937     11751
 -1      8437    6    0    1
 -2      3559      3654      3666      6428      5090      3988      5089     12557     12681     12480
 -1      8438    6    0    1
 -2      5490      5542      5467      6467      5908      5907      5905     10075      7952      8242
 -1      8439    6    0    1
 -2      6244      6245      3721      6462      9383      9955      9938     10733     10734     11561
 -1      8440    6    0    1
 -2      3441      6184      3789      6473     10780     12357      4508      7727     10781     12601
 -1      8441    6    0    1
 -2      3647      6309       261      6409      9118      9350      3966     11891     12156     12177
 -1      8442    6    0    1
 -2      1094      1097      1362      6366      2262      2265      2264     11212     10750      7975
 -1      8443    6    0    1
 -2      6037      6235      6181      6354      9042      7191      9040     10130      7516      6981
 -1      8444    6    0    1
 -2      1405      1315      1231      6368      2997      2998      1815      7282      8441      6857
 -1      8445    6    0    1
 -2      6070      6183      6376      6430      8100      8616      9954      9436     11440     12122
 -1      8446    6    0    1
 -2       554      6295       506      6358     11711     10905       984     11624      7733     10906
 -1      8447    6    0    1
 -2      6074      6250      6086      6259      7245      8808      7994     12693     12695     12694
 -1      8448    6    0    1
 -2      1524      1048       306      6522      1929      1928      1924      8761      9839     11324
 -1      8449    6    0    1
 -2      6073      6196      6157      6323     12572     12573      7022     11720     11857      8577
 -1      8450    6    0    1
 -2      1372      1500      6237      6525      2711     12008     11775     11737     12009     10899
 -1      8451    6    0    1
 -2      6016      6420      6261      6438     11639      8421      9340      9100     12333     11161
 -1      8452    6    0    1
 -2       528       529       530      6437      1031       976      1032      9860     12118      8121
 -1      8453    6    0    1
 -2      6146      6309      3383      6409     10985      7091      8241     11728     12156     11727
 -1      8454    6    0    1
 -2      6051      6285      6098      6330     12617     10436     10989      9384     11173      8810
 -1      8455    6    0    1
 -2      1133      6290      1143      6493      8975     12555      2476     10231      8234     12028
 -1      8456    6    0    1
 -2      1490      1398      6227      6523      2054      9706      9923     11366     11367     11504
 -1      8457    6    0    1
 -2      5494      5550       195      5282      5617      5698      5699      7509     10168      5323
 -1      8458    6    0    1
 -2      6114      6190      6068      6397     12289     10797     12287      8504      9178     12387
 -1      8459    6    0    1
 -2      3401      3729      3422      6463      3883      4308      4307     12595     10133      8964
 -1      8460    6    0    1
 -2      6122      6499      6247      6511     11936     11937     10617      6702     12431     12577
 -1      8461    6    0    1
 -2      1501      6207      1044      6453     12062      8790      2024     12360     12696     11700
 -1      8462    6    0    1
 -2      1217      1297      1228      6480      2925      2924      2497      8056     11599     11600
 -1      8463    6    0    1
 -2      6369      6393      6092      6448      6563      8451     12315      9208      7038      8505
 -1      8464    6    0    1
 -2      6104      6365      6202      6466      9228      9229      9227      6730     12634     11867
 -1      8465    6    0    1
 -2      3522      6101      6222      6424     12697     12530     10694     10141     12698     12439
 -1      8466    6    0    1
 -2      6226      6319      6032      6410     10517     10159     12094     11278     12221      8655
 -1      8467    6    0    1
 -2      6348      6505      6037      6531     12657     11182     11933     11734     12659     10755
 -1      8468    6    0    1
 -2      1523      1312      1562      6242      3145      3302      2175     12247     10008     12399
 -1      8469    6    0    1
 -2      1244      1290      1291      6519      3061      3064      3063     12600      8415      8416
 -1      8470    6    0    1
 -2      6072      6059      6304      6481     12579     11557     10370     10472     12489     12175
 -1      8471    6    0    1
 -2      3440      3439      3441      6184      4497      4507      4506     11314     11315     10780
 -1      8472    6    0    1
 -2       451      5367      5209       570      5373     11869     11967     11969     12167     11968
 -1      8473    6    0    1
 -2      5283      5287       197      6476      5309      5326      5327     10637      7389     12550
 -1      8474    6    0    1
 -2      6171      6297      3384      6353      6606      8106      7079      8864     11916     11369
 -1      8475    6    0    1
 -2      3558      3544      6360      6409      5042     10874     12699     11376     11377     12381
 -1      8476    6    0    1
 -2      3741      6222      3591      6232     11974     11975      5134     10391     12700      7718
 -1      8477    6    0    1
 -2      6420      6486      6198      6529      7792     11233     10787     11640     11426     11427
 -1      8478    6    0    1
 -2      5525      5465      5536      6400      5850      5898      5899      9268     12170     12701
 -1      8479    6    0    1
 -2      5283       532        94      6476     12702       731      5308     10637     12552     12553
 -1      8480    6    0    1
 -2      1369       235       234      6317      1711       334      1712     12260      8925     12259
 -1      8481    6    0    1
 -2      3436      3437      3700      6294      4482      4490      4489     11039     12193     12581
 -1      8482    6    0    1
 -2      3503      6276       291      6407     10480      7668      4056     12531     10275      9465
 -1      8483    6    0    1
 -2       514      6226       561      6295      9817     11335       971     12274     12093     12498
 -1      8484    6    0    1
 -2      1168      1208      1463      6461      2666      2668      2503      7830      7831     11588
 -1      8485    6    0    1
 -2       535       468       553      6525       673       803       804     12628     11868      9810
 -1      8486    6    0    1
 -2      6270      6300      6089      6502     10998     11530     10777      9885     12308      7570
 -1      8487    6    0    1
 -2      6105      6336      6335      6434     12404     12449      9552     10475     10618     12703
 -1      8488    6    0    1
 -2      1317      1339      1311      6266      3300      2107      3011      9517     12136     11949
 -1      8489    6    0    1
 -2      1183      6359      6296      6509     12446     11238      8807     11629      7320      9047
 -1      8490    6    0    1
 -2       520      5282        92       576      6821      5302       725       629     10198       724
 -1      8491    6    0    1
 -2      3746      3520       464      6222      3828     12306     12704     11939     11444     12305
 -1      8492    6    0    1
 -2      5480      5462      5478      6336      5884      5867      5885      7323      9614      9615
 -1      8493    6    0    1
 -2      5498      5437      5540      6299      5679      5755      5757     11814     11988     12268
 -1      8494    6    0    1
 -2      6041      6080      6139      6448      7359     11565      9765      7360      7361     12652
 -1      8495    6    0    1
 -2      6184      6224      6079      6363     11740     12282      9428     10953     11741     12213
 -1      8496    6    0    1
 -2      6239      6278      6049      6418     11697      8678     10014     10300     12350     10299
 -1      8497    6    0    1
 -2       574      6350       496      6456     10729     12672       792      8269     10730     12705
 -1      8498    6    0    1
 -2      3405      3520      3521      6495      3826      4325      4324     12706      9269      9270
 -1      8499    6    0    1
 -2       451      5368      5213      5209      5379     10588     12707     11967     10589      5246
 -1      8500    6    0    1
 -2      3696      3439      3449      6473      4510      4499      4511     12471     12602     12605
 -1      8501    6    0    1
 -2      6030      6466      6021      6510      6729      7433     11705     10463     10272     10538
 -1      8502    6    0    1
 -2      3623      3622      3502      6209      4846      4845      4847      9251     10506     10507
 -1      8503    6    0    1
 -2      3562      3561      3777      6244      4990      5092      4473      9939     11544     10649
 -1      8504    6    0    1
 -2      6076      6205      6138      6398     11170      9356      6997      9544      9017     10240
 -1      8505    6    0    1
 -2      5476      5534      5471      6162      5921      5857      5919     10532      7278      7549
 -1      8506    6    0    1
 -2      3727      3376       289      6520      4054      4050      4052      9961      9947      9948
 -1      8507    6    0    1
 -2      3612      6259      6250      6353      8479     12695     12517      9587     10562     12370
 -1      8508    6    0    1
 -2      3568      6152      3569      6507     12388      8223      4722     11571     11885     11570
 -1      8509    6    0    1
 -2      6109      6302      6228      6356      9902      9225      7866     12021     12022     11094
 -1      8510    6    0    1
 -2      3376      3635      3676      6339      4187      4188      4051     12708     10011     12709
 -1      8511    6    0    1
 -2      6051      6036      6224      6363     10990      9284     11739     10954      8435     11741
 -1      8512    6    0    1
 -2      6133      6223      6087      6316     11443     12114      9593     10900     11372     11977
 -1      8513    6    0    1
 -2      6100      6225      6080      6228     11567     11568     11566     12710     12712     12711
 -1      8514    6    0    1
 -2       320      6298      1390      6478     10948     10949      1966      8348     11236     12194
 -1      8515    6    0    1
 -2      3484      6421      6255      6446     11218     11441      7591      7593     12406      7595
 -1      8516    6    0    1
 -2       512      6261       585      6438     12394     12330      1008     12713     11161     12570
 -1      8517    6    0    1
 -2      5488      5535      5554      6335      5945      5986      5985     11649     12493      9551
 -1      8518    6    0    1
 -2      3696      3789      3439      6473      4512      4509      4510     12471     12601     12602
 -1      8519    6    0    1
 -2      6231      6458      1442      6517      7127     12231     12466     12637     12273     11403
 -1      8520    6    0    1
 -2      3542      3742      3558      6360      5044      5046      5043      7236     10514     12699
 -1      8521    6    0    1
 -2      3748      6218      3784      6375     10144      7813      5070     11780      9242      9240
 -1      8522    6    0    1
 -2      1465      1568      1473      6398      2988      2417      3375     11355      9131      9686
 -1      8523    6    0    1
 -2      3388       317       318      6429      4136       417      4137      9387     10939     12191
 -1      8524    6    0    1
 -2      3509      6470      3585      6491     10851     11950      4880     10853     10854     12655
 -1      8525    6    0    1
 -2      6037      6193      6434      6499     10129     11082     12408     10945     11751     12407
 -1      8526    6    0    1
 -2      1220      1498      1424      6377      2941      2940      1863      8552      9058     11491
 -1      8527    6    0    1
 -2      3377       281      3674      6508      4026      4028      4030      6721      8461     10935
 -1      8528    6    0    1
 -2      1291      1439      1244      6425      3065      2734      3063     12676      8361     12405
 -1      8529    6    0    1
 -2      3430      6245      3799      6442      9867     10666      4444     10358     10347     11618
 -1      8530    6    0    1
 -2      3430      3799      3429      6442      4444      4443      4430     10358     11618      8917
 -1      8531    6    0    1
 -2      1103      1108      1278      6231      2310      2312      2297      6662     12465     11572
 -1      8532    6    0    1
 -2      5286       531        97      6500      7299       741      5317      8305      8306     12714
 -1      8533    6    0    1
 -2      1084      6276      1420      6474      7667     10923      1884      7353      9411     12715
 -1      8534    6    0    1
 -2      5538      5283      5506      6476      9926     12670      5707     10636     10637     12551
 -1      8535    6    0    1
 -2      3436      3583      6294      6533      4468     11038     11039     12526     12484     11934
 -1      8536    6    0    1
 -2       200      5505      5286      6500      5715      7308      5333     12716      8314      8305
 -1      8537    6    0    1
 -2       583       554       506      6358       778       984       988      8169     11624     10906
 -1      8538    6    0    1
 -2      1208      6229      1463      6461      8221     10966      2668      7831      9585     11588
 -1      8539    6    0    1
 -2      3677      3591      3678      6222      4381      5132      4935     11860     11975     10693
 -1      8540    6    0    1
 -2      5437      3403      3708      6299     11986      3871     12635     11988     11989      8466
 -1      8541    6    0    1
 -2      3487      6182      3559      6428     11642     12653      4774     12558      9673     12557
 -1      8542    6    0    1
 -2      1065      6215      1429      6436     11690      9677      2133     10789     10628     10374
 -1      8543    6    0    1
 -2      1235      6267      1236      6364      9471     10066      2743      9760     10164     11960
 -1      8544    6    0    1
 -2      1130      1166      1264      6492      2447      2461      2460      7451     10467     12506
 -1      8545    6    0    1
 -2      1361      6315      1301      6439     10814     11877      3190     10659     10815     11551
 -1      8546    6    0    1
 -2      6064      6249      6220      6455      6952     12111     12717     12718      9875     11505
 -1      8547    6    0    1
 -2       321      6478      6149      6507      6990     12719     12720     11808     12616     11884
 -1      8548    6    0    1
 -2       302      1411      1403      6518      1912      1917      1916      8657      8658     11358
 -1      8549    6    0    1
 -2      6031      6247      6499      6511      9496     11937     12477     12559     12577     12431
 -1      8550    6    0    1
 -2      6111      6154      6286      6445     11893      9698      9567      6575     11942      9570
 -1      8551    6    0    1
 -2      3447      3448      3688      6417      4546      4554      4553     10748     10846     11085
 -1      8552    6    0    1
 -2      5287      5283        94      6476      5309      5308      5304      7389     10637     12553
 -1      8553    6    0    1
 -2      6207      6258      1044      6453     11625      7272      8790     12696     10128     11700
 -1      8554    6    0    1
 -2      3454      3469      3787      6275      4595      4596      4593      8117      9554     12082
 -1      8555    6    0    1
 -2      1261      1501      6453      6518      3135     12360      8589      6570     10282     12721
 -1      8556    6    0    1
 -2      6092      6165      6369      6370      7897     11528     12315      8323      6969     10932
 -1      8557    6    0    1
 -2      1507      6238      6180      6402      7921     10845      8063      8639     12411     11812
 -1      8558    6    0    1
 -2      3602      6161      6327      6455      9987     11646      7010      8945      9874      8946
 -1      8559    6    0    1
 -2      1434      6484      6236      6509     11704      8526     12429     12619     10844      7321
 -1      8560    6    0    1
 -2      6319      6351      6050      6410      9359      6959      7544     12221     11900      8654
 -1      8561    6    0    1
 -2      3503      3796      3638      6407      4851      4850      4849     12531     11722     11723
 -1      8562    6    0    1
 -2      5434      1511      5513      6399      8634     12441      5653      8637      8638     12442
 -1      8563    6    0    1
 -2      1313      1210      1242      6296      2887      2749      2888      9018      6930      8457
 -1      8564    6    0    1
 -2      5208        22       182      5213     12521      5597      5236      5240     12151      5238
 -1      8565    6    0    1
 -2      3516      3700      6504      6533      4493     12689     10441     10820     12525     10819
 -1      8566    6    0    1
 -2      6086      6149      6342      6478     12485     12613     10098     12722     12719     12332
 -1      8567    6    0    1
 -2      3706      3463      3492      6337      4634      4643      4645     11736      9689      8620
 -1      8568    6    0    1
 -2      6088      6367      6311      6368     11953     10745     12646     10489      7418      8878
 -1      8569    6    0    1
 -2      6080      6109      6228      6356     10579      7866     12711     12472     12021     11094
 -1      8570    6    0    1
 -2      6189      6324      6157      6506     11407      8579      8570      8673     11356      8912
 -1      8571    6    0    1
 -2      3705      6415      3465      6527     12723     11768      4601     12290     12639     12638
 -1      8572    6    0    1
 -2      5462      5459      5478      6535      5864      5868      5867     11559     10018     11560
 -1      8573    6    0    1
 -2      3630      3674       282      6508      4033      4029      4031     10936     10935     11996
 -1      8574    6    0    1
 -2      3396      6381      6228      6522     11993     12645     12533     11773     12038     12534
 -1      8575    6    0    1
 -2      5254      5367       572       571     12242     12724     12725     12251     12244       718
 -1      8576    6    0    1
 -2       505      6437       529      6438     12119     12118       974     12589     12590     12598
 -1      8577    6    0    1
 -2      6175      6368      6311      6428      9011      8878     12726      9672     11197     11196
 -1      8578    6    0    1
 -2      3443      3445      3446      6403      4520      4533      4532      8564      7138     11073
 -1      8579    6    0    1
 -2      5497      5502      5501      6532      6001      6000      5999     11851     12727     11853
 -1      8580    6    0    1
 -2      1153      1151      1174      6512      2572      2574      2573     11856     11958     12728
 -1      8581    6    0    1
 -2      1235      1461      1353      6267      2594      2739      3019      9471      9702     10067
 -1      8582    6    0    1
 -2       586      6226       505      6438     11131     12208       981     12729     10518     12589
 -1      8583    6    0    1
 -2      6083      6117      6326      6490     10671      9077     11837     11785     11032     12554
 -1      8584    6    0    1
 -2      3440      3700      3437      6504      4498      4490      4496     12510     12689     12512
 -1      8585    6    0    1
 -2      3587      3497      3502      6464      4819      4817      4820     12500      8167     12501
 -1      8586    6    0    1
 -2      3491      3715      3716      6241      4794      4333      4793     10705     11507      6542
 -1      8587    6    0    1
 -2      1372      6237      6236      6525     11775      8821      9454     11737     10899      9245
 -1      8588    6    0    1
 -2      3472      3451      6285      6307      4574      8712     12656     11928      8330      8713
 -1      8589    6    0    1
 -2      1249      1250      1223      6324      2959      2958      2956      6640      8133     10025
 -1      8590    6    0    1
 -2      5541      5515      5497      6093      6004      6003      5997     12168     12475      7367
 -1      8591    6    0    1
 -2      3541      3543      3546      6435      5035      5038      5037      9969     11706      7741
 -1      8592    6    0    1
 -2       238       237      1070      6477       337      1721      1720      9610      8201     11318
 -1      8593    6    0    1
 -2      6148      6238      3393      6491     10366      7204      7052     11761     12060     11760
 -1      8594    6    0    1
 -2      1378      6320      1299      6388      7618      9652      3262     10348     12163     12415
 -1      8595    6    0    1
 -2       451      5368      5208      5213      5379     12520     12226     12707     10588      5240
 -1      8596    6    0    1
 -2      3591      3416       546      6222      4378      8859      8857     11975     12080     12678
 -1      8597    6    0    1
 -2       562       526       491      6257       810       923       924      8764      9507      8977
 -1      8598    6    0    1
 -2      1423      1219      1539      6394      1851      2937      2939      9029      9027      9050
 -1      8599    6    0    1
 -2      6055      6099      6085      6244      9728      9711      7800      9379     12203      9380
 -1      8600    6    0    1
 -2      1403      1591      1468      6518      3369      3139      2112     11358     10297      6571
 -1      8601    6    0    1
 -2      6060      6128      6177      6279      6768     11049     11048     11946     12371     12368
 -1      8602    6    0    1
 -2      3570      3396      3646      6228      4282      4284      4283      8581     12533     12417
 -1      8603    6    0    1
 -2        33       535       461      1324       669       670       665      1634     12684     12544
 -1      8604    6    0    1
 -2      6179      6215      6112      6436      9504     11693     11654      9813     10628     10305
 -1      8605    6    0    1
 -2      3450      3691      3795      6494      4570      4572      4505     12434     11352     12436
 -1      8606    6    0    1
 -2      1336      6301      1386      6444      9377      8432      3340      8246     10377     12317
 -1      8607    6    0    1
 -2      6065      6336      6188      6497      7482      6926      7481     12641     12241     11841
 -1      8608    6    0    1
 -2      5509      5442       137      1325      5647      5646      5642     12295     12496      1693
 -1      8609    6    0    1
 -2      6108      6163      6119      6322      6717      6718      6716     12425     11826     12424
 -1      8610    6    0    1
 -2      6065      6193      6434      6497     12730     11082     10311     12641      9319     10476
 -1      8611    6    0    1
 -2      6054      6030      6084      6466     10547     10548      8941      6654      6729     11865
 -1      8612    6    0    1
 -2      6215      6268      6112      6436     12218     12325     11693     10628     11244     10305
 -1      8613    6    0    1
 -2      6177      6394      1218      6506     11641     10106     10598     11749     12384     12337
 -1      8614    6    0    1
 -2      6138      6288      6076      6398      8105      8103      6997     10240     11012      9544
 -1      8615    6    0    1
 -2      6082      6179      6324      6492     12138      7423     10977     10911     10468     10979
 -1      8616    6    0    1
 -2      6101      6424      3522      6495     12698     10141     12697     10501     10390      9271
 -1      8617    6    0    1
 -2      6152      6202      6084      6301     11596     11863     11864     11882     11142     12566
 -1      8618    6    0    1
 -2       563       477        99      5285       746       743       614      7506      7505      5319
 -1      8619    6    0    1
 -2      1264      1265      1342      6352      2654      3150      3149     10010     10834     10238
 -1      8620    6    0    1
 -2       579      6438      6437      6469     12597     12590     12464     12482     12731     11317
 -1      8621    6    0    1
 -2      6281      6511      6153      6529      6704     10701     10228     10993     11753     10901
 -1      8622    6    0    1
 -2      5555      5450      5499      6349      5815      5726      5816      7170      8627      7756
 -1      8623    6    0    1
 -2       476       581       525      6349       841       842       752      9509      7695      7747
 -1      8624    6    0    1
 -2      3415      6159      5520      6341      7450     12462     12461      9439     11777     12732
 -1      8625    6    0    1
 -2       317      6429      6259      6459     10939     11252      9180      8982     12192     12733
 -1      8626    6    0    1
 -2      6157      6177      6060      6506     12734     11048      8911      8912     11749      8902
 -1      8627    6    0    1
 -2      5477      5475      5548      6463      5933      5934      5918     11065     10478      8814
 -1      8628    6    0    1
 -2      1453      1322      1090      6340      1708      2250      1606     11784     11379     10007
 -1      8629    6    0    1
 -2      1052      1459      1538      6478      2063      2065      2062      6989      9362      9814
 -1      8630    6    0    1
 -2      3791      3426      3425      6350      4424      4423      4417     11411     10662      9848
 -1      8631    6    0    1
 -2      3754      3471      3693      6208      4688      4689      4690     11715     11541     11303
 -1      8632    6    0    1
 -2       285      6310       286      6449      9272     12178       385      8741     12735     12664
 -1      8633    6    0    1
 -2       519        30      1093      1057       660      1622     12106     12665      1618      1623
 -1      8634    6    0    1
 -2      1325      5442      1582      6345     12496     12736      1694     11874     12497     12737
 -1      8635    6    0    1
 -2      6267      6364      6090      6416     10164      7030      7881     10068     11961     12078
 -1      8636    6    0    1
 -2       529       528       527      6437      1031      1026      1006     12118      9860      9918
 -1      8637    6    0    1
 -2      6244      6245      6055      6442      9383      9381      9379      9400     10347     11610
 -1      8638    6    0    1
 -2       278      6197      6196      6496     11374     12391     10323      7339     11375      8253
 -1      8639    6    0    1
 -2      6225      6381      3645      6522     12198     11995      8922      9840     12038     11325
 -1      8640    6    0    1
 -2        25       499       556      1090       645       646       591      1605     10006     11287
 -1      8641    6    0    1
 -2      5210        80      5209       570      5220      5231      5234     12166       715     11968
 -1      8642    6    0    1
 -2      3577      3731      3524      6314      4947      4946      4944     10157     10511     12006
 -1      8643    6    0    1
 -2      1310      6263      1209      6422     10220      7158      2884      9007      8719      9369
 -1      8644    6    0    1
 -2      3587      6209      6133      6464     10030      9108     10276     12500      9204      9205
 -1      8645    6    0    1
 -2      3376      6339      3676      6450     12708     12709      4051     11273     12328     11274
 -1      8646    6    0    1
 -2      3450      3795      3438      6432      4505      4502      4504     11786     12433     10355
 -1      8647    6    0    1
 -2      6026      6386      6427      6481      9444     10065     12323      9445      9446     12445
 -1      8648    6    0    1
 -2       590       488       498      6219       909       907       908     12246      9367     11224
 -1      8649    6    0    1
 -2      3735      6254      6197      6496     11485     11902     10541      9900     11971     11375
 -1      8650    6    0    1
 -2      3474      3748      3671      6375      4703      4705      4078     11781     11780     11365
 -1      8651    6    0    1
 -2      6094      6273      6272      6362     11423     11508     11847     11848     12302     11850
 -1      8652    6    0    1
 -2      6070      6227      6187      6523      6985     12569      9435     12654     11504     10719
 -1      8653    6    0    1
 -2      3597      6327      3741      6477     12233     10208      4337     11802     11981     11801
 -1      8654    6    0    1
 -2      3441      3789      3499      6473      4508      4524      4525      7727     12601     12140
 -1      8655    6    0    1
 -2       311      1050       312      6523      1943      1942       411      9455     10556     10413
 -1      8656    6    0    1
 -2      6025      6239      6038      6343      9829      9943      7822      9234      9629     11174
 -1      8657    6    0    1
 -2      5249      5250        86       448      5272      5271      5267     12642     11817     11818
 -1      8658    6    0    1
 -2      1325      1466      1555      6345      3329      3171      2141     11874      8721      8422
 -1      8659    6    0    1
 -2      6076      6192      6059      6501      9541     10148     12347     11171     11047     11558
 -1      8660    6    0    1
 -2      1267      6204      1557      6388     11597      8629      3163      9074     10978      9308
 -1      8661    6    0    1
 -2      5537      5285       202      5451      7504      5336      5588      5720      7705      5717
 -1      8662    6    0    1
 -2      1051      1401      1391      6379      2057      2056      1962      8662     11575      8904
 -1      8663    6    0    1
 -2      1128      6292      1448      6492     11772      9982      2435     10205     11609     10207
 -1      8664    6    0    1
 -2       302       303      3381      6302       402      4092      4091     11702     12522      9999
 -1      8665    6    0    1
 -2      6227      6422      6187      6523      8251      8936     12569     11504     12129     10719
 -1      8666    6    0    1
 -2      3700      6294      3437      6504     12581     12193      4490     12689     12688     12512
 -1      8667    6    0    1
 -2       469      5284        97      6500     12269      5313       737     11276     12397     12714
 -1      8668    6    0    1
 -2      3440      6184      3442      6504     11314     12200      4513     12510     12511     12212
 -1      8669    6    0    1
 -2      1385      1475      1077      6273      2190      2189      1749      8036     10604     10866
 -1      8670    6    0    1
 -2       321      6149      6301      6507     12720     11883      8433     11808     11884     10112
 -1      8671    6    0    1
 -2      6060      6489      6426      6521      9792     10830      8910     10644     11034     10643
 -1      8672    6    0    1
 -2      6300      6486      6154      6502     11139      8403      9701     12308     12309     11472
 -1      8673    6    0    1
 -2      6037      6105      6335      6434     10835      9552     10092     12408     10475     12703
 -1      8674    6    0    1
 -2      3382      6251      3643      6430     11123      9221      4114     10447      8729     11590
 -1      8675    6    0    1
 -2      6290      6493      6211      6498      8234      8232      8230     11972     12029     10137
 -1      8676    6    0    1
 -2      5197      6390       436      6467      9887      7382      5206      8826      9715     12738
 -1      8677    6    0    1
 -2      1502      6306      1281      6474     10904     11680      3201     12739      9091     12596
 -1      8678    6    0    1
 -2      5546      5366        20       448     12740      5374      5591     12741      5376       450
 -1      8679    6    0    1
 -2      6131      6304      6059      6481     10417     11557     12379     10215     12175     12489
 -1      8680    6    0    1
 -2      1571      1304      6282      6528      2335     10651      9645     10957     10654     10655
 -1      8681    6    0    1
 -2      3457      3458      3459      6265      4602      4610      4609     11458      8889     11112
 -1      8682    6    0    1
 -2      5508      5507      5473      6460      5928      5623      5929     10960     12197     10330
 -1      8683    6    0    1
 -2      6172      6327       239      6477     10009      8750      6749     11095     11981      9611
 -1      8684    6    0    1
 -2      5503      6371      5553      6472     12742      9255      5951     12743     10620     10619
 -1      8685    6    0    1
 -2      3543      6360      6144      6435      9219     10873      9768     11706     11707      8213
 -1      8686    6    0    1
 -2      5494        24      5550      5417      5614      5615      5617      6888      5428     12503
 -1      8687    6    0    1
 -2      6066      6147      6145      6432      9066      8373      7267      7375     11787      7377
 -1      8688    6    0    1
 -2      1390      6459      1437      6478      8189     11177      2191     12194     12744     12067
 -1      8689    6    0    1
 -2      6205      6087      6329      6382     10407     12300     11373      9218      9533     11532
 -1      8690    6    0    1
 -2      6203      6211      6097      6493     10073      7574     10118      9666      8232      9617
 -1      8691    6    0    1
 -2      1278      1300      1099      6384      2291      2290      2288     11583     11537      9710
 -1      8692    6    0    1
 -2      6059      6304      6205      6501     11557     10418     12346     11558      7458      9553
 -1      8693    6    0    1
 -2      1325      6345      1582      6399     11874     12737      1694     11944     10103     11945
 -1      8694    6    0    1
 -2      6020      6212      6145      6278     11803      7269     11319     11696     11844     11695
 -1      8695    6    0    1
 -2      1059      1544      1381      6320      2097      2096      1989     11675      9651      7619
 -1      8696    6    0    1
 -2      5440      5470      5548      6463      5685      5766      5765      8561     12150      8814
 -1      8697    6    0    1
 -2      3596      6232      3779      6317      8085      7719      4334      8923     12239     11395
 -1      8698    6    0    1
 -2       284       285      3390      6449       384      4038      4037      8743      8741     11380
 -1      8699    6    0    1
 -2       463        61      3404      3515       701      3833      9315     12363      3835      3834
 -1      8700    6    0    1
 -2      5443       200      5284      6500      5711      5332     12292     12416     12716     12397
 -1      8701    6    0    1
 -2      3572      3735      3573      6254      5110      5109      4747      8519     11485     11152
 -1      8702    6    0    1
 -2      6079      6155      6278      6363     12745     12361      7612     12213      8482     12746
 -1      8703    6    0    1
 -2      3731      3732      6325      6462      5120     12747     12543     12483     12420     10486
 -1      8704    6    0    1
 -2      6389      6390      6120      6467      6830      8544      7850      9657      9715      8487
 -1      8705    6    0    1
 -2       511       540       509      6101       998       999       997     10353     11175     10500
 -1      8706    6    0    1
 -2      6212      6363      6018      6515     10955      9779     10520      9406      9783      9781
 -1      8707    6    0    1
 -2      3515      3581      3404      6325      4320      4319      3834     12364     10483      9316
 -1      8708    6    0    1
 -2      1317      1589      1339      6266      3312      3311      3300      9517     10402     12136
 -1      8709    6    0    1
 -2      3764      3545      3758      6338      5057      5056      5058     10258      9078     11091
 -1      8710    6    0    1
 -2      6289      6037      6505      6531      9826     11182     10291     10757     10755     12659
 -1      8711    6    0    1
 -2      5465      6257      5536      6400     12169     10277      5898     12170      9942     12701
 -1      8712    6    0    1
 -2      1041      6310      1519      6465      9273     12748      2009     12749     12751     12750
 -1      8713    6    0    1
 -2      6086      6167      6074      6259      7996      7293      7994     12694     12752     12693
 -1      8714    6    0    1
 -2      3579      6376      6183      6430      8615      8616      8365     10052     12122     11440
 -1      8715    6    0    1
 -2       323      3609       322      6301      4152      4151       422      7770      8542      8431
 -1      8716    6    0    1
 -2      6049      6239      6185      6293     10014     10803     12211     12210     11155      8292
 -1      8717    6    0    1
 -2      6277      6421      6134      6530      8692      9776     12753     11077     10388     12625
 -1      8718    6    0    1
 -2      1143      6290      1142      6498     12555     12556      2477     11098     11972     11835
 -1      8719    6    0    1
 -2      6306      6308      6276      6520     10665     12754     11439     12283     12349     12214
 -1      8720    6    0    1
 -2       183      5215      5213      5544      5225      5241      5239      5689     10915     10913
 -1      8721    6    0    1
 -2      6230      6231      6097      6517      8894      8895      8356     11503     12637     12755
 -1      8722    6    0    1
 -2      6121      6200      6146      6396     12097      7490     12336      6837     10758      7885
 -1      8723    6    0    1
 -2      1518      1231      1315      6368      2999      2998      3000      6833      6857      8441
 -1      8724    6    0    1
 -2      5289       563        99      5285      7638       614      5295      5322      7506      5319
 -1      8725    6    0    1
 -2      1119      1140      1118      6331      2390      2389      2369     10034      8528      7715
 -1      8726    6    0    1
 -2      5285       202      5289      5537      5336      5299      5322      7504      5588      7639
 -1      8727    6    0    1
 -2      6124      6373      6332      6375     12668     11118     10889     12756     11119      8618
 -1      8728    6    0    1
 -2      6143      6307      6098      6417      8840      7311      9946     10871     10848     11107
 -1      8729    6    0    1
 -2      1557      1410      1549      6388      3356      3265      3165      9308      7661      9073
 -1      8730    6    0    1
 -2       570      5210        80       571     12166      5220       715       716     12245       608
 -1      8731    6    0    1
 -2      1189      1178      1183      6509      2720      2713      2721      9048     10918     11629
 -1      8732    6    0    1
 -2      5367      5249      5251      5254     12644      5276     11343     12242      5269      5280
 -1      8733    6    0    1
 -2      3731      3732      3581      6325      5120      4890      4903     12543     12747     10483
 -1      8734    6    0    1
 -2      6019      6438      6261      6469      9099     11161      9339     11592     12731     11666
 -1      8735    6    0    1
 -2      3737      6470      6148      6491      7990     10337      6893     11762     10854     11761
 -1      8736    6    0    1
 -2      3437      6294      6184      6504     12193      8871     11313     12512     12688     12511
 -1      8737    6    0    1
 -2      6166      6267      6083      6512      7356     11282     11099     11371     11855     11202
 -1      8738    6    0    1
 -2      1510      1256      1401      6379      3114      3109      2060     10362      8933     11575
 -1      8739    6    0    1
 -2      1196      1194      6269      6321      2796      8136     12687     10432     12264      9187
 -1      8740    6    0    1
 -2      1196      6321      6269      6380     10432      9187     12687      9903     10433      8210
 -1      8741    6    0    1
 -2      3548      3559      6182      6487      4775     12653      9170     11103     11215     12098
 -1      8742    6    0    1
 -2       436        16      5211      5561       438      5222      5224     11554      5579     10809
 -1      8743    6    0    1
 -2      6119      6144      6234      6360     11843     10691     12402     11258     10873     12675
 -1      8744    6    0    1
 -2      5283       564       532      6476      9989       733     12702     10637     10765     12552
 -1      8745    6    0    1
 -2      5526      5491       222      5385      5732      5731      5733      9128     10542      5394
 -1      8746    6    0    1
 -2         4       436      5214       587       437      5218      5217       605      7381     12683
 -1      8747    6    0    1
 -2      5500      5465      5547      6257      5897      5862      5896     10817     12169      6884
 -1      8748    6    0    1
 -2      5444      3588      3773      6514     12313      3856     12757     12314     11980     12311
 -1      8749    6    0    1
 -2      6065      6252      6193      6497     11298      9432     12730     12641     10004      9319
 -1      8750    6    0    1
 -2      6073      6112      6196      6323      7021     12758     12572     11720      8576     11857
 -1      8751    6    0    1
 -2      6072      6427      6059      6481     10824     10064     12579     10472     12445     12489
 -1      8752    6    0    1
 -2       560       502       497      6195       947       945       883      7789     11663      8324
 -1      8753    6    0    1
 -2      6272      6362       247      6524     11850     10496     11043     10892     11898      9386
 -1      8754    6    0    1
 -2       569         4       587      5198       597       605       606     11474      5199     10629
 -1      8755    6    0    1
 -2      6057      6280      6235      6461      7193      7194      7192     11553     11750      9917
 -1      8756    6    0    1
 -2      3650      3768      3765      6318      5194      4864      4287      7239     11410     10093
 -1      8757    6    0    1
 -2      5515      6345      6093      6399     12759      9981     12475     12476     10103      8899
 -1      8758    6    0    1
 -2      6212      6363      6278      6452     10955     12746     11844     12582     12583     12481
 -1      8759    6    0    1
 -2      1281      6382      1476      6474     11819     12760      3198     12596      9092      9470
 -1      8760    6    0    1
 -2      5211      5526      5562      5383      9126      5688     12761      9130      9129     12762
 -1      8761    6    0    1
 -2      5543      5561        16      5197      5580      5579      5571      8823      8822      5204
 -1      8762    6    0    1
 -2      3568      6202      6152      6507     11017     11596     12388     11571     11791     11885
 -1      8763    6    0    1
 -2      3402      6350      3427      6456     12229     10324      4311     12763     10730     10165
 -1      8764    6    0    1
 -2      6060      6279      6169      6521     11946     10095      6870     10644     12764     11035
 -1      8765    6    0    1
 -2      3408      3593      3595      6402      4177      4343      4340      9784     10525     10425
 -1      8766    6    0    1
 -2      6102      6061      6236      6237      9872      7928      7892      7763      9484      8821
 -1      8767    6    0    1
 -2      5528      6336      5488      6433     11185     12419      5959     11186     11013     11594
 -1      8768    6    0    1
 -2      6194      6348      6017      6357     12081     11730      7894     10994     11924      8264
 -1      8769    6    0    1
 -2      6046      6426      6026      6489     10526     11299      7346     10163     10830      7723
 -1      8770    6    0    1
 -2      1058      1433      1574      6433      2091      2095      1678      9005      8855     12448
 -1      8771    6    0    1
 -2      6124      6223      6218      6375     11621     10683     11620     12756     10685      9242
 -1      8772    6    0    1
 -2       302      6302      6207      6518     11702     11703     11449      8657     12765     11450
 -1      8773    6    0    1
 -2      3531      6291      6201      6513     10176      8291     11421     11709     11083     12205
 -1      8774    6    0    1
 -2      6112      6197      6196      6323     12324     12391     12758      8576     12766     11857
 -1      8775    6    0    1
 -2      1278      6384      6231      6517     11583     10430     11572     11747     11716     12637
 -1      8776    6    0    1
 -2      1431      1214      1571      6282      2909      2908      2907     10652      6611      9645
 -1      8777    6    0    1
 -2      6233      6411      1525      6465     10057      8485     10055     11990     12473     12474
 -1      8778    6    0    1
 -2      3563      3564      3421      6347      4400      4399      4394      9958     10255      8896
 -1      8779    6    0    1
 -2      5434      5495      5533      6204      5738      5739      5656      9881     12343     10107
 -1      8780    6    0    1
 -2      3474       298      6373      6375      4077      8600     10204     11781      8404     11119
 -1      8781    6    0    1
 -2      6083      6441      6271      6512     11838     10047     10669     11202     11962      9151
 -1      8782    6    0    1
 -2      1325       137      5509      1067      1693      5642     12295      1692      1688     11613
 -1      8783    6    0    1
 -2      3694      3686       433      6389      4182      4183      3806     11437      9654     12491
 -1      8784    6    0    1
 -2      3390      6449      6279      6483     11380      8511     12692     11562     12767     12366
 -1      8785    6    0    1
 -2      6139      6080      6266      6448     11565     11836      7063     12652      7361     10292
 -1      8786    6    0    1
 -2      6073      6196      6112      6197     12572     12758      7021     12139     12391     12324
 -1      8787    6    0    1
 -2      6034      6079      6155      6278     10079     12745      8481     10080      7612     12361
 -1      8788    6    0    1
 -2      3496      3473      6285      6464      4577     12240     11328     12018      7149     12148
 -1      8789    6    0    1
 -2      3517      3475      3518      6248      4707      4709      4708     11584      7182     11735
 -1      8790    6    0    1
 -2      6152      6365      6125      6466     10632     11724      9020     11866     12634      6653
 -1      8791    6    0    1
 -2        29       462       538      1314       657       658       653      1615      6970      6971
 -1      8792    6    0    1
 -2      3462      6337      6125      6365     12640     12413      9563     11543     10697     11724
 -1      8793    6    0    1
 -2      6017      6289      6348      6531      7749     12658     11730     11732     10757     11734
 -1      8794    6    0    1
 -2      6198      6286      6154      6445     10716      9698     10785      8060      9570     11942
 -1      8795    6    0    1
 -2      3390      6279      3734      6483     12692      9920      4255     11562     12366     11564
 -1      8796    6    0    1
 -2      3631      6405      3499      6473     10194     10793      4833     12293     11963     12140
 -1      8797    6    0    1
 -2       466       542       574      6456       795       797       791     12057      8218      8269
 -1      8798    6    0    1
 -2      5249       189      5250       448      5275      5277      5272     12642     12180     11817
 -1      8799    6    0    1
 -2      1365       263       262      6322      1795       362      1796      8596      7109     12036
 -1      8800    6    0    1
 -2      3524      3525      6314      6424      4939     12001     12006      8261     10084     12768
 -1      8801    6    0    1
 -2      6091      6242      6178      6296      9805     10808     10816     11382      9449     10492
 -1      8802    6    0    1
 -2      6045      6337      6265      6415     10139     12400     11190      9580     10687     12769
 -1      8803    6    0    1
 -2      6019      6033      6395      6414     10962     10181     10964     11591     10395     11550
 -1      8804    6    0    1
 -2      5500      5492      5505      6408      5895      5821      5783     11935     10563      7310
 -1      8805    6    0    1
 -2       518       526       531      6408       921       809       847     10564     11408      7302
 -1      8806    6    0    1
 -2      6147      6378      6254      6494      7534     11153     10572     11370     11353     11354
 -1      8807    6    0    1
 -2      5441      6447      1440      6460     12090      9871     12051     12578     12513     12215
 -1      8808    6    0    1
 -2      6124      6332      6223      6375     10889     11435     11621     12756      8618     10685
 -1      8809    6    0    1
 -2      3558      6360      3742      6409     12699     10514      5046     11376     12381     11726
 -1      8810    6    0    1
 -2       225      5446      5487      5402      5606      5735      5612      5411     11634      7824
 -1      8811    6    0    1
 -2      1128      1130      1129      6492      2446      2445      2382     10205      7451     10033
 -1      8812    6    0    1
 -2      3609      3568      3389      6507      4248      4249      4153     10113     11571     11809
 -1      8813    6    0    1
 -2        16      5561      5526      5211      5579      5578      5577      5222     10809      9126
 -1      8814    6    0    1
 -2      3630      3734      3633      6279      5182      5178      5181     11770      9920     10423
 -1      8815    6    0    1
 -2      1552      1225      1311      6370      2971      2968      2972      7872      8270     10257
 -1      8816    6    0    1
 -2      1282      1476      1281      6382      3199      3198      2827     11531     12760     11819
 -1      8817    6    0    1
 -2      3470      3442      6224      6504      4530     12199      8841      8949     12212     10975
 -1      8818    6    0    1
 -2      3483      3479      3684      6293      4735      4488      4736      8383     11605      7440
 -1      8819    6    0    1
 -2      1209      1310      1360      6263      2884      2886      2883      7158     10220      7077
 -1      8820    6    0    1
 -2      1328        31      1522       550      1625      1626      1628      7589       663      6656
 -1      8821    6    0    1
 -2      1368      6379      6342      6459      8931      8932      7930     11178     11798     12770
 -1      8822    6    0    1
 -2      6199      6200      6121      6396     12771     12097      8753      8754     10758      6837
 -1      8823    6    0    1
 -2      6280      6315      6071      6439     12075     10315      7220     10741     10815     12622
 -1      8824    6    0    1
 -2      5481       164      3708      5437      5671      3870      9843      5676      5675     12635
 -1      8825    6    0    1
 -2      1066       461        32      1328     11602       666      1630      1631     11601      1624
 -1      8826    6    0    1
 -2      6248      6250      6074      6353     10110      7245      9825     11955     12370     12560
 -1      8827    6    0    1
 -2      3408       329       330      6402      4172       429      4173      9784     10623      8640
 -1      8828    6    0    1
 -2      1178      1177      1183      6359      2706      2714      2713     11240      8565     12446
 -1      8829    6    0    1
 -2      3542      3558      3544      6360      5043      5042      5041      7236     12699     10874
 -1      8830    6    0    1
 -2       482       483       481      6502       867       868       860      7568     11471      9884
 -1      8831    6    0    1
 -2      6231      6384      6097      6517     10430     11111      8895     12637     11716     12755
 -1      8832    6    0    1
 -2      6259      6379       317      6459     11484      8903      9180     12733     11798      8982
 -1      8833    6    0    1
 -2      1128      1560      1166      6492      2450      2449      2448     10205     10206     10467
 -1      8834    6    0    1
 -2      1329      6178      1087      6374      9398      6711      2233     10253     10857     10865
 -1      8835    6    0    1
 -2      1297      1430      1526      6480      2928      2094      1686     11599      7208     10334
 -1      8836    6    0    1
 -2      5214      5384       451      5212      9929      5390     12227      5230     12772     11966
 -1      8837    6    0    1
 -2      6377      6449       284      6483     11492      8743     11490     11488     12767     12773
 -1      8838    6    0    1
 -2      5469      5448      5452      6485      5807      5805      5808      7766     11742      9749
 -1      8839    6    0    1
 -2      3571      6402      6159      6491      9786     10426     10122      8801     11092     11839
 -1      8840    6    0    1
 -2      6371      6472      5503      6532     10620     12743     12742     12359     12502     12774
 -1      8841    6    0    1
 -2      6150      6053      6280      6361     10639      7219     10640     10868     11476      9623
 -1      8842    6    0    1
 -2      6075      6288      6126      6369      8104     12261     11401      6688      9695     10712
 -1      8843    6    0    1
 -2      3634      3636      3662      6378      4663      5189      5188     11138      8817     10398
 -1      8844    6    0    1
 -2      1267      6380      6204      6388     11922     12104     11597      9074     10445     10978
 -1      8845    6    0    1
 -2      1483      6177      1056      6394     10599     11870      2083     11090     11641     12673
 -1      8846    6    0    1
 -2       543       495       547      6383       854       939       813      8998      9259     12277
 -1      8847    6    0    1
 -2      5521      5469      5517      6383      5913      5828      5787     12275      9257      9662
 -1      8848    6    0    1
 -2      1153      1174      6441      6512      2573     12519     12048     11856     12728     11962
 -1      8849    6    0    1
 -2      3409       319      6298      6429      4142     10950      9303      9574     10941      8182
 -1      8850    6    0    1
 -2      6176      6350       503      6479     10664     11415     12341     10879     11126     11416
 -1      8851    6    0    1
 -2       304       303      1061      6356       403      1919      1918      8376     10667      9896
 -1      8852    6    0    1
 -2      1222      6323      6157      6394     10077      8577      8031     10104     11061     12580
 -1      8853    6    0    1
 -2      1390      6298      6459      6478     10949     11529      8189     12194     11236     12744
 -1      8854    6    0    1
 -2      3428      3583      3584      6533      4438      4441      4440     12648     12484      6865
 -1      8855    6    0    1
 -2      1141      1180      1439      6425      2520      2522      2519      9472      7835      8361
 -1      8856    6    0    1
 -2       516       493       568      6389       931       933       934     11205      8572     12298
 -1      8857    6    0    1
 -2      6114      6274      6190      6397     10726      8486     12289      8504      9468      9178
 -1      8858    6    0    1
 -2      6098      6285      6051      6403     10436     12617     10989     10992     11072      9877
 -1      8859    6    0    1
 -2      5563       214      5450      5340      5727      5724      5728     11744      5348     12775
 -1      8860    6    0    1
 -2      6044      6393      6348      6531      8195     11346     11858     11210     12626     11734
 -1      8861    6    0    1
 -2      1056      6394      6177      6508     12673     11641     11870     11871     10114     11873
 -1      8862    6    0    1
 -2       266      6311      3654      6487      6842     12120      3983      7915     11291     11135
 -1      8863    6    0    1
 -2       491       573       484      6392       888       886       875      8978      8308     11764
 -1      8864    6    0    1
 -2      5249        20       189       448     12776      5590      5275     12642       450     12180
 -1      8865    6    0    1
 -2      1341      1065      1429      6436      2131      2133      2132      9247     10789     10374
 -1      8866    6    0    1
 -2      1517      1287      1554      6453      3221      3222      3223     11796      9859     11699
 -1      8867    6    0    1
 -2      6059      6076      6385      6471     12347      7579     12348     10149      9696     12165
 -1      8868    6    0    1
 -2       526       518       490      6408       921       918       920     11408     10564      7073
 -1      8869    6    0    1
 -2      5500      5464      5492      6408      5894      5892      5895     11935     10005     10563
 -1      8870    6    0    1
 -2      1378      1299      1410      6388      3262      3263      2152     10348     12415      7661
 -1      8871    6    0    1
 -2       572      5249      5367      5254     12777     12644     12724     12725      5269     12242
 -1      8872    6    0    1
 -2      3522      6222      6101      6495     10694     12530     12697      9271     11445     10501
 -1      8873    6    0    1
 -2      3646      3645      3763      6381      4285      5191      4873     11994     11995     12606
 -1      8874    6    0    1
 -2      5446      5448      5556      6475      5794      5797      5796     12340     11362     11104
 -1      8875    6    0    1
 -2      6099      6343      6144      6435     10307      8211     12651      9970      8215      8213
 -1      8876    6    0    1
 -2       576        10       457       513       627       458     10050       628       625      9297
 -1      8877    6    0    1
 -2      6159      6238      6069      6491     12778     12158      9892     11839     12060     12159
 -1      8878    6    0    1
 -2      6130      6087      6260      6316      9530     11919     11918     10121     11977     11548
 -1      8879    6    0    1
 -2      5286        97      5284      6500      5317      5313      5318      8305     12714     12397
 -1      8880    6    0    1
 -2      6198      6295      6226      6529      7088     12093     11130     11427     10776     10875
 -1      8881    6    0    1
 -2      6145      6147      6293      6432      8373     11057     11574      7377     11787     11788
 -1      8882    6    0    1
 -2      6049      6145      6239      6293     12470     11109     10014     12210     11574     11155
 -1      8883    6    0    1
 -2      3405      3697       544      6495      3831     12779     12780     12706     11985     12686
 -1      8884    6    0    1
 -2      5550      5487       196      5287      5616      5702      5697     10021      7826      5325
 -1      8885    6    0    1
 -2      5442      1582      6345      6399     12736     12737     12497     12781     11945     10103
 -1      8886    6    0    1
 -2      3496      3681      3501      6387      4552      4816      4815     11330     10720     12335
 -1      8887    6    0    1
 -2      1093      1522        31       519      1627      1626      1621     12106      9321       659
 -1      8888    6    0    1
 -2      6267      6441      6083      6512     12049     11838     11282     11855     11962     11202
 -1      8889    6    0    1
 -2      3724      3763      3642      6381      4874      5192      4215     11059     12606      8806
 -1      8890    6    0    1
 -2      1483      1056      1327      6394      2083      2082      2084     11090     12673     10105
 -1      8891    6    0    1
 -2      6088      6311      6182      6428     12646     12647      8465      9671     11196      9673
 -1      8892    6    0    1
 -2      6184      6224      3442      6504     11740     12199     12200     12511     10975     12212
 -1      8893    6    0    1
 -2      5535      6335      5479      6371     12493     12782      5953     12494      8776     10675
 -1      8894    6    0    1
 -2      3465      3705      3565      6415      4601      4653      4654     11768     12723      8723
 -1      8895    6    0    1
 -2      1339      6356      6266      6522     11115     12137     12136      8760     11719     12312
 -1      8896    6    0    1
 -2      1419      6277      6215      6530     11617     12146      9649      8771     11077     11890
 -1      8897    6    0    1
 -2       511       529       527      6437      1005      1006      1004     12041     12118      9918
 -1      8898    6    0    1
 -2      6128      6233      6377      6465      6771     10304     12369     12599     11990     11991
 -1      8899    6    0    1
 -2      1273      1227      1226      6534      2973      2772      2974     10778      9213     11998
 -1      8900    6    0    1
 -2      6049      6055      6047      6442     10015     11251     10410     11254     11610     11253
 -1      8901    6    0    1
 -2      1411      1501      1591      6518      2023      3140      3370      8658     10282     10297
 -1      8902    6    0    1
 -2       200      5286      5284      6500      5333      5318      5332     12716      8305     12397
 -1      8903    6    0    1
 -2      6114      6326      6068      6490     12783     12662     12287     12574     12554     11832
 -1      8904    6    0    1
 -2      1535      1388      1331      6416      3335      3336      3334     10738     10458      6681
 -1      8905    6    0    1
 -2      3682      3551      6421      6446      4762     10969     11220     12784     12785     12406
 -1      8906    6    0    1
 -2      6098      6143      6417      6527      9946     10871     11107      8734      7406     12422
 -1      8907    6    0    1
 -2      1433      1323      1574      6433      3324      1675      2095      8855      7956     12448
 -1      8908    6    0    1
 -2      1177      1527      1183      6359      2718      2717      2714      8565     12322     12446
 -1      8909    6    0    1
 -2      1528      1555      1332      6253      2144      3168      2987     11688     12353     12352
 -1      8910    6    0    1
 -2      5366      5546      5249       448     12740     12786     12643      5376     12741     12642
 -1      8911    6    0    1
 -2      3376      6339      6308      6520     12708     12327     12039      9947     12787     12349
 -1      8912    6    0    1
 -2       466      3694       500      6313     12537     12228       712     12054     11436     12457
 -1      8913    6    0    1
 -2      6208      6224      6079      6504      9285     12282     12281     11859     10975     12788
 -1      8914    6    0    1
 -2      1167      1168      1138      6461      2502      2501      2499      8749      7830     10266
 -1      8915    6    0    1
 -2      6065      6193      6252      6499     12730      9432     11298     12430     11751     11938
 -1      8916    6    0    1
 -2      3657      3378       273      6530      4006      4002      4004      9761      9231      7603
 -1      8917    6    0    1
 -2      1504      6391      1248      6436     11295      9772      3080     12286      9417     12285
 -1      8918    6    0    1
 -2      6261      6419      6195      6486     12132     10958      8418     12133     11577      7791
 -1      8919    6    0    1
 -2      6131      6304      6072      6411     10417     10370      8010     10351     10373     10372
 -1      8920    6    0    1
 -2      1391      1401      1508      6459      2056      3362      2194      8984     11522     11179
 -1      8921    6    0    1
 -2      5542      5490      5543      6467      5908      5992      5931      7952     10075      8825
 -1      8922    6    0    1
 -2      5486      5476      5522      6264      5937      5935      5938     10594     11479      9935
 -1      8923    6    0    1
 -2      1078      1508      1437      6459      2193      2195      2192      8190     11179     11177
 -1      8924    6    0    1
 -2      6434      6499      6328      6505     12407     12514     10313     12409     11183     11547
 -1      8925    6    0    1
 -2      3524      6424      6314      6495      8261     12768     12006     11805     10390     12254
 -1      8926    6    0    1
 -2      3511      3512      3430      6245      4451      4450      4432      8687     12542      9867
 -1      8927    6    0    1
 -2      1308      6411      6158      6465     12116     11542     10909     12318     12473     12469
 -1      8928    6    0    1
 -2      6099      6085      6244      6513      9711      9380     12203      9125     10575     10862
 -1      8929    6    0    1
 -2      6097      6203      6493      6517     10118      9666      9617     12755     11021     11468
 -1      8930    6    0    1
 -2      6078      6246      6175      6277     10199     12691      6623     12789      8916     10153
 -1      8931    6    0    1
 -2        22       451      5368      5208       453      5379      5378     12521     12226     12520
 -1      8932    6    0    1
 -2      5287       196      5550      5282      5325      5697     10021      5306      5324     10168
 -1      8933    6    0    1
 -2      1248      1520      1417      6391      3083      3082      1839      9772     10452      7621
 -1      8934    6    0    1
 -2       164      3403      3708      5437      3868      3871      3870      5675     11986     12635
 -1      8935    6    0    1
 -2      1561      1170      1207      6411      2678      2676      2679      8483     10350     10223
 -1      8936    6    0    1
 -2      5535      5560      5479      6335      5947      5955      5953     12493     12505     12782
 -1      8937    6    0    1
 -2       548       502      6261      6479       961     11664     11665     10878     12593     11667
 -1      8938    6    0    1
 -2      1126      1448      1128      6292      2436      2435      2380      9363      9982     11772
 -1      8939    6    0    1
 -2      3630       282      6483      6508      4031     10339     12432     10936     11996     11997
 -1      8940    6    0    1
 -2      6084      6148      6127      6191     12071     12390      9183     12070     12069     12790
 -1      8941    6    0    1
 -2      6033      6019      6334      6414     10962      7563     11348     10395     11591     11029
 -1      8942    6    0    1
 -2        61       463       507      3515       701       702       697      3835     12363     11983
 -1      8943    6    0    1
 -2      5249      5546        20       448     12786      5591     12776     12642     12741       450
 -1      8944    6    0    1
 -2       576      5287        93       513     10051      5305       723       628      9296       728
 -1      8945    6    0    1
 -2      6114      6397      6326      6441      8504     10343     12783     12085     12423     10049
 -1      8946    6    0    1
 -2       284      1220      6377      6483      1858      8552     11490     12773     11337     11488
 -1      8947    6    0    1
 -2      5535      5479      5504      6371      5953      5949      5954     12494     10675     10248
 -1      8948    6    0    1
 -2      3634      6378      6169      6494     11138      7536     10805     12278     11353     10197
 -1      8949    6    0    1
 -2      6157      6060      6177      6394      8911     11048     12734     12580     12791     11641
 -1      8950    6    0    1
 -2      6234      6360      3544      6409     12675     10874      9535     10919     12381     11377
 -1      8951    6    0    1
 -2      6187      6227      6070      6423     12569      6985      9435     11127     11402      9742
 -1      8952    6    0    1
 -2      1492      1575      1286      6332      2129      3217      3212      8390      7496      9966
 -1      8953    6    0    1
 -2        35      1303       539      1478      1641     12792       675      1642      1644     12567
 -1      8954    6    0    1
 -2      1586      1300      1278      6517      3193      2291      3194     11404     11225     11747
 -1      8955    6    0    1
 -2      3795      3449      6432      6494      4501     12793     12433     12436     12516     12435
 -1      8956    6    0    1
 -2      6080      6100      6228      6303     11566     12710     12711     10419      9358     11829
 -1      8957    6    0    1
 -2      5446      5556      5506      6476      5796      5799      5798     11636     11106     12551
 -1      8958    6    0    1
 -2       582       472       532      6476       822       824       825      9408     11360     12552
 -1      8959    6    0    1
 -2      1338      1350      1273      6534      3184      3183      2975     11679     11677     10778
 -1      8960    6    0    1
 -2      3502      3501      3624      6464      4818      4843      4842     12501     12584     11400
 -1      8961    6    0    1
 -2      3506      3469      3490      6468      4675      4594      4676      9713      9556      6879
 -1      8962    6    0    1
 -2      3435      3436      3432      6294      4467      4466      4464      8981     11039     10491
 -1      8963    6    0    1
 -2      5282      5287        93       576      5306      5305      5301     10198     10051       723
 -1      8964    6    0    1
 -2      3610      3569      3409      6507      4344      4345      4147     11846     11570     12663
 -1      8965    6    0    1
 -2      3638      3623      3635      6339      5155      5153      4185     12620      9521     10011
 -1      8966    6    0    1
 -2      1226      1441      1556      6333      2570      2597      2978     11413     10731     11473
 -1      8967    6    0    1
 -2      1517      1554      6258      6453      3223      7273     11512     11796     11699     10128
 -1      8968    6    0    1
 -2       331      6180      1370      6514      9729      9730      2003     12458     12794     12035
 -1      8969    6    0    1
 -2      3701      3640      3579      6376      5123      5125      5124     12633     11671      8615
 -1      8970    6    0    1
 -2      6128      6140      6046      6310     12372      9755      6769     12795     12680     12796
 -1      8971    6    0    1
 -2       517       122      5384       552       759      5387      9300       760       761      9299
 -1      8972    6    0    1
 -2      6158      6128      6310      6465      9910     12795     12181     12469     12599     12751
 -1      8973    6    0    1
 -2      6027      6426      6060      6489      8301      8910      6868      9790     10830      9792
 -1      8974    6    0    1
 -2      6065      6372      6252      6497      7134      8410     11298     12641     12000     10004
 -1      8975    6    0    1
 -2      1440      1260      1435      6460      3044      3132      2239     12215      6943      7701
 -1      8976    6    0    1
 -2      1140      1482      1118      6331      2394      2393      2389      8528      9978      7715
 -1      8977    6    0    1
 -2       581       494       584      6349       936       935       938      7695      9734      8993
 -1      8978    6    0    1
 -2      5558      5468      5555      6349      5909      5910      5912      8991      9743      7170
 -1      8979    6    0    1
 -2      6094      6090      6273      6362      7029     12438     11423     11848     11755     12302
 -1      8980    6    0    1
 -2      5545      5251      5366      5546     11307     11306     10040      5692     12797     12740
 -1      8981    6    0    1
 -2      1263      1523      1303      6484      3141      2174      3147     10843     12126     12127
 -1      8982    6    0    1
 -2      5214       588      5384      5212     12798     12799      9929      5230     12800     12772
 -1      8983    6    0    1
 -2       507       463       508      6325       702       779       780     12183      9317      7658
 -1      8984    6    0    1
 -2      1213      1469      1471      6501      2905      2904      2631      8051     11046      9061
 -1      8985    6    0    1
 -2      1173      1172      1218      6506      2603      2687      2686     10715      8674     12337
 -1      8986    6    0    1
 -2       579       512       585      6438      1002      1008       982     12597     12713     12570
 -1      8987    6    0    1
 -2      6031      6281      6122      6511     10375      6699     11521     12559      6704      6702
 -1      8988    6    0    1
 -2      1355      1228      1462      6361      2498      2985      2646      9621     11912     10867
 -1      8989    6    0    1
 -2      3763      6381      3507      6468     12606     12801      4872     12607     12608     12671
 -1      8990    6    0    1
 -2      3574      3452      3472      6307      4582      4573      4583      8856      8329     11928
 -1      8991    6    0    1
 -2      3406      3519      5518      6341      3863     12802      8076     11793     12499     12011
 -1      8992    6    0    1
 -2       522       471      6062      6374       816     12186      9324     11952     12187     12188
 -1      8993    6    0    1
 -2      3561      3533      3539      6513      4988      4994      4996     10924     12611      9123
 -1      8994    6    0    1
 -2      6187      6430      6376      6523      8727     12122     12121     10719     11294     10415
 -1      8995    6    0    1
 -2      6175      6246      6078      6368     12691     10199      6623      9011      7559     10200
 -1      8996    6    0    1
 -2      3551      6428      6421      6446     11391     11392     10969     12785     10174     12406
 -1      8997    6    0    1
 -2      6128      6046      6158      6310      6769      7373      9910     12795     12796     12181
 -1      8998    6    0    1
 -2      3498      6255      3798      6421     12201      9302      4743     11892     11441     11219
 -1      8999    6    0    1
 -2      5560      5478      5459      6156      5869      5868      5865     10453      9613     10017
 -1      9000    6    0    1
 -2      6079      6278      6212      6363      7612     11844      9430     12213     12746     10955
 -1      9001    6    0    1
 -2      6260      6382      6130      6474     11920      9087     11918     11009      9092      9090
 -1      9002    6    0    1
 -2      3466      3709      6265      6415      4623     11457     11644     11714     12803     12769
 -1      9003    6    0    1
 -2      3431      3799      3726      6442      4448      4463      4460     11516     11618      8558
 -1      9004    6    0    1
 -2      6019      6437      6410      6438     12172      8123     11899      9099     12590     12374
 -1      9005    6    0    1
 -2      3722       293       294      6316      4064       393      4065     11242      7312      8336
 -1      9006    6    0    1
 -2       560       497       483      6502       883       869       882     12061     10221     11471
 -1      9007    6    0    1
 -2      6065      6328      6434      6499      9084     10313     10311     12430     12514     12407
 -1      9008    6    0    1
 -2      6127      6204      6093      6380      9846      9344      9740     11931     12104      8209
 -1      9009    6    0    1
 -2      6298      6429       319      6459      8182     10941     10950     11529     12192      8188
 -1      9010    6    0    1
 -2      3649      3768      3648      6318      4861      5193      4210     11409     11410      8979
 -1      9011    6    0    1
 -2      1556      1226      6333      6534      2978     11413     11473     12115     11998      7944
 -1      9012    6    0    1
 -2      6101      6161      6062      6222     12561     12284     11176     12530     10984     12529
 -1      9013    6    0    1
 -2      1272      1540      6380      6399      3160      7818      7793      7795      9214      7797
 -1      9014    6    0    1
 -2      6076      6288      6165      6398      8103     10335      9542      9544     11012      9543
 -1      9015    6    0    1
 -2      1312      6242      6178      6374     10008     10808      9397     10254     10859     10857
 -1      9016    6    0    1
 -2       282       281      1056      6508       381      1853      1852     11996      8461     11871
 -1      9017    6    0    1
 -2      5443      5505       200      6500      5716      5715      5711     12416      8314     12716
 -1      9018    6    0    1
 -2       469        97       531      6500       737       741       742     11276     12714      8306
 -1      9019    6    0    1
 -2      6148      6238      6127      6388     10366     12804     12390     12805     10437     12162
 -1      9020    6    0    1
 -2      1088      5507      5441      6460     12196      5626     12050     12128     12197     12578
 -1      9021    6    0    1
 -2      1320      1090      1322      6340      2248      2250      2249      7094     10007     11379
 -1      9022    6    0    1
 -2      6080      6228      6109      6303     12711      7866     10579     10419     11829      9693
 -1      9023    6    0    1
 -2       301      6207      6302      6318      8792     11703     11701      8297     11050     11925
 -1      9024    6    0    1
 -2      1134      1237      1241      6497      2479      2482      2481      8549     11840      9237
 -1      9025    6    0    1
 -2      3654      6311      3666      6428     12120      9573      3988     12681     11196     12480
 -1      9026    6    0    1
 -2      3422      3420      3401      6463      4306      4305      4307      8964     10952     12595
 -1      9027    6    0    1
 -2      6319      6410      6226      6438     12221     11278     10517      9101     12374     10518
 -1      9028    6    0    1
 -2      1423      1327      1056      6394      2081      2082      1854      9029     10105     12673
 -1      9029    6    0    1
 -2      6140      6405      6279      6521      8830     11167      8506     12365     10761     12764
 -1      9030    6    0    1
 -2      3799      3430      3721      6245      4444      4452      4454     10666      9867      9955
 -1      9031    6    0    1
 -2      6285      6403      6098      6417     11072     10992     10436     11157     10749     11107
 -1      9032    6    0    1
 -2      3634      6169      3772      6494     10805      8312      4667     12278     10197     11221
 -1      9033    6    0    1
 -2      1300      1486      1450      6517      3272      3271      3268     11225     12171     11019
 -1      9034    6    0    1
 -2      6129      6210      6090      6362     11249     11247     11245     11849     10306     11755
 -1      9035    6    0    1
 -2      1574      5436      5493      6433     12447      5635     12650     12448      7957     10169
 -1      9036    6    0    1
 -2      1172      1221      1218      6506      2689      2688      2687      8674     11162     12337
 -1      9037    6    0    1
 -2       481       480       479      6451       858       838       857     10840     10450      7402
 -1      9038    6    0    1
 -2      6286      6287      6111      6535     10041      8937      9567     11540      8370      6678
 -1      9039    6    0    1
 -2       569       516       568      6389      1018       934       957     11475     11205     12298
 -1      9040    6    0    1
 -2      3596      3418       235      6317      3892      3888      3890      8923     11394      8925
 -1      9041    6    0    1
 -2      1385      1537      1475      6273      2075      3104      2190      8036     11241     10604
 -1      9042    6    0    1
 -2      6225      6228      6100      6381     12712     12710     11567     12198     12645     12806
 -1      9043    6    0    1
 -2      3638      6339      3376      6520     12620     12708      4186      9959     12787      9947
 -1      9044    6    0    1
 -2      5283      5538       198      5288      9926      5703      5328      5312      9487      5329
 -1      9045    6    0    1
 -2      6197      6254      6073      6496     11902     11447     12139     11375     11971     12807
 -1      9046    6    0    1
 -2      1311      1225      1234      6370      2968      2966      2969     10257      8270      7384
 -1      9047    6    0    1
 -2      1099      1300      1590      6384      2290      2292      2279      9710     11537     11538
 -1      9048    6    0    1
 -2      3726      3725      3489      6435      4788      4785      4459      8556      9880      8557
 -1      9049    6    0    1
 -2      6157      6196      6168      6394     12573      9373     12321     12580     10003     12073
 -1      9050    6    0    1
 -2       249      6362      6210      6524     11897     10306      8090      8094     11898     11333
 -1      9051    6    0    1
 -2      6140      6279      6128      6521      8506     12371     12372     12365     12764     11033
 -1      9052    6    0    1
 -2      3590       470      3774      6317     12585     12808      3820     11451     12586     12428
 -1      9053    6    0    1
 -2      3682      3484      3551      6446      4761      4759      4762     12784      7593     12785
 -1      9054    6    0    1
 -2      3683      3394      3608      6455      4274      3916      4275      8955      9635     12809
 -1      9055    6    0    1
 -2      1207      1308      1326      6411      2872      2875      2874     10223     12116     12426
 -1      9056    6    0    1
 -2      3681      3445      3745      6387      4542      4544      4543     10720      6917     11208
 -1      9057    6    0    1
 -2      6157      6168      6060      6394     12321      8512      8911     12580     12073     12791
 -1      9058    6    0    1
 -2      1546      1165      1361      6439      2507      2651      2653     10609      7500     10659
 -1      9059    6    0    1
 -2      6088      6311      6175      6368     12646     12726      6622     10489      8878      9011
 -1      9060    6    0    1
 -2      1364      1290      1289      6519      3230      3062      3231     10784      8415      9477
 -1      9061    6    0    1
 -2      3453      3465      3688      6417      4587      4589      4562     10870     11125     11085
 -1      9062    6    0    1
 -2       513       472      5401      6476       758     12604     10627      9298     11360      9148
 -1      9063    6    0    1
 -2      6084      6149      6054      6152     11520     11518      8941     11864     11881     11228
 -1      9064    6    0    1
 -2       548      6176       503      6479      9770     12341       962     10878     10879     11416
 -1      9065    6    0    1
 -2      1453       231      1322      5340      1594      1709      1708     12810      5350     12135
 -1      9066    6    0    1
 -2      6126      6356      6266      6370     12020     12137     12624     10933     10916      7762
 -1      9067    6    0    1
 -2      3455      3465      3453      6527      4588      4587      4585     11086     12638     11651
 -1      9068    6    0    1
 -2      6118      6350      6243      6479     11008      9994      9262      8151     11126     11188
 -1      9069    6    0    1
 -2       272      3378      3668      6530      4001      4003      3999      8770      9231     10088
 -1      9070    6    0    1
 -2      1141      1142      1133      6290      2475      2474      2467      9794     12556      8975
 -1      9071    6    0    1
 -2       469        96        97      5284       738       105       737     12269      5314      5313
 -1      9072    6    0    1
 -2       257       256      1451      6396       356      1778      1777      7857      8125      8863
 -1      9073    6    0    1
 -2      1263      1478      1434      6484      3146      3148      2780     10843     10522     11704
 -1      9074    6    0    1
 -2      6220      6249       242      6455     12111     12016      9305     11505      9875      9634
 -1      9075    6    0    1
 -2      6064      6161      6249      6455      7587      7586      6952     12718      9874      9875
 -1      9076    6    0    1
 -2      5528      5436      5557      6433      5749      5750      5752     11186      7957      9481
 -1      9077    6    0    1
 -2        28       467      1073       538       650     11078      1612       654       655     11129
 -1      9078    6    0    1
 -2      3590      6232       546      6317      7720     10974      8858     11451     12239     12587
 -1      9079    6    0    1
 -2      5483      5514      5485      6510      5973      5972      5971     10318     10462     12486
 -1      9080    6    0    1
 -2       503      6176       524      6350     12341     12059       943     11415     10664     12291
 -1      9081    6    0    1
 -2       537       550       461      6262       773       667       772      9752      6657     11603
 -1      9082    6    0    1
 -2      1057       519       462      6312     12665       661      7436      7437      9322      6551
 -1      9083    6    0    1
 -2      3768      3650      3648      6318      5194      4090      5193     11410      7239      8979
 -1      9084    6    0    1
 -2      6030      6104      6084      6466      6726     12393     10548      6729      6730     11865
 -1      9085    6    0    1
 -2      3512      3721      3430      6245      4453      4452      4450     12542      9955      9867
 -1      9086    6    0    1
 -2      3465      6164      6417      6527     11861     10831     11125     12638      8733     12422
 -1      9087    6    0    1
 -2      3463      6337      3462      6365      9689     12640      4632     10696     10697     11543
 -1      9088    6    0    1
 -2      3376      6308      6339      6450     12039     12327     12708     11273     11686     12328
 -1      9089    6    0    1
 -2      3599      3753      3600      6327      4276      5138      5136      8751     10259     10210
 -1      9090    6    0    1
 -2      6254      6378      6073      6496     11153      7535     11447     11971     11398     12807
 -1      9091    6    0    1
 -2      3676       287       288      6450      4046       387      4047     11274      9197     10647
 -1      9092    6    0    1
 -2      3405       544      3520      6495     12780     12685      3826     12706     12686      9269
 -1      9093    6    0    1
 -2      3424       496       524      6350     12811       708     12592     11759     12672     12291
 -1      9094    6    0    1
 -2      6167      6297      6259      6379      7582     10404     12752     10587     10973     11484
 -1      9095    6    0    1
 -2      1150      1226      1188      6333      2569      2568      2567      7662     11413      9801
 -1      9096    6    0    1
 -2      6137      6314      3525      6424     10567     12001      8455     12334     12768     10084
 -1      9097    6    0    1
 -2      6108      6322      6135      6367     12425      8820     12076     11027     10881     10171
 -1      9098    6    0    1
 -2      1347      5509       136      1067     11612      5643      1683      1689     11613      1687
 -1      9099    6    0    1
 -2      1289      1244      1243      6519      3057      2733      3058      9477     12600     10286
 -1      9100    6    0    1
 -2      6020      6186      6212      6452      7068     11628     11803      6539      8593     12582
 -1      9101    6    0    1
 -2      3733      3721      3512      6462      4891      4453      4892      9952     11561     11795
 -1      9102    6    0    1
 -2      6068      6121      6199      6200     12096      8753     12386      9737     12097     12771
 -1      9103    6    0    1
 -2      3439      6432      3449      6473     11326     12793      4499     12602     12812     12605
 -1      9104    6    0    1
 -2      6090      6094      6039      6129      7029      6801      7946     11245     11453      9346
 -1      9105    6    0    1
 -2      5562      5211      5383      5208     12761      9130     12762     12813      5237     12112
 -1      9106    6    0    1
 -2      5288        95      5283       564      5311      5307      5312      9528       729      9989
 -1      9107    6    0    1
 -2       559      6242      1562      6374     12814     12399     11824     11825     10859     10717
 -1      9108    6    0    1
 -2      3685      3662      3636      6378      4673      5189      5111     12815     10398      8817
 -1      9109    6    0    1
 -2      3676      6339      3635      6450     12709     10011      4188     11274     12328     11896
 -1      9110    6    0    1
 -2      1151      1152      1149      6512      2564      2563      2553     11958     11037      9150
 -1      9111    6    0    1
 -2      1437      1368      1258      6342      3123      3122      3124     12816      7930     10363
 -1      9112    6    0    1
 -2      6226      6420      6198      6529     11134     10787     11130     10875     11640     11427
 -1      9113    6    0    1
 -2      6192      6282      1268      6488     11290     11800     10279      7230     11096     12576
 -1      9114    6    0    1
 -2      1071      1470      1305      6447      2161      2160      2159     11023     10505      9870
 -1      9115    6    0    1
 -2      1090       556        25      1453     11287       591      1605      1606     11783      1592
 -1      9116    6    0    1
 -2      1041      1519      1354      6465      2009      2008      2007     12749     12750     12320
 -1      9117    6    0    1
 -2       521       522       523      6242       817      1021      1022     10855      9804     11412
 -1      9118    6    0    1
 -2      3707      3708      3403      6299      4314      3871      4315     11419      8466     11989
 -1      9119    6    0    1
 -2      6127      6191      6148      6320     12790     12069     12390     12161     11947     10461
 -1      9120    6    0    1
 -2      6074      6259      6167      6297     12693     12752      7293      6605     10404      7582
 -1      9121    6    0    1
 -2      6093      6380      6204      6399      8209     12104      9344      8899      7797     10394
 -1      9122    6    0    1
 -2      3726      3546      3725      6435      5061      5049      4788      8556      7741      9880
 -1      9123    6    0    1
 -2      6056      6230      6292      6458      8646     11606      8442      7126      9199      9434
 -1      9124    6    0    1
 -2      6163      6309      6119      6322     10365     12065      6718     11826      9868     12424
 -1      9125    6    0    1
 -2      6124      6151      6075      6373     12164      7670      9120     12668     12216     12669
 -1      9126    6    0    1
 -2      3697       544        60      3405     12779       694      3830      3831     12780      3824
 -1      9127    6    0    1
 -2      5438      3415      5520      6341     12539     12461      5667     12540      9439     12732
 -1      9128    6    0    1
 -2      1214      1431      1577      6282      2909      2910      2903      6611     10652     11799
 -1      9129    6    0    1
 -2      3623      3622      6209      6407      4846     10506      9251     11721      8354     10031
 -1      9130    6    0    1
 -2      6066      6147      6432      6494      9066     11787      7375     12176     11370     12435
 -1      9131    6    0    1
 -2      3752      6468      3507      6526     12817     12671      4680     12344     12819     12818
 -1      9132    6    0    1
 -2      6094      6129      6272      6346     11453     10891     11847      6955     10561      9182
 -1      9133    6    0    1
 -2      1142      6290      6217      6498     12556     12636     10001     11835     11972     11145
 -1      9134    6    0    1
 -2      1519      6377      1307      6465     11534      9056      3285     12750     11991     11992
 -1      9135    6    0    1
 -2      6023      6393      6041      6454      9558      7988      7116      8575      9402      8142
 -1      9136    6    0    1
 -2      6261      6438       512      6469     11161     12713     12394     11666     12731     12107
 -1      9137    6    0    1
 -2      1434      1263      6484      6509      2780     10843     11704     12619      9364     10844
 -1      9138    6    0    1
 -2       199       200      5284      5443       208      5332      5331      5712      5711     12292
 -1      9139    6    0    1
 -2      6031      6247      6113      6499      9496     10211     10400     12477     11937     10946
 -1      9140    6    0    1
 -2      1559      1247      1351      6323      3078      2952      3079     11284     10551     11060
 -1      9141    6    0    1
 -2      3501      3681      3745      6387      4816      4543      4844     12335     10720     11208
 -1      9142    6    0    1
 -2      5486      6264      5484      6510     10594      8068      5974     12588      9676      9674
 -1      9143    6    0    1
 -2      5488      5478      5535      6335      5944      5946      5945     11649     12820     12493
 -1      9144    6    0    1
 -2      5384       552       588      5214      9299       714     12799      9929      9928     12798
 -1      9145    6    0    1
 -2      6250      6259      3612      6429     12695      8479     12517      8181     11252      9389
 -1      9146    6    0    1
 -2      6036      6347      6413      6516      9287     11199     10287     12455     12456      9098
 -1      9147    6    0    1
 -2       549       487       585      6420       901       903       904      8420      8574     12331
 -1      9148    6    0    1
 -2      3700      3444      3516      6504      4517      4539      4493     12689      8950     10441
 -1      9149    6    0    1
 -2      6049      6185      6055      6442     12211     10804     10015     11254      9806     11610
 -1      9150    6    0    1
 -2       563       109       525      5338       615       748       749      7745      5354      7744
 -1      9151    6    0    1
 -2      1157      1158      1159      6457      2442      2606      2605      7844      7620     11075
 -1      9152    6    0    1
 -2      5481      5482      5437      6299      5754      5753      5676      9845      9980     11988
 -1      9153    6    0    1
 -2      5478      6156      6335      6336      9613     12272     12820      9615      9616     12449
 -1      9154    6    0    1
 -2      6188      6372      6065      6497     11014      7134      7481     11841     12000     12641
 -1      9155    6    0    1
 -2      6322      6367      6108      6519     10881     11027     12425      9478     10537     11515
 -1      9156    6    0    1
 -2      5509      6253      5527      6345     11615     12630      5778     12296     12354     12629
 -1      9157    6    0    1
 -2      1344      1406      1404      6367      2120      1806      3353      9390     10839      7869
 -1      9158    6    0    1
 -2       303      6356      6302      6518     10667     12022     12522     12100     11833     12765
 -1      9159    6    0    1
 -2      3573      6254      3735      6496     11152     11485      5109     11397     11971      9900
 -1      9160    6    0    1
 -2       586      6420      6226      6438     11133     11134     11131     12729     12333     10518
 -1      9161    6    0    1
 -2      3662      6378      3685      6496     10398     12815      4673     11790     11398     11789
 -1      9162    6    0    1
 -2      6051      6036      6363      6515     10990      8435     10954      9404     11310      9783
 -1      9163    6    0    1
 -2       298       299      3670      6373       398      4080      4079      8600      6846      9597
 -1      9164    6    0    1
 -2      1562       559       460      6242     11824       682     12660     12399     12814     12661
 -1      9165    6    0    1
 -2       464       544      6222      6495       696     12821     12305     12307     12686     11445
 -1      9166    6    0    1
 -2      5495      6069      5496      6180     12342     10189      5791     12378     12377     12822
 -1      9167    6    0    1
 -2       466       500       568      6313       712       793       794     12054     12457     12297
 -1      9168    6    0    1
 -2      6017      6194      6357      6503      7894     10994      8264     10648     10995     10487
 -1      9169    6    0    1
 -2      5446      5506      5487      6476      5798      5706      5735     11636     12551      8127
 -1      9170    6    0    1
 -2       532       472       513      6476       824       758       732     12552     11360      9298
 -1      9171    6    0    1
 -2      6263      6423      6139      6448      7015     11128     10142      7018      7019     12652
 -1      9172    6    0    1
 -2       558        86      5250       577       720      5271     11876       721       619     11815
 -1      9173    6    0    1
 -2       539      1478      1303      6484     12567      1644     12792     12568     10522     12127
 -1      9174    6    0    1
 -2      6150      6345      6093      6532      8351      9981      8161     12823     12632     11852
 -1      9175    6    0    1
 -2      5456      5458      5465      6400      5846      5849      5848      9139      8990     12170
 -1      9176    6    0    1
 -2       212      5338      5537      5499      5360      7755      5589      5722      7754      5723
 -1      9177    6    0    1
 -2      5543      5474      5542      6467      5575      5767      5931      8825      9195      7952
 -1      9178    6    0    1
 -2      6018      6212      6186      6452     10520     11628      6792      8594     12582      8593
 -1      9179    6    0    1
 -2      3616      3776      3534      6346      5002      4978      5001     11652     10216      9971
 -1      9180    6    0    1
 -2      6437      6438      6019      6469     12590      9099     12172     11317     12731     11592
 -1      9181    6    0    1
 -2      3545      3531      3530      6291      4975      4971      4976     10161     10176      8397
 -1      9182    6    0    1
 -2      5477      5540      5522      6141      5941      5942      5936     10668     12267     10490
 -1      9183    6    0    1
 -2      3656      3704      3398      6428      4292      4291      3994     11393     12068      8332
 -1      9184    6    0    1
 -2      6410      6437      6226      6438      8123     11279     11278     12374     12590     10518
 -1      9185    6    0    1
 -2      1077      6272      6273      6362     11044     11508     10866     10498     11850     12302
 -1      9186    6    0    1
 -2      3654      6311      6428      6487     12120     11196     12681     11135     11291     12682
 -1      9187    6    0    1
 -2      3682      6421      3484      6446     11220     11218      4761     12784     12406      7593
 -1      9188    6    0    1
 -2      3724      3763      6381      6526      4874     12606     11059     12824     12826     12825
 -1      9189    6    0    1
 -2      5417      5532       228      5419      6695      5736      5429      5431      8216      5425
 -1      9190    6    0    1
 -2      6137      6346      6161      6424      9534      7588     10940     12334     12152     12237
 -1      9191    6    0    1
 -2      5401       457        10       513      5405       458      5403     10627      9297       625
 -1      9192    6    0    1
 -2      6276      6306      6106      6308     11439      9333     11914     12754     10665     12591
 -1      9193    6    0    1
 -2      1398      1512      1309      6422      3293      3292      3068      9707     11831      8845
 -1      9194    6    0    1
 -2      3521      3524      3680      6495      4929      4931      4327      9270     11805     11164
 -1      9195    6    0    1
 -2      5443      5521      5517      6383      5713      5787      5786     11691     12275      9662
 -1      9196    6    0    1
 -2       543       547       469      6383       813       739       812      8998     12277     11275
 -1      9197    6    0    1
 -2      5366       219      5368      5545      5375      5377      5380     10040      5730     10039
 -1      9198    6    0    1
 -2       588       451      5384      5212     12827      5390     12799     12800     11966     12772
 -1      9199    6    0    1
 -2      1369       235      6317      6374      1711      8925     12260     10863     10864     12679
 -1      9200    6    0    1
 -2      6276      6106      6407      6520     11914     12220     10275     12214     12828     12532
 -1      9201    6    0    1
 -2       514       506       554      6295       969       984       985     12274     10905     11711
 -1      9202    6    0    1
 -2      6016      6155      6419      6486     10810     10959     11659     11638     10679     11577
 -1      9203    6    0    1
 -2      3466      6265      6337      6415     11644     12400     11713     11714     12769     10687
 -1      9204    6    0    1
 -2      6083      6326      6114      6490     11837     12783     12083     11785     12554     12574
 -1      9205    6    0    1
 -2      3436      3516      3583      6533      4492      4491      4468     12526     10820     12484
 -1      9206    6    0    1
 -2       284       283      1220      6483       383      1859      1858     12773     10340     11337
 -1      9207    6    0    1
 -2      1437      6342      1258      6478     12816     10363      3124     12067     12332      9361
 -1      9208    6    0    1
 -2      6102      6166      6061      6237      8054      8379      9872      7763      9412      9484
 -1      9209    6    0    1
 -2      6081      6039      6090      6431      8157      7946     11246     11627     12279      7883
 -1      9210    6    0    1
 -2      5459      5460      5458      6535      5859      5858      5851     10018      6677      8684
 -1      9211    6    0    1
 -2       122      5384       565       517      5387      8488       633       759      9300       762
 -1      9212    6    0    1
 -2      6132      6372      6188      6447      7136     11014      6922     10801     11463     10597
 -1      9213    6    0    1
 -2      1112      6354      1113      6488      9721     10553      2355      9722      9723     12037
 -1      9214    6    0    1
 -2      3665      3379      3717      6487      3982      4203      4202      6732      7914     11102
 -1      9215    6    0    1
 -2      1128      1116      1126      6292      2379      2374      2380     11772     11771      9363
 -1      9216    6    0    1
 -2       183      5215      5544      5545      5225     10915      5689      5582     10038      5690
 -1      9217    6    0    1
 -2       331      3593       330      6402      4176      4175       430     11327     10525      8640
 -1      9218    6    0    1
 -2      3577      3524      3525      6314      4944      4939      4945     10157     12006     12001
 -1      9219    6    0    1
 -2      6348      6393      6023      6531     11346      9558     11731     11734     12626     11733
 -1      9220    6    0    1
 -2      6119      6234      6135      6322     12402     11268     12401     12424      9072      8820
 -1      9221    6    0    1
 -2      6135      6234      6182      6487     11268      9392     11267     11776     10680     12098
 -1      9222    6    0    1
 -2      6207      6151      6318      6373     12015      9463     11050     11051     12216      8848
 -1      9223    6    0    1
 -2      1455      1543      1283      6329      2220      3207      3208      9283     10884      9459
 -1      9224    6    0    1
 -2       197      5506      5538      5283      5705      5707      5704      5327     12670      9926
 -1      9225    6    0    1
 -2      6037      6348      6160      6505     11933     10658     10943     11182     12657     11184
 -1      9226    6    0    1
 -2      6157      6394      6177      6506     12580     11641     12734      8912     12384     11749
 -1      9227    6    0    1
 -2      5434      1511       139      5513      8634      1698      5652      5653     12441      5648
 -1      9228    6    0    1
 -2      3715      6241      3493      6341     11507      9968      4795     11794      8228      9190
 -1      9229    6    0    1
 -2      3576      3575      3582      6234      5065      5055      5116      9033      9393     12077
 -1      9230    6    0    1
 -2      5477      5498      5540      6141      5917      5757      5941     10668     11005     12267
 -1      9231    6    0    1
 -2      3741      6327      6232      6477     10208     12829     10391     11801     11981     11923
 -1      9232    6    0    1
 -2      6021      6305      6030      6472      8185     10549     11705     11259     11526     11524
 -1      9233    6    0    1
 -2      3638      6407      6339      6520     11723     12621     12620      9959     12532     12787
 -1      9234    6    0    1
 -2      3407       237      3597      6477      3894      3896      3898     10782      8201     11802
 -1      9235    6    0    1
 -2      6104      6341      6159      6491      8229     11777      9891     12147      8494     11839
 -1      9236    6    0    1
 -2      1481      1264      1342      6352      2473      3149      3006      9690     10010     10238
 -1      9237    6    0    1
 -2      1061      1534       304      6356      1923      1922      1918      9896     11718      8376
 -1      9238    6    0    1
 -2       502       549       512      6261       965       966       963     11664      8417     12394
 -1      9239    6    0    1
 -2      3523      3526      3525      6424      4942      4941      4940      8262     10086     10084
 -1      9240    6    0    1
 -2      3436      3435      3437      6294      4467      4483      4482     11039      8981     12193
 -1      9241    6    0    1
 -2      5289       445       563      5339      5296     12830      7638      9992      5347      6992
 -1      9242    6    0    1
 -2      6218      6373      6124      6375     10145     12668     11620      9242     11119     12756
 -1      9243    6    0    1
 -2      6030      6021      6472      6510     11705     11259     11524     10463     10538     10621
 -1      9244    6    0    1
 -2      1434      1371      1178      6509      2724      2707      2722     12619      8873     10918
 -1      9245    6    0    1
 -2      5544      5368       219      5545     10914      5377      5602      5690     10039      5730
 -1      9246    6    0    1
 -2      6262      6525      6237      6534      7636     10899      9483      9486     12204      9485
 -1      9247    6    0    1
 -2      3405       544        59      3520     12780       695      3825      3826     12685      3827
 -1      9248    6    0    1
 -2      6088      6175      6311      6428      6622     12726     12646      9671      9672     11196
 -1      9249    6    0    1
 -2      5341      5337      5340      6340      5359      5364      5365     12103      9452     11434
 -1      9250    6    0    1
 -2       159      5439      3780        14      5570     12831      3808       169      5568      3807
 -1      9251    6    0    1
 -2       465        56      3781         2       596      3801     12832       594        66      3802
 -1      9252    6    0    1
 -2      6140      6158      6046      6310     11683      7373      9755     12680     12181     12796
 -1      9253    6    0    1
 -2      6034      6155      6079      6363      8481     12745     10079      8434      8482     12213
 -1      9254    6    0    1
 -2      3599      3597       238      6477      3901      3897      3899     10607     11802      9610
 -1      9255    6    0    1
 -2      3783      3747      6202      6470      4885     12362     11016     12145     12437     10850
 -1      9256    6    0    1
 -2      3465      6417      3453      6527     11125     10870      4587     12638     12422     11651
 -1      9257    6    0    1
 -2      1050      1397      1398      6523      1944      2052      2051     10556      7329     11367
 -1      9258    6    0    1
 -2      1590      1335      1097      6366      2282      2281      2278     12109     11502     10750
 -1      9259    6    0    1
 -2      1363      1480      1356      6404      3358      2036      3248     10592      7002      9009
 -1      9260    6    0    1
 -2      6099      6055      6343      6435      9728      9630     10307      9970     11194      8215
 -1      9261    6    0    1
 -2      5512      5519      5557      6447      5774      5961      5751     11025     10802     10934
 -1      9262    6    0    1
 -2      6100      6275      6183      6526     11486      7555      8102     12833     12479     11653
 -1      9263    6    0    1
 -2      1455      1283      1587      6329      3208      2839      3209      9283      9459      9374
 -1      9264    6    0    1
 -2      6071      6305      6150      6439      8186     11101     10638     12622     12110     10565
 -1      9265    6    0    1
 -2      3506      6228      3646      6468      9687     12417      4866      9713      7868     12609
 -1      9266    6    0    1
 -2      5474       168      5440      3592      5574      5683      5686      9194      3885      7519
 -1      9267    6    0    1
 -2      6141      6413      6347      6516      9094     11199     10828      9097      9098     12456
 -1      9268    6    0    1
 -2      3447      3443      3446      6403      4534      4532      4535     10746      8564     11073
 -1      9269    6    0    1
 -2      6080      6225      6266      6522     11568     10288     11836     12834      9840     12312
 -1      9270    6    0    1
 -2      6077      6137      6085      6414     12030      8477      7799      7802     10928      7804
 -1      9271    6    0    1
 -2      3794      3744      3519      6341      4376      3864      4921      9437      9438     12499
 -1      9272    6    0    1
 -2       297      3474      3671      6375      4076      4078      4074      7712     11781     11365
 -1      9273    6    0    1
 -2      1519      6310      6377      6465     12748     12835     11534     12750     12751     11991
 -1      9274    6    0    1
 -2      5443      5500      5505      6500      5782      5783      5716     12416     12154      8314
 -1      9275    6    0    1
 -2       469       531       526      6500       742       809       808     11276      8306     12026
 -1      9276    6    0    1
 -2      1094      1551      1093      6312      2258      2257      2086     10325      8794     11669
 -1      9277    6    0    1
 -2      1091      1333      1377      6374      1655      2252      2251     12836     11420     10252
 -1      9278    6    0    1
 -2      3694      3702      3686      6313      5196      4902      4182     11436     10625      9105
 -1      9279    6    0    1
 -2      5498       166      3419      5470      5677      3878     11004      5682      5681     12149
 -1      9280    6    0    1
 -2      6033      6431      6068      6490     10184     11626      7098     10893     12414     11832
 -1      9281    6    0    1
 -2      1071      1346       131      5512      1670      1664      1668     11022     12837      5628
 -1      9282    6    0    1
 -2      1074      1562        37       460      1651      1650      1645     12451     12660       677
 -1      9283    6    0    1
 -2      3449      6473      6432      6494     12605     12812     12793     12516     12294     12435
 -1      9284    6    0    1
 -2      6084      6301      6191      6321     12566     10744     12070      9186     12040     10931
 -1      9285    6    0    1
 -2       513       119      5401       472       626      5404     10627       758       630     12604
 -1      9286    6    0    1
 -2       568       542       466      6313       796       795       794     12297      8623     12054
 -1      9287    6    0    1
 -2       586       505       585      6438       981       983       905     12729     12589     12570
 -1      9288    6    0    1
 -2      6094      6272      6249      6346     11847     11549      6951      6955      9182      6954
 -1      9289    6    0    1
 -2      5553      5486      5485      6510      5976      5975      5977     10455     12588     12486
 -1      9290    6    0    1
 -2      6175      6421      6428      6446      9778     11392      9672     10173     12406     10174
 -1      9291    6    0    1
 -2      1437      1368      6342      6459      3123      7930     12816     11177     11178     12770
 -1      9292    6    0    1
 -2        30       519       462      1057       660       661       656      1618     12665      7436
 -1      9293    6    0    1
 -2       460       539      1303      6484       679     12792     12452     12453     12568     12127
 -1      9294    6    0    1
 -2      6129      6362      6272      6524     11849     11850     10891      8058     11898     10892
 -1      9295    6    0    1
 -2      3526      6346      6137      6424     11070      9534     12155     10086     12152     12334
 -1      9296    6    0    1
 -2      3724      6430      3761      6526     10448     10449      4219     12824     12839     12838
 -1      9297    6    0    1
 -2      5503      5553      5485      6472      5951      5977      5979     12743     10619     12356
 -1      9298    6    0    1
 -2      3390      3660       284      6483      4039      4035      4037     11562     11563     12773
 -1      9299    6    0    1
 -2       311       310      1397      6523       410      1940      1939      9455      9456      7329
 -1      9300    6    0    1
 -2      6234      6322      6119      6409      9072     12424     12402     10919     12003     12840
 -1      9301    6    0    1
 -2       561       505       586      6226       979       981       973     11335     12208     11131
 -1      9302    6    0    1
 -2       512      6438       579      6469     12713     12597      1002     12107     12731     12482
 -1      9303    6    0    1
 -2      3693      3514      3754      6208      4413      4899      4690     11303      8758     11715
 -1      9304    6    0    1
 -2      5368       451      5367      5209      5379      5373      5382     10589     11967     11869
 -1      9305    6    0    1
 -2      6085      6314      6077      6462     10566     12253      7799      9639     10821     11357
 -1      9306    6    0    1
 -2        22      5562      5383      5208      5600     12762      5391     12521     12813     12112
 -1      9307    6    0    1
 -2      1465      1473      1472      6398      3375      3107      2854     11355      9686     10922
 -1      9308    6    0    1
 -2      1486      6493      1450      6517     11582      9665      3271     12171     11468     11019
 -1      9309    6    0    1
 -2      6168      6177      6060      6394     12459     11048      8512     12073     11641     12791
 -1      9310    6    0    1
 -2      3709      3705      6265      6415      4613     11456     11457     12803     12723     12769
 -1      9311    6    0    1
 -2      6275      6468      3752      6526      9557     12817     12478     12479     12819     12344
 -1      9312    6    0    1
 -2      3652      3385      3653      6482      3949      4231      4230      9266      7342     10951
 -1      9313    6    0    1
 -2      5527      5502      5515      6345      6010      6002      5781     12629     12841     12759
 -1      9314    6    0    1
 -2      3507      3752      3469      6468      4680      4679      4677     12671     12817      9556
 -1      9315    6    0    1
 -2      1434      1189      1263      6509      2723      2778      2780     12619      9048      9364
 -1      9316    6    0    1
 -2      6273      6362      6090      6364     12302     11755     12438     11424     11758      7030
 -1      9317    6    0    1
 -2        98        99       477      5285       107       743       744      5320      5319      7505
 -1      9318    6    0    1
 -2      6230      6458      6231      6517      9199      7127      8894     11503     12273     12637
 -1      9319    6    0    1
 -2      1091        38      1333       559      1654      1648      1655     12842       680     11823
 -1      9320    6    0    1
 -2       445       563         7      5289     12830       613       446      5296      7638      5294
 -1      9321    6    0    1
 -2      6048      6068      6121      6490      9000     12096     12095     10895     11832     12508
 -1      9322    6    0    1
 -2      1388      1535      1509      6416      3335      3097      2204     10458     10738     10457
 -1      9323    6    0    1
 -2      6081      6210      6129      6338     11248     11249      9345     10380     11752     11289
 -1      9324    6    0    1
 -2      6017      6348      6289      6505     11730     12658      7749      8267     12657     10291
 -1      9325    6    0    1
 -2      1272      1266      1211      6380      2894      2893      2895      7793      7819      8930
 -1      9326    6    0    1
 -2       505       561       530      6226       979       980       975     12208     11335     10513
 -1      9327    6    0    1
 -2      3731      6325      6314      6462     12543     12252     10511     12483     10486     10821
 -1      9328    6    0    1
 -2      3469      3752      3787      6275      4679      4681      4596      9554     12478     12082
 -1      9329    6    0    1
 -2      1327      1423      1539      6394      2081      2939      2955     10105      9029      9050
 -1      9330    6    0    1
 -2      3496      6387      3501      6464     11330     12335      4815     12018     12523     12584
 -1      9331    6    0    1
 -2       579       505       529      6438       978       974       977     12597     12589     12598
 -1      9332    6    0    1
 -2      6085      6137      6077      6314      8477     12030      7799     10566     10567     12253
 -1      9333    6    0    1
 -2      1501      1287      1261      6453      3134      2871      3135     12360      9859      8589
 -1      9334    6    0    1
 -2      6167      6259      6086      6379     12752     12694      7996     10587     11484     12843
 -1      9335    6    0    1
 -2      3581      6325      3732      6462     10483     12747      4890     10485     10486     12420
 -1      9336    6    0    1
 -2      6134      6277      6175      6421     12753     10153      6987      9776      8692      9778
 -1      9337    6    0    1
 -2       201       202      5285      5451       210      5336      5335      5718      5717      7705
 -1      9338    6    0    1
 -2      5561      5490      5491      6390      5990      5988      5991      9886     10074     10543
 -1      9339    6    0    1
 -2       520        10       457       576       624       458      6822       629       627     10050
 -1      9340    6    0    1
 -2      3705      3465      3455      6527      4601      4588      4599     12290     12638     11086
 -1      9341    6    0    1
 -2      5528      5552      5493      6433      5983      5994      5748     11186     11511     10169
 -1      9342    6    0    1
 -2      5527      6253      5510      6532     12630      8171      6009     12631      8176      8174
 -1      9343    6    0    1
 -2        97        98       531      5286       106       740       741      5317      5316      7299
 -1      9344    6    0    1
 -2      5478      6335      5488      6336     12820     11649      5944      9615     12449     12419
 -1      9345    6    0    1
 -2      5546        20       189      5249      5591      5590      5592     12786     12776      5275
 -1      9346    6    0    1
 -2       200       201      5286      5505       209      5334      5333      5715      5714      7308
 -1      9347    6    0    1
 -2       231      1477      1322      5340      1600      1710      1709      5350     11430     12135
 -1      9348    6    0    1
 -2      6261      6419      6047      6479     12132     11461     12376     11667     12017     11187
 -1      9349    6    0    1
 -2      1344      1404      1456      6367      3353      2035      3060      9390      7869     10536
 -1      9350    6    0    1
 -2      5481      3708       164      3550      9843      3870      5671     11368      3872      3866
 -1      9351    6    0    1
 -2      5341       589       111      5337     12248       753      5343      5359     12249      5356
 -1      9352    6    0    1
 -2      5487       197       196      5287      5701       205      5702      7826      5326      5325
 -1      9353    6    0    1
 -2      6080      6266      6356      6522     11836     12137     12472     12834     12312     11719
 -1      9354    6    0    1
 -2      6139      6225      6100      6251      8326     11567      9081      8412     11281      8725
 -1      9355    6    0    1
 -2      6137      6161      6101      6424     10940     12561     12031     12334     12237     12698
 -1      9356    6    0    1
 -2      6078      6175      6134      6277      6623      6987      6909     12789     10153     12753
 -1      9357    6    0    1
 -2      6109      6302      6207      6318      9902     11703     12014      9754     11925     11050
 -1      9358    6    0    1
 -2      1238      1135      1239      6372      2485      2487      2486     11462     11810      8664
 -1      9359    6    0    1
 -2      1143      6493      6290      6498     12028      8234     12555     11098     12029     11972
 -1      9360    6    0    1
 -2      3621      3759      3385      6482      4229      4228      3952      9919     11116      7342
 -1      9361    6    0    1
 -2      5367       451        12       570      5373       452      5372     12167     11969       639
 -1      9362    6    0    1
 -2      3721      6245      3512      6462      9955     12542      4453     11561     10734     11795
 -1      9363    6    0    1
 -2      6079      6034      6208      6533     10079     11535     12281     11229     11230      6867
 -1      9364    6    0    1
 -2       283      3660      3630      6483      4034      4036      4032     10340     11563     12432
 -1      9365    6    0    1
 -2      3669      3498      3682      6421      4827      4826      4825     10722     11892     11220
 -1      9366    6    0    1
 -2      1071      1346      5512      6447      1670     12837     11022     11023     12089     11025
 -1      9367    6    0    1
 -2      6263      6422      6139      6423      8719      9008     10142      7015     11906     11128
 -1      9368    6    0    1
 -2      3752      6275      3469      6468     12478      9554      4679     12817      9557      9556
 -1      9369    6    0    1
 -2       451        22      5383      5208       453      5391      5393     12226     12521     12112
 -1      9370    6    0    1
 -2      6284      6503      6162      6516     10488      8691      7281     12623     12410     10533
 -1      9371    6    0    1
 -2      1459      1390      1437      6478      2064      2191      3125      9362     12194     12067
 -1      9372    6    0    1
 -2      6045      6164      6415      6527      9577      9520      9580      9659      8733     12639
 -1      9373    6    0    1
 -2      6119      6146      6360      6409     11257      7493     11258     12840     11728     12381
 -1      9374    6    0    1
 -2      3704      6428      3551      6446     12068     11391      4776     12844     10174     12785
 -1      9375    6    0    1
 -2      6114      6326      6083      6441     12783     11837     12083     12085     10049     11838
 -1      9376    6    0    1
 -2      6054      6149      6086      6298     11518     12485      8714     12023     12845     12024
 -1      9377    6    0    1
 -2       572      5249       448      5367     12777     12642     12846     12724     12644      5371
 -1      9378    6    0    1
 -2      5538      5521       198      5288      5710      5709      5703      9487     12527      5329
 -1      9379    6    0    1
 -2      3507      6381      3763      6526     12801     12606      4872     12818     12825     12826
 -1      9380    6    0    1
 -2      5198      3694       433      6389     10976      3806      5201     10630     11437     12491
 -1      9381    6    0    1
 -2      3724      3507      3763      6526      4870      4872      4874     12824     12818     12826
 -1      9382    6    0    1
 -2      3424      3402       496      6350      3842     12847     12811     11759     12229     12672
 -1      9383    6    0    1
 -2      3685      3573      3770      6496      5112      5115      5114     11789     11397      9898
 -1      9384    6    0    1
 -2      1579      1324      1372      6525      1636      3327      3328     11748     11002     11737
 -1      9385    6    0    1
 -2      5478      6156      5560      6335      9613     10453      5869     12820     12272     12505
 -1      9386    6    0    1
 -2      1196      1298      1276      6321      2816      2815      2804     10432     11555     12265
 -1      9387    6    0    1
 -2        94        93      5287       513       102      5305      5304       727       728      9296
 -1      9388    6    0    1
 -2      1178      6359      1183      6509     11240     12446      2713     10918      7320     11629
 -1      9389    6    0    1
 -2      5534      5523      5461      6284      5876      5875      5855      7280     11481      7176
 -1      9390    6    0    1
 -2      6222      6232      3741      6327     12700     10391     11974     11262     12829     10208
 -1      9391    6    0    1
 -2      6066      6405      6489      6521     12380     12012      8605     12848     10761     11034
 -1      9392    6    0    1
 -2       212      5338      5339      5537      5360      5355      5352      5589      7755      6993
 -1      9393    6    0    1
 -2      1323       132      1574      5436      1674      1671      1675      7955      5631     12447
 -1      9394    6    0    1
 -2      5448      5446      5447      6475      5794      5608      5795     11362     12340     10725
 -1      9395    6    0    1
 -2      3561      3562      3532      6513      4990      4989      4987     10924     12160      9619
 -1      9396    6    0    1
 -2      5546      5251      5366      5249     12797     11306     12740     12786      5276     12643
 -1      9397    6    0    1
 -2      3782      3707      3403      6299      4316      4315      4317     10768     11419     11989
 -1      9398    6    0    1
 -2      1284      1502      1499      6306      3200      2080      3211      8986     10904      9964
 -1      9399    6    0    1
 -2      1092      5439      1370      6180     12564     12562      2256      9995     12849      9730
 -1      9400    6    0    1
 -2      6079      6208      6504      6533     12281     11859     12788     11229      6867     10819
 -1      9401    6    0    1
 -2       547        95      5288       564       735      5311     12549       736       729      9528
 -1      9402    6    0    1
 -2      3561      6244      3562      6513     11544      9939      4990     10924     10862     12160
 -1      9403    6    0    1
 -2      1192      1361      1165      6439      2652      2651      2649     10544     10659      7500
 -1      9404    6    0    1
 -2      3617      3410       248      6524      3931      3927      3929     10439      9547      8093
 -1      9405    6    0    1
 -2      6212      6278      6020      6452     11844     11696     11803     12582     12481      6539
 -1      9406    6    0    1
 -2      6301      6321      6084      6444     12040      9186     12566     10377     11619     11811
 -1      9407    6    0    1
 -2       557       545       498      6256       802       952       951      7863     12395     11280
 -1      9408    6    0    1
 -2       586       487       485      6420       892       879       891     11133      8574     10703
 -1      9409    6    0    1
 -2      5504      6371      5503      6532     10248     12742      5950     10574     12359     12774
 -1      9410    6    0    1
 -2      6048      6121      6117      6490     12095     12190      8273     10895     12508     11032
 -1      9411    6    0    1
 -2      1530      1450      1143      6493      2534      2533      2530     12027      9665     12028
 -1      9412    6    0    1
 -2      6196      6323      6197      6391     11857     12766     12391     12392      9415     10898
 -1      9413    6    0    1
 -2       554       519       578      6312       774      1020      1009     11623      9322     10078
 -1      9414    6    0    1
 -2      5338       563       109      5339      7745       615      5354      5355      6992      5345
 -1      9415    6    0    1
 -2      3401      3419       166      5470      3879      3878      3876     12614     12149      5681
 -1      9416    6    0    1
 -2      6268      6436      6215      6530     11244     10628     12218     10389     12358     11890
 -1      9417    6    0    1
 -2      1354      6158      6310      6465     10907     12181      9733     12320     12469     12751
 -1      9418    6    0    1
 -2      6156      6434      6328      6505     10312     10313      9338      9599     12409     11547
 -1      9419    6    0    1
 -2      6136      6321      6269      6444     10608      9187     10090     10235     11619     12225
 -1      9420    6    0    1
 -2      5478      5560      5535      6335      5869      5947      5946     12820     12505     12493
 -1      9421    6    0    1
 -2      1301      1186      1167      6315      2663      2662      2508     11877      9863      8867
 -1      9422    6    0    1
 -2      6082      6324      6292      6492     10977      9985     11973     10911     10979     11609
 -1      9423    6    0    1
 -2      1092      5533      5439      6180      9933      5658     12564      9995     11031     12849
 -1      9424    6    0    1
 -2       436      6390      6389      6467      7382      6830      7380     12738      9715      9657
 -1      9425    6    0    1
 -2      6080      6228      6225      6522     12711     12712     11568     12834     12534      9840
 -1      9426    6    0    1
 -2      5459      5462      5460      6535      5864      5863      5859     10018     11559      6677
 -1      9427    6    0    1
 -2      6121      6396      6146      6404      6837      7885     12336      9641      9827      9838
 -1      9428    6    0    1
 -2      3573      3481      3572      6254      4746      4744      4747     11152     10571      8519
 -1      9429    6    0    1
 -2       263      1365      1046      6322      1795      1800      1799      7109      8596     10499
 -1      9430    6    0    1
 -2      3533      3532      3531      6513      4982      4973      4983     12611      9619     11709
 -1      9431    6    0    1
 -2      6127      6238      6069      6388     12804     12158      9741     12162     10437     12850
 -1      9432    6    0    1
 -2       472        11      5401       454       631      5406     12604     11589       455      5407
 -1      9433    6    0    1
 -2        36      1303      1074       460      1640      1647      1646       678     12452     12451
 -1      9434    6    0    1
 -2      6114      6431      6083      6490     12301     10183     12083     12574     12414     11785
 -1      9435    6    0    1
 -2      1326      1307      1525      6465      3283      2947      3284     12319     11992     12474
 -1      9436    6    0    1
 -2      3653      3759      3538      6482      4232      5023      5011     10951     11116     11149
 -1      9437    6    0    1
 -2      6066      6169      6405      6521      9067     10193     12380     12848     11035     10761
 -1      9438    6    0    1
 -2       564        94      5283       532       730      5308      9989       733       731     12702
 -1      9439    6    0    1
 -2       499       534       589      6340       955       845       956      9395      8347     12250
 -1      9440    6    0    1
 -2       570       125      5367       571       643      5369     12167       716       763     12244
 -1      9441    6    0    1
 -2      1389      1550      1053      6362      2069      2068      1755     10497     10531      8836
 -1      9442    6    0    1
 -2      6037      6434      6335      6505     12408     12703     10092     11182     12409      9998
 -1      9443    6    0    1
 -2       162      5518      3406      3519      5669      8076      3860      3862     12802      3863
 -1      9444    6    0    1
 -2      5531      5519      5441      6447      5776      5775      5772     11169     10802     12090
 -1      9445    6    0    1
 -2      1084      1420      1502      6474      1884      2076      2223      7353     12715     12739
 -1      9446    6    0    1
 -2      6093      6269      6127      6380      8163      9184      9740      8209      8210     11931
 -1      9447    6    0    1
 -2      6197      6323      6112      6391     12766      8576     12324     10898      9415     12002
 -1      9448    6    0    1
 -2      5501      5502      6472      6532      6000     12851     11828     11853     12727     12502
 -1      9449    6    0    1
 -2      3696      3631      3499      6473      4834      4833      4835     12471     12293     12140
 -1      9450    6    0    1
 -2       467       545       557      6256       801       802       798     11080     12395      7863
 -1      9451    6    0    1
 -2      3559      6428      6182      6487     12557      9673     12653     11215     12682     12098
 -1      9452    6    0    1
 -2      3580      3761      3701      6430      5128      5127      5129     11418     10449     10053
 -1      9453    6    0    1
 -2      1582      5513      1072      6399     12852     12440      1697     11945     12442     12134
 -1      9454    6    0    1
 -2      6053      6150      6305      6532     10639     11101      9156      8175     12823     12495
 -1      9455    6    0    1
 -2      3757      3690      3620      6353      4913      4224      4365      9586     11192     11917
 -1      9456    6    0    1
 -2       286      6449      6310      6450     12664     12735     12178     12666     11121     12207
 -1      9457    6    0    1
 -2      3378       272       273      6530      4001       372      4002      9231      8770      7603
 -1      9458    6    0    1
 -2       489       498       488      6219       906       907       897      7106     11224      9367
 -1      9459    6    0    1
 -2      1298      1445      1276      6321      3189      3188      2815     11555     10929     12265
 -1      9460    6    0    1
 -2      3585      3509      3747      6470      4880      4877      4881     11950     10851     12437
 -1      9461    6    0    1
 -2      5213      5208       451      5209      5240     12226     12707      5246      5245     11967
 -1      9462    6    0    1
 -2      5249         9       572       448     12853       617     12777     12642       449     12846
 -1      9463    6    0    1
 -2      5502      5503      6472      6532      6005     12743     12851     12727     12774     12502
 -1      9464    6    0    1
 -2      6161      6062      6222      6327     12284     12529     10984     11646     12854     11262
 -1      9465    6    0    1
 -2      3424      3425      3402      6350      4310      4309      3842     11759      9848     12229
 -1      9466    6    0    1
 -2      6104      6241      6365      6466      8225     11074      9228      6730     10269     12634
 -1      9467    6    0    1
 -2      6172      6220      6064      6296      9191     12717      9023      9025      8555      9024
 -1      9468    6    0    1
 -2      6071      6136      6315      6342     10428      9583     10315     10100      8282      9584
 -1      9469    6    0    1
 -2      6164      6224      6036      6347     10166      9284     11804      9518      9289      9287
 -1      9470    6    0    1
 -2      1301      1541      1186      6315      2766      2765      2663     11877     10723      9863
 -1      9471    6    0    1
 -2       231      1453      5341      5340      1594     12102      5344      5350     12810      5365
 -1      9472    6    0    1
 -2      6285      6387      3496      6464     11331     11330     11328     12148     12523     12018
 -1      9473    6    0    1
 -2      3438      3795      3449      6432      4502      4501      4500     10355     12433     12793
 -1      9474    6    0    1
 -2      1441      1226      1150      6333      2570      2569      2561     10731     11413      7662
 -1      9475    6    0    1
 -2      6078      6134      6215      6277      6909     11498     11499     12789     12753     12146
 -1      9476    6    0    1
 -2       445         7       563      5339       446       613     12830      5347      5346      6992
 -1      9477    6    0    1
 -2      5548      5470      5477      6463      5766      5916      5918      8814     12150     11065
 -1      9478    6    0    1
 -2      6075      6207      6126      6453     12255     12256     11401     12690     12696     12262
 -1      9479    6    0    1
 -2      3449      3439      3438      6432      4499      4495      4500     12793     11326     10355
 -1      9480    6    0    1
 -2      3629      3628      3627      6405      5164      5157      5165     11214      9775     10792
 -1      9481    6    0    1
 -2      6149      6301      6084      6444     11883     12566     11520     12385     10377     11811
 -1      9482    6    0    1
 -2      3412      3750      3640      6376      4359      4361      4120      7532      9861     11671
 -1      9483    6    0    1
 -2      6228      6381      3646      6468     12645     11994     12417      7868     12608     12609
 -1      9484    6    0    1
 -2      3593       331      3417      6514      4176      4178      4180     11979     12458     11978
 -1      9485    6    0    1
 -2      6124      6218      6151      6373     11620      7651     12164     12668     10145     12216
 -1      9486    6    0    1
 -2      3599      6327      3597      6477      8751     12233      3901     10607     11981     11802
 -1      9487    6    0    1
 -2       544       540      6222      6495       785     12528     12821     12686     12855     11445
 -1      9488    6    0    1
 -2      6220      6221      6064      6296     11792      6809     12717      8555     11237      9024
 -1      9489    6    0    1
 -2      1041      1354      6310      6465      2007      9733      9273     12749     12320     12751
 -1      9490    6    0    1
 -2      6129      6338      6210      6524     11289     11752     11249      8058     10987     11333
 -1      9491    6    0    1
 -2      6158      6306      6131      6411     11136     11670      7374     11542     10224     10351
 -1      9492    6    0    1
 -2      5502      5527      5510      6532      6010      6009      6008     12727     12631      8174
 -1      9493    6    0    1
 -2      3536      3526      3714      6424      4958      4943      4959     10800     10086     11301
 -1      9494    6    0    1
 -2      3636      3685      6378      6496      5111     12815      8817     11396     11789     11398
 -1      9495    6    0    1
 -2      1268      6282      1431      6488     11800     10652      2358     12576     11096     10838
 -1      9496    6    0    1
 -2       484       482       491      6392       872       874       875     11764      7567      8978
 -1      9497    6    0    1
 -2      6276      6407      3503      6520     10275     12531     10480     12214     12532      9960
 -1      9498    6    0    1
 -2      3585      3747      3607      6470      4881      4265      5130     11950     12437      7989
 -1      9499    6    0    1
 -2      3379      3654      3755      6487      3985      4201      4200      7914     11135     11216
 -1      9500    6    0    1
 -2      1114      1112      1474      6354      2360      2362      2361     10552      9721      7729
 -1      9501    6    0    1
 -2      3569      3610      3775      6507      4344      4252      5106     11570     11846     11569
 -1      9502    6    0    1
 -2      3630      6483      6279      6508     12432     12366     11770     10936     11997      6673
 -1      9503    6    0    1
 -2      6080      6356      6228      6522     12472     11094     12711     12834     11719     12534
 -1      9504    6    0    1
 -2      3616      3534      3756      6346      5001      5000      4999     11652      9971     11414
 -1      9505    6    0    1
 -2      1091       559      1333      6374     12842     11823      1655     12836     11825     11420
 -1      9506    6    0    1
 -2      6075      6288      6258      6453      8104     12403     12025     12690     11206     10128
 -1      9507    6    0    1
 -2      6148      6320      6191      6470     10461     11947     12069     10337     11948     10251
 -1      9508    6    0    1
 -2       332        14      3780      5439       432      3807      3809     12856      5568     12831
 -1      9509    6    0    1
 -2      6061      6410      6395      6437      8119     11901     11062      8122      8123     11000
 -1      9510    6    0    1
 -2      3610      6298       320      6507     12571     10948      4145     11846     12375     11845
 -1      9511    6    0    1
 -2      6150      6093      6305      6532      8161     11523     11101     12823     11852     12495
 -1      9512    6    0    1
 -2      3591      6222       546      6232     11975     12678      8857      7718     12700     10974
 -1      9513    6    0    1
 -2      1157      1127      1158      6457      2441      2443      2442      7844      6938      7620
 -1      9514    6    0    1
 -2      6127      6148      6069      6238     12390     12157      9741     12804     10366     12158
 -1      9515    6    0    1
 -2       552       122      5384       588       761      5387      9299       714       642     12799
 -1      9516    6    0    1
 -2      5536      5465      5500      6257      5898      5897      5784     10277     12169     10817
 -1      9517    6    0    1
 -2      6100      6228      6303      6468     12710     11829      9358     12857      7868      9694
 -1      9518    6    0    1
 -2      6084      6191      6127      6321     12070     12790      9183      9186     10931      9188
 -1      9519    6    0    1
 -2      3757      3517      3690      6353      4912      4908      4913      9586     11350     11192
 -1      9520    6    0    1
 -2      5491      5539       222      5385      5734      5605      5731     10542      8608      5394
 -1      9521    6    0    1
 -2       471      6317      6232      6374     12858     12239     12184     12187     12679     12189
 -1      9522    6    0    1
 -2      6184      6432      3439      6473      7376     11326     11315     10781     12812     12602
 -1      9523    6    0    1
 -2      3487      6428      3704      6446     12558     12068      4777     11643     10174     12844
 -1      9524    6    0    1
 -2      3688      3448      3453      6417      4554      4560      4562     11085     10846     10870
 -1      9525    6    0    1
 -2      3731      3581      3515      6325      4903      4320      4904     12543     10483     12364
 -1      9526    6    0    1
 -2      6163      6322      6108      6519     11826     12425      6717     10798      9478     11515
 -1      9527    6    0    1
 -2       500         3       569      5198       599       598       601     11586      5200     11474
 -1      9528    6    0    1
 -2      6100      6303      6275      6468      9358     11487     11486     12857      9694      9557
 -1      9529    6    0    1
 -2      6249      6272      6094      6273     11549     11847      6951      8515     11508     11423
 -1      9530    6    0    1
 -2       140      1089      1511      5434      1701      1703      1699      5651      9492      8634
 -1      9531    6    0    1
 -2        15      5474      5543      5197      5573      5575      5572      5203     12859      8823
 -1      9532    6    0    1
 -2      1536      1146      1142      6498      2527      2526      2528     11834     11927     11835
 -1      9533    6    0    1
 -2      3432      3429      3431      6442      4445      4447      4446      8919      8917     11516
 -1      9534    6    0    1
 -2      5442      5513      1582      6399      5650     12852     12736     12781     12442     11945
 -1      9535    6    0    1
 -2        63      3424       496       524      3843     12811       707       703     12592       708
 -1      9536    6    0    1
 -2      3750      3579      3640      6376      4917      5125      4361      9861      8615     11671
 -1      9537    6    0    1
 -2      1328       461        32       550     11601       666      1624      7589       667       662
 -1      9538    6    0    1
 -2      3597       237       238      6477      3896       337      3897     11802      8201      9610
 -1      9539    6    0    1
 -2      1501      6207      6453      6518     12062     12696     12360     10282     11450     12721
 -1      9540    6    0    1
 -2      3466      3461      3706      6337      4622      4633      4635     11713     11878     11736
 -1      9541    6    0    1
 -2      5493      5524       134      1058      5638      5637      5633      9682      8693      1677
 -1      9542    6    0    1
 -2      3444      3440      3442      6504      4515      4513      4516      8950     12510     12212
 -1      9543    6    0    1
 -2      6086      6342      6167      6379     10098     10099      7996     12843      8932     10587
 -1      9544    6    0    1
 -2      6041      6139      6423      6448      9765     11128      7987      7360     12652      7019
 -1      9545    6    0    1
 -2      6159      6402      6238      6491     10426     12411     12778     11839     11092     12060
 -1      9546    6    0    1
 -2      3769      3626      3676      6450      5161      4048      5162     10557      8786     11274
 -1      9547    6    0    1
 -2       475       479       480      6451       837       838       839      6664      7402     10450
 -1      9548    6    0    1
 -2      6200      6396      6199      6482     10758      8754     12771     11150     12515     10737
 -1      9549    6    0    1
 -2      6182      6311      6135      6487     12647     12046     11267     12098     11291     11776
 -1      9550    6    0    1
 -2      1297      1217      1430      6480      2925      2926      2928     11599      8056      7208
 -1      9551    6    0    1
 -2      5496      6069      5445      6180     10189     11765      5790     12822     12377     12860
 -1      9552    6    0    1
 -2       222      5562      5526      5383      5603      5688      5733      5392     12762      9129
 -1      9553    6    0    1
 -2       199       198      5521      5288       207      5709      5708      5330      5329     12527
 -1      9554    6    0    1
 -2      6036      6503      6194      6516      8438     10995     11309     12455     12410     11265
 -1      9555    6    0    1
 -2      3645      3642      3763      6381      4108      5192      5191     11995      8806     12606
 -1      9556    6    0    1
 -2      3610      3409      6298      6507      4147      9303     12571     11846     12663     12375
 -1      9557    6    0    1
 -2      1580      1395      1337      6397      2210      2046      3273      9726      6896      9764
 -1      9558    6    0    1
 -2      3767      3682      3551      6421      5073      4762      5072      8567     11220     10969
 -1      9559    6    0    1
 -2      1465      1472      1203      6398      2854      2853      2842     11355     10922     11011
 -1      9560    6    0    1
 -2      6101      6222       540      6495     12530     12528     11175     10501     11445     12855
 -1      9561    6    0    1
 -2      6059      6427      6386      6481     10064     10065     10061     12489     12445      9446
 -1      9562    6    0    1
 -2      1369      1377      1087      6374      2236      2235      1716     10863     10252     10865
 -1      9563    6    0    1
 -2      1266      1212      1211      6380      2892      2812      2893      7819      9905      8930
 -1      9564    6    0    1
 -2      3640      6376      3701      6430     11671     12633      5123     11292     12122     10053
 -1      9565    6    0    1
 -2       484       486       485      6445       884       885       877     11940      6576     11909
 -1      9566    6    0    1
 -2      6210      6362      6129      6524     10306     11849     11249     11333     11898      8058
 -1      9567    6    0    1
 -2       547        95        96      5288       735       104       734     12549      5311      5310
 -1      9568    6    0    1
 -2      3647      3558      3742      6409      5088      5046      4221     11891     11376     11726
 -1      9569    6    0    1
 -2      1459      1052      1390      6478      2063      1971      2064      9362      6989     12194
 -1      9570    6    0    1
 -2       468       539       541      6484       676       805       806     10101     12568      8525
 -1      9571    6    0    1
 -2      1579       535      1324      6525     12627     12684      1636     11748     12628     11002
 -1      9572    6    0    1
 -2      6139      6422      6187      6423      9008      8936      9080     11128     11906     11127
 -1      9573    6    0    1
 -2      6064      6094      6221      6249      6800      6808      6809      6952      6951     10013
 -1      9574    6    0    1
 -2      6258      6332      6124      6373     10126     10889     10887     10135     11118     12668
 -1      9575    6    0    1
 -2      6136      6342      6149      6478      8282     12613     11519     12861     12332     12719
 -1      9576    6    0    1
 -2      3558      3664      3582      6409      5087      4294      5054     11376     12010     10187
 -1      9577    6    0    1
 -2      1253      1182      1236      6364      2744      2742      2745     12224      7223     11960
 -1      9578    6    0    1
 -2      6339      6407      6106      6520     12621     12220      8736     12787     12532     12828
 -1      9579    6    0    1
 -2       189      5551      5532      5250      5593      5695      5694      5277     12418      9976
 -1      9580    6    0    1
 -2       586       585      6420      6438       905     12331     11133     12729     12570     12333
 -1      9581    6    0    1
 -2      6019      6395      6410      6437     10964     11901     11899     12172     11000      8123
 -1      9582    6    0    1
 -2      1440      1346      1305      6447      1667      2158      3045      9871     12089      9870
 -1      9583    6    0    1
 -2      3584      3516      3754      6533      4907      4687      4900      6865     10820     11478
 -1      9584    6    0    1
 -2      1247      1559      1426      6323      3078      2015      3077     10551     11284     11285
 -1      9585    6    0    1
 -2        13      5530      1477      5340      5566     11432      1598      5349     11431     11430
 -1      9586    6    0    1
 -2       306      3396       305      6522      4101      4100       405     11324     11773      8034
 -1      9587    6    0    1
 -2      6052      6290      6217      6425      8231     12636     11143     11390     11137     10002
 -1      9588    6    0    1
 -2      6059      6386      6471      6481     10061     10368     10149     12489      9446     12674
 -1      9589    6    0    1
 -2      6057      6229      6115      6461     11159      8968     11552     11553      9585     10172
 -1      9590    6    0    1
 -2      3706      3461      3463      6337      4633      4631      4634     11736     11878      9689
 -1      9591    6    0    1
 -2      1321      5507       129      1088     12195      5622      1658      1662     12196      1660
 -1      9592    6    0    1
 -2      5434      5513      5541      6399      5653      5742      5741      8637     12442     12092
 -1      9593    6    0    1
 -2      6097      6384      6203      6517     11111     11889     10118     12755     11716     11021
 -1      9594    6    0    1
 -2       559      1091        38       465     12842      1654       680       684     12547       683
 -1      9595    6    0    1
 -2      6128      6377      6310      6465     12369     12835     12795     12599     11991     12751
 -1      9596    6    0    1
 -2      6191      6320      6127      6321     11947     12161     12790     10931     11556      9188
 -1      9597    6    0    1
 -2      1130      1128      1166      6492      2446      2448      2447      7451     10205     10467
 -1      9598    6    0    1
 -2      6054      6152      6149      6298     11228     11881     11518     12023      9767     12845
 -1      9599    6    0    1
 -2      3393      3740      3585      6491      4269      4268      4267     11760      8800     12655
 -1      9600    6    0    1
 -2       460       567       539      6484       767       768       679     12453     11633     12568
 -1      9601    6    0    1
 -2      1104      1304      1107      6528      2315      2317      2309      7286     10654     10682
 -1      9602    6    0    1
 -2      1401      1051      1510      6379      2057      2058      2060     11575      8662     10362
 -1      9603    6    0    1
 -2      6069      6238      6204      6388     12158     11729      9343     12850     10437     10978
 -1      9604    6    0    1
 -2      5252      5290         6       575      6807      5292      5258      8154      8075       610
 -1      9605    6    0    1
 -2      3467      3795      3691      6494      4670      4572      4669     11806     12436     11352
 -1      9606    6    0    1
 -2      5449      5454      5453      6355      5813      5812      5811     11510      8961      8580
 -1      9607    6    0    1
 -2      5456      5465      5525      6400      5848      5850      5835      9139     12170      9268
 -1      9608    6    0    1
 -2      5215        17      5251      5545      5226      5261     11305     10038      5581     11307
 -1      9609    6    0    1
 -2      3738       166      3419      5498      3874      3878      3880     11813      5677     11004
 -1      9610    6    0    1
 -2      3729      5440       168      3592     10132      5683      3882      3884      7519      3885
 -1      9611    6    0    1
 -2        12       451       588      5212       452     12827       640     12468     11966     12800
 -1      9612    6    0    1
 -2      5367        12       125       570      5372       126      5369     12167       639       643
 -1      9613    6    0    1
 -2      5538       198       197      5283      5703       206      5704      9926      5328      5327
 -1      9614    6    0    1
 -2      3687      3702      3694      6313      4437      5196      3848     12053     10625     11436
 -1      9615    6    0    1
 -2      5337       589       111       476     12249       753      5356      9712       754       750
 -1      9616    6    0    1
 -2      1377      1369      1091      6374      2236      2253      2251     10252     10863     12836
 -1      9617    6    0    1
 -2      5531      6447      5441      6460     11169     12090      5772     12490     12513     12578
 -1      9618    6    0    1
 -2      6051      6330      6107      6387      9384      9291      7722      9878     12618     10534
 -1      9619    6    0    1
 -2      6064      6220      6161      6455     12717     12862      7587     12718     11505      9874
 -1      9620    6    0    1
 -2         6       442      5290      5252       443      5293      5292      5258      5260      6807
 -1      9621    6    0    1
 -2      3705      6265      6415      6527     11456     12769     12723     12290     11493     12639
 -1      9622    6    0    1
 -2      6149      6298      6152      6507     12845      9767     11881     11884     12375     11885
 -1      9623    6    0    1
 -2      6162      6503      6413      6516      8691     10217      8132     10533     12410      9098
 -1      9624    6    0    1
 -2      3496      3473      3451      6285      4577      4576      4550     11328     12240      8712
 -1      9625    6    0    1
 -2      3623      6209      6339      6407      9251      9311      9521     11721     10031     12621
 -1      9626    6    0    1
 -2      5527      5442      5509      6345      5777      5647      5778     12629     12497     12296
 -1      9627    6    0    1
 -2      5461      5559      5560      6284      5877      5879      5866      7176     10043     10454
 -1      9628    6    0    1
 -2       460      6242       567      6484     12661     11631       767     12453     11632     11633
 -1      9629    6    0    1
 -2       190      5532      5549      5253      5693      5696      5585      5264      9950      9951
 -1      9630    6    0    1
 -2      3692      3720      3563      6347      4686      5095      4414     11067     12223      9958
 -1      9631    6    0    1
 -2      1180      1244      1439      6425      2732      2734      2522      7835     12405      8361
 -1      9632    6    0    1
 -2      3394      6249      3608      6455     12594     11545      3916      9635      9875     12809
 -1      9633    6    0    1
 -2      6217      6290      6052      6498     12636      8231     11143     11145     11972     11144
 -1      9634    6    0    1
 -2      3415      5438       161      3744     12539      5666      3853      3859     12538      3857
 -1      9635    6    0    1
 -2      1391      1508      1078      6459      2194      2193      1965      8984     11179      8190
 -1      9636    6    0    1
 -2      5501      5502      5503      6472      6000      6005      5980     11828     12851     12743
 -1      9637    6    0    1
 -2      5253       190      5532      5250      5264      5693      9950      5279      5278      9976
 -1      9638    6    0    1
 -2       463        62      3739      3404       700      3838      9401      9315      3832      3839
 -1      9639    6    0    1
 -2      5401       454      5400      6475      5407      5410      5415     12603     10573     12339
 -1      9640    6    0    1
 -2      1453       556         1      5341     11783       592      1593     12102     12101      5342
 -1      9641    6    0    1
 -2       465       234         2      3781     12863       333       594     12832      3803      3802
 -1      9642    6    0    1
 -2      6223      6260      6087      6316     12467     11919     12114     11372     11548     11977
 -1      9643    6    0    1
 -2      5449      5452      5448      6485      5806      5805      5800     11647      9749     11742
 -1      9644    6    0    1
 -2       572        86         9      5249       618       616       617     12777      5267     12853
 -1      9645    6    0    1
 -2      5401        10       119       513      5403       120      5404     10627       625       626
 -1      9646    6    0    1
 -2      3402      3687        64      6456      3847      3846      3840     12763     12056     12864
 -1      9647    6    0    1
 -2      5209        80        79       570      5231        83      5232     11968       715       638
 -1      9648    6    0    1
 -2      6091      6484      6242      6509      8524     11632      9805     12326     10844     10131
 -1      9649    6    0    1
 -2      3717      3755      3548      6487      4204      5063      5066     11102     11216     11103
 -1      9650    6    0    1
 -2      3698      3794      3519      6341      4922      4921      4920      9189      9437     12499
 -1      9651    6    0    1
 -2      3485      3487      3484      6446      4758      4757      4753      7447     11643      7593
 -1      9652    6    0    1
 -2      6068      6200      6199      6482      9737     12771     12386     12507     11150     10737
 -1      9653    6    0    1
 -2       281       282      3674      6508       381      4029      4028      8461     11996     10935
 -1      9654    6    0    1
 -2      1055       290       289      6520      1876       389      1877     11465     11466      9948
 -1      9655    6    0    1
 -2      6253      6345      6150      6532     12354      8351     12612      8176     12632     12823
 -1      9656    6    0    1
 -2      5437      5482      5540      6299      5753      5756      5755     11988      9980     12268
 -1      9657    6    0    1
 -2      1112      1113      1111      6488      2355      2354      2349      9722     12037      8633
 -1      9658    6    0    1
 -2      6112      6268      6197      6391     12325     11905     12324     12002     12329     10898
 -1      9659    6    0    1
 -2      6046      6140      6128      6521      9755     12372      6769     10642     12365     11033
 -1      9660    6    0    1
 -2      3390       284      6449      6483      4037      8743     11380     11562     12773     12767
 -1      9661    6    0    1
 -2      5520      6159      6402      6514     12462     10426     12141     12143     12865     12144
 -1      9662    6    0    1
 -2      1437      6459      6342      6478     11177     12770     12816     12067     12744     12332
 -1      9663    6    0    1
 -2      6066      6432      6184      6473      7375      7376      7265     11304     12812     10781
 -1      9664    6    0    1
 -2      6060      6128      6279      6521      6768     12371     11946     10644     11033     12764
 -1      9665    6    0    1
 -2        19       445      5289      5339       447      5296      5300      5351      5347      9992
 -1      9666    6    0    1
 -2      6269      6321      6127      6380      9187      9188      9184      8210     10433     11931
 -1      9667    6    0    1
 -2       485       486       488      6445       885       889       890     11909      6576      9972
 -1      9668    6    0    1
 -2       285      3675      3390      6449      4040      4042      4038      8741     11076     11380
 -1      9669    6    0    1
 -2      6161      6172      6062      6327     12649      9022     12284     11646     10009     12854
 -1      9670    6    0    1
 -2       496      6350      3402      6456     12672     12229     12847     12705     10730     12763
 -1      9671    6    0    1
 -2      3686      3736       433      6467      4184      3812      4183      7817     12174     12492
 -1      9672    6    0    1
 -2      5495      6180      5533      6204     12378     11031      5739     12343     11929     10107
 -1      9673    6    0    1
 -2      6078      6215      6246      6277     11499     10692     10199     12789     12146      8916
 -1      9674    6    0    1
 -2      1153      1174      1181      6441      2573      2586      2585     12048     12519     12454
 -1      9675    6    0    1
 -2      3520       544        59       464     12685       695      3827     12306       696       691
 -1      9676    6    0    1
 -2        37      1562      1333       559      1650      1652      1649       681     11824     11823
 -1      9677    6    0    1
 -2       559        37      1562       460       681      1650     11824       682       677     12660
 -1      9678    6    0    1
 -2      6119      6360      6234      6409     11258     12675     12402     12840     12381     10919
 -1      9679    6    0    1
 -2      5251       439      5215      5210      5263      5227     11305     11886      5221      5243
 -1      9680    6    0    1
 -2      6031      6499      6328      6511     12477     12514      9608     12559     12431     10700
 -1      9681    6    0    1
 -2      6017      6357      6348      6505      8264     11924     11730      8267      8268     12657
 -1      9682    6    0    1
 -2      3698      3519      3715      6341      4920      4329      4803      9189     12499     11794
 -1      9683    6    0    1
 -2      1535      1251      1509      6416      2736      3092      3097     10738      7335     10457
 -1      9684    6    0    1
 -2      1239      1240      1238      6372      3031      3030      2486      8664      7767     11462
 -1      9685    6    0    1
 -2      6136      6149      6444      6478     11519     12385     10235     12861     12719     12013
 -1      9686    6    0    1
 -2      6148      6320      6238      6388     10461      8934     10366     12805     12163     10437
 -1      9687    6    0    1
 -2      6228      6381      6225      6522     12645     12198     12712     12534     12038      9840
 -1      9688    6    0    1
 -2      5485      5486      5484      6510      5975      5974      5970     12486     12588      9674
 -1      9689    6    0    1
 -2      5253      5549        18      5290      9951      5584      5265     10981      6806      5297
 -1      9690    6    0    1
 -2       577      5418         9       448     11911      5420       620     11816      5422       449
 -1      9691    6    0    1
 -2       554       462       519      6312       775       661       774     11623      6551      9322
 -1      9692    6    0    1
 -2      6268      6391      6112      6436     12329     12002     12325     11244      9417     10305
 -1      9693    6    0    1
 -2      6190      6274      6081      6338      8486     12610     10379      6557     10108     10380
 -1      9694    6    0    1
 -2         3       500      3694      5198       599     12228      3804      5200     11586     10976
 -1      9695    6    0    1
 -2      1411      1591      1403      6518      3370      3369      1917      8658     10297     11358
 -1      9696    6    0    1
 -2      1486      1457      1450      6493      2544      2532      3271     11582     10233      9665
 -1      9697    6    0    1
 -2       497       481       483      6502       870       868       869     10221      9884     11471
 -1      9698    6    0    1
 -2      3635      3376      3638      6339      4187      4186      4185     10011     12708     12620
 -1      9699    6    0    1
 -2      6086      6298      6149      6478     12024     12845     12485     12722     11236     12719
 -1      9700    6    0    1
 -2      3389      3610       321      6507      4150      4146      4148     11809     11846     11808
 -1      9701    6    0    1
 -2      6177      6128      6377      6483     11049     12369     10611     12367     12535     11488
 -1      9702    6    0    1
 -2      6156      6335      6434      6505     12272     12703     10312      9599      9998     12409
 -1      9703    6    0    1
 -2      5518      5481       163      3550      5673      5672      5668      8077     11368      3865
 -1      9704    6    0    1
 -2      6086      6259      6250      6429     12694     12695      8808     12450     11252      8181
 -1      9705    6    0    1
 -2      1174      1215      1584      6441      2700      2701      2697     12519     10022     10023
 -1      9706    6    0    1
 -2      5562        22       182      5208      5600      5597      5601     12813     12521      5236
 -1      9707    6    0    1
 -2       466        64      3687      6456       710      3846     12055     12057     12864     12056
 -1      9708    6    0    1
 -2      3487      3704      3551      6446      4777      4776      4760     11643     12844     12785
 -1      9709    6    0    1
 -2      6100      6251      6225      6381      8725     11281     11567     12806     10795     12198
 -1      9710    6    0    1
 -2      6135      6311      6088      6367     12046     12646     11344     10171     10745     11953
 -1      9711    6    0    1
 -2      5527      5502      6345      6532      6010     12841     12629     12631     12727     12632
 -1      9712    6    0    1
 -2      1486      1300      1586      6517      3272      3193      2545     12171     11225     11404
 -1      9713    6    0    1
 -2      3497      3496      3501      6464      4697      4815      4814      8167     12018     12584
 -1      9714    6    0    1
 -2       167      3401      5470      3729      3877     12614      5680      3881      3883     12615
 -1      9715    6    0    1
 -2      1338      1273      1226      6534      2975      2974      2976     11679     10778     11998
 -1      9716    6    0    1
 -2      3774      3781      3418      6317      3815      3889      4386     12428     12866     11394
 -1      9717    6    0    1
 -2      1346      5441       131      5512     12088      5624      1664     12837      5629      5628
 -1      9718    6    0    1
 -2      3643      3640      3701      6430      4117      5123      5190     11590     11292     10053
 -1      9719    6    0    1
 -2      5212       451      5208      5209     11966     12226      5244      5233     11967      5245
 -1      9720    6    0    1
 -2       558      5418       116       577      8831      5421       756       721     11911       621
 -1      9721    6    0    1
 -2       318      3614      3388      6429      4139      4141      4137     12191      9575      9387
 -1      9722    6    0    1
 -2      1050       311      1397      6523      1943      1939      1944     10556      9455      7329
 -1      9723    6    0    1
 -2      6335      6336      6156      6434     12449      9616     12272     12703     10618     10312
 -1      9724    6    0    1
 -2      1524       306       305      6522      1924       405      1925      8761     11324      8034
 -1      9725    6    0    1
 -2      1151      1153      1152      6512      2572      2571      2564     11958     11856     11037
 -1      9726    6    0    1
 -2        10       457      5418       520       458      5424      5423       624      6822      6999
 -1      9727    6    0    1
 -2        95        94      5283       564       103      5308      5307       729       730      9989
 -1      9728    6    0    1
 -2      1309      1436      1310      6422      3291      3290      2885      8845      7486      9007
 -1      9729    6    0    1
 -2      6161      6172      6327      6455     12649     10009     11646      9874     11506      8946
 -1      9730    6    0    1
 -2      1111      1268      1431      6488      2356      2358      2328      8633     12576     10838
 -1      9731    6    0    1
 -2      5523      5559      5461      6284      5878      5877      5875     11481     10043      7176
 -1      9732    6    0    1
 -2      6221      6249      6094      6273     10013      6951      6808     11045      8515     11423
 -1      9733    6    0    1
 -2      3427      3687      3402      6456      4313      3847      4311     10165     12056     12763
 -1      9734    6    0    1
 -2       583       506       545      6358       988       986       987      8169     10906     12396
 -1      9735    6    0    1
 -2      6348      6357      6160      6505     11924      6755     10658     12657      8268     11184
 -1      9736    6    0    1
 -2      5532      5551       228      5419      5695      5596      5736      8216     11579      5425
 -1      9737    6    0    1
 -2      1391      6379      1401      6459      8904     11575      2056      8984     11798     11522
 -1      9738    6    0    1
 -2      6099      6244      6055      6435     12203      9379      9728      9970      9399     11194
 -1      9739    6    0    1
 -2      1549      1410      1299      6388      3265      3263      3266      9073      7661     12415
 -1      9740    6    0    1
 -2      1272      1588      1540      6399      3179      2166      3160      7795     11428      9214
 -1      9741    6    0    1
 -2       214      5337      5450      5340      5363      9451      5724      5348      5364     12775
 -1      9742    6    0    1
 -2       214      5563      5530      5340      5727      5729      5567      5348     11744     11431
 -1      9743    6    0    1
 -2      5282        93        92       576      5301       101      5302     10198       723       724
 -1      9744    6    0    1
 -2      6308      6310      6158      6450     12206     12181     11332     11686     12207     11685
 -1      9745    6    0    1
 -2      6127      6069      6204      6388      9741      9343      9846     12162     12850     10978
 -1      9746    6    0    1
 -2       584       525       581      6349       851       842       938      8993      7747      7695
 -1      9747    6    0    1
 -2      5558      5555      5499      6349      5912      5816      5825      8991      7170      7756
 -1      9748    6    0    1
 -2      3627      3631      3629      6405      4832      5166      5165     10792     10194     11214
 -1      9749    6    0    1
 -2      5435      5509       136      1347      5644      5643      5639     12541     11612      1683
 -1      9750    6    0    1
 -2      5550       196       195      5282      5697       204      5698     10168      5324      5323
 -1      9751    6    0    1
 -2      6279      6405      6169      6521     11167     10193     10095     12764     10761     11035
 -1      9752    6    0    1
 -2      1108      1547      1442      6458      2339      2343      2342     12045     12230     12231
 -1      9753    6    0    1
 -2      6053      6150      6253      6361     10639     12612      8172     11476     10868     11880
 -1      9754    6    0    1
 -2      1244      1289      1290      6519      3057      3062      3061     12600      9477      8415
 -1      9755    6    0    1
 -2      5440       167      5470      3729      5684      5680      5685     10132      3881     12615
 -1      9756    6    0    1
 -2      1540      1588      1072      6399      2166      2165      2163      9214     11428     12134
 -1      9757    6    0    1
 -2      6342      6379      6086      6459      8932     12843     10098     12770     11798     12867
 -1      9758    6    0    1
 -2      6068      6199      6190      6482     12386     11827     10797     12507     10737      7333
 -1      9759    6    0    1
 -2      1093      1057      1094      6312      1623      2087      2086     11669      7437     10325
 -1      9760    6    0    1
 -2      3580      3724      3761      6526      4869      4219      5128     11386     12824     12838
 -1      9761    6    0    1
 -2      1282      1281      1198      6382      2827      2819      2825     11531     11819     10405
 -1      9762    6    0    1
 -2      3431      3429      3799      6442      4447      4443      4448     11516      8917     11618
 -1      9763    6    0    1
 -2      5518      5514      5483      6341      5759      5973      5965     12011      8227     11910
 -1      9764    6    0    1
 -2      3738      3403       165      5437      3875      3869      3873     11987     11986      5674
 -1      9765    6    0    1
 -2       507       544      3697      6495       699     12779     11982     11984     12686     11985
 -1      9766    6    0    1
 -2      5442      6345      5515      6399     12497     12759      5780     12781     10103     12476
 -1      9767    6    0    1
 -2      6057      6454      6393      6531      8475      9402     11160     10756     12063     12626
 -1      9768    6    0    1
 -2      3487      6182      6428      6446     11642      9673     12558     11643      7214     10174
 -1      9769    6    0    1
 -2      6201      6291      6085      6513      8291      8160      8290     12205     11083     10575
 -1      9770    6    0    1
 -2      5474        15      3736      5197      5573      3811     12173     12859      5203      7571
 -1      9771    6    0    1
 -2      6136      6071      6315      6439     10428     10315      9583     10661     12622     10815
 -1      9772    6    0    1
 -2      1144      1143      1142      6498      2523      2477      2524      7886     11098     11835
 -1      9773    6    0    1
 -2      5439      1092       141      5533     12564      1704      5657      5658      9933      5654
 -1      9774    6    0    1
 -2      5441      5512      1346      6447      5629     12837     12088     12090     11025     12089
 -1      9775    6    0    1
 -2      6053      6253      6150      6532      8172     12612     10639      8175      8176     12823
 -1      9776    6    0    1
 -2       189       188      5546      5249       192      5691      5592      5275      5274     12786
 -1      9777    6    0    1
 -2      1276      1336      1257      6444      3118      3117      2805     12266      8246      9174
 -1      9778    6    0    1
 -2      6255      6421      6095      6446     11441      9777      8235      7595     12406      9831
 -1      9779    6    0    1
 -2      6134      6268      6215      6530     12217     12218     11498     12625     10389     11890
 -1      9780    6    0    1
 -2      1091        39        38       465      1653        54      1654     12547       595       683
 -1      9781    6    0    1
 -2       509      6101       540      6495     10500     11175       999     10294     10501     12855
 -1      9782    6    0    1
 -2      5290        92         6       575      5291       100      5292      8075       612       610
 -1      9783    6    0    1
 -2       544       509       540      6495       991       999       785     12686     10294     12855
 -1      9784    6    0    1
 -2      3417       331       332      6514      4178       431      4179     11978     12458     12033
 -1      9785    6    0    1
 -2       521       523       567      6242      1022      1023       766     10855     11412     11631
 -1      9786    6    0    1
 -2      6159      6069      6238      6402      9892     12158     12778     10426     12868     12411
 -1      9787    6    0    1
 -2      5436      5528      5493      6433      5749      5748      5635      7957     11186     10169
 -1      9788    6    0    1
 -2      5485      5484      5483      6510      5970      5967      5971     12486      9674     10318
 -1      9789    6    0    1
 -2      1579        34       468      1068      1632       672      8777      1639      1638      8778
 -1      9790    6    0    1
 -2      6140      6310      6128      6449     12680     12795     12372      8509     12735     12373
 -1      9791    6    0    1
 -2      5384       454        11       565      5388       455      5386      8488      9735       632
 -1      9792    6    0    1
 -2       133      5493      1574      5436      5634     12650      1672      5630      5635     12447
 -1      9793    6    0    1
 -2      5490      5489      5491      6390      5906      5989      5988     10074      9069     10543
 -1      9794    6    0    1
 -2      6168      6196      6073      6378      9373     12572      8513      9571     11820      7535
 -1      9795    6    0    1
 -2      3405      3680      3697      6495      4326      4328      3831     12706     11164     11985
 -1      9796    6    0    1
 -2      5528      5480      5488      6336      5958      5943      5959     11185      7323     12419
 -1      9797    6    0    1
 -2      3507      3506      3646      6468      4678      4866      4865     12671      9713     12609
 -1      9798    6    0    1
 -2       503       524       496      6350       943       708       942     11415     12291     12672
 -1      9799    6    0    1
 -2      3424      3791      3425      6350      4418      4417      4310     11759     11411      9848
 -1      9800    6    0    1
 -2      5509      5435      5510      6253      5644      5744      5743     11615     11894      8171
 -1      9801    6    0    1
 -2      5250        87        86       558      5270        90      5271     11876       719       720
 -1      9802    6    0    1
 -2      5510      5504      5502      6532      6007      6006      6008      8174     10574     12727
 -1      9803    6    0    1
 -2      5339      5289        19      5537      9992      5300      5351      6993      7639      5587
 -1      9804    6    0    1
 -2      3732      3733      3512      6462      4893      4892      4889     12420      9952     11795
 -1      9805    6    0    1
 -2      6126      6453      6207      6518     12262     12696     12256     12869     12721     11450
 -1      9806    6    0    1
 -2      3535      3667      3534      6346      4998      4997      4955     11630      9031      9971
 -1      9807    6    0    1
 -2      3682      3767      3669      6421      5073      5195      4825     11220      8567     10722
 -1      9808    6    0    1
 -2      3418       234       235      6317      3887       334      3888     11394     12259      8925
 -1      9809    6    0    1
 -2      5502      5504      5503      6532      6006      5950      6005     12727     10574     12774
 -1      9810    6    0    1
 -2      6091      6236      6484      6509      7929      8526      8524     12326      7321     10844
 -1      9811    6    0    1
 -2       502       503       501      6479       958       959       946     12593     11416      8152
 -1      9812    6    0    1
 -2      5418         9       116       577      5420       117      5421     11911       620       621
 -1      9813    6    0    1
 -2      3590      3416        57       546      3818      3817      3819      8858      8859       689
 -1      9814    6    0    1
 -2      1116      1108      1115      6458      2337      2330      2338     12236     12045      9433
 -1      9815    6    0    1
 -2      1579       535        33      1324     12627       669      1633      1636     12684      1634
 -1      9816    6    0    1
 -2       119        11      5401       472       121      5406      5404       630       631     12604
 -1      9817    6    0    1
 -2       520      5418       116       558      6999      5421       623       757      8831       756
 -1      9818    6    0    1
 -2      3727       289       290      6520      4052       389      4053      9961      9948     11466
 -1      9819    6    0    1
 -2      1065      1341      1414      6436      2131      2130      1833     10789      9247      7947
 -1      9820    6    0    1
 -2      3773      3417      3780      6514      4385      4181      3851     12311     11978     12870
 -1      9821    6    0    1
 -2      6100      6183      6430      6526      8102     11440      8728     12833     11653     12839
 -1      9822    6    0    1
 -2      1326      1561      1207      6411      2876      2679      2874     12426      8483     10223
 -1      9823    6    0    1
 -2      6177      6394      6168      6508     11641     12073     12459     11873     10114      6672
 -1      9824    6    0    1
 -2      5418       116        10       520      5421       118      5423      6999       623       624
 -1      9825    6    0    1
 -2      1336      1538      1257      6444      3120      3119      3117      8246     12316      9174
 -1      9826    6    0    1
 -2      3685      3673      3468      6496      4674      4021      4672     11789      7338      8254
 -1      9827    6    0    1
 -2      3405      3521      3680      6495      4324      4327      4326     12706      9270     11164
 -1      9828    6    0    1
 -2      6148      6127      6320      6388     12390     12161     10461     12805     12162     12163
 -1      9829    6    0    1
 -2      3424      3402        63       496      3842      3841      3843     12811     12847       707
 -1      9830    6    0    1
 -2       182       181      5562      5208       185      5687      5601      5236      5235     12813
 -1      9831    6    0    1
 -2      1457      1143      1450      6493      2478      2533      2532     10233     12028      9665
 -1      9832    6    0    1
 -2      3580      3761      6430      6526      5128     10449     11418     11386     12838     12839
 -1      9833    6    0    1
 -2      5211      5562       181      5208     12761      5687      5223      5237     12813      5235
 -1      9834    6    0    1
 -2      3676      3626       287      6450      4048      4044      4046     11274      8786      9197
 -1      9835    6    0    1
 -2      6079      6224      6184      6504     12282     11740      9428     12788     10975     12511
 -1      9836    6    0    1
 -2      6121      6326      6117      6490     10849      9077     12190     12508     12554     11032
 -1      9837    6    0    1
 -2         1       231      1453      5341       232      1594      1593      5342      5344     12102
 -1      9838    6    0    1
 -2      3519       162      5518      5438      3862      5669     12802     12871      5665      5670
 -1      9839    6    0    1
 -2      6250      6259      6074      6353     12695     12693      7245     12370     10562     12560
 -1      9840    6    0    1
 -2       433       436      6389      6467      5207      7380     12491     12492     12738      9657
 -1      9841    6    0    1
 -2      1502      1281      1476      6474      3201      3198      2224     12739     12596      9470
 -1      9842    6    0    1
 -2      1349      1107      1571      6528      2333      2334      2336     10190     10682     10957
 -1      9843    6    0    1
 -2      5549       195        18      5290      5586       203      5584      6806      5298      5297
 -1      9844    6    0    1
 -2      3796      3658      3622      6407      4852      4303      5150     11722      8796      8354
 -1      9845    6    0    1
 -2       140      1089      5434      5533      1701      9492      5651      5655      9931      5656
 -1      9846    6    0    1
 -2      3519      5438      5518      6341     12871      5670     12802     12499     12540     12011
 -1      9847    6    0    1
 -2      6161      6220      6172      6455     12862      9191     12649      9874     11505     11506
 -1      9848    6    0    1
 -2      5197       433      3736      6467      5205      3812      7571      8826     12492     12174
 -1      9849    6    0    1
 -2      6064      6221      6220      6249      6809     11792     12717      6952     10013     12111
 -1      9850    6    0    1
 -2      6045      6415      6265      6527      9580     12769     11190      9659     12639     11493
 -1      9851    6    0    1
 -2      6055      6245      6047      6442      9381     10243     11251     11610     10347     11253
 -1      9852    6    0    1
 -2      3666      3398      3704      6428      3991      4291      4293     12480      8332     12068
 -1      9853    6    0    1
 -2      1335      1362      1097      6366      2280      2265      2281     11502      7975     10750
 -1      9854    6    0    1
 -2      5473      5507       129      1321      5623      5622      5618     10328     12195      1658
 -1      9855    6    0    1
 -2      5512      5441      5519      6447      5629      5775      5774     11025     12090     10802
 -1      9856    6    0    1
 -2      3605      3394      3603      6455      3913      4272      4271      8746      9635      9051
 -1      9857    6    0    1
 -2      5510      5527      5509      6253      6009      5778      5743      8171     12630     11615
 -1      9858    6    0    1
 -2      3519      3744      5438      6341      3864     12538     12871     12499      9438     12540
 -1      9859    6    0    1
 -2      1189      1434      1178      6509      2723      2722      2720      9048     12619     10918
 -1      9860    6    0    1
 -2       506       590       545      6358       912       953       986     10906     12131     12396
 -1      9861    6    0    1
 -2       330      3593      3408      6402      4175      4177      4173      8640     10525      9784
 -1      9862    6    0    1
 -2      1582      1072      1588      6399      1697      2165      2167     11945     12134     11428
 -1      9863    6    0    1
 -2       544       507       509      6495       699       990       991     12686     11984     10294
 -1      9864    6    0    1
 -2      3558      3647      3664      6409      5088      3970      5087     11376     11891     12010
 -1      9865    6    0    1
 -2       496      3402        64      6456     12847      3840       706     12705     12763     12864
 -1      9866    6    0    1
 -2       540      6062       471      6232     10972     12186       818     12872     12185     12184
 -1      9867    6    0    1
 -2      3781       234      3418      6317      3803      3887      3889     12866     12259     11394
 -1      9868    6    0    1
 -2      3583      3516      3584      6533      4491      4907      4441     12484     10820      6865
 -1      9869    6    0    1
 -2        17      5251       439      5215      5261      5263       441      5226     11305      5227
 -1      9870    6    0    1
 -2      5514      5496      6069      6159      5793     10189      9888      9890     11767      9892
 -1      9871    6    0    1
 -2       461       536      6262      6525       770      7634     11603     12545      7635      7636
 -1      9872    6    0    1
 -2      6058      6125      6365      6466     11746     11724     12873     10268      6653     12634
 -1      9873    6    0    1
 -2      6157      6323      6196      6394      8577     11857     12573     12580     11061     10003
 -1      9874    6    0    1
 -2      5513      1072       138      1582     12440      1695      5649     12852      1697      1691
 -1      9875    6    0    1
 -2       439      5251      5254      5210      5263      5280      5257      5221     11886     12243
 -1      9876    6    0    1
 -2       496        64       466      6456       706       710       711     12705     12864     12057
 -1      9877    6    0    1
 -2      5289       202        19      5537      5299       211      5300      7639      5588      5587
 -1      9878    6    0    1
 -2      5513      5442      5515      6399      5650      5780      5779     12442     12781     12476
 -1      9879    6    0    1
 -2      6195      6419      6261      6479     10958     12132      8418      8153     12017     11667
 -1      9880    6    0    1
 -2      6259      6297      6074      6353     10404      6605     12693     10562     11916     12560
 -1      9881    6    0    1
 -2      3564      3563      3720      6347      4400      5095      5094     10255      9958     12223
 -1      9882    6    0    1
 -2      1168      1463      1138      6461      2503      2411      2501      7830     11588     10266
 -1      9883    6    0    1
 -2        60       507       544      3697       698       699       694      3830     11982     12779
 -1      9884    6    0    1
 -2      3415       160      5520      3588      3852      5663     12461      3855      3854     12142
 -1      9885    6    0    1
 -2       231        13      1477      5340       233      1598      1600      5350      5349     11430
 -1      9886    6    0    1
 -2      1303        36       539       460      1640       674     12792     12452       678       679
 -1      9887    6    0    1
 -2      5384        12       451       588      5389       452      5390     12799       640     12827
 -1      9888    6    0    1
 -2      6301      6444      6149      6478     10377     12385     11883     12667     12013     12719
 -1      9889    6    0    1
 -2        87      5252       575       558      5259      8154       611       719      8832       722
 -1      9890    6    0    1
 -2       111       556       589      5341       593       755       753      5343     12101     12248
 -1      9891    6    0    1
 -2      1572       533        26      1319      9668       648      1608      1611      7026      1609
 -1      9892    6    0    1
 -2      1519      1307      1354      6465      3285      3281      2008     12750     11992     12320
 -1      9893    6    0    1
 -2      6064      6172      6161      6220      9023     12649      7587     12717      9191     12862
 -1      9894    6    0    1
 -2      6228      6100      6381      6468     12710     12806     12645      7868     12857     12608
 -1      9895    6    0    1
 -2      1504      1414      1341      6436      3081      2130      3226     12286      7947      9247
 -1      9896    6    0    1
 -2      1582       137      5442      1325      1690      5646     12736      1694      1693     12496
 -1      9897    6    0    1
 -2      6149      6478      6298      6507     12719     11236     12845     11884     12616     12375
 -1      9898    6    0    1
 -2       512       579       511      6469      1002      1003      1001     12107     12482     10354
 -1      9899    6    0    1
 -2      3501      3502      3497      6464      4818      4817      4814     12584     12501      8167
 -1      9900    6    0    1
 -2       525       109       110      5338       748       113       747      7744      5354      5353
 -1      9901    6    0    1
 -2      6296      6359      6091      6509     11238      8885     11382      9047      7320     12326
 -1      9902    6    0    1
 -2       514       561       504      6295       971       972       970     12274     12498     11943
 -1      9903    6    0    1
 -2      3714      3526      3523      6424      4943      4942      4932     11301     10086      8262
 -1      9904    6    0    1
 -2        17       188      5251      5545       191      5262      5261      5581      5583     11307
 -1      9905    6    0    1
 -2      3746      3520        59       464      3828      3827      3821     12704     12306       691
 -1      9906    6    0    1
 -2       464       546      3746      6222       693     12677     12704     12305     12678     11939
 -1      9907    6    0    1
 -2      3796      3503      3658      6407      4851      4060      4852     11722     12531      8796
 -1      9908    6    0    1
 -2      5338       212       213      5499      5360       216      5361      7754      5722      5721
 -1      9909    6    0    1
 -2       464       544       540      6222       696       785       784     12305     12821     12528
 -1      9910    6    0    1
 -2      1092      1089       141      5533      1706      1702      1704      9933      9931      5654
 -1      9911    6    0    1
 -2      3551      3484      3487      6446      4759      4757      4760     12785      7593     11643
 -1      9912    6    0    1
 -2      6158      6411      6233      6465     11542     10057      9911     12469     12473     11990
 -1      9913    6    0    1
 -2      5503      5479      5553      6371      5948      5952      5951     12742     10675      9255
 -1      9914    6    0    1
 -2      6143      6275      6303      6468     11862     11487      8838     11681      9557      9694
 -1      9915    6    0    1
 -2      3770      3673      3685      6496      4261      4674      5114      9898      7338     11789
 -1      9916    6    0    1
 -2      6298      6086      6459      6478     12024     12867     11529     11236     12722     12744
 -1      9917    6    0    1
 -2      5494      5532       228      5417      5737      5736      5613      6888      6695      5429
 -1      9918    6    0    1
 -2        85        86       572      5249        89       618       717      5268      5267     12777
 -1      9919    6    0    1
 -2       141       142      1092      5439       157      1705      1704      5657      5569     12564
 -1      9920    6    0    1
 -2       168      5474      3736      3592      5574     12173      3810      3885      9194      3886
 -1      9921    6    0    1
 -2      6180      6204      6069      6238     11929      9343     12377     10845     11729     12158
 -1      9922    6    0    1
 -2      5249       572        85      5254     12777       717      5268      5269     12725      5255
 -1      9923    6    0    1
 -2      1309      1512      1436      6422      3292      2215      3291      8845     11831      7486
 -1      9924    6    0    1
 -2      6209      6106      6339      6407      8697      8736      9311     10031     12220     12621
 -1      9925    6    0    1
 -2      1146      1144      1142      6498      2525      2524      2526     11927      7886     11835
 -1      9926    6    0    1
 -2      1440      1435      1088      6460      2239      2238      1665     12215      7701     12128
 -1      9927    6    0    1
 -2      6278      6363      6155      6452     12746      8482     12361     12481     12583     10813
 -1      9928    6    0    1
 -2      3534      3667      3756      6346      4997      4242      5000      9971      9031     11414
 -1      9929    6    0    1
 -2       536       537       461      6262       771       772       770      7634      9752     11603
 -1      9930    6    0    1
 -2      3607      3747      3392      6470      4265      4264      4162      7989     12437      8191
 -1      9931    6    0    1
 -2        11       122      5384       565       123      5387      5386       632       633      8488
 -1      9932    6    0    1
 -2      5337       213       214      5450      5362       217      5363      9451      5725      5724
 -1      9933    6    0    1
 -2      3424        63      3739       524      3843      3837      3844     12592       703     12066
 -1      9934    6    0    1
 -2      6161      6222      6101      6424     10984     12530     12561     12237     12439     12698
 -1      9935    6    0    1
 -2      6065      6434      6193      6499     10311     11082     12730     12430     12407     11751
 -1      9936    6    0    1
 -2       514       504       506      6295       970       911       969     12274     11943     10905
 -1      9937    6    0    1
 -2      6276      6308      6106      6520     12754     12591     11914     12214     12349     12828
 -1      9938    6    0    1
 -2      6314      6325      6077      6462     12252      7263     12253     10821     10486     11357
 -1      9939    6    0    1
 -2      6196      6197      6073      6496     12391     12139     12572      8253     11375     12807
 -1      9940    6    0    1
 -2      3717      3379      3755      6487      4203      4200      4204     11102      7914     11216
 -1      9941    6    0    1
 -2      1476      1084      1502      6474      2222      2223      2224      9470      7353     12739
 -1      9942    6    0    1
 -2      3701      3761      3643      6430      5127      4218      5190     10053     10449     11590
 -1      9943    6    0    1
 -2      5504      5479      5503      6371      5949      5948      5950     10248     10675     12742
 -1      9944    6    0    1
 -2      3725      3546      3543      6435      5049      5038      5050      9880      7741     11706
 -1      9945    6    0    1
 -2       131       132      1071      5512       147      1669      1668      5628      5627     11022
 -1      9946    6    0    1
 -2      1073       467        27      1572     11078       651      1613      1614     11079      1607
 -1      9947    6    0    1
 -2       190       189      5532      5250       193      5694      5693      5278      5277      9976
 -1      9948    6    0    1
 -2      5438      3519       162      3744     12871      3862      5665     12538      3864      3858
 -1      9949    6    0    1
 -2      5508      5531      5507      6460      5924      5773      5928     10960     12490     12197
 -1      9950    6    0    1
 -2      1326      1354      1307      6465      3282      3281      3283     12319     12320     11992
 -1      9951    6    0    1
 -2         7       109       563      5339       112       615       613      5346      5345      6992
 -1      9952    6    0    1
 -2       535        34       468      1579       668       672       673     12627      1632      8777
 -1      9953    6    0    1
 -2      5252        87      5250       558      5259      5270      5273      8832       719     11876
 -1      9954    6    0    1
 -2      3795      3772      3449      6494      4565      4564      4501     12436     11221     12516
 -1      9955    6    0    1
 -2      5514      5445      5496      6159      5792      5790      5793      9890     11766     11767
 -1      9956    6    0    1
 -2       521       567       460      6242       766       767       764     10855     11631     12661
 -1      9957    6    0    1
 -2      6136      6444      6342      6478     10235     10364      8282     12861     12013     12332
 -1      9958    6    0    1
 -2      6066      6489      6169      6521      8605      9791      9067     12848     11034     11035
 -1      9959    6    0    1
 -2       133      5493      1058      1574      5634      9682      1676      1672     12650      1678
 -1      9960    6    0    1
 -2      5442      5513       138      1582      5650      5649      5645     12736     12852      1691
 -1      9961    6    0    1
 -2      6196      6073      6378      6496     12572      7535     11820      8253     12807     11398
 -1      9962    6    0    1
 -2      6119      6322      6309      6409     12424      9868     12065     12840     12003     12156
 -1      9963    6    0    1
 -2       442      5253        18      5290      5266      5265       444      5293     10981      5297
 -1      9964    6    0    1
 -2      6077      6137      6101      6314     12030     12031      9276     12253     10567     12536
 -1      9965    6    0    1
 -2       539       567       541      6484       768      1030       805     12568     11633      8525
 -1      9966    6    0    1
 -2      6058      6337      6241      6365     10138      8619     10270     12873     10697     11074
 -1      9967    6    0    1
 -2      1564       234       465      6317      1597     12863     12548     12258     12259     12874
 -1      9968    6    0    1
 -2       496       466       574      6456       711       791       792     12705     12057      8269
 -1      9969    6    0    1
 -2       465       559      1091      6374       684     12842     12547     12875     11825     12836
 -1      9970    6    0    1
 -2      1501      1554      1287      6453      2025      3222      3134     12360     11699      9859
 -1      9971    6    0    1
 -2       283       284      3660      6483       383      4035      4034     10340     12773     11563
 -1      9972    6    0    1
 -2      1303      1478      1263      6484      1644      3146      3147     12127     10522     10843
 -1      9973    6    0    1
 -2      6204      6380      6127      6388     12104     11931      9846     10978     10445     12162
 -1      9974    6    0    1
 -2      3417       332      3780      6514      4179      3809      4181     11978     12033     12870
 -1      9975    6    0    1
 -2      3532      3533      3561      6513      4982      4988      4987      9619     12611     10924
 -1      9976    6    0    1
 -2      1370      5439      1565      6514     12562     12563      2005     12035     12876     12034
 -1      9977    6    0    1
 -2      6251      6381      6100      6526     10795     12806      8725     12877     12825     12833
 -1      9978    6    0    1
 -2      3603      3394      3683      6455      4272      4274      4273      9051      9635      8955
 -1      9979    6    0    1
 -2      3740      3555      3585      6491      5081      4879      4268      8800      9330     12655
 -1      9980    6    0    1
 -2      5384       122        12       588      5387       124      5389     12799       642       640
 -1      9981    6    0    1
 -2      5210      5254         5       571     12243      5256      5219     12245     12251       607
 -1      9982    6    0    1
 -2      5215       183        17      5545      5225       187      5226     10038      5582      5581
 -1      9983    6    0    1
 -2       579       585       505      6438       982       983       978     12597     12570     12589
 -1      9984    6    0    1
 -2      3466      3710      3709      6415      4660      4662      4623     11714     11256     12803
 -1      9985    6    0    1
 -2      5210         5        80       571      5219        84      5220     12245       607       608
 -1      9986    6    0    1
 -2      6302      6356      6126      6518     12022     12020     12019     12765     11833     12869
 -1      9987    6    0    1
 -2      6342      6459      6086      6478     12770     12867     10098     12332     12744     12722
 -1      9988    6    0    1
 -2      3499      3789      3696      6473      4524      4512      4835     12140     12601     12471
 -1      9989    6    0    1
 -2       182       183      5213      5544       186      5239      5238      5598      5689     10913
 -1      9990    6    0    1
 -2      1071      1305      1346      6447      2159      2158      1670     11023      9870     12089
 -1      9991    6    0    1
 -2      5527      5515      5442      6345      5781      5780      5777     12629     12759     12497
 -1      9992    6    0    1
 -2      1093        31        30       519      1621        46      1622     12106       659       660
 -1      9993    6    0    1
 -2      3697        61       507      3515      3829       697     11982      3836      3835     11983
 -1      9994    6    0    1
 -2      6308      6339      6106      6520     12327      8736     12591     12349     12787     12828
 -1      9995    6    0    1
 -2       510       512       511      6469      1000      1001       996      8108     12107     10354
 -1      9996    6    0    1
 -2      6184      6294      6079      6504      8871     10082      9428     12511     12688     12788
 -1      9997    6    0    1
 -2       499        25        26      1090       645        41       644     10006      1605      1604
 -1      9998    6    0    1
 -2      6074      6297      6171      6353      6605      6606      6604     12560     11916      8864
 -1      9999    6    0    1
 -2        24       225      5487      5402       227      5612      5611      5412      5411      7824
 -1     10000    6    0    1
 -2      6023      6393      6454      6531      9558      9402      8575     11733     12626     12063
 -1     10001    6    0    1
 -2      5252         6        87       575      5258        91      5259      8154       610       611
 -1     10002    6    0    1
 -2      5546       188      5251      5249      5691      5262     12797     12786      5274      5276
 -1     10003    6    0    1
 -2       331      6402      6180      6514     11327     11812      9729     12458     12144     12794
 -1     10004    6    0    1
 -2      6251      6100      6430      6526      8725      8728      8729     12877     12833     12839
 -1     10005    6    0    1
 -2      3559      3666      3704      6428      5089      4293      4778     12557     12480     12068
 -1     10006    6    0    1
 -2         9       572       448      5367       617     12846       449      5370     12724      5371
 -1     10007    6    0    1
 -2      3507      6468      6381      6526     12671     12608     12801     12818     12819     12825
 -1     10008    6    0    1
 -2      6097      6493      6230      6517      9617     11345      8356     12755     11468     11503
 -1     10009    6    0    1
 -2      6310      6377      6128      6449     12835     12369     12795     12735     11492     12373
 -1     10010    6    0    1
 -2      6275      6100      6468      6526     11486     12857      9557     12479     12833     12819
 -1     10011    6    0    1
 -2      3590        57      3774       470      3819      3813      3820     12585       685     12808
 -1     10012    6    0    1
 -2      1564       465      1369      6317     12548     12546      1713     12258     12874     12260
 -1     10013    6    0    1
 -2       559       521       460      6242       765       764       682     12814     10855     12661
 -1     10014    6    0    1
 -2      6119      6309      6146      6409     12065     10985     11257     12840     12156     11728
 -1     10015    6    0    1
 -2       548       503       502      6479       962       958       961     10878     11416     12593
 -1     10016    6    0    1
 -2      6207      6302      6126      6518     11703     12019     12256     11450     12765     12869
 -1     10017    6    0    1
 -2       540       522       471      6062       819       816       818     10972      9324     12186
 -1     10018    6    0    1
 -2      5526      5562       181      5211      5688      5687      5576      9126     12761      5223
 -1     10019    6    0    1
 -2       563        99         7      5289       614       108       613      7638      5295      5294
 -1     10020    6    0    1
 -2       522       521       471      6374       817       789       816     11952     10858     12187
 -1     10021    6    0    1
 -2      5478      5488      5480      6336      5944      5943      5885      9615     12419      7323
 -1     10022    6    0    1
 -2       470      3590        57       546     12585      3819       685       690      8858       689
 -1     10023    6    0    1
 -2      5503      5485      5501      6472      5979      5978      5980     12743     12356     11828
 -1     10024    6    0    1
 -2      6432      6473      6066      6494     12812     11304      7375     12435     12294     12176
 -1     10025    6    0    1
 -2       524        62      3739       463       704      3838     12066       705       700      9401
 -1     10026    6    0    1
 -2      5498      3738       165      5437     11813      3873      5678      5679     11987      5674
 -1     10027    6    0    1
 -2      3593      6402       331      6514     10525     11327      4176     11979     12144     12458
 -1     10028    6    0    1
 -2      6058      6125      6337      6365     11746     12413     10138     12873     11724     10697
 -1     10029    6    0    1
 -2      1113      1268      1111      6488      2357      2356      2354     12037     12576      8633
 -1     10030    6    0    1
 -2      1304      1571      1107      6528      2335      2334      2317     10654     10957     10682
 -1     10031    6    0    1
 -2      1181      1174      1584      6441      2586      2697      2696     12454     12519     10023
 -1     10032    6    0    1
 -2       461       535       536      6525       670       769       770     12545     12628      7635
 -1     10033    6    0    1
 -2       125       572      5367       571       622     12724      5369       763       718     12244
 -1     10034    6    0    1
 -2      5541      5513      5515      6399      5742      5779      6004     12092     12442     12476
 -1     10035    6    0    1
 -2      6172      6062      6327      6477      9022     12854     10009     11095     12878     11981
 -1     10036    6    0    1
 -2      6075      6258      6207      6453     12025     11625     12255     12690     10128     12696
 -1     10037    6    0    1
 -2       111       110      5337       476       114      5357      5356       750       751      9712
 -1     10038    6    0    1
 -2      5254        85         5       571      5255        88      5256     12251       609       607
 -1     10039    6    0    1
 -2      5444      5520       160      3588      5664      5663      5659     12313     12142      3854
 -1     10040    6    0    1
 -2      3759      3653      3385      6482      4232      4231      4228     11116     10951      7342
 -1     10041    6    0    1
 -2      3440      3444      3700      6504      4515      4517      4498     12510      8950     12689
 -1     10042    6    0    1
 -2      6113      6282      6192      6488     10401     11290     10147     10213     11096      7230
 -1     10043    6    0    1
 -2      1369       465      1091      6374     12546     12547      2253     10863     12875     12836
 -1     10044    6    0    1
 -2      5520      5445      6159      6514      5789     11766     12462     12143     12879     12865
 -1     10045    6    0    1
 -2      5520      5438       161      3415      5667      5666      5662     12461     12539      3853
 -1     10046    6    0    1
 -2       538        28        29      1314       654        44       653      6971      1616      1615
 -1     10047    6    0    1
 -2      6079      6504      6294      6533     12788     12688     10082     11229     10819     11934
 -1     10048    6    0    1
 -2      1108      1116      1547      6458      2337      2340      2339     12045     12236     12230
 -1     10049    6    0    1
 -2      5530        13       214      5340      5566       218      5567     11431      5349      5348
 -1     10050    6    0    1
 -2       585       487       586      6420       903       892       905     12331      8574     11133
 -1     10051    6    0    1
 -2      3773      5444       160      3588     12757      5659      3850      3856     12313      3854
 -1     10052    6    0    1
 -2       552         4        78      5214       603        81       602      9928      5217      5216
 -1     10053    6    0    1
 -2      5531      5441      5507      6460      5772      5626      5773     12490     12578     12197
 -1     10054    6    0    1
 -2       572         9       125      5367       617       127       622     12724      5370      5369
 -1     10055    6    0    1
 -2      5439       159      3780      5444      5570      3808     12831      5661      5660     12880
 -1     10056    6    0    1
 -2        56       465      3781       470       596     12832      3801       686       687     12881
 -1     10057    6    0    1
 -2       540      6222      6062      6232     12528     12529     10972     12872     12700     12185
 -1     10058    6    0    1
 -2      3580      3752      3507      6526      4730      4680      4871     11386     12344     12818
 -1     10059    6    0    1
 -2      1574       132       133      5436      1671       148      1672     12447      5631      5630
 -1     10060    6    0    1
 -2      6058      6365      6241      6466     12873     11074     10270     10268     12634     10269
 -1     10061    6    0    1
 -2      6128      6279      6449      6483     12371      8511     12373     12535     12366     12767
 -1     10062    6    0    1
 -2       467       533        27      1572       652       647       651     11079      9668      1607
 -1     10063    6    0    1
 -2       433      5197       436      6467      5205      5206      5207     12492      8826     12738
 -1     10064    6    0    1
 -2        34        35       468      1068        50       671       672      1638      1637      8778
 -1     10065    6    0    1
 -2      3507      3724      3580      6526      4870      4869      4871     12818     12824     11386
 -1     10066    6    0    1
 -2       588       552        78      5214       714       602       713     12798      9928      5216
 -1     10067    6    0    1
 -2      5526       181        16      5211      5576       184      5577      9126      5223      5222
 -1     10068    6    0    1
 -2       588        78        79      5212       713        82       641     12800      5229      5228
 -1     10069    6    0    1
 -2         1        25       556      1453        40       591       592      1593      1592     11783
 -1     10070    6    0    1
 -2      6314      6424      6101      6495     12768     12698     12536     12254     10390     10501
 -1     10071    6    0    1
 -2      3709      3710      3705      6415      4662      5102      4613     12803     11256     12723
 -1     10072    6    0    1
 -2      3507      3469      3506      6468      4677      4675      4678     12671      9556      9713
 -1     10073    6    0    1
 -2      6081      6274      6210      6338     12610     11250     11248     10380     10108     11752
 -1     10074    6    0    1
 -2        78       588      5214      5212       713     12798      5216      5229     12800      5230
 -1     10075    6    0    1
 -2       461        32        33      1066       666        48       665     11602      1630      1629
 -1     10076    6    0    1
 -2      6172      6178      6062      6477     10060     10807      9022     11095      9076     12878
 -1     10077    6    0    1
 -2      3389      3775      3610      6507      4250      4252      4150     11809     11569     11846
 -1     10078    6    0    1
 -2      1565      1092       142      5439      1707      1705      1601     12563     12564      5569
 -1     10079    6    0    1
 -2      6101      6314      6137      6424     12536     10567     12031     12698     12768     12334
 -1     10080    6    0    1
 -2        29        30       462      1057        45       656       657      1619      1618      7436
 -1     10081    6    0    1
 -2       332      1565      5439      6514      1603     12563     12856     12033     12034     12876
 -1     10082    6    0    1
 -2      5368       219        22      5544      5377       221      5378     10914      5602      5599
 -1     10083    6    0    1
 -2      5545       188      5251      5546      5583      5262     11307      5692      5691     12797
 -1     10084    6    0    1
 -2       544        59        60      3405       695        70       694     12780      3825      3824
 -1     10085    6    0    1
 -2      6090      6362      6210      6416     11755     10306     11247     12078     11576     10877
 -1     10086    6    0    1
 -2      5198       433       436      6389      5201      5207      5202     10630     12491      7380
 -1     10087    6    0    1
 -2      3774       470      3781      6317     12808     12881      3815     12428     12586     12866
 -1     10088    6    0    1
 -2      3795      3467      3772      6494      4670      4666      4565     12436     11806     11221
 -1     10089    6    0    1
 -2       588        79        12      5212       641       637       640     12800      5228     12468
 -1     10090    6    0    1
 -2       535       553       536      6525       804      1035       769     12628      9810      7635
 -1     10091    6    0    1
 -2       559       521      6242      6374       765     10855     12814     11825     10858     10859
 -1     10092    6    0    1
 -2      1328        32        31       550      1624        47      1625      7589       662       663
 -1     10093    6    0    1
 -2      6180      6238      6069      6402     10845     12158     12377     11812     12411     12868
 -1     10094    6    0    1
 -2      6087      6260      6223      6329     11919     12467     12114     12300     10885     11084
 -1     10095    6    0    1
 -2        27        28       467      1073        43       650       651      1613      1612     11078
 -1     10096    6    0    1
 -2      6182      6428      6311      6487      9673     11196     12647     12098     12682     11291
 -1     10097    6    0    1
 -2      5339        19       212      5537      5351       215      5352      6993      5587      5589
 -1     10098    6    0    1
 -2      6232      6327      6062      6477     12829     12854     12185     11923     11981     12878
 -1     10099    6    0    1
 -2      5495      5439      5533      6180      5764      5658      5739     12378     12849     11031
 -1     10100    6    0    1
 -2        18       190      5549      5253       194      5585      5584      5265      5264      9951
 -1     10101    6    0    1
 -2      5520      5444      5445      6514      5664      5761      5789     12143     12314     12879
 -1     10102    6    0    1
 -2      1370      6180      5439      6514      9730     12849     12562     12035     12794     12876
 -1     10103    6    0    1
 -2       163       162      5518      3406       173      5669      5668      3861      3860      8076
 -1     10104    6    0    1
 -2      6128      6449      6377      6483     12373     11492     12369     12535     12767     11488
 -1     10105    6    0    1
 -2         5       439      5254      5210       440      5257      5256      5219      5221     12243
 -1     10106    6    0    1
 -2      1303        36        35       539      1640        51      1641     12792       674       675
 -1     10107    6    0    1
 -2      5445      5439      5495      6180      5762      5764      5763     12860     12849     12378
 -1     10108    6    0    1
 -2      1091      1564        39       465      1656      1596      1653     12547     12548       595
 -1     10109    6    0    1
 -2      3773      3780      5444      6514      3851     12880     12757     12311     12870     12314
 -1     10110    6    0    1
 -2      6215      6277      6134      6530     12146     12753     11498     11890     11077     12625
 -1     10111    6    0    1
 -2       546      6232       471      6317     10974     12184       815     12587     12239     12858
 -1     10112    6    0    1
 -2      5545      5366       219      5546     10040      5375      5730      5692     12740      5595
 -1     10113    6    0    1
 -2       471       521       465      6374       789       790       788     12187     10858     12875
 -1     10114    6    0    1
 -2       138       139      1072      5513       154      1696      1695      5649      5648     12440
 -1     10115    6    0    1
 -2      6310      6449      6140      6450     12735      8509     12680     12207     11121     11684
 -1     10116    6    0    1
 -2      5290       442      5253      5252      5293      5266     10981      6807      5260      5281
 -1     10117    6    0    1
 -2       466        64        65      3687       710        75       709     12055      3846      3845
 -1     10118    6    0    1
 -2       137       136      5509      1067       152      5643      5642      1688      1687     11613
 -1     10119    6    0    1
 -2       556       111         1      5341       593       115       592     12101      5343      5342
 -1     10120    6    0    1
 -2      6086      6429      6298      6459     12450      8182     12024     12867     12192     11529
 -1     10121    6    0    1
 -2      5495      5496      5445      6180      5791      5790      5763     12378     12822     12860
 -1     10122    6    0    1
 -2       134       133      5493      1058       149      5634      5633      1677      1676      9682
 -1     10123    6    0    1
 -2        33        34       535      1579        49       668       669      1633      1632     12627
 -1     10124    6    0    1
 -2       135       134      5524      1526       150      5637      5636      1680      1679      9637
 -1     10125    6    0    1
 -2       500        65         3      3694       600        76       599     12228      3805      3804
 -1     10126    6    0    1
 -2      5254       572        85       571     12725       717      5255     12251       718       609
 -1     10127    6    0    1
 -2       136       135      5435      1347       151      5640      5639      1683      1682     12541
 -1     10128    6    0    1
 -2       131       130      5441      1346       146      5625      5624      1664      1663     12088
 -1     10129    6    0    1
 -2      5446       225        23      5400      5606       226      5607     11635      5409      5408
 -1     10130    6    0    1
 -2      5514      5518      5438      6341      5759      5670      5758      8227     12011     12540
 -1     10131    6    0    1
 -2       164       165      3403      5437       175      3869      3868      5675      5674     11986
 -1     10132    6    0    1
 -2      6062      6232      6222      6327     12185     12700     12529     12854     12829     11262
 -1     10133    6    0    1
 -2      6086      6379      6259      6459     12843     11484     12694     12867     11798     12733
 -1     10134    6    0    1
 -2      6086      6259      6429      6459     12694     11252     12450     12867     12733     12192
 -1     10135    6    0    1
 -2      6178      6232      6062      6477     12044     12185     10807      9076     11923     12878
 -1     10136    6    0    1
 -2      5494       228        24      5417      5613       229      5614      6888      5429      5428
 -1     10137    6    0    1
 -2       138       137      5442      1582       153      5646      5645      1691      1690     12736
 -1     10138    6    0    1
 -2       463        61        62      3404       701        72       700      9315      3833      3832
 -1     10139    6    0    1
 -2      3565      3705      3710      6415      4653      5102      5101      8723     12723     11256
 -1     10140    6    0    1
 -2      5507       130       129      1088      5621       145      5622     12196      1661      1660
 -1     10141    6    0    1
 -2       168       167      5440      3729       178      5684      5683      3882      3881     10132
 -1     10142    6    0    1
 -2       546       471       470      6317       815       787       690     12587     12858     12586
 -1     10143    6    0    1
 -2        58        57      3416       546        68      3817      3816       688       689      8859
 -1     10144    6    0    1
 -2      5439      6180      5445      6514     12849     12860      5762     12876     12794     12879
 -1     10145    6    0    1
 -2      5520       161       160      3415      5662       171      5663     12461      3853      3852
 -1     10146    6    0    1
 -2       471       465      6317      6374       788     12874     12858     12187     12875     12679
 -1     10147    6    0    1
 -2        37        36      1074       460        52      1646      1645       677       678     12451
 -1     10148    6    0    1
 -2      5473       129       128      1321      5618       144      5619     10328      1658      1657
 -1     10149    6    0    1
 -2      6100      6381      6468      6526     12806     12608     12857     12833     12825     12819
 -1     10150    6    0    1
 -2      3780      5444       159      3773     12880      5660      3808      3851     12757      3849
 -1     10151    6    0    1
 -2      3774        56      3781       470      3814      3801      3815     12808       686     12881
 -1     10152    6    0    1
 -2       465       521       559      6374       790       765       684     12875     10858     11825
 -1     10153    6    0    1
 -2      3401       166       167      5470      3876       177      3877     12614      5681      5680
 -1     10154    6    0    1
 -2      5530       128        13      1477      5565       143      5566     11432      1599      1598
 -1     10155    6    0    1
 -2      5551        20       228      5419      5594       230      5596     11579      5426      5425
 -1     10156    6    0    1
 -2      3781       465       234      6317     12832     12863      3803     12866     12874     12259
 -1     10157    6    0    1
 -2      5474        15       168      3736      5573       179      5574     12173      3811      3810
 -1     10158    6    0    1
 -2      5539        23       222      5385      5604       224      5605      8608      5395      5394
 -1     10159    6    0    1
 -2        26        27       533      1572        42       647       648      1608      1607      9668
 -1     10160    6    0    1
 -2       139       140      1511      5434       155      1699      1698      5652      5651      8634
 -1     10161    6    0    1
 -2       332      5439      3780      6514     12856     12831      3809     12033     12876     12870
 -1     10162    6    0    1
 -2      3780      5439      5444      6514     12831      5661     12880     12870     12876     12314
 -1     10163    6    0    1
 -2      3781       470       465      6317     12881       687     12832     12866     12586     12874
 -1     10164    6    0    1
 -2      3738       165       166      5498      3873       176      3874     11813      5678      5677
 -1     10165    6    0    1
 -2      3739        63        62       524      3837        73      3838     12066       703       704
 -1     10166    6    0    1
 -2      1369      6317       465      6374     12260     12874     12546     10863     12679     12875
 -1     10167    6    0    1
 -2       164       163      5481      3550       174      5672      5671      3866      3865     11368
 -1     10168    6    0    1
 -2        64        63      3402       496        74      3841      3840       706       707     12847
 -1     10169    6    0    1
 -2        60        61       507      3697        71       697       698      3830      3829     11982
 -1     10170    6    0    1
 -2      5562       222        22      5383      5603       223      5600     12762      5392      5391
 -1     10171    6    0    1
 -2      1565        14       332      5439      1602       432      1603     12563      5568     12856
 -1     10172    6    0    1
 -2       140       141      1089      5533       156      1702      1701      5655      5654      9931
 -1     10173    6    0    1
 -2      1564       234         2       465      1597       333      1595     12548     12863       594
 -1     10174    6    0    1
 -2      5444      5439      5445      6514      5661      5762      5761     12314     12876     12879
 -1     10175    6    0    1
 -2        38        37      1333       559        53      1649      1648       680       681     11823
 -1     10176    6    0    1
 -2       470       471       465      6317       787       788       687     12586     12858     12874
 -1     10177    6    0    1
 -2      5366        20       219      5546      5374       220      5375     12740      5591      5595
 -1     10178    6    0    1
 -2      5514      5520      5445      6159      5760      5789      5792      9890     12462     11766
 -1     10179    6    0    1
 -2       464       540       546      6222       784       786       693     12305     12528     12678
 -1     10180    6    0    1
 -2         3         4       569      5198        77       597       598      5200      5199     11474
 -1     10181    6    0    1
 -2      3746        59        58       464      3821        69      3822     12704       691       692
 -1     10182    6    0    1
 -2      5543        16        15      5197      5571       180      5572      8823      5204      5203
 -1     10183    6    0    1
 -2       162       161      5438      3744       172      5666      5665      3858      3857     12538
 -1     10184    6    0    1
 -2      3774        57        56       470      3813        67      3814     12808       685       686
 -1     10185    6    0    1
 -2      5444       160       159      3773      5659       170      5660     12757      3850      3849
 -1     10186    6    0    1
 -2         2        39      1564       465        55      1596      1595       594       595     12548
 -1     10187    6    0    1
 -2      1565       142        14      5439      1601       158      1602     12563      5569      5568
 -1     10188    6    0    1
 -2      5516      6283      5475      5466      7306      7876      5904      5900      7865      5903
 -1     10189    6    0    1
 -2      5475      6283      5516      6142      7876      7306      5904      7875      7307      7304
 -1     10190    6    0    1
 -2      6411      1529      6072      6233      8484      8756     10372     10057     10056      7476
 -1     10191    6    0    1
 -2      6411      6072      1529      1279     10372      8756      8484      9313      8755      2611
 -1     10192    6    0    1
 -2      6412      6063      6145      6027      7459      8114     11320      7608      7609      9466
 -1     10193    6    0    1
 -2      6412      6145      6063      6028     11320      8114      7459      7460      8112      6906
 -1     10194    6    0    1
 -2      6272      3613       245      6249      9181      3918      8018     11549     10239      7188
 -1     10195    6    0    1
 -2      6272       245      3613      3387      8018      3918      9181      8019      3920      3922
 -1     10196    6    0    1
 -2      3550      6241      3708      3716      7596      6544      3872      4332      6542      4798
 -1     10197    6    0    1
 -2      3708      6241      3550      5481      6544      7596      3872      9843      9844     11368
 -1     10198    6    0    1
 -2      6452      6174      6186      6281      6540      6911      8593     10230      8927      8928
 -1     10199    6    0    1
 -2      6452      6186      6174      6020      8593      6911      6540      6539      7068      6538
 -1     10200    6    0    1
 -2      6206      6123      6065      6132      7997      7133      9083      8546      7132      7131
 -1     10201    6    0    1
 -2      6206      6065      6123      6029      9083      7133      7997      7998      9082      7999
 -1     10202    6    0    1
 -2      6160      6186      6153      6018      6791      8591      6750      6751      6792      6752
 -1     10203    6    0    1
 -2      6153      6186      6160      6031      8591      6791      6750      9604     10528      9605
 -1     10204    6    0    1
 -2      6413      5471      5476      5475      8053      5919      9093      7879      5902      5920
 -1     10205    6    0    1
 -2      6413      5476      5471      6162      9093      5919      8053      8132     10532      7549
 -1     10206    6    0    1
 -2      6256      1314      1073       538      9351      1617     11081     10042      6971     11129
 -1     10207    6    0    1
 -2      6256      1073      1314      1345     11081      1617      9351      9352      2169      2168
 -1     10208    6    0    1
 -2      5282      5417      5550       457      6819     12503     10168      6818      5430     10020
 -1     10209    6    0    1
 -2      5282      5550      5417      5494     10168     12503      6819      7509      5617      6888
 -1     10210    6    0    1
 -2      6370      1494      6263      6092      7383      7078      7761      8323      6773      9873
 -1     10211    6    0    1
 -2      6370      6263      1494      1234      7761      7078      7383      7384      7076      3007
 -1     10212    6    0    1
 -2       265      6487       264      6135      7913     12882       364     10170     11776      8818
 -1     10213    6    0    1
 -2       265       264      6487      3665       364     12882      7913      3978      3977      6732
 -1     10214    6    0    1
 -2      3651       264      6487      6135      3975     12882      6733      8819      8818     11776
 -1     10215    6    0    1
 -2      3651      6487       264      3665      6733     12882      3975      3979      6732      3977
 -1     10216    6    0    1
 -2      6126      6448      6266      6080     10713     10292     12624     10581      7361     11836
 -1     10217    6    0    1
 -2      6266      6448      6126      6370     10292     10713     12624      7762     10293     10933
 -1     10218    6    0    1
 -2      6295      6445       504       488      8061     11908     11943      9366      9972       893
 -1     10219    6    0    1
 -2       504      6445      6295      6198     11908      8061     11943     11907      8060      7088
 -1     10220    6    0    1
 -2      6410      6203      6333      6050      8656      9209      8720      8654      8651      8381
 -1     10221    6    0    1
 -2      6410      6333      6203      6110      8720      9209      8656      8959      7940     10558
 -1     10222    6    0    1
 -2      6224      6363      6034      6079     11741      8434     11536     12282     12213     10079
 -1     10223    6    0    1
 -2      6034      6363      6224      6036      8434     11741     11536      8436      8435      9284
 -1     10224    6    0    1
 -2       484       486      6392       573       884     12883     11764       886       887      8308
 -1     10225    6    0    1
 -2       484      6392       486      6445     11764     12883       884     11940     11941      6576
 -1     10226    6    0    1
 -2      6111      6392       486       573      8309     12883      6574      6645      8308       887
 -1     10227    6    0    1
 -2      6111       486      6392      6445      6574     12883      8309      6575      6576     11941
 -1     10228    6    0    1
 -2       492      6313      6118       542      8972      8624     12884       926      8623      8217
 -1     10229    6    0    1
 -2      6118      6313       492      6270      8624      8972     12884     10836      9220      9514
 -1     10230    6    0    1
 -2      6118       501       492       542      8150       929     12884      8217       930       926
 -1     10231    6    0    1
 -2      6110       530      6262       580     10512      9482      6659      9816      1037     11573
 -1     10232    6    0    1
 -2      6110      6262       530      6061      6659      9482     10512      7941      7633      8120
 -1     10233    6    0    1
 -2      6451      6502       482       479     10841      7568     12885      7402     11203       859
 -1     10234    6    0    1
 -2       482      6502      6451      6089      7568     10841     12885      7566      7570      7059
 -1     10235    6    0    1
 -2       482      6392      6451       479      7567      7060     12885       859      7401      7402
 -1     10236    6    0    1
 -2      6451      6392       482      6089      7060      7567     12885      7059      7056      7566
 -1     10237    6    0    1
 -2      6349      5529      5468      5555      7155      5889      9743      7170      5911      5910
 -1     10238    6    0    1
 -2      6349      5468      5529      6216      9743      5889      7155      7157      9744      7152
 -1     10239    6    0    1
 -2       587      6390       552       517      6829      9301       604      1017      6828       760
 -1     10240    6    0    1
 -2      6109      3649      3505      3508      9115      4860      9753      6878      4859      4858
 -1     10241    6    0    1
 -2      6109      3505      3649      6318      9753      4860      9115      9754      9462     11409
 -1     10242    6    0    1
 -2      6408      6111      5464      6216      7074      6883     10005      7075      6572      7680
 -1     10243    6    0    1
 -2      6408      5464      6111      6257     10005      6883      7074      7783      6885      6648
 -1     10244    6    0    1
 -2      6382      6043      6205      6087      9532     10406      9218      9533      9531     10407
 -1     10245    6    0    1
 -2      6382      6205      6043      6131      9218     10406      9532      8585      9217      7735
 -1     10246    6    0    1
 -2      6493      1187      1530      1450      9667      2560     12027      9665      2769      2534
 -1     10247    6    0    1
 -2      6493      1530      1187      6211     12027      2560      9667      8232      8995      8996
 -1     10248    6    0    1
 -2      6257      5517      6400      6173      9661     12886      9942      8675      9660      9161
 -1     10249    6    0    1
 -2      6257      6400      5517      5536      9942     12886      9661     10277     12701      5788
 -1     10250    6    0    1
 -2      5525      6400      5517      6173      9268     12886      5830      9267      9161      9660
 -1     10251    6    0    1
 -2      5525      5517      6400      5536      5830     12886      9268      5899      5788     12701
 -1     10252    6    0    1
 -2      6355      5467      6283      6120      8022      7305      7645      8023      7683      7684
 -1     10253    6    0    1
 -2      6355      6283      5467      5454      7645      7305      8022      8961     11578      5839
 -1     10254    6    0    1
 -2      6250      6035      6248      6074      7244      9823     10110      7245      7243      9825
 -1     10255    6    0    1
 -2      6250      6248      6035      6125     10110      9823      7244      8717     10109      6651
 -1     10256    6    0    1
 -2      6241      5514      6466      6104      8226      6728     10269      8225      6725      6730
 -1     10257    6    0    1
 -2      6241      6466      5514      5483     10269      6728      8226     10027     10317      5973
 -1     10258    6    0    1
 -2      6340      1460      6460      1320      7093      6941     10331      7094      3318      7700
 -1     10259    6    0    1
 -2      6340      6460      1460      6103     10331      6941      7093      7167      9759      6690
 -1     10260    6    0    1
 -2      6339      6046      6308      6106      8735     12887     12327      8736      7371     12591
 -1     10261    6    0    1
 -2      6339      6308      6046      6140     12327     12887      8735      7650     11682      9755
 -1     10262    6    0    1
 -2      6158      6308      6046      6106     11332     12887      7373      7372     12591      7371
 -1     10263    6    0    1
 -2      6158      6046      6308      6140      7373     12887     11332     11683      9755     11682
 -1     10264    6    0    1
 -2      6231      1102      6247      6122      6660      6595      7840      9068      7681     10617
 -1     10265    6    0    1
 -2      6231      6247      1102      1103      7840      6595      6660      6662      6596      2296
 -1     10266    6    0    1
 -2      6307      3508      3505      3574      8827      4858      9460      8856      4791      4695
 -1     10267    6    0    1
 -2      6307      3505      3508      6109      9460      4858      8827      7786      9753      6878
 -1     10268    6    0    1
 -2      6371      5559      6335      5479     10044     12888      8776     10675      5957     12782
 -1     10269    6    0    1
 -2      6371      6335      5559      6284      8776     12888     10044      9054      9053     10043
 -1     10270    6    0    1
 -2      5560      6335      5559      5479     12505     12888      5879      5955     12782      5957
 -1     10271    6    0    1
 -2      5560      5559      6335      6284      5879     12888     12505     10454     10043      9053
 -1     10272    6    0    1
 -2      3504      6307      3505      3472      8540      9460      4694      4691     11928      4693
 -1     10273    6    0    1
 -2      3505      6307      3504      6151      9460      8540      4694      9461      7250      8539
 -1     10274    6    0    1
 -2      6032      6511      6529      6029      6703     11753     10774      8535      9079     10775
 -1     10275    6    0    1
 -2      6529      6511      6032      6281     11753      6703     10774     10993      6704      6700
 -1     10276    6    0    1
 -2      6307      3504      6285      3472      8540     12889      8713     11928      4691     12656
 -1     10277    6    0    1
 -2      6307      6285      3504      6218      8713     12889      8540      7653      9799      8538
 -1     10278    6    0    1
 -2      3473      6285      3504      3472     12240     12889      4692      4575     12656      4691
 -1     10279    6    0    1
 -2      3473      3504      6285      6218      4692     12889     12240      7148      8538      9799
 -1     10280    6    0    1
 -2      3594      6533      3428      3584      6866     12648      4427      4442      6865      4440
 -1     10281    6    0    1
 -2      3428      6533      3594      6243     12648      6866      4427      9993      9264      9263
 -1     10282    6    0    1
 -2      6401      6239      6174      6028     10083      9427      9371      7526      9425      9423
 -1     10283    6    0    1
 -2      6401      6174      6239      6025      9371      9427     10083      9370      8905      9829
 -1     10284    6    0    1
 -2       555      6349       494       581      7198      9734       915       937      7695       936
 -1     10285    6    0    1
 -2       494      6349       555      6216      9734      7198       915      9716      7157      7196
 -1     10286    6    0    1
 -2      6202      3495      6491      3509      6899      8493     10852      6900      4804     10853
 -1     10287    6    0    1
 -2      6202      6491      3495      6104     10852      8493      6899      9227     12147      7916
 -1     10288    6    0    1
 -2      6457      6056      6427      6189      8444      9523     10826      8445      7934      9522
 -1     10289    6    0    1
 -2      6457      6427      6056      6116     10826      9523      8444      6760     10443      7124
 -1     10290    6    0    1
 -2       307      6251      1402       308     10794      7427      1931       407      7425      1930
 -1     10291    6    0    1
 -2      1402      6251       307      6225      7427     10794      1931      7630     11281      8920
 -1     10292    6    0    1
 -2      6044      6488      6354      6113      7231      9723      7515     10219     10213     11513
 -1     10293    6    0    1
 -2      6354      6488      6044      6331      9723      7231      7515      7517      7232      7228
 -1     10294    6    0    1
 -2      3498      6268      6421      3730      8258     10386     11892      4824      8257     10387
 -1     10295    6    0    1
 -2      6421      6268      3498      6255     10386      8258     11892     11441     12202     12201
 -1     10296    6    0    1
 -2      6138      1203      1201      1202     11010      2841      6849      6848      2840      2834
 -1     10297    6    0    1
 -2      6138      1201      1203      6398      6849      2841     11010     10240      9015     11011
 -1     10298    6    0    1
 -2      6316      3380      6133      6223      8846      7163     10900     11372     10684     11443
 -1     10299    6    0    1
 -2      6316      6133      3380      3586     10900      7163      8846      8847      7161      4072
 -1     10300    6    0    1
 -2      6529      6418      6319      6016      8387     12042     10876     10603     10601      7561
 -1     10301    6    0    1
 -2      6529      6319      6418      6174     10876     12042      8387      8386      7545      6537
 -1     10302    6    0    1
 -2      3594      6443      6208      3514      9202      8368      6864      4897      8759      8758
 -1     10303    6    0    1
 -2      6208      6443      3594      6118      8368      9202      6864      7780      9203      7781
 -1     10304    6    0    1
 -2      6368      1514      1316      1518      6832      3308      7558      6833      3310      3305
 -1     10305    6    0    1
 -2      6368      1316      1514      6246      7558      3308      6832      7559      7393      8915
 -1     10306    6    0    1
 -2      6403      3441      3442      3443      7726      4514      9497      8564      4519      4518
 -1     10307    6    0    1
 -2      6403      3442      3441      6184      9497      4514      7726     10779     12200     10780
 -1     10308    6    0    1
 -2      1331      6364      1330      1236     11757     12303      3022      3023     11960      3021
 -1     10309    6    0    1
 -2      1330      6364      1331      6362     12303     11757      3022     10530     11758     10529
 -1     10310    6    0    1
 -2      6497      1109      1366      1134     10274      2345     10473      8549      2346      2348
 -1     10311    6    0    1
 -2      6497      1366      1109      6193     10473      2345     10274      9319     11302      8892
 -1     10312    6    0    1
 -2      6333      1148      1187      1150      7664      2558      9855      7662      2556      2559
 -1     10313    6    0    1
 -2      6333      1187      1148      6211      9855      2558      7664      8844      8996      7411
 -1     10314    6    0    1
 -2      6452      6015      6363      6155     11725     10460     12583     10813      7685      8482
 -1     10315    6    0    1
 -2      6463      3513      3592      3422      8966      4408      8562      8964      4407      4409
 -1     10316    6    0    1
 -2      6463      3592      3513      6142      8562      4408      8966      8563      6945      6944
 -1     10317    6    0    1
 -2      6221      1075      1506      6220      7051      2176      8453     11792      7512      7510
 -1     10318    6    0    1
 -2      6221      1506      1075      1383      8453      2176      7051      7050      2180      2179
 -1     10319    6    0    1
 -2      6237      1155      1162      6166      6975      2588      7055      9412      8014      6862
 -1     10320    6    0    1
 -2      6237      1162      1155      1553      7055      2588      6975      6977      2596      2595
 -1     10321    6    0    1
 -2      6414      6437      6395      6019     11316     11000     11550     11591     12172     10964
 -1     10322    6    0    1
 -2      6395      6437      6414      6022     11000     11316     11550     10762      8278     10927
 -1     10323    6    0    1
 -2      6442      3583      6294      3432      8918     11038      9808      8919      4449     10491
 -1     10324    6    0    1
 -2      6442      6294      3583      6243      9808     11038      8918     10345      8681     11926
 -1     10325    6    0    1
 -2      6364      1331      6416      1236     11757      6681     11961     11960      3023      6683
 -1     10326    6    0    1
 -2      6364      6416      1331      6090     11961      6681     11757      7030     12078     11756
 -1     10327    6    0    1
 -2      6496      3661      3662      6378      8252      4190     11790     11398     11336     10398
 -1     10328    6    0    1
 -2      6496      3662      3661      3468     11790      4190      8252      8254      4671      4024
 -1     10329    6    0    1
 -2      6069      5501      5514      6030      9991      5981      9888      7363      9990      6727
 -1     10330    6    0    1
 -2      6069      5514      5501      5496      9888      5981      9991     10189      5793      5998
 -1     10331    6    0    1
 -2      6305      6289      6371      6021      8187      7752     12232      8185      7750      7751
 -1     10332    6    0    1
 -2      6305      6371      6289      6053     12232      7752      8187      9156     10247      9155
 -1     10333    6    0    1
 -2      6446      6185      6293      3485      7215      8292      8385      7447      7446      8384
 -1     10334    6    0    1
 -2      6446      6293      6185      6095      8385      8292      7215      9831     11154      9830
 -1     10335    6    0    1
 -2      1044      6258       300      1407      7272     10134      1910      1911      7271      1906
 -1     10336    6    0    1
 -2       300      6258      1044      6207     10134      7272      1910      8791     11625      8790
 -1     10337    6    0    1
 -2      1477      6340      5473      1322     11433     10310     12032      1710     11379     11378
 -1     10338    6    0    1
 -2      5473      6340      1477      5530     10310     11433     12032      5620     10309     11432
 -1     10339    6    0    1
 -2      6452      6357      6363      6015      8740      9780     12583     11725     10440     10460
 -1     10340    6    0    1
 -2      6452      6363      6357      6018     12583      9780      8740      8594      9779      6754
 -1     10341    6    0    1
 -2      6497      1117      1109      1134      8551      2320     10274      8549      2347      2346
 -1     10342    6    0    1
 -2      6497      1109      1117      6252     10274      2320      8551     10004      9323      9440
 -1     10343    6    0    1
 -2      1578      6191      1059      1384      6929      8882      2098      2099      6928      1986
 -1     10344    6    0    1
 -2      1059      6191      1578      6320      8882      6929      2098     11675     11947     10917
 -1     10345    6    0    1
 -2      5551       448      5250       189     11580     11817     12418      5593     12180      5277
 -1     10346    6    0    1
 -2      5250       448      5551      5419     11817     11580     12418     11277      5427     11579
 -1     10347    6    0    1
 -2      6445       489       488      6219      6950       897      9972      7107      7106      9367
 -1     10348    6    0    1
 -2      6445       488       489       486      9972       897      6950      6576       889       896
 -1     10349    6    0    1
 -2      6481      6024      6471      6385      7965      7605     12674      7966      7728     12165
 -1     10350    6    0    1
 -2      6481      6471      6024      6386     12674      7605      7965      9446     10368      8079
 -1     10351    6    0    1
 -2      6329      1438      1282      6260     12043      3202      9458     10885      8667     12179
 -1     10352    6    0    1
 -2      6329      1282      1438      1283      9458      3202     12043      9459      2837      3203
 -1     10353    6    0    1
 -2      6255      6145      6293      6095      8237     11574     10641      8235      8113     11154
 -1     10354    6    0    1
 -2      6255      6293      6145      6147     10641     11574      8237      8374     11057      8373
 -1     10355    6    0    1
 -2      6424      3535      6455      3536     10799      8957     12238     10800      4957      8956
 -1     10356    6    0    1
 -2      6424      6455      3535      6346     12238      8957     10799     12152      9876     11630
 -1     10357    6    0    1
 -2      6380      1285      1267      6204      7820      3157     11922     12104      8339     11597
 -1     10358    6    0    1
 -2      6380      1267      1285      1266     11922      3157      7820      7819      2898      3158
 -1     10359    6    0    1
 -2      6262       578       580       537      9310      1013     11573      9752      1040      1039
 -1     10360    6    0    1
 -2      6262       580       578      6110     11573      1013      9310      6659      9816      9309
 -1     10361    6    0    1
 -2      6410       530      6110      6226      8118     10512      8959     11278     10513      9819
 -1     10362    6    0    1
 -2      6410      6110       530      6061      8959     10512      8118      8119      7941      8120
 -1     10363    6    0    1
 -2      6431      6102      6039      6090      7882      6802     12279      7883      7028      7946
 -1     10364    6    0    1
 -2      6431      6039      6102      6395     12279      6802      7882     10185     10763     10764
 -1     10365    6    0    1
 -2      6469       510       509       511      8108       993     12890     10354       996       997
 -1     10366    6    0    1
 -2       509       510      6469      6077       993      8108     12890     10071      7261      8107
 -1     10367    6    0    1
 -2       509      6101      6469       511     10500      9280     12890       997     10353     10354
 -1     10368    6    0    1
 -2      6469      6101       509      6077      9280     10500     12890      8107      9276     10071
 -1     10369    6    0    1
 -2      6267      6395      6166      6083     11283     11063      7356     11282     10180     11099
 -1     10370    6    0    1
 -2      6166      6395      6267      6102     11063     11283      7356      8054     10764      7880
 -1     10371    6    0    1
 -2      6447      1238      6132      6372     10504     12891     10801     11463     11462      7136
 -1     10372    6    0    1
 -2      1240      6132      1238      6372      7740     12891      3030      7767      7136     11462
 -1     10373    6    0    1
 -2      6433      1255      1367      6105      9663      2671      8854      9664      7205      6790
 -1     10374    6    0    1
 -2      6433      1367      1255      1433      8854      2671      9663      8855      3048      3108
 -1     10375    6    0    1
 -2      6337      3460      3462      6125     12412      4625     12640     12413      9564      9563
 -1     10376    6    0    1
 -2      6337      3462      3460      3461     12640      4625     12412     11878      4624      4620
 -1     10377    6    0    1
 -2      1203      6288      1202      6138      8002     12892      2840     11010      8105      6848
 -1     10378    6    0    1
 -2      1203      1202      6288      1204      2840     12892      8002      2846      2845      8003
 -1     10379    6    0    1
 -2      1566      1202      6288      6138      2847     12892      7968     10999      6848      8105
 -1     10380    6    0    1
 -2      1566      6288      1202      1204      7968     12892      2847      2848      8003      2845
 -1     10381    6    0    1
 -2      6197       278      1042       277     11374      1840     10896     10897       377      1841
 -1     10382    6    0    1
 -2      6197      1042       278      6196     10896      1840     11374     12391      8603     10323
 -1     10383    6    0    1
 -2      6417      3749      3719      6164     11124      5099     10747     10831      9493      9494
 -1     10384    6    0    1
 -2      6417      3719      3749      3688     10747      5099     11124     11085      4557      4657
 -1     10385    6    0    1
 -2      1323      6447      1470      1071     11024     10505      2162      1673     11023      2161
 -1     10386    6    0    1
 -2      1470      6447      1323      6188     10505     11024      2162     10576     10597      7953
 -1     10387    6    0    1
 -2      6534      6366      1274      1227      9539      7900      9922      9213      9537      2979
 -1     10388    6    0    1
 -2      6534      1274      6366      6110      9922      7900      9539      7943      6629      7899
 -1     10389    6    0    1
 -2      1424      6449      6310       285      8742     12735      9274      1861      8741      9272
 -1     10390    6    0    1
 -2      6310      6449      1424      6377     12735      8742      9274     12835     11492     11491
 -1     10391    6    0    1
 -2       457      5487        24      5550      7825      5611       459     10020      5616      5615
 -1     10392    6    0    1
 -2       457        24      5487      5402       459      5611      7825      5413      5412      7824
 -1     10393    6    0    1
 -2      6390      5214      5211       436      9930      5242      9169      7382      5218      5224
 -1     10394    6    0    1
 -2      6390      5211      5214      5384      9169      5242      9930      8490     10322      9929
 -1     10395    6    0    1
 -2      6398      1122      6331      6192     10502      7714      9685      9545     11779      7227
 -1     10396    6    0    1
 -2      6398      6331      1122      1473      9685      7714     10502      9686      9684      2391
 -1     10397    6    0    1
 -2      6268      3735      6197      3672      7986     10541     11905      7984      4258     10540
 -1     10398    6    0    1
 -2      6268      6197      3735      6254     11905     10541      7986      8259     11902     11485
 -1     10399    6    0    1
 -2      1148      6498      1530      1144      7887     11097      2539      2537      7886      2531
 -1     10400    6    0    1
 -2      1530      6498      1148      6211     11097      7887      2539      8995     10137      7411
 -1     10401    6    0    1
 -2      6372      1479      1374      1239      8663      3038      8409      8664      3037      3039
 -1     10402    6    0    1
 -2      6372      1374      1479      6123      8409      3038      8663      7135      7296      9650
 -1     10403    6    0    1
 -2      3608      6455      3535      3683     12809      8957      5006      4275      8955      5003
 -1     10404    6    0    1
 -2      3535      6455      3608      6249      8957     12809      5006     11546      9875     11545
 -1     10405    6    0    1
 -2      6070      6454      6115      6035      8141      8969      8050      6709      7399      8960
 -1     10406    6    0    1
 -2      6115      6454      6070      6423      8969      8141      8050      8967      8971      9742
 -1     10407    6    0    1
 -2      6325      3511      3790      6176     10482      4888      9821      7264      8471      8953
 -1     10408    6    0    1
 -2      6325      3790      3511      3581      9821      4888     10482     10483      4322      4887
 -1     10409    6    0    1
 -2      6480      1137      1228      1217      9632      2496     11600      8056      2494      2497
 -1     10410    6    0    1
 -2      6480      1228      1137      6361     11600      2496      9632     11477     11912      9913
 -1     10411    6    0    1
 -2      6426      6481      6046      6026     12444     10214     10526     11299      9445      7346
 -1     10412    6    0    1
 -2      6046      6481      6426      6072     10214     12444     10526      7474     10472     10527
 -1     10413    6    0    1
 -2      6231      1108      1107      1103     12465      2311     10681      6662      2310      2308
 -1     10414    6    0    1
 -2      6231      1107      1108      6458     10681      2311     12465      7127     10860     12045
 -1     10415    6    0    1
 -2       242      6249      1075       243     12016      7673      1736       342      7671      1735
 -1     10416    6    0    1
 -2      1075      6249       242      6220      7673     12016      1736      7512     12111      9305
 -1     10417    6    0    1
 -2      5214       587      6390       552     12683      6829      9930      9928       604      9301
 -1     10418    6    0    1
 -2      5214      6390       587       436      9930      6829     12683      5218      7382      7381
 -1     10419    6    0    1
 -2       262      6409      3399      3664     12518     10186      3971      3969     12010      3973
 -1     10420    6    0    1
 -2      3399      6409       262      6322     10186     12518      3971      9071     12003     12036
 -1     10421    6    0    1
 -2      1262      6484      1523      1263     10842     12126      3142      2779     10843      3141
 -1     10422    6    0    1
 -2      1523      6484      1262      6242     12126     10842      3142     12247     11632      9448
 -1     10423    6    0    1
 -2      6447      1240      1238      1305      9869      3030     10504      9870      3033      3032
 -1     10424    6    0    1
 -2      6447      1238      1240      6132     10504      3030      9869     10801     12891      7740
 -1     10425    6    0    1
 -2      6441      1583      6416      6114     10024      7336     12086     12085      8501      9643
 -1     10426    6    0    1
 -2      6441      6416      1583      1584     12086      7336     10024     10023      7334      2918
 -1     10427    6    0    1
 -2      6370      6518      6453      6126      7874     12721      8590     10933     12869     12262
 -1     10428    6    0    1
 -2      6453      6518      6370      1261     12721      7874      8590      8589      6570      8587
 -1     10429    6    0    1
 -2      6398      1254      1205      6165     10921      2865     11015      9543      7539     10140
 -1     10430    6    0    1
 -2      6398      1205      1254      1472     11015      2865     10921     10922      2852      2866
 -1     10431    6    0    1
 -2      1059      6191       326       325      8882     10250      1984      1985      8881       425
 -1     10432    6    0    1
 -2      1059       326      6191      6320      1984     10250      8882     11675      8009     11947
 -1     10433    6    0    1
 -2      6421      3656      3486      6175     10970      3997      8569      9778      9708      9709
 -1     10434    6    0    1
 -2      6421      3486      3656      3767      8569      3997     10970      8567      4770      4769
 -1     10435    6    0    1
 -2      6305      6127      6084      6030     11754      9183      8943     10549      9739     10548
 -1     10436    6    0    1
 -2      6305      6084      6127      6269      8943      9183     11754     10267      9185      9184
 -1     10437    6    0    1
 -2      1424      6310      1519      1041      9274     12748      2010      1866      9273      2009
 -1     10438    6    0    1
 -2      1424      1519      6310      6377      2010     12748      9274     11491     11534     12835
 -1     10439    6    0    1
 -2      6337      3459      3460      6265     11879      4614     12412     12400     11112      9450
 -1     10440    6    0    1
 -2      6337      3460      3459      3461     12412      4614     11879     11878      4620      4619
 -1     10441    6    0    1
 -2       261      6409       262      3664     12177     12518       361      3968     12010      3969
 -1     10442    6    0    1
 -2       262      6409       261      6309     12518     12177       361      9348     12156      9350
 -1     10443    6    0    1
 -2      6370      6518      6356      1468      7874     11833     10916      7873      6571      9895
 -1     10444    6    0    1
 -2      6356      6518      6370      6126     11833      7874     10916     12020     12869     10933
 -1     10445    6    0    1
 -2      6315      1256      6342      1541     10724      7932      9584     10723      2764      7931
 -1     10446    6    0    1
 -2      6315      6342      1256      6167      9584      7932     10724      9862     10099     10249
 -1     10447    6    0    1
 -2      6441      1216      1296      1174     12427      2702     10048     12519      2699      2575
 -1     10448    6    0    1
 -2      6441      1296      1216      6326     10048      2702     12427     10049      9167     10980
 -1     10449    6    0    1
 -2      6474      1516      6382      1476      9469     12893      9092      9470      3205     12760
 -1     10450    6    0    1
 -2      6474      6382      1516      6260      9092     12893      9469     11009     11920     10262
 -1     10451    6    0    1
 -2      1282      6382      1516      1476     11531     12893      3204      3199     12760      3205
 -1     10452    6    0    1
 -2      1282      1516      6382      6260      3204     12893     11531     12179     10262     11920
 -1     10453    6    0    1
 -2      6380      1193      1196      1211      8929      2797      9903      8930      2799      2798
 -1     10454    6    0    1
 -2      6380      1196      1193      6269      9903      2797      8929      8210     12687      7434
 -1     10455    6    0    1
 -2      6492      1448      6324      6292     10207      8134     10979     11609      9982      9985
 -1     10456    6    0    1
 -2      6492      6324      1448      1560     10979      8134     10207     10206      7422      2451
 -1     10457    6    0    1
 -2       324      6470       325      3392      8192      8877       424      4157      8191      4158
 -1     10458    6    0    1
 -2       325      6470       324      6191      8877      8192       424      8881     10251      9329
 -1     10459    6    0    1
 -2      6345      1332      6150      1269      8423      7040      8351      8350      2783      6600
 -1     10460    6    0    1
 -2      6345      6150      1332      6253      8351      7040      8423     12354     12612     12352
 -1     10461    6    0    1
 -2      6306      1420      6474      1502     10903     12715      9091     10904      2076     12739
 -1     10462    6    0    1
 -2      6306      6474      1420      6276      9091     12715     10903     11439      9411     10923
 -1     10463    6    0    1
 -2      6455       241       242      6220      8747       341      9634     11505      6779      9305
 -1     10464    6    0    1
 -2      6455       242       241      3605      9634       341      8747      8746      3909      3908
 -1     10465    6    0    1
 -2      6488      1122      6331      1113     12575      7714      7232     12037      2366      7716
 -1     10466    6    0    1
 -2      6488      6331      1122      6192      7232      7714     12575      7230      7227     11779
 -1     10467    6    0    1
 -2       498      6358       545       590     12257     12396       952       908     12131       953
 -1     10468    6    0    1
 -2       545      6358       498      6256     12396     12257       952     12395      9353     11280
 -1     10469    6    0    1
 -2      6081      6431      6085      6039     11627     12894      8156      8157     12279      8155
 -1     10470    6    0    1
 -2      6081      6085      6431      6033      8156     12894     11627      7097      8543     10184
 -1     10471    6    0    1
 -2      6414      6085      6431      6039      7804     12894     12280     10926      8155     12279
 -1     10472    6    0    1
 -2      6414      6431      6085      6033     12280     12894      7804     10395     10184      8543
 -1     10473    6    0    1
 -2      6401      6290      6174      6052     11712     12895      9371      8907      8231      6957
 -1     10474    6    0    1
 -2      6401      6174      6290      6096      9371     12895     11712      7527      8644      8358
 -1     10475    6    0    1
 -2      6097      6174      6290      6052      7466     12895      8359      7465      6957      8231
 -1     10476    6    0    1
 -2      6097      6290      6174      6096      8359     12895      7466      8357      8358      8644
 -1     10477    6    0    1
 -2      6512      6050      6333      6271     11201      8381      9152      9151     11200      9149
 -1     10478    6    0    1
 -2      6512      6333      6050      6166      9152      8381     11201     11371      8382      8380
 -1     10479    6    0    1
 -2      6234      3547      3488      3575      9536      4780      9391      9393      4782      4781
 -1     10480    6    0    1
 -2      6234      3488      3547      6144      9391      4780      9536     10691      7854      7852
 -1     10481    6    0    1
 -2      6500      5536      6383      5443     12153     10278      9974     12416      5785     11691
 -1     10482    6    0    1
 -2      6500      6383      5536      6257      9974     10278     12153      9975      8768     10277
 -1     10483    6    0    1
 -2      5435      6480      1347      1297     11895     12896     12541     11965     11599      1684
 -1     10484    6    0    1
 -2      5435      1347      6480      6253     12541     12896     11895     11894     11616      8344
 -1     10485    6    0    1
 -2      1528      1347      6480      1297      2142     12896     11598      2984      1684     11599
 -1     10486    6    0    1
 -2      1528      6480      1347      6253     11598     12896      2142     11688      8344     11616
 -1     10487    6    0    1
 -2      6520       288      1421      6308      9949      1874     11951     12349     11743      8874
 -1     10488    6    0    1
 -2      6520      1421       288       289     11951      1874      9949      9948      1873       388
 -1     10489    6    0    1
 -2      6425      1536      1291      1439      8363      3240     12676      8361      2529      3065
 -1     10490    6    0    1
 -2      6425      1291      1536      6217     12676      3240      8363     10002      9548     10000
 -1     10491    6    0    1
 -2      6512      1174      1296      1151     12728      2575     11959     11958      2574      2576
 -1     10492    6    0    1
 -2      6512      1296      1174      6441     11959      2575     12728     11962     10048     12519
 -1     10493    6    0    1
 -2      6502      6486       560      6195     12309      7790     12061     10222      7791      7789
 -1     10494    6    0    1
 -2      6502       560      6486      6154     12061      7790     12309     11472      8401      8403
 -1     10495    6    0    1
 -2      6373      1407      1412       299      6845      1908      8601      6846      1907      1903
 -1     10496    6    0    1
 -2      6373      1412      1407      6258      8601      1908      6845     10135     10509      7271
 -1     10497    6    0    1
 -2       269      6428      3656      3398      8333     11393      3992      3990      8332      3994
 -1     10498    6    0    1
 -2      3656      6428       269      6175     11393      8333      3992      9708      9672      7420
 -1     10499    6    0    1
 -2      6346      3613      3535      3667      9030      5005     11630      9031      4238      4998
 -1     10500    6    0    1
 -2      6346      3535      3613      6249     11630      5005      9030      6954     11546     10239
 -1     10501    6    0    1
 -2      6526      3788      6430      3580     11385     10054     12839     11386      4733     11418
 -1     10502    6    0    1
 -2      6526      6430      3788      6183     12839     10054     11385     11653     11440      7839
 -1     10503    6    0    1
 -2       468      1478        35       539     12524      1642       671       676     12567       675
 -1     10504    6    0    1
 -2        35      1478       468      1068      1642     12524       671      1637      1643      8778
 -1     10505    6    0    1
 -2      6427      6160      6186      6031     10063      6791     11448     10442      9605     10528
 -1     10506    6    0    1
 -2      6427      6186      6160      6386     11448      6791     10063     10065      6794      6795
 -1     10507    6    0    1
 -2      5197      5474      6467      3736     12859      9195      8826      7571     12173     12174
 -1     10508    6    0    1
 -2      5197      6467      5474      5543      8826      9195     12859      8823      8825      5575
 -1     10509    6    0    1
 -2        23      6475      5446      5400     12463     12340      5607      5408     12339     11635
 -1     10510    6    0    1
 -2      5446      6475        23      5447     12340     12463      5607      5608     10725      5609
 -1     10511    6    0    1
 -2      6439      1301      1139      6315     11551      2509     10201     10815     11877      8866
 -1     10512    6    0    1
 -2      6439      1139      1301      1546     10201      2509     11551     10609      2506      2510
 -1     10513    6    0    1
 -2      6506      6072      1529      6233      8900      8756      8672      8901      7476     10056
 -1     10514    6    0    1
 -2      6506      1529      6072      6189      8672      8756      8900      8673      8671     10825
 -1     10515    6    0    1
 -2      6522       304      1534      6356      8032      1922     10883     11719      8376     11718
 -1     10516    6    0    1
 -2      6522      1534       304       305     10883      1922      8032      8034      1921       404
 -1     10517    6    0    1
 -2      6284      6516      5476      6264     12623      9096     11482      9253     11264     11479
 -1     10518    6    0    1
 -2      5476      6516      6284      6162      9096     12623     11482     10532     10533      7281
 -1     10519    6    0    1
 -2      6524      3615       247      6272      9546      3924      9386     10892      9261     11043
 -1     10520    6    0    1
 -2      6524       247      3615      3410      9386      3924      9546      9547      3926      3928
 -1     10521    6    0    1
 -2      6441      6397      1583      6114     12423      8503     10024     12085      8504      8501
 -1     10522    6    0    1
 -2      6441      1583      6397      1215     10024      8503     12423     10022      2916     10218
 -1     10523    6    0    1
 -2      1142      6425      1141      1439      8362      9472      2475      2518      8361      2519
 -1     10524    6    0    1
 -2      1141      6425      1142      6290      9472      8362      2475      9794     11137     12556
 -1     10525    6    0    1
 -2      6478      1257      1538      6444      9360      3119      9814     12013      9174     12316
 -1     10526    6    0    1
 -2      6478      1538      1257      1459      9814      3119      9360      9362      2065      3116
 -1     10527    6    0    1
 -2      6345      6532      5515      6093     12632     12897     12759      9981     11852     12475
 -1     10528    6    0    1
 -2      6345      5515      6532      5502     12759     12897     12632     12841      6002     12727
 -1     10529    6    0    1
 -2      5497      5515      6532      6093      6003     12897     11851      7367     12475     11852
 -1     10530    6    0    1
 -2      5497      6532      5515      5502     11851     12897      6003      6001     12727      6002
 -1     10531    6    0    1
 -2      6523      1490      1400      6227     11366      2055     10555     11504      9923      6766
 -1     10532    6    0    1
 -2      6523      1400      1490      1050     10555      2055     11366     10556      1947      2053
 -1     10533    6    0    1
 -2      6023      6040      6024      6344      7837      6560     12898     10613      9216      9215
 -1     10534    6    0    1
 -2      6024      6040      6023      6393      6560      7837     12898      6561      6562      9558
 -1     10535    6    0    1
 -2      6024      6348      6023      6344      8081     11731     12898      9215     12124     10613
 -1     10536    6    0    1
 -2      6023      6348      6024      6393     11731      8081     12898      9558     11346      6561
 -1     10537    6    0    1
 -2      6496       277      3391      3673      7337      4014      9899      7338      4016      4018
 -1     10538    6    0    1
 -2      6496      3391       277      6197      9899      4014      7337     11375     10539     10897
 -1     10539    6    0    1
 -2      6470      6084      6301      6191     12072     12566     12383     10251     12070     10744
 -1     10540    6    0    1
 -2      6470      6301      6084      6202     12383     12566     12072     10850     11142     11863
 -1     10541    6    0    1
 -2      6528      1106      1104      1304     10653      2313      7286     10654      2316      2315
 -1     10542    6    0    1
 -2      6528      1104      1106      6247      7286      2313     10653      7287      6597      7441
 -1     10543    6    0    1
 -2      6494      6405      6066      6169     10196     12380     12176     10197     10193      9067
 -1     10544    6    0    1
 -2      6494      6066      6405      6473     12176     12380     10196     12294     11304     11963
 -1     10545    6    0    1
 -2      6450      1422       286       287      9196      1868     12666      9197      1867       386
 -1     10546    6    0    1
 -2      6450       286      1422      6310     12666      1868      9196     12207     12178      9731
 -1     10547    6    0    1
 -2       466      3694        65       500     12537      3805       709       712     12228       600
 -1     10548    6    0    1
 -2        65      3694       466      3687      3805     12537       709      3845      3848     12055
 -1     10549    6    0    1
 -2      6463      5498      5477      6141     11006      5917     11065     10477     11005     10668
 -1     10550    6    0    1
 -2      6463      5477      5498      5470     11065      5917     11006     12150      5916      5682
 -1     10551    6    0    1
 -2       448        86         9       577     11818       616       449     11816       619       620
 -1     10552    6    0    1
 -2       448         9        86      5249       449       616     11818     12642     12853      5267
 -1     10553    6    0    1
 -2      6374       235       236      1087     10864       335     11339     10865      1715      1714
 -1     10554    6    0    1
 -2      6374       236       235      6317     11339       335     10864     12679      8924      8925
 -1     10555    6    0    1
 -2      6432      3479      3435      3438     11954      4487     10356     10355      4486      4485
 -1     10556    6    0    1
 -2      6432      3435      3479      6293     10356      4487     11954     11788      7439     11605
 -1     10557    6    0    1
 -2      3675      6450       286      3626      8787     12666      4041      4045      8786      4043
 -1     10558    6    0    1
 -2       286      6450      3675      6449     12666      8787      4041     12664     11121     11076
 -1     10559    6    0    1
 -2      6453      1204      1206      6288      9857      2855      8588     11206      8003      7858
 -1     10560    6    0    1
 -2      6453      1206      1204      1287      8588      2855      9857      9859      2858      2857
 -1     10561    6    0    1
 -2      5340      1453      6340      1322     12810     11784     11434     12135      1708     11379
 -1     10562    6    0    1
 -2      5340      6340      1453      5341     11434     11784     12810      5365     12103     12102
 -1     10563    6    0    1
 -2      1466      6399      1325      1588      7805     11944      3329      3180     11428      3330
 -1     10564    6    0    1
 -2      1325      6399      1466      6345     11944      7805      3329     11874     10103      8721
 -1     10565    6    0    1
 -2      3522      6424      3679      3714     10141     12899      4936      4933     11301      4938
 -1     10566    6    0    1
 -2      3522      3679      6424      6161      4936     12899     10141     10983      9988     12237
 -1     10567    6    0    1
 -2      3713      3679      6424      3714      5145     12899     11300      5010      4938     11301
 -1     10568    6    0    1
 -2      3713      6424      3679      6161     11300     12899      5145      9986     12237      9988
 -1     10569    6    0    1
 -2      6444      1445      1276      1336      8245      3188     12266      8246      2182      3118
 -1     10570    6    0    1
 -2      6444      1276      1445      6321     12266      3188      8245     11619     12265     10929
 -1     10571    6    0    1
 -2      1248      6436       275      1414     12285      7949      1835      1836      7947      1831
 -1     10572    6    0    1
 -2       275      6436      1248      6391      7949     12285      1835      9773      9417      9772
 -1     10573    6    0    1
 -2      6301      6478       321      1386     12667      6990      8433      8432      6991      1973
 -1     10574    6    0    1
 -2       321      6478      6301      6149      6990     12667      8433     12720     12719     11883
 -1     10575    6    0    1
 -2      3635      6450      6140      3769     11896     11684     12900      5169     10557     11207
 -1     10576    6    0    1
 -2      6140      6450      3635      6339     11684     11896     12900      7650     12328     10011
 -1     10577    6    0    1
 -2      6140      3628      3635      3769      7647      5158     12900     11207      5170      5169
 -1     10578    6    0    1
 -2      3635      3628      6140      6339      5158      7647     12900     10011      7649      7650
 -1     10579    6    0    1
 -2      6491      6069      6104      6148     12159      9889     12147     11761     12157     12487
 -1     10580    6    0    1
 -2      6491      6104      6069      6159     12147      9889     12159     11839      9891      9892
 -1     10581    6    0    1
 -2      6068      6397      6326      6114     12387     10343     12662     12287      8504     12783
 -1     10582    6    0    1
 -2      6326      6397      6068      6199     10343     12387     12662     11040     11041     12386
 -1     10583    6    0    1
 -2      6523      6171      6070      6227     11460      6984     12654     11504      6603      6985
 -1     10584    6    0    1
 -2      6523      6070      6171      6376     12654      6984     11460     10415      9954      8865
 -1     10585    6    0    1
 -2      6431      6267      6416      6083      7884     10068     12338     10183     11282     12084
 -1     10586    6    0    1
 -2      6431      6416      6267      6090     12338     10068      7884      7883     12078      7881
 -1     10587    6    0    1
 -2      5450      5340      6340      5563     12775     11434      8626      5728     11744     10308
 -1     10588    6    0    1
 -2      6340      5340      5450      5337     11434     12775      8626      9452      5364      9451
 -1     10589    6    0    1
 -2       303      6518       302      1403     12100      8657       402      1915     11358      1916
 -1     10590    6    0    1
 -2       302      6518       303      6302      8657     12100       402     11702     12765     12522
 -1     10591    6    0    1
 -2      6507       322      3609      6301     11807      4151     10113     10112      8431      8542
 -1     10592    6    0    1
 -2      6507      3609       322      3389     10113      4151     11807     11809      4153      4149
 -1     10593    6    0    1
 -2      6373      6075      6207      6151     12669     12255     11051     12216      7670     12015
 -1     10594    6    0    1
 -2      6373      6207      6075      6258     11051     12255     12669     10135     11625     12025
 -1     10595    6    0    1
 -2      6491      6202      6148      6104     10852     12488     11761     12147      9227     12487
 -1     10596    6    0    1
 -2      6491      6148      6202      6470     11761     12488     10852     10854     10337     10850
 -1     10597    6    0    1
 -2      6483      3734      3630      6279     11564      5182     12432     12366      9920     11770
 -1     10598    6    0    1
 -2      6483      3630      3734      3660     12432      5182     11564     11563      4036      4257
 -1     10599    6    0    1
 -2      5520      6341      5514      5438     12732      8227      5760      5667     12540      5758
 -1     10600    6    0    1
 -2      5514      6341      5520      6159      8227     12732      5760      9890     11777     12462
 -1     10601    6    0    1
 -2      6526      6251      3724      6430     12877     11645     12824     12839      8729     10448
 -1     10602    6    0    1
 -2      6526      3724      6251      6381     12824     11645     12877     12825     11059     10795
 -1     10603    6    0    1
 -2      6514      6159      6180      5445     12865     12901     12794     12879     11766     12860
 -1     10604    6    0    1
 -2      6514      6180      6159      6402     12794     12901     12865     12144     11812     10426
 -1     10605    6    0    1
 -2      6069      6180      6159      5445     12377     12901      9892     11765     12860     11766
 -1     10606    6    0    1
 -2      6069      6159      6180      6402      9892     12901     12377     12868     10426     11812
 -1     10607    6    0    1
 -2      3746       546        58      3416     12677       688      3822      3823      8859      3816
 -1     10608    6    0    1
 -2        58       546      3746       464       688     12677      3822       692       693     12704
 -1     10609    6    0    1
 -2      6232       540       546       471     12872       786     10974     12184       818       815
 -1     10610    6    0    1
 -2      6232       546       540      6222     10974       786     12872     12700     12678     12528
 -1     10611    6    0    1
 -2       492      6118      6195       501     12884      8148      8325       929      8150      8149
 -1     10612    6    0    1
 -2      6195      6118       492      6270      8148     12884      8325      9515     10836      9514
 -3
    1PSTEP                         1           1           1          
  100CL  101 1.000000000       12899                     0    1           1
 -4  DISP        4    1
 -5  D1          1    2    1    0
 -5  D2          1    2    2    0
 -5  D3          1    2    3    0
 -5  ALL         1    2    0    0    1ALL
 -1         1 0.00000E+00 0.00000E+00 0.00000E+00
 -1         2 1.78922E-04 0.00000E+00 0.00000E+00
 -1         3 2.32729E-04 5.16783E-04 0.00000E+00
 -1         4 1.76043E-04 5.90667E-04 0.00000E+00
 -1         5 2.09600E-04 1.36624E-03 0.00000E+00
 -1         6-5.92885E-04 1.40617E-03 0.00000E+00
 -1         7-3.83205E-04-1.72599E-04 0.00000E+00
 -1         9-6.69998E-05 1.20537E-03 0.00000E+00
 -1        10-2.50564E-04 9.76856E-04 0.00000E+00
 -1        11-1.40031E-04 7.05402E-04 0.00000E+00
 -1        12 3.90649E-05 9.62896E-04 0.00000E+00
 -1        13 2.43696E-05 0.00000E+00 4.12376E-05
 -1        14 1.69495E-04 0.00000E+00-9.00205E-05
 -1        15 2.24685E-04 5.11875E-04-1.53926E-05
 -1        16 1.70276E-04 5.82624E-04-1.82949E-05
 -1        17 2.04750E-04 1.36916E-03 3.17125E-06
 -1        18-5.91018E-04 1.40631E-03-2.38223E-06
 -1        19-3.84777E-04-1.70240E-04 1.17704E-06
 -1        20-6.54238E-05 1.20569E-03-1.26638E-06
 -1        22 3.46980E-05 9.64151E-04-1.10959E-05
 -1        23-1.42645E-04 7.00889E-04-3.49965E-06
 -1        24-2.48955E-04 9.72573E-04-2.81214E-06
 -1        25 1.78503E-05 0.00000E+00 0.00000E+00
 -1        26 3.22096E-05 0.00000E+00 0.00000E+00
 -1        27 4.72568E-05 0.00000E+00 0.00000E+00
 -1        28 6.26643E-05 0.00000E+00 0.00000E+00
 -1        29 7.76164E-05 0.00000E+00 0.00000E+00
 -1        30 9.15609E-05 0.00000E+00 0.00000E+00
 -1        31 1.04184E-04 0.00000E+00 0.00000E+00
 -1        32 1.15505E-04 0.00000E+00 0.00000E+00
 -1        33 1.25475E-04 0.00000E+00 0.00000E+00
 -1        34 1.34359E-04 0.00000E+00 0.00000E+00
 -1        35 1.42254E-04 0.00000E+00 0.00000E+00
 -1        36 1.49376E-04 0.00000E+00 0.00000E+00
 -1        37 1.55907E-04 0.00000E+00 0.00000E+00
 -1        38 1.61908E-04 0.00000E+00 0.00000E+00
 -1        39 1.68209E-04 0.00000E+00 0.00000E+00
 -1        40 9.50287E-06 0.00000E+00 0.00000E+00
 -1        41 2.45729E-05 0.00000E+00 0.00000E+00
 -1        42 3.91562E-05 0.00000E+00 0.00000E+00
 -1        43 5.44931E-05 0.00000E+00 0.00000E+00
 -1        44 6.97738E-05 0.00000E+00 0.00000E+00
 -1        45 8.43016E-05 0.00000E+00 0.00000E+00
 -1        46 9.76512E-05 0.00000E+00 0.00000E+00
 -1        47 1.09664E-04 0.00000E+00 0.00000E+00
 -1        48 1.20334E-04 0.00000E+00 0.00000E+00
 -1        49 1.29768E-04 0.00000E+00 0.00000E+00
 -1        50 1.38183E-04 0.00000E+00 0.00000E+00
 -1        51 1.45674E-04 0.00000E+00 0.00000E+00
 -1        52 1.52500E-04 0.00000E+00 0.00000E+00
 -1        53 1.58787E-04 0.00000E+00 0.00000E+00
 -1        54 1.65086E-04 0.00000E+00 0.00000E+00
 -1        55 1.72115E-04 0.00000E+00 0.00000E+00
 -1        56 1.82326E-04 3.65209E-05 0.00000E+00
 -1        57 1.82857E-04 5.94099E-05 0.00000E+00
 -1        58 1.84507E-04 8.17718E-05 0.00000E+00
 -1        59 1.86677E-04 1.05969E-04 0.00000E+00
 -1        60 1.89641E-04 1.33599E-04 0.00000E+00
 -1        61 1.93666E-04 1.66210E-04 0.00000E+00
 -1        62 1.99030E-04 2.06015E-04 0.00000E+00
 -1        63 2.06013E-04 2.55735E-04 0.00000E+00
 -1        64 2.14815E-04 3.19723E-04 0.00000E+00
 -1        65 2.25029E-04 4.04284E-04 0.00000E+00
 -1        66 1.79351E-04 2.05822E-05 0.00000E+00
 -1        67 1.82514E-04 4.90998E-05 0.00000E+00
 -1        68 1.83729E-04 7.13307E-05 0.00000E+00
 -1        69 1.85671E-04 9.45070E-05 0.00000E+00
 -1        70 1.88197E-04 1.20370E-04 0.00000E+00
 -1        71 1.91692E-04 1.50473E-04 0.00000E+00
 -1        72 1.96409E-04 1.86677E-04 0.00000E+00
 -1        73 2.02613E-04 2.31417E-04 0.00000E+00
 -1        74 2.10559E-04 2.88209E-04 0.00000E+00
 -1        75 2.20223E-04 3.62369E-04 0.00000E+00
 -1        76 2.30093E-04 4.61584E-04 0.00000E+00
 -1        77 2.01338E-04 5.53133E-04 0.00000E+00
 -1        78 2.15431E-04 7.86064E-04 0.00000E+00
 -1        79 2.29933E-04 1.01726E-03 0.00000E+00
 -1        80 2.14781E-04 1.21079E-03 0.00000E+00
 -1        81 1.96735E-04 6.83417E-04 0.00000E+00
 -1        82 2.27621E-04 9.00182E-04 0.00000E+00
 -1        83 2.23349E-04 1.12115E-03 0.00000E+00
 -1        84 2.10419E-04 1.28961E-03 0.00000E+00
 -1        85 2.53905E-05 1.35960E-03 0.00000E+00
 -1        86-1.33716E-04 1.37310E-03 0.00000E+00
 -1        87-3.50369E-04 1.40145E-03 0.00000E+00
 -1        88 1.14683E-04 1.36480E-03 0.00000E+00
 -1        89-5.31697E-05 1.36070E-03 0.00000E+00
 -1        90-2.34675E-04 1.39013E-03 0.00000E+00
 -1        91-4.71592E-04 1.40570E-03 0.00000E+00
 -1        92-5.96472E-04 1.16441E-03 0.00000E+00
 -1        93-5.99598E-04 9.10939E-04 0.00000E+00
 -1        94-5.77843E-04 6.66453E-04 0.00000E+00
 -1        95-5.38917E-04 4.54981E-04 0.00000E+00
 -1        96-4.90350E-04 2.76401E-04 0.00000E+00
 -1        97-4.40074E-04 1.34311E-04 0.00000E+00
 -1        98-4.01350E-04 2.44817E-05 0.00000E+00
 -1        99-3.84607E-04-7.09497E-05 0.00000E+00
 -1       100-5.93281E-04 1.28541E-03 0.00000E+00
 -1       101-6.00214E-04 1.03939E-03 0.00000E+00
 -1       102-5.91504E-04 7.85265E-04 0.00000E+00
 -1       103-5.59813E-04 5.56650E-04 0.00000E+00
 -1       104-5.15502E-04 3.61531E-04 0.00000E+00
 -1       105-4.64691E-04 2.01203E-04 0.00000E+00
 -1       106-4.18492E-04 7.64930E-05 0.00000E+00
 -1       107-3.90318E-04-2.35447E-05 0.00000E+00
 -1       108-3.83149E-04-1.20684E-04 0.00000E+00
 -1       109-2.76151E-04-1.71266E-04 0.00000E+00
 -1       110-1.28247E-04-1.41317E-04 0.00000E+00
 -1       111-2.68252E-05-7.30242E-05 0.00000E+00
 -1       112-3.30822E-04-1.72773E-04 0.00000E+00
 -1       113-2.00772E-04-1.61821E-04 0.00000E+00
 -1       114-7.06545E-05-1.12345E-04 0.00000E+00
 -1       115-7.07475E-06-3.76517E-05 0.00000E+00
 -1       116-1.75895E-04 1.14435E-03 0.00000E+00
 -1       117-1.18083E-04 1.19236E-03 0.00000E+00
 -1       118-2.24807E-04 1.06941E-03 0.00000E+00
 -1       119-2.32509E-04 7.93052E-04 0.00000E+00
 -1       120-2.54349E-04 8.79580E-04 0.00000E+00
 -1       121-1.94660E-04 7.33755E-04 0.00000E+00
 -1       122-2.76480E-05 7.73040E-04 0.00000E+00
 -1       123-7.98698E-05 7.21083E-04 0.00000E+00
 -1       124 1.45917E-05 8.59102E-04 0.00000E+00
 -1       125 1.57049E-05 1.13980E-03 0.00000E+00
 -1       126 3.82421E-05 1.06222E-03 0.00000E+00
 -1       127-2.25027E-05 1.18853E-03 0.00000E+00
 -1       128 4.05799E-05 0.00000E+00 1.71980E-05
 -1       129 5.39685E-05 0.00000E+00-1.75741E-06
 -1       130 6.75702E-05 0.00000E+00-1.77301E-05
 -1       131 8.09524E-05 0.00000E+00-3.13977E-05
 -1       132 9.34614E-05 0.00000E+00-4.30525E-05
 -1       133 1.04855E-04 0.00000E+00-5.28368E-05
 -1       134 1.14941E-04 0.00000E+00-6.09954E-05
 -1       135 1.23737E-04 0.00000E+00-6.76332E-05
 -1       136 1.31447E-04 0.00000E+00-7.30503E-05
 -1       137 1.38142E-04 0.00000E+00-7.74156E-05
 -1       138 1.44040E-04 0.00000E+00-8.09365E-05
 -1       139 1.49194E-04 0.00000E+00-8.36948E-05
 -1       140 1.53872E-04 0.00000E+00-8.59087E-05
 -1       141 1.58105E-04 0.00000E+00-8.77773E-05
 -1       142 1.62381E-04 0.00000E+00-8.91067E-05
 -1       143 3.29497E-05 0.00000E+00 2.91191E-05
 -1       144 4.68811E-05 0.00000E+00 7.86087E-06
 -1       145 6.03307E-05 0.00000E+00-9.57629E-06
 -1       146 7.39168E-05 0.00000E+00-2.43998E-05
 -1       147 8.69558E-05 0.00000E+00-3.70958E-05
 -1       148 9.89657E-05 0.00000E+00-4.78417E-05
 -1       149 1.09737E-04 0.00000E+00-5.68596E-05
 -1       150 1.19220E-04 0.00000E+00-6.42723E-05
 -1       151 1.27471E-04 0.00000E+00-7.03046E-05
 -1       152 1.34705E-04 0.00000E+00-7.52072E-05
 -1       153 1.41009E-04 0.00000E+00-7.91637E-05
 -1       154 1.46536E-04 0.00000E+00-8.22948E-05
 -1       155 1.51461E-04 0.00000E+00-8.47781E-05
 -1       156 1.55937E-04 0.00000E+00-8.67769E-05
 -1       157 1.60362E-04 0.00000E+00-8.84233E-05
 -1       158 1.64918E-04 0.00000E+00-8.95487E-05
 -1       159 1.71701E-04 2.93315E-05-8.04537E-05
 -1       160 1.72957E-04 5.05883E-05-7.37504E-05
 -1       161 1.74892E-04 7.19769E-05-6.76884E-05
 -1       162 1.77190E-04 9.57233E-05-6.16389E-05
 -1       163 1.80242E-04 1.23289E-04-5.54266E-05
 -1       164 1.84282E-04 1.56264E-04-4.88400E-05
 -1       165 1.89624E-04 1.96853E-04-4.18771E-05
 -1       166 1.96643E-04 2.47785E-04-3.47571E-05
 -1       167 2.05658E-04 3.13298E-04-2.75214E-05
 -1       168 2.16608E-04 3.99279E-04-2.07469E-05
 -1       169 1.69599E-04 1.55994E-05-8.52035E-05
 -1       170 1.72363E-04 4.10508E-05-7.65051E-05
 -1       171 1.73975E-04 6.18830E-05-7.04702E-05
 -1       172 1.76086E-04 8.44663E-05-6.43871E-05
 -1       173 1.78758E-04 1.10030E-04-5.83091E-05
 -1       174 1.82303E-04 1.40300E-04-5.18994E-05
 -1       175 1.87006E-04 1.77109E-04-4.50905E-05
 -1       176 1.93228E-04 2.22852E-04-3.80472E-05
 -1       177 2.01266E-04 2.81086E-04-3.07899E-05
 -1       178 2.11405E-04 3.56726E-04-2.38070E-05
 -1       179 2.22101E-04 4.57084E-04-1.74622E-05
 -1       180 1.94452E-04 5.46984E-04-1.61247E-05
 -1       181 2.12509E-04 7.78561E-04-1.42145E-05
 -1       182 2.28134E-04 1.02011E-03-3.67361E-06
 -1       183 2.09914E-04 1.21589E-03 1.03972E-06
 -1       184 1.92382E-04 6.74594E-04-1.75653E-05
 -1       185 2.25776E-04 8.97469E-04-9.41841E-06
 -1       186 2.19550E-04 1.12689E-03-2.28664E-08
 -1       187 2.05355E-04 1.29311E-03 1.82684E-06
 -1       188 2.16390E-05 1.35989E-03-1.02358E-06
 -1       189-1.28428E-04 1.37150E-03-7.78683E-06
 -1       190-3.45435E-04 1.40157E-03-5.70996E-06
 -1       191 1.09565E-04 1.36679E-03 1.43798E-06
 -1       192-5.22526E-05 1.35953E-03-4.78752E-06
 -1       193-2.28463E-04 1.38971E-03-7.81198E-06
 -1       194-4.68707E-04 1.40578E-03-3.41392E-06
 -1       195-5.94505E-04 1.16430E-03-1.51828E-06
 -1       196-5.97473E-04 9.06245E-04 4.80036E-06
 -1       197-5.74291E-04 6.56344E-04 1.47912E-05
 -1       198-5.36290E-04 4.42473E-04 2.17521E-05
 -1       199-4.89543E-04 2.62707E-04 2.53827E-05
 -1       200-4.40678E-04 1.22520E-04 2.29599E-05
 -1       201-4.02405E-04 1.82470E-05 1.47805E-05
 -1       202-3.85380E-04-7.06609E-05 5.61365E-06
 -1       203-5.91205E-04 1.28538E-03-2.04375E-06
 -1       204-5.98419E-04 1.03753E-03 7.81703E-07
 -1       205-5.88510E-04 7.77537E-04 9.94645E-06
 -1       206-5.56567E-04 5.45155E-04 1.86037E-05
 -1       207-5.13790E-04 3.48150E-04 2.41066E-05
 -1       208-4.64681E-04 1.87974E-04 2.48667E-05
 -1       209-4.19410E-04 6.71626E-05 1.93334E-05
 -1       210-3.91304E-04-2.62630E-05 9.88670E-06
 -1       211-3.84169E-04-1.18561E-04 2.89896E-06
 -1       212-2.75226E-04-1.69457E-04 6.63722E-06
 -1       213-1.17127E-04-1.39367E-04 2.17705E-05
 -1       214-5.68239E-06-7.17099E-05 3.64235E-05
 -1       215-3.31716E-04-1.70764E-04 3.42994E-06
 -1       216-1.95408E-04-1.59913E-04 1.33041E-05
 -1       217-5.40706E-05-1.10794E-04 2.97117E-05
 -1       218 1.63237E-05-3.71045E-05 3.97047E-05
 -1       219 9.45102E-06 1.14469E-03-1.57267E-05
 -1       220-2.63190E-05 1.19135E-03-9.76197E-06
 -1       221 3.25705E-05 1.06790E-03-1.53114E-05
 -1       222-3.42782E-05 7.63990E-04 3.57889E-06
 -1       223 8.88957E-06 8.53057E-04-1.99254E-06
 -1       224-8.55290E-05 7.13748E-04 1.51446E-06
 -1       225-2.27433E-04 7.84653E-04-1.28523E-05
 -1       226-1.91725E-04 7.26493E-04-9.53432E-06
 -1       227-2.50966E-04 8.71679E-04-9.56124E-06
 -1       228-1.70080E-04 1.14630E-03 8.38661E-06
 -1       229-2.21841E-04 1.06944E-03 3.94719E-06
 -1       230-1.11835E-04 1.19371E-03 7.00801E-06
 -1       231 5.00289E-06 0.00000E+00 1.88367E-05
 -1       232 9.55260E-07 0.00000E+00 9.08286E-06
 -1       233 1.23778E-05 0.00000E+00 2.95643E-05
 -1       234 1.75642E-04 0.00000E+00-4.16511E-07
 -1       235 1.75987E-04 0.00000E+00-1.45285E-06
 -1       236 1.75025E-04 0.00000E+00-1.79847E-06
 -1       237 1.75980E-04 0.00000E+00-2.04514E-06
 -1       238 1.76013E-04 0.00000E+00-2.71221E-06
 -1       239 1.75414E-04 0.00000E+00-3.20085E-06
 -1       240 1.76514E-04 0.00000E+00-3.79940E-06
 -1       241 1.76732E-04 0.00000E+00-4.94960E-06
 -1       242 1.74895E-04 0.00000E+00-4.87927E-06
 -1       243 1.75768E-04 0.00000E+00-5.13215E-06
 -1       244 1.75726E-04 0.00000E+00-6.28175E-06
 -1       245 1.76046E-04 0.00000E+00-6.83653E-06
 -1       246 1.76581E-04 0.00000E+00-6.62123E-06
 -1       247 1.75270E-04 0.00000E+00-8.22423E-06
 -1       248 1.75285E-04 0.00000E+00-8.30410E-06
 -1       249 1.75978E-04 0.00000E+00-8.44665E-06
 -1       250 1.76116E-04 0.00000E+00-9.50634E-06
 -1       251 1.78083E-04 0.00000E+00-9.91241E-06
 -1       252 1.77262E-04 0.00000E+00-1.10415E-05
 -1       253 1.76711E-04 0.00000E+00-1.13205E-05
 -1       254 1.76212E-04 0.00000E+00-1.16012E-05
 -1       255 1.77037E-04 0.00000E+00-1.16021E-05
 -1       256 1.78351E-04 0.00000E+00-1.26341E-05
 -1       257 1.78177E-04 0.00000E+00-1.36429E-05
 -1       258 1.76703E-04 0.00000E+00-1.43322E-05
 -1       259 1.76798E-04 0.00000E+00-1.42636E-05
 -1       260 1.78364E-04 0.00000E+00-1.51113E-05
 -1       261 1.76881E-04 0.00000E+00-1.60348E-05
 -1       262 1.76714E-04 0.00000E+00-1.57872E-05
 -1       263 1.78594E-04 0.00000E+00-1.69690E-05
 -1       264 1.76572E-04 0.00000E+00-1.81039E-05
 -1       265 1.75959E-04 0.00000E+00-1.78994E-05
 -1       266 1.75771E-04 0.00000E+00-1.82142E-05
 -1       267 1.76117E-04 0.00000E+00-1.94020E-05
 -1       268 1.75774E-04 0.00000E+00-2.02815E-05
 -1       269 1.76142E-04 0.00000E+00-1.99121E-05
 -1       270 1.76371E-04 0.00000E+00-2.10105E-05
 -1       271 1.78291E-04 0.00000E+00-2.21042E-05
 -1       272 1.76233E-04 0.00000E+00-2.18542E-05
 -1       273 1.76244E-04 0.00000E+00-2.30149E-05
 -1       274 1.75703E-04 0.00000E+00-2.42960E-05
 -1       275 1.76680E-04 0.00000E+00-2.43967E-05
 -1       276 1.77979E-04 0.00000E+00-2.46535E-05
 -1       277 1.76370E-04 0.00000E+00-2.52553E-05
 -1       278 1.76270E-04 0.00000E+00-2.57387E-05
 -1       279 1.78317E-04 0.00000E+00-2.68712E-05
 -1       280 1.76878E-04 0.00000E+00-2.76404E-05
 -1       281 1.76827E-04 0.00000E+00-2.80733E-05
 -1       282 1.76010E-04 0.00000E+00-2.88202E-05
 -1       283 1.76972E-04 0.00000E+00-2.93105E-05
 -1       284 1.76503E-04 0.00000E+00-3.00749E-05
 -1       285 1.76405E-04 0.00000E+00-3.16206E-05
 -1       286 1.76805E-04 0.00000E+00-3.12209E-05
 -1       287 1.75985E-04 0.00000E+00-3.22145E-05
 -1       288 1.76897E-04 0.00000E+00-3.30856E-05
 -1       289 1.77347E-04 0.00000E+00-3.35819E-05
 -1       290 1.77104E-04 0.00000E+00-3.45025E-05
 -1       291 1.77419E-04 0.00000E+00-3.54457E-05
 -1       292 1.76409E-04 0.00000E+00-3.55532E-05
 -1       293 1.77010E-04 0.00000E+00-3.64331E-05
 -1       294 1.77015E-04 0.00000E+00-3.74677E-05
 -1       295 1.77034E-04 0.00000E+00-3.81411E-05
 -1       296 1.76794E-04 0.00000E+00-3.85989E-05
 -1       297 1.75937E-04 0.00000E+00-3.96650E-05
 -1       298 1.76155E-04 0.00000E+00-4.06290E-05
 -1       299 1.77065E-04 0.00000E+00-4.13854E-05
 -1       300 1.76448E-04 0.00000E+00-4.20475E-05
 -1       301 1.77396E-04 0.00000E+00-4.29992E-05
 -1       302 1.77610E-04 0.00000E+00-4.33494E-05
 -1       303 1.77830E-04 0.00000E+00-4.41566E-05
 -1       304 1.79256E-04 0.00000E+00-4.54726E-05
 -1       305 1.79039E-04 0.00000E+00-4.63405E-05
 -1       306 1.78054E-04 0.00000E+00-4.75659E-05
 -1       307 1.76335E-04 0.00000E+00-4.83392E-05
 -1       308 1.76711E-04 0.00000E+00-4.88222E-05
 -1       309 1.76100E-04 0.00000E+00-5.05576E-05
 -1       310 1.76917E-04 0.00000E+00-5.05574E-05
 -1       311 1.78364E-04 0.00000E+00-5.23613E-05
 -1       312 1.76529E-04 0.00000E+00-5.31140E-05
 -1       313 1.76051E-04 0.00000E+00-5.37189E-05
 -1       314 1.76919E-04 0.00000E+00-5.45670E-05
 -1       315 1.77928E-04 0.00000E+00-5.63052E-05
 -1       316 1.75886E-04 0.00000E+00-5.75656E-05
 -1       317 1.76004E-04 0.00000E+00-5.82372E-05
 -1       318 1.77217E-04 0.00000E+00-5.94452E-05
 -1       319 1.75766E-04 0.00000E+00-6.04586E-05
 -1       320 1.76079E-04 0.00000E+00-6.24778E-05
 -1       321 1.75245E-04 0.00000E+00-6.31921E-05
 -1       322 1.75755E-04 0.00000E+00-6.39849E-05
 -1       323 1.76609E-04 0.00000E+00-6.61443E-05
 -1       324 1.75048E-04 0.00000E+00-6.79863E-05
 -1       325 1.74485E-04 0.00000E+00-6.90611E-05
 -1       326 1.74524E-04 0.00000E+00-7.06201E-05
 -1       327 1.74414E-04 0.00000E+00-7.17975E-05
 -1       328 1.74756E-04 0.00000E+00-7.39335E-05
 -1       329 1.72856E-04 0.00000E+00-7.60703E-05
 -1       330 1.71408E-04 0.00000E+00-7.84183E-05
 -1       331 1.70648E-04 0.00000E+00-8.09377E-05
 -1       332 1.69625E-04 0.00000E+00-8.43314E-05
 -1       333 1.78548E-04 0.00000E+00-2.63905E-07
 -1       334 1.75348E-04 0.00000E+00-8.47884E-07
 -1       335 1.75778E-04 0.00000E+00-1.71060E-06
 -1       336 1.75455E-04 0.00000E+00-1.87802E-06
 -1       337 1.75962E-04 0.00000E+00-2.37423E-06
 -1       338 1.75602E-04 0.00000E+00-2.99250E-06
 -1       339 1.76325E-04 0.00000E+00-3.45654E-06
 -1       340 1.76866E-04 0.00000E+00-4.17808E-06
 -1       341 1.75863E-04 0.00000E+00-4.88513E-06
 -1       342 1.75269E-04 0.00000E+00-5.01266E-06
 -1       343 1.75669E-04 0.00000E+00-5.74102E-06
 -1       344 1.75549E-04 0.00000E+00-6.61920E-06
 -1       345 1.76520E-04 0.00000E+00-6.65245E-06
 -1       346 1.75735E-04 0.00000E+00-7.50349E-06
 -1       347 1.74900E-04 0.00000E+00-8.22091E-06
 -1       348 1.75129E-04 0.00000E+00-8.39588E-06
 -1       349 1.76639E-04 0.00000E+00-8.98814E-06
 -1       350 1.77510E-04 0.00000E+00-9.64121E-06
 -1       351 1.77830E-04 0.00000E+00-1.04483E-05
 -1       352 1.77014E-04 0.00000E+00-1.11445E-05
 -1       353 1.76619E-04 0.00000E+00-1.14930E-05
 -1       354 1.76534E-04 0.00000E+00-1.16029E-05
 -1       355 1.77693E-04 0.00000E+00-1.21044E-05
 -1       356 1.78223E-04 0.00000E+00-1.31899E-05
 -1       357 1.77568E-04 0.00000E+00-1.40043E-05
 -1       358 1.76830E-04 0.00000E+00-1.42756E-05
 -1       359 1.77767E-04 0.00000E+00-1.46729E-05
 -1       360 1.77957E-04 0.00000E+00-1.55860E-05
 -1       361 1.76636E-04 0.00000E+00-1.60148E-05
 -1       362 1.78095E-04 0.00000E+00-1.63120E-05
 -1       363 1.77978E-04 0.00000E+00-1.75291E-05
 -1       364 1.76320E-04 0.00000E+00-1.79397E-05
 -1       365 1.75725E-04 0.00000E+00-1.80327E-05
 -1       366 1.75983E-04 0.00000E+00-1.88482E-05
 -1       367 1.75868E-04 0.00000E+00-1.98095E-05
 -1       368 1.76027E-04 0.00000E+00-2.00734E-05
 -1       369 1.76062E-04 0.00000E+00-2.05116E-05
 -1       370 1.77936E-04 0.00000E+00-2.14259E-05
 -1       371 1.77277E-04 0.00000E+00-2.19997E-05
 -1       372 1.76210E-04 0.00000E+00-2.23987E-05
 -1       373 1.75800E-04 0.00000E+00-2.36244E-05
 -1       374 1.76440E-04 0.00000E+00-2.43617E-05
 -1       375 1.77442E-04 0.00000E+00-2.44381E-05
 -1       376 1.77319E-04 0.00000E+00-2.50140E-05
 -1       377 1.76098E-04 0.00000E+00-2.56337E-05
 -1       378 1.77766E-04 0.00000E+00-2.62844E-05
 -1       379 1.77702E-04 0.00000E+00-2.73318E-05
 -1       380 1.76503E-04 0.00000E+00-2.77969E-05
 -1       381 1.76474E-04 0.00000E+00-2.85054E-05
 -1       382 1.76571E-04 0.00000E+00-2.89630E-05
 -1       383 1.76787E-04 0.00000E+00-2.97220E-05
 -1       384 1.75698E-04 0.00000E+00-3.06904E-05
 -1       385 1.76699E-04 0.00000E+00-3.13801E-05
 -1       386 1.76020E-04 0.00000E+00-3.18155E-05
 -1       387 1.75955E-04 0.00000E+00-3.26253E-05
 -1       388 1.76902E-04 0.00000E+00-3.33047E-05
 -1       389 1.77087E-04 0.00000E+00-3.40545E-05
 -1       390 1.78038E-04 0.00000E+00-3.48797E-05
 -1       391 1.76884E-04 0.00000E+00-3.55965E-05
 -1       392 1.76699E-04 0.00000E+00-3.59850E-05
 -1       393 1.76940E-04 0.00000E+00-3.69477E-05
 -1       394 1.76935E-04 0.00000E+00-3.78686E-05
 -1       395 1.77253E-04 0.00000E+00-3.83587E-05
 -1       396 1.75952E-04 0.00000E+00-3.91414E-05
 -1       397 1.75646E-04 0.00000E+00-4.01697E-05
 -1       398 1.76843E-04 0.00000E+00-4.09470E-05
 -1       399 1.76648E-04 0.00000E+00-4.17708E-05
 -1       400 1.77013E-04 0.00000E+00-4.24691E-05
 -1       401 1.77534E-04 0.00000E+00-4.31782E-05
 -1       402 1.78045E-04 0.00000E+00-4.38147E-05
 -1       403 1.78915E-04 0.00000E+00-4.48782E-05
 -1       404 1.78724E-04 0.00000E+00-4.58611E-05
 -1       405 1.78789E-04 0.00000E+00-4.69419E-05
 -1       406 1.77737E-04 0.00000E+00-4.78338E-05
 -1       407 1.76443E-04 0.00000E+00-4.85846E-05
 -1       408 1.76490E-04 0.00000E+00-4.97066E-05
 -1       409 1.76662E-04 0.00000E+00-5.05736E-05
 -1       410 1.78841E-04 0.00000E+00-5.15316E-05
 -1       411 1.78724E-04 0.00000E+00-5.25561E-05
 -1       412 1.76460E-04 0.00000E+00-5.33608E-05
 -1       413 1.76554E-04 0.00000E+00-5.41747E-05
 -1       414 1.77691E-04 0.00000E+00-5.54693E-05
 -1       415 1.77237E-04 0.00000E+00-5.69719E-05
 -1       416 1.75876E-04 0.00000E+00-5.78521E-05
 -1       417 1.76804E-04 0.00000E+00-5.88046E-05
 -1       418 1.76693E-04 0.00000E+00-6.00238E-05
 -1       419 1.75633E-04 0.00000E+00-6.13754E-05
 -1       420 1.75698E-04 0.00000E+00-6.28360E-05
 -1       421 1.75507E-04 0.00000E+00-6.35549E-05
 -1       422 1.76459E-04 0.00000E+00-6.50355E-05
 -1       423 1.75802E-04 0.00000E+00-6.71062E-05
 -1       424 1.74695E-04 0.00000E+00-6.84241E-05
 -1       425 1.74270E-04 0.00000E+00-6.98735E-05
 -1       426 1.74718E-04 0.00000E+00-7.11723E-05
 -1       427 1.74616E-04 0.00000E+00-7.28161E-05
 -1       428 1.74025E-04 0.00000E+00-7.50570E-05
 -1       429 1.71820E-04 0.00000E+00-7.71930E-05
 -1       430 1.70758E-04 0.00000E+00-7.97093E-05
 -1       431 1.69968E-04 0.00000E+00-8.25610E-05
 -1       432 1.70821E-04 0.00000E+00-8.66409E-05
 -1       433 2.31923E-04 5.15132E-04-9.65969E-06
 -1       434 2.32675E-04 5.16319E-04-5.15903E-06
 -1       435 2.28715E-04 5.13048E-04-1.33894E-05
 -1       436 1.74788E-04 5.88797E-04-7.73975E-06
 -1       437 1.75426E-04 5.90401E-04-3.89266E-06
 -1       438 1.72104E-04 5.86786E-04-1.19757E-05
 -1       439 2.08013E-04 1.36688E-03 9.92531E-07
 -1       440 2.09016E-04 1.36657E-03 3.40156E-07
 -1       441 2.06327E-04 1.36758E-03 1.99940E-06
 -1       442-5.92358E-04 1.40693E-03-1.51702E-06
 -1       443-5.92576E-04 1.40677E-03-8.06505E-07
 -1       444-5.91652E-04 1.40690E-03-2.14036E-06
 -1       445-3.83108E-04-1.72805E-04 1.76902E-06
 -1       446-3.83124E-04-1.72722E-04 1.01441E-06
 -1       447-3.83499E-04-1.71970E-04 1.59558E-06
 -1       448-6.61551E-05 1.20660E-03-1.44054E-06
 -1       449-6.65979E-05 1.20607E-03-7.94471E-07
 -1       450-6.63206E-05 1.20701E-03-1.34954E-06
 -1       451 3.74285E-05 9.62518E-04-3.43721E-06
 -1       452 3.78846E-05 9.62728E-04-1.61635E-06
 -1       453 3.50703E-05 9.61646E-04-6.81594E-06
 -1       454-1.40671E-04 7.05920E-04-2.04931E-06
 -1       455-1.40492E-04 7.05856E-04-1.18709E-06
 -1       456-1.40868E-04 7.02029E-04-2.56311E-06
 -1       457-2.53231E-04 9.74440E-04-1.06916E-06
 -1       458-2.51598E-04 9.76235E-04-5.87566E-07
 -1       459-2.49521E-04 9.74682E-04-1.84681E-06
 -1       460 1.50631E-04 3.79591E-06 0.00000E+00
 -1       461 1.18252E-04 4.03419E-06 0.00000E+00
 -1       462 7.90614E-05 3.04188E-06 0.00000E+00
 -1       463 1.67611E-04 1.84235E-04 0.00000E+00
 -1       464 1.68775E-04 9.15713E-05 0.00000E+00
 -1       465 1.64760E-04 7.52956E-06 0.00000E+00
 -1       466 1.58680E-04 3.60837E-04 0.00000E+00
 -1       467 4.94071E-05-1.29043E-06 0.00000E+00
 -1       468 1.36335E-04 3.87897E-06 0.00000E+00
 -1       469-3.31551E-04 1.87800E-04 0.00000E+00
 -1       470 1.66748E-04 4.51188E-05 0.00000E+00
 -1       471 1.50161E-04 3.83562E-05 0.00000E+00
 -1       472-2.44520E-04 6.36923E-04 0.00000E+00
 -1       473-1.32202E-04 5.61947E-04 0.00000E+00
 -1       474-2.07902E-04 4.77179E-04 0.00000E+00
 -1       475-1.13015E-04 4.17173E-04 0.00000E+00
 -1       476-6.32648E-05-6.07228E-05 0.00000E+00
 -1       477-2.79403E-04-2.21486E-05 0.00000E+00
 -1       478-1.92569E-04 3.47967E-04 0.00000E+00
 -1       479-1.03283E-04 2.97682E-04 0.00000E+00
 -1       480-3.40573E-05 3.56983E-04 0.00000E+00
 -1       481-3.22116E-05 2.51059E-04 0.00000E+00
 -1       482-9.03290E-05 2.06962E-04 0.00000E+00
 -1       483-1.97015E-05 1.61455E-04 0.00000E+00
 -1       484-7.08093E-05 1.29718E-04 0.00000E+00
 -1       485-4.97584E-06 8.56138E-05 0.00000E+00
 -1       486-5.91677E-05 6.84310E-05 0.00000E+00
 -1       487 2.46337E-05 1.15652E-04 0.00000E+00
 -1       488 1.53926E-06 3.35754E-05 0.00000E+00
 -1       489-5.12290E-05 2.28546E-05 0.00000E+00
 -1       490-1.24453E-04 5.20004E-05 0.00000E+00
 -1       491-1.47184E-04 1.62449E-04 0.00000E+00
 -1       492 2.76470E-05 3.01365E-04 0.00000E+00
 -1       493 3.91473E-05 3.99242E-04 0.00000E+00
 -1       494-1.10169E-04 2.21755E-06 0.00000E+00
 -1       495-2.93566E-04 3.95878E-04 0.00000E+00
 -1       496 1.64983E-04 2.82305E-04 0.00000E+00
 -1       497 2.30627E-05 2.16374E-04 0.00000E+00
 -1       498 2.82029E-06 3.64745E-06 0.00000E+00
 -1       499 1.62980E-05-1.49227E-05 0.00000E+00
 -1       500 1.66203E-04 4.37861E-04 0.00000E+00
 -1       501 7.88692E-05 2.60091E-04 0.00000E+00
 -1       502 7.31487E-05 1.77564E-04 0.00000E+00
 -1       503 1.21418E-04 2.25528E-04 0.00000E+00
 -1       504 4.28902E-05 4.09763E-05 0.00000E+00
 -1       505 7.77366E-05 5.71980E-05 0.00000E+00
 -1       506 4.89777E-05 1.62183E-05 0.00000E+00
 -1       507 1.67998E-04 1.49653E-04 0.00000E+00
 -1       508 1.37170E-04 1.59766E-04 0.00000E+00
 -1       509 1.36014E-04 1.19647E-04 0.00000E+00
 -1       510 1.13540E-04 1.28883E-04 0.00000E+00
 -1       511 1.08917E-04 8.31183E-05 0.00000E+00
 -1       512 8.40420E-05 1.17341E-04 0.00000E+00
 -1       513-3.86806E-04 7.84869E-04 0.00000E+00
 -1       514 7.48181E-05 2.03992E-05 0.00000E+00
 -1       515-2.61960E-05 4.92570E-04 0.00000E+00
 -1       516 6.40943E-05 4.96784E-04 0.00000E+00
 -1       517 2.14164E-05 6.00296E-04 0.00000E+00
 -1       518-2.00739E-04 2.73404E-05 0.00000E+00
 -1       519 9.35222E-05 4.04123E-06 0.00000E+00
 -1       520-3.51715E-04 1.11441E-03 0.00000E+00
 -1       521 1.49060E-04 1.33108E-05 0.00000E+00
 -1       522 1.37777E-04 3.24412E-05 0.00000E+00
 -1       523 1.34385E-04 1.97682E-05 0.00000E+00
 -1       524 1.65785E-04 2.25980E-04 0.00000E+00
 -1       525-1.79048E-04-7.40030E-05 0.00000E+00
 -1       526-2.04665E-04 1.09020E-04 0.00000E+00
 -1       527 1.21353E-04 4.16809E-05 0.00000E+00
 -1       528 1.21388E-04 2.03758E-05 0.00000E+00
 -1       529 1.01527E-04 4.81137E-05 0.00000E+00
 -1       530 1.00443E-04 2.89836E-05 0.00000E+00
 -1       531-3.11311E-04 7.07107E-05 0.00000E+00
 -1       532-3.79440E-04 6.08103E-04 0.00000E+00
 -1       533 3.28911E-05-6.05221E-06 0.00000E+00
 -1       534-5.87299E-06-1.89096E-05 0.00000E+00
 -1       535 1.27965E-04 3.83808E-06 0.00000E+00
 -1       536 1.16954E-04 1.06398E-05 0.00000E+00
 -1       537 1.07532E-04 9.09872E-06 0.00000E+00
 -1       538 6.43195E-05 1.49546E-06 0.00000E+00
 -1       539 1.43893E-04 3.78937E-06 0.00000E+00
 -1       540 1.40819E-04 7.15999E-05 0.00000E+00
 -1       541 1.35295E-04 9.66938E-06 0.00000E+00
 -1       542 8.68410E-05 3.38794E-04 0.00000E+00
 -1       543-2.64539E-04 2.79824E-04 0.00000E+00
 -1       544 1.63668E-04 1.13989E-04 0.00000E+00
 -1       545 4.18571E-05 3.78641E-06 0.00000E+00
 -1       546 1.63043E-04 6.58148E-05 0.00000E+00
 -1       547-3.85582E-04 3.30092E-04 0.00000E+00
 -1       548 1.10701E-04 1.73024E-04 0.00000E+00
 -1       549 5.14738E-05 1.30811E-04 0.00000E+00
 -1       550 1.06587E-04 4.37747E-06 0.00000E+00
 -1       551-1.68726E-04 2.48455E-04 0.00000E+00
 -1       552 1.08555E-04 6.79263E-04 0.00000E+00
 -1       553 1.28416E-04 8.76558E-06 0.00000E+00
 -1       554 7.58303E-05 8.99499E-06 0.00000E+00
 -1       555-4.70308E-05-5.98285E-06 0.00000E+00
 -1       556 3.90393E-06-2.61636E-05 0.00000E+00
 -1       557 2.71460E-05-4.37356E-06 0.00000E+00
 -1       558-2.77190E-04 1.25920E-03 0.00000E+00
 -1       559 1.56716E-04 3.96204E-06 0.00000E+00
 -1       560 2.09061E-05 1.59122E-04 0.00000E+00
 -1       561 7.32395E-05 3.81399E-05 0.00000E+00
 -1       562-2.23261E-04 1.94488E-04 0.00000E+00
 -1       563-3.05495E-04-9.63166E-05 0.00000E+00
 -1       564-4.09310E-04 4.68603E-04 0.00000E+00
 -1       565-6.78173E-05 6.43793E-04 0.00000E+00
 -1       566 1.39441E-04 1.94900E-04 0.00000E+00
 -1       567 1.42586E-04 9.25553E-06 0.00000E+00
 -1       568 1.02023E-04 4.06563E-04 0.00000E+00
 -1       569 1.40596E-04 5.05703E-04 0.00000E+00
 -1       570 1.17118E-04 1.12124E-03 0.00000E+00
 -1       571 9.33274E-05 1.24675E-03 0.00000E+00
 -1       572-2.95855E-07 1.25123E-03 0.00000E+00
 -1       573-1.20670E-04 1.02320E-04 0.00000E+00
 -1       574 1.20025E-04 3.03049E-04 0.00000E+00
 -1       575-4.35166E-04 1.25972E-03 0.00000E+00
 -1       576-4.45021E-04 9.63325E-04 0.00000E+00
 -1       577-1.54624E-04 1.24829E-03 0.00000E+00
 -1       578 9.37451E-05 1.01745E-05 0.00000E+00
 -1       579 8.42897E-05 7.67018E-05 0.00000E+00
 -1       580 9.56135E-05 1.92134E-05 0.00000E+00
 -1       581-9.16797E-05-3.03702E-05 0.00000E+00
 -1       582-3.01351E-04 5.17163E-04 0.00000E+00
 -1       583 6.37549E-05 5.94612E-06 0.00000E+00
 -1       584-1.73280E-04-2.18129E-05 0.00000E+00
 -1       585 5.86516E-05 9.30892E-05 0.00000E+00
 -1       586 4.53474E-05 6.97328E-05 0.00000E+00
 -1       587 9.74733E-05 5.82690E-04 0.00000E+00
 -1       588 9.12691E-05 8.25492E-04 0.00000E+00
 -1       589-1.24456E-05-3.79200E-05 0.00000E+00
 -1       590 2.54842E-05 1.27581E-05 0.00000E+00
 -1       591 1.29913E-05-1.18107E-05 0.00000E+00
 -1       592 4.61217E-06-1.64175E-05 0.00000E+00
 -1       593-9.82390E-06-4.58931E-05 0.00000E+00
 -1       594 1.69216E-04 3.04216E-06 0.00000E+00
 -1       595 1.67757E-04 3.06993E-06 0.00000E+00
 -1       596 1.69404E-04 1.58501E-05 0.00000E+00
 -1       597 1.58246E-04 5.47740E-04 0.00000E+00
 -1       598 1.86929E-04 5.12197E-04 0.00000E+00
 -1       599 2.00811E-04 4.78453E-04 0.00000E+00
 -1       600 1.94944E-04 4.21261E-04 0.00000E+00
 -1       601 1.53115E-04 4.72094E-04 0.00000E+00
 -1       602 1.59156E-04 7.30643E-04 0.00000E+00
 -1       603 1.45603E-04 6.33461E-04 0.00000E+00
 -1       604 1.02940E-04 6.29660E-04 0.00000E+00
 -1       605 1.37883E-04 5.86040E-04 0.00000E+00
 -1       606 1.19800E-04 5.43669E-04 0.00000E+00
 -1       607 1.52266E-04 1.30627E-03 0.00000E+00
 -1       608 1.53175E-04 1.22959E-03 0.00000E+00
 -1       609 5.81053E-05 1.30515E-03 0.00000E+00
 -1       610-5.14443E-04 1.33209E-03 0.00000E+00
 -1       611-3.92000E-04 1.33041E-03 0.00000E+00
 -1       612-5.15906E-04 1.21261E-03 0.00000E+00
 -1       613-3.44973E-04-1.33872E-04 0.00000E+00
 -1       614-3.46664E-04-8.39095E-05 0.00000E+00
 -1       615-2.90498E-04-1.31992E-04 0.00000E+00
 -1       616-9.80323E-05 1.28619E-03 0.00000E+00
 -1       617-3.55206E-05 1.22689E-03 0.00000E+00
 -1       618-6.21935E-05 1.30848E-03 0.00000E+00
 -1       619-1.43920E-04 1.31154E-03 0.00000E+00
 -1       620-1.06129E-04 1.22577E-03 0.00000E+00
 -1       621-1.64347E-04 1.19978E-03 0.00000E+00
 -1       622 8.19587E-06 1.19977E-03 0.00000E+00
 -1       623-2.62794E-04 1.12978E-03 0.00000E+00
 -1       624-3.01044E-04 1.04662E-03 0.00000E+00
 -1       625-3.26659E-04 8.74183E-04 0.00000E+00
 -1       626-3.03079E-04 7.89342E-04 0.00000E+00
 -1       627-3.51910E-04 9.67280E-04 0.00000E+00
 -1       628-4.15631E-04 8.73395E-04 0.00000E+00
 -1       629-3.99574E-04 1.03939E-03 0.00000E+00
 -1       630-2.39454E-04 7.10336E-04 0.00000E+00
 -1       631-1.90185E-04 6.76045E-04 0.00000E+00
 -1       632-1.04345E-04 6.75895E-04 0.00000E+00
 -1       633-4.82312E-05 7.04142E-04 0.00000E+00
 -1       634-1.88564E-04 5.99137E-04 0.00000E+00
 -1       635-1.34824E-04 6.38233E-04 0.00000E+00
 -1       636-1.00710E-04 6.03165E-04 0.00000E+00
 -1       637 1.34699E-04 9.91644E-04 0.00000E+00
 -1       638 1.70402E-04 1.07065E-03 0.00000E+00
 -1       639 8.18386E-05 1.04703E-03 0.00000E+00
 -1       640 6.54177E-05 8.93535E-04 0.00000E+00
 -1       641 1.61749E-04 9.23023E-04 0.00000E+00
 -1       642 2.81714E-05 7.98707E-04 0.00000E+00
 -1       643 6.07504E-05 1.12989E-03 0.00000E+00
 -1       644 2.61937E-05-6.44753E-06 0.00000E+00
 -1       645 1.91362E-05-8.76187E-06 0.00000E+00
 -1       646 9.96230E-06-2.00587E-05 0.00000E+00
 -1       647 4.14020E-05-2.47597E-06 0.00000E+00
 -1       648 3.40340E-05-3.69657E-06 0.00000E+00
 -1       649 2.41628E-05-9.96535E-06 0.00000E+00
 -1       650 5.71010E-05-3.04543E-07 0.00000E+00
 -1       651 4.95282E-05-1.10257E-06 0.00000E+00
 -1       652 4.06577E-05-3.47688E-06 0.00000E+00
 -1       653 7.20132E-05 9.99351E-07 0.00000E+00
 -1       654 6.47094E-05 3.82513E-07 0.00000E+00
 -1       655 5.65233E-05 1.36970E-07 0.00000E+00
 -1       656 8.61442E-05 1.73497E-06 0.00000E+00
 -1       657 7.93328E-05 1.27311E-06 0.00000E+00
 -1       658 7.14083E-05 2.35051E-06 0.00000E+00
 -1       659 9.96280E-05 2.17226E-06 0.00000E+00
 -1       660 9.34139E-05 1.79098E-06 0.00000E+00
 -1       661 8.60256E-05 3.60046E-06 0.00000E+00
 -1       662 1.11672E-04 2.29650E-06 0.00000E+00
 -1       663 1.06133E-04 1.97020E-06 0.00000E+00
 -1       664 9.98617E-05 4.25811E-06 0.00000E+00
 -1       665 1.22334E-04 2.11129E-06 0.00000E+00
 -1       666 1.17398E-04 1.85856E-06 0.00000E+00
 -1       667 1.12250E-04 4.26961E-06 0.00000E+00
 -1       668 1.31526E-04 1.98745E-06 0.00000E+00
 -1       669 1.27163E-04 1.78521E-06 0.00000E+00
 -1       670 1.22962E-04 3.97150E-06 0.00000E+00
 -1       671 1.39678E-04 2.01872E-06 0.00000E+00
 -1       672 1.35799E-04 1.79169E-06 0.00000E+00
 -1       673 1.32042E-04 3.84728E-06 0.00000E+00
 -1       674 1.46975E-04 1.95962E-06 0.00000E+00
 -1       675 1.43512E-04 1.75979E-06 0.00000E+00
 -1       676 1.39986E-04 3.85520E-06 0.00000E+00
 -1       677 1.53644E-04 1.96082E-06 0.00000E+00
 -1       678 1.50457E-04 1.74065E-06 0.00000E+00
 -1       679 1.47159E-04 3.77392E-06 0.00000E+00
 -1       680 1.59709E-04 2.03605E-06 0.00000E+00
 -1       681 1.56848E-04 1.76710E-06 0.00000E+00
 -1       682 1.53610E-04 3.78187E-06 0.00000E+00
 -1       683 1.65154E-04 2.06909E-06 0.00000E+00
 -1       684 1.60949E-04 4.53667E-06 0.00000E+00
 -1       685 1.75190E-04 5.29339E-05 0.00000E+00
 -1       686 1.72976E-04 4.11674E-05 0.00000E+00
 -1       687 1.64230E-04 2.43977E-05 0.00000E+00
 -1       688 1.73961E-04 7.42698E-05 0.00000E+00
 -1       689 1.71698E-04 6.28794E-05 0.00000E+00
 -1       690 1.64696E-04 5.64947E-05 0.00000E+00
 -1       691 1.78046E-04 9.91521E-05 0.00000E+00
 -1       692 1.75979E-04 8.69030E-05 0.00000E+00
 -1       693 1.66109E-04 7.96057E-05 0.00000E+00
 -1       694 1.77023E-04 1.24220E-04 0.00000E+00
 -1       695 1.74504E-04 1.10201E-04 0.00000E+00
 -1       696 1.66058E-04 1.03357E-04 0.00000E+00
 -1       697 1.81062E-04 1.58198E-04 0.00000E+00
 -1       698 1.78202E-04 1.41884E-04 0.00000E+00
 -1       699 1.66035E-04 1.32691E-04 0.00000E+00
 -1       700 1.83557E-04 1.95396E-04 0.00000E+00
 -1       701 1.80049E-04 1.75466E-04 0.00000E+00
 -1       702 1.67826E-04 1.67479E-04 0.00000E+00
 -1       703 1.86174E-04 2.41174E-04 0.00000E+00
 -1       704 1.81857E-04 2.16216E-04 0.00000E+00
 -1       705 1.66729E-04 2.05653E-04 0.00000E+00
 -1       706 1.90026E-04 3.01261E-04 0.00000E+00
 -1       707 1.84950E-04 2.69228E-04 0.00000E+00
 -1       708 1.65523E-04 2.54708E-04 0.00000E+00
 -1       709 1.91784E-04 3.82786E-04 0.00000E+00
 -1       710 1.86092E-04 3.40470E-04 0.00000E+00
 -1       711 1.62081E-04 3.22073E-04 0.00000E+00
 -1       712 1.62701E-04 3.99582E-04 0.00000E+00
 -1       713 1.52461E-04 8.05303E-04 0.00000E+00
 -1       714 1.00692E-04 7.48821E-04 0.00000E+00
 -1       715 1.68553E-04 1.16808E-03 0.00000E+00
 -1       716 1.04882E-04 1.18755E-03 0.00000E+00
 -1       717 1.27219E-05 1.30689E-03 0.00000E+00
 -1       718 4.37097E-05 1.24872E-03 0.00000E+00
 -1       719-3.13083E-04 1.32716E-03 0.00000E+00
 -1       720-1.99408E-04 1.32135E-03 0.00000E+00
 -1       721-2.13431E-04 1.25409E-03 0.00000E+00
 -1       722-3.55575E-04 1.25948E-03 0.00000E+00
 -1       723-5.20854E-04 9.36573E-04 0.00000E+00
 -1       724-5.20484E-04 1.06591E-03 0.00000E+00
 -1       725-4.73642E-04 1.13804E-03 0.00000E+00
 -1       726-3.92848E-04 1.18743E-03 0.00000E+00
 -1       727-4.82254E-04 7.23521E-04 0.00000E+00
 -1       728-4.87754E-04 8.47791E-04 0.00000E+00
 -1       729-4.73467E-04 4.61137E-04 0.00000E+00
 -1       730-4.88499E-04 5.64202E-04 0.00000E+00
 -1       731-4.74192E-04 6.36541E-04 0.00000E+00
 -1       732-3.83789E-04 6.93544E-04 0.00000E+00
 -1       733-3.95764E-04 5.36471E-04 0.00000E+00
 -1       734-4.39380E-04 3.02034E-04 0.00000E+00
 -1       735-4.58049E-04 3.90611E-04 0.00000E+00
 -1       736-3.97833E-04 3.97000E-04 0.00000E+00
 -1       737-3.89459E-04 1.59788E-04 0.00000E+00
 -1       738-4.07830E-04 2.30551E-04 0.00000E+00
 -1       739-3.57995E-04 2.55003E-04 0.00000E+00
 -1       740-3.60317E-04 4.72478E-05 0.00000E+00
 -1       741-3.75105E-04 1.01034E-04 0.00000E+00
 -1       742-3.20986E-04 1.24792E-04 0.00000E+00
 -1       743-3.35300E-04-4.56937E-05 0.00000E+00
 -1       744-3.42672E-04-2.78075E-07 0.00000E+00
 -1       745-2.93706E-04 2.18754E-05 0.00000E+00
 -1       746-2.91813E-04-5.80219E-05 0.00000E+00
 -1       747-1.51457E-04-1.06817E-04 0.00000E+00
 -1       748-2.28142E-04-1.19057E-04 0.00000E+00
 -1       749-2.43131E-04-8.61779E-05 0.00000E+00
 -1       750-4.10081E-05-6.99058E-05 0.00000E+00
 -1       751-9.49885E-05-9.59907E-05 0.00000E+00
 -1       752-1.17875E-04-6.99120E-05 0.00000E+00
 -1       753-1.87779E-05-5.27075E-05 0.00000E+00
 -1       754-3.54377E-05-4.98312E-05 0.00000E+00
 -1       755-2.53611E-06-3.32877E-05 0.00000E+00
 -1       756-2.27487E-04 1.20260E-03 0.00000E+00
 -1       757-3.12957E-04 1.19013E-03 0.00000E+00
 -1       758-3.10249E-04 7.08484E-04 0.00000E+00
 -1       759-1.15685E-06 6.82938E-04 0.00000E+00
 -1       760 6.28735E-05 6.38268E-04 0.00000E+00
 -1       761 4.06686E-05 7.25599E-04 0.00000E+00
 -1       762-2.40823E-05 6.21862E-04 0.00000E+00
 -1       763 5.32531E-05 1.19504E-03 0.00000E+00
 -1       764 1.51066E-04 7.22617E-06 0.00000E+00
 -1       765 1.53419E-04 8.13384E-06 0.00000E+00
 -1       766 1.45955E-04 1.06091E-05 0.00000E+00
 -1       767 1.46787E-04 6.51062E-06 0.00000E+00
 -1       768 1.43745E-04 6.14909E-06 0.00000E+00
 -1       769 1.22976E-04 7.12705E-06 0.00000E+00
 -1       770 1.18377E-04 6.86472E-06 0.00000E+00
 -1       771 1.12171E-04 9.79735E-06 0.00000E+00
 -1       772 1.13280E-04 6.56761E-06 0.00000E+00
 -1       773 1.07498E-04 6.45144E-06 0.00000E+00
 -1       774 8.53285E-05 6.53408E-06 0.00000E+00
 -1       775 7.83755E-05 5.49912E-06 0.00000E+00
 -1       776 7.20089E-05 4.52304E-06 0.00000E+00
 -1       777 6.47378E-05 3.24382E-06 0.00000E+00
 -1       778 6.96641E-05 7.45233E-06 0.00000E+00
 -1       779 1.52156E-04 1.72198E-04 0.00000E+00
 -1       780 1.51526E-04 1.54661E-04 0.00000E+00
 -1       781 1.52878E-04 1.89581E-04 0.00000E+00
 -1       782 1.38424E-04 1.77866E-04 0.00000E+00
 -1       783 1.52658E-04 2.10744E-04 0.00000E+00
 -1       784 1.53141E-04 8.11219E-05 0.00000E+00
 -1       785 1.51965E-04 9.38635E-05 0.00000E+00
 -1       786 1.50347E-04 6.81790E-05 0.00000E+00
 -1       787 1.57010E-04 4.02602E-05 0.00000E+00
 -1       788 1.56214E-04 2.37668E-05 0.00000E+00
 -1       789 1.49812E-04 2.14227E-05 0.00000E+00
 -1       790 1.55987E-04 1.06636E-05 0.00000E+00
 -1       791 1.39463E-04 3.32204E-04 0.00000E+00
 -1       792 1.41873E-04 2.92688E-04 0.00000E+00
 -1       793 1.33887E-04 4.22221E-04 0.00000E+00
 -1       794 1.29873E-04 3.83812E-04 0.00000E+00
 -1       795 1.21949E-04 3.49751E-04 0.00000E+00
 -1       796 9.45879E-05 3.72911E-04 0.00000E+00
 -1       797 1.03231E-04 3.21016E-04 0.00000E+00
 -1       798 3.94367E-05-2.64609E-06 0.00000E+00
 -1       799 3.11784E-05-6.01530E-06 0.00000E+00
 -1       800 5.44442E-05 2.56801E-06 0.00000E+00
 -1       801 4.74218E-05 2.01067E-07 0.00000E+00
 -1       802 3.42020E-05-2.98291E-07 0.00000E+00
 -1       803 1.32637E-04 6.30360E-06 0.00000E+00
 -1       804 1.28637E-04 5.99709E-06 0.00000E+00
 -1       805 1.39859E-04 6.65877E-06 0.00000E+00
 -1       806 1.36419E-04 6.36994E-06 0.00000E+00
 -1       807 1.31801E-04 9.15855E-06 0.00000E+00
 -1       808-2.66914E-04 1.47521E-04 0.00000E+00
 -1       809-2.59158E-04 9.01383E-05 0.00000E+00
 -1       810-2.13933E-04 1.49311E-04 0.00000E+00
 -1       811-2.77632E-04 1.91499E-04 0.00000E+00
 -1       812-2.99474E-04 2.31449E-04 0.00000E+00
 -1       813-3.23533E-04 3.04990E-04 0.00000E+00
 -1       814-2.43729E-04 2.35994E-04 0.00000E+00
 -1       815 1.55557E-04 5.14552E-05 0.00000E+00
 -1       816 1.43440E-04 3.41648E-05 0.00000E+00
 -1       817 1.43344E-04 2.23594E-05 0.00000E+00
 -1       818 1.45030E-04 5.66819E-05 0.00000E+00
 -1       819 1.38129E-04 5.07568E-05 0.00000E+00
 -1       820-2.26500E-04 5.55512E-04 0.00000E+00
 -1       821-1.70033E-04 5.19478E-04 0.00000E+00
 -1       822-2.73297E-04 5.76079E-04 0.00000E+00
 -1       823-2.53685E-04 4.97291E-04 0.00000E+00
 -1       824-3.09586E-04 6.22310E-04 0.00000E+00
 -1       825-3.39068E-04 5.61961E-04 0.00000E+00
 -1       826-1.60244E-04 4.47248E-04 0.00000E+00
 -1       827-1.22107E-04 4.88856E-04 0.00000E+00
 -1       828-7.10918E-05 4.54346E-04 0.00000E+00
 -1       829-8.02455E-05 5.26883E-04 0.00000E+00
 -1       830-4.57289E-05 5.67726E-04 0.00000E+00
 -1       831-2.00477E-04 4.11216E-04 0.00000E+00
 -1       832-1.53624E-04 3.81659E-04 0.00000E+00
 -1       833-2.51093E-04 4.35600E-04 0.00000E+00
 -1       834-2.42161E-04 3.72217E-04 0.00000E+00
 -1       835-2.97913E-04 4.55217E-04 0.00000E+00
 -1       836-1.47492E-04 3.23186E-04 0.00000E+00
 -1       837-1.08154E-04 3.56584E-04 0.00000E+00
 -1       838-6.98212E-05 3.26279E-04 0.00000E+00
 -1       839-7.33401E-05 3.87049E-04 0.00000E+00
 -1       840-2.97923E-05 4.24544E-04 0.00000E+00
 -1       841-7.61572E-05-4.65792E-05 0.00000E+00
 -1       842-1.34699E-04-5.02928E-05 0.00000E+00
 -1       843-3.37984E-05-3.64100E-05 0.00000E+00
 -1       844-4.45259E-05-2.53354E-05 0.00000E+00
 -1       845-9.04957E-06-2.81247E-05 0.00000E+00
 -1       846-2.40767E-04 3.14444E-06 0.00000E+00
 -1       847-2.55718E-04 4.82573E-05 0.00000E+00
 -1       848-2.26545E-04-2.22435E-05 0.00000E+00
 -1       849-1.86194E-04 1.43888E-06 0.00000E+00
 -1       850-2.27806E-04-5.03967E-05 0.00000E+00
 -1       851-1.75623E-04-4.73476E-05 0.00000E+00
 -1       852-1.80750E-04 2.97002E-04 0.00000E+00
 -1       853-1.36589E-04 2.72120E-04 0.00000E+00
 -1       854-2.79146E-04 3.36150E-04 0.00000E+00
 -1       855-2.29132E-04 3.12731E-04 0.00000E+00
 -1       856-2.16013E-04 2.64655E-04 0.00000E+00
 -1       857-6.73872E-05 2.74754E-04 0.00000E+00
 -1       858-3.32416E-05 3.03651E-04 0.00000E+00
 -1       859-9.70612E-05 2.51297E-04 0.00000E+00
 -1       860-6.21434E-05 2.27560E-04 0.00000E+00
 -1       861-1.29102E-04 2.28393E-04 0.00000E+00
 -1       862-3.61058E-06 2.74941E-04 0.00000E+00
 -1       863-2.92599E-06 3.29363E-04 0.00000E+00
 -1       864 3.35850E-05 3.50680E-04 0.00000E+00
 -1       865 1.44526E-06 3.77543E-04 0.00000E+00
 -1       866 7.34155E-06 4.45686E-04 0.00000E+00
 -1       867-5.46206E-05 1.85120E-04 0.00000E+00
 -1       868-2.63260E-05 2.05427E-04 0.00000E+00
 -1       869 3.91935E-07 1.86822E-04 0.00000E+00
 -1       870-4.49050E-06 2.34071E-04 0.00000E+00
 -1       871 2.51110E-05 2.58953E-04 0.00000E+00
 -1       872-8.07856E-05 1.66704E-04 0.00000E+00
 -1       873-4.56821E-05 1.44297E-04 0.00000E+00
 -1       874-1.19172E-04 1.83522E-04 0.00000E+00
 -1       875-1.08624E-04 1.46924E-04 0.00000E+00
 -1       876-1.58117E-04 2.03739E-04 0.00000E+00
 -1       877-3.76048E-05 1.08494E-04 0.00000E+00
 -1       878-1.26731E-05 1.20804E-04 0.00000E+00
 -1       879 9.54334E-06 9.89576E-05 0.00000E+00
 -1       880 2.62652E-06 1.39183E-04 0.00000E+00
 -1       881 2.25424E-05 1.36731E-04 0.00000E+00
 -1       882 4.42299E-07 1.60164E-04 0.00000E+00
 -1       883 2.16236E-05 1.87363E-04 0.00000E+00
 -1       884-6.49289E-05 9.65433E-05 0.00000E+00
 -1       885-3.21312E-05 7.70780E-05 0.00000E+00
 -1       886-9.58643E-05 1.15485E-04 0.00000E+00
 -1       887-8.95802E-05 8.55337E-05 0.00000E+00
 -1       888-1.33854E-04 1.31058E-04 0.00000E+00
 -1       889-2.79258E-05 5.04680E-05 0.00000E+00
 -1       890-9.12671E-07 5.56351E-05 0.00000E+00
 -1       891 2.00755E-05 7.86098E-05 0.00000E+00
 -1       892 3.49252E-05 9.19482E-05 0.00000E+00
 -1       893 2.19780E-05 3.75252E-05 0.00000E+00
 -1       894 1.95129E-05 6.25052E-05 0.00000E+00
 -1       895 4.43916E-05 5.34789E-05 0.00000E+00
 -1       896-5.46129E-05 4.30862E-05 0.00000E+00
 -1       897-2.49443E-05 2.89996E-05 0.00000E+00
 -1       898-9.17904E-05 6.08507E-05 0.00000E+00
 -1       899-8.67288E-05 3.66363E-05 0.00000E+00
 -1       900-1.22474E-04 7.54558E-05 0.00000E+00
 -1       901 3.77950E-05 1.22495E-04 0.00000E+00
 -1       902 3.61641E-05 1.45440E-04 0.00000E+00
 -1       903 4.15833E-05 1.04949E-04 0.00000E+00
 -1       904 5.48724E-05 1.11586E-04 0.00000E+00
 -1       905 5.18052E-05 8.00885E-05 0.00000E+00
 -1       906-2.22359E-05 1.18496E-05 0.00000E+00
 -1       907 3.14796E-06 1.62363E-05 0.00000E+00
 -1       908 1.39513E-05 8.33108E-06 0.00000E+00
 -1       909 1.46491E-05 2.19346E-05 0.00000E+00
 -1       910 2.64038E-05 2.45833E-05 0.00000E+00
 -1       911 4.71127E-05 2.63262E-05 0.00000E+00
 -1       912 3.70330E-05 1.47584E-05 0.00000E+00
 -1       913-1.16657E-04 2.51775E-05 0.00000E+00
 -1       914-8.06680E-05 1.34518E-05 0.00000E+00
 -1       915-7.76024E-05-2.31635E-06 0.00000E+00
 -1       916-4.86040E-05 7.20265E-06 0.00000E+00
 -1       917-2.17908E-05-3.05387E-07 0.00000E+00
 -1       918-1.62701E-04 4.02856E-05 0.00000E+00
 -1       919-1.54549E-04 1.40174E-05 0.00000E+00
 -1       920-1.63822E-04 7.93119E-05 0.00000E+00
 -1       921-2.02275E-04 6.50629E-05 0.00000E+00
 -1       922-1.62489E-04 1.06458E-04 0.00000E+00
 -1       923-1.76180E-04 1.34551E-04 0.00000E+00
 -1       924-1.84905E-04 1.78929E-04 0.00000E+00
 -1       925-1.96432E-04 2.20423E-04 0.00000E+00
 -1       926 5.63605E-05 3.19730E-04 0.00000E+00
 -1       927 6.30908E-05 3.69191E-04 0.00000E+00
 -1       928 4.92805E-05 2.36909E-04 0.00000E+00
 -1       929 5.30693E-05 2.80923E-04 0.00000E+00
 -1       930 8.31826E-05 3.00081E-04 0.00000E+00
 -1       931 5.16621E-05 4.48267E-04 0.00000E+00
 -1       932 1.80582E-05 4.94171E-04 0.00000E+00
 -1       933 7.01391E-05 4.02703E-04 0.00000E+00
 -1       934 8.36467E-05 4.51806E-04 0.00000E+00
 -1       935-1.41640E-04-9.01771E-06 0.00000E+00
 -1       936-1.00263E-04-1.49511E-05 0.00000E+00
 -1       937-6.92021E-05-1.71758E-05 0.00000E+00
 -1       938-1.31153E-04-2.71546E-05 0.00000E+00
 -1       939-3.40241E-04 3.61965E-04 0.00000E+00
 -1       940-3.49532E-04 4.31953E-04 0.00000E+00
 -1       941-3.55072E-04 4.92311E-04 0.00000E+00
 -1       942 1.43265E-04 2.54417E-04 0.00000E+00
 -1       943 1.42739E-04 2.25684E-04 0.00000E+00
 -1       944 1.21200E-04 2.65237E-04 0.00000E+00
 -1       945 4.79497E-05 1.97434E-04 0.00000E+00
 -1       946 7.60171E-05 2.19762E-04 0.00000E+00
 -1       947 4.56586E-05 1.66721E-04 0.00000E+00
 -1       948-1.30707E-06-8.39446E-06 0.00000E+00
 -1       949-2.39150E-05-1.46804E-05 0.00000E+00
 -1       950 1.06159E-05-1.05807E-05 0.00000E+00
 -1       951 1.67231E-05-1.44061E-06 0.00000E+00
 -1       952 2.31293E-05 4.02771E-06 0.00000E+00
 -1       953 3.46371E-05 7.52667E-06 0.00000E+00
 -1       954 1.63888E-05-1.20749E-05 0.00000E+00
 -1       955 7.98971E-06-1.85989E-05 0.00000E+00
 -1       956 3.36551E-06-2.53082E-05 0.00000E+00
 -1       957 1.21261E-04 4.56467E-04 0.00000E+00
 -1       958 9.56961E-05 2.00758E-04 0.00000E+00
 -1       959 9.95282E-05 2.42902E-04 0.00000E+00
 -1       960 9.90458E-05 2.81619E-04 0.00000E+00
 -1       961 9.11567E-05 1.74882E-04 0.00000E+00
 -1       962 1.16143E-04 1.99835E-04 0.00000E+00
 -1       963 7.83921E-05 1.48472E-04 0.00000E+00
 -1       964 9.59112E-05 1.43960E-04 0.00000E+00
 -1       965 6.14625E-05 1.53083E-04 0.00000E+00
 -1       966 6.75790E-05 1.24163E-04 0.00000E+00
 -1       967 1.30204E-04 2.10463E-04 0.00000E+00
 -1       968 1.24516E-04 1.83803E-04 0.00000E+00
 -1       969 6.15856E-05 1.84069E-05 0.00000E+00
 -1       970 5.95237E-05 3.01802E-05 0.00000E+00
 -1       971 7.46775E-05 2.77758E-05 0.00000E+00
 -1       972 5.77966E-05 3.99050E-05 0.00000E+00
 -1       973 5.94359E-05 5.34623E-05 0.00000E+00
 -1       974 8.93598E-05 5.29817E-05 0.00000E+00
 -1       975 8.92080E-05 4.25998E-05 0.00000E+00
 -1       976 1.01324E-04 3.68985E-05 0.00000E+00
 -1       977 9.26766E-05 6.25918E-05 0.00000E+00
 -1       978 8.08995E-05 6.59633E-05 0.00000E+00
 -1       979 7.56803E-05 4.64065E-05 0.00000E+00
 -1       980 8.64997E-05 3.40428E-05 0.00000E+00
 -1       981 6.12935E-05 6.40192E-05 0.00000E+00
 -1       982 7.12380E-05 8.53086E-05 0.00000E+00
 -1       983 6.80298E-05 7.49427E-05 0.00000E+00
 -1       984 6.29586E-05 1.26270E-05 0.00000E+00
 -1       985 7.61573E-05 1.36740E-05 0.00000E+00
 -1       986 4.58450E-05 9.09262E-06 0.00000E+00
 -1       987 5.26548E-05 5.17463E-06 0.00000E+00
 -1       988 5.75436E-05 1.03149E-05 0.00000E+00
 -1       989 1.36747E-04 1.40585E-04 0.00000E+00
 -1       990 1.51561E-04 1.34936E-04 0.00000E+00
 -1       991 1.48535E-04 1.16586E-04 0.00000E+00
 -1       992 1.24918E-04 1.44303E-04 0.00000E+00
 -1       993 1.24238E-04 1.24127E-04 0.00000E+00
 -1       994 1.23334E-04 1.66280E-04 0.00000E+00
 -1       995 1.12220E-04 1.51651E-04 0.00000E+00
 -1       996 1.10759E-04 1.06048E-04 0.00000E+00
 -1       997 1.20568E-04 9.95268E-05 0.00000E+00
 -1       998 1.23366E-04 7.67950E-05 0.00000E+00
 -1       999 1.38345E-04 9.77491E-05 0.00000E+00
 -1      1000 9.79772E-05 1.22034E-04 0.00000E+00
 -1      1001 9.62844E-05 1.01263E-04 0.00000E+00
 -1      1002 8.36768E-05 9.61784E-05 0.00000E+00
 -1      1003 9.60000E-05 7.88170E-05 0.00000E+00
 -1      1004 1.14524E-04 6.22722E-05 0.00000E+00
 -1      1005 1.04721E-04 6.27995E-05 0.00000E+00
 -1      1006 1.11083E-04 4.49632E-05 0.00000E+00
 -1      1007 1.29204E-04 5.18320E-05 0.00000E+00
 -1      1008 7.05647E-05 1.03330E-04 0.00000E+00
 -1      1009 8.45046E-05 9.65939E-06 0.00000E+00
 -1      1010 8.49847E-05 1.49695E-05 0.00000E+00
 -1      1011 8.49543E-05 1.99704E-05 0.00000E+00
 -1      1012 8.47658E-05 2.82716E-05 0.00000E+00
 -1      1013 9.52556E-05 1.39400E-05 0.00000E+00
 -1      1014 4.39934E-05 5.47827E-04 0.00000E+00
 -1      1015-2.84905E-06 5.46225E-04 0.00000E+00
 -1      1016 8.05647E-05 5.39621E-04 0.00000E+00
 -1      1017 5.92594E-05 5.91119E-04 0.00000E+00
 -1      1018 1.02298E-04 5.00953E-04 0.00000E+00
 -1      1019 1.00716E-04 7.21133E-06 0.00000E+00
 -1      1020 9.43274E-05 6.62940E-06 0.00000E+00
 -1      1021 1.36271E-04 2.46024E-05 0.00000E+00
 -1      1022 1.41183E-04 1.68048E-05 0.00000E+00
 -1      1023 1.38864E-04 1.40266E-05 0.00000E+00
 -1      1024 1.28955E-04 3.73176E-05 0.00000E+00
 -1      1025 1.27815E-04 3.01577E-05 0.00000E+00
 -1      1026 1.21861E-04 2.86046E-05 0.00000E+00
 -1      1027 1.27647E-04 1.99822E-05 0.00000E+00
 -1      1028 1.28542E-04 1.48911E-05 0.00000E+00
 -1      1029 1.35592E-04 1.35096E-05 0.00000E+00
 -1      1030 1.38829E-04 9.38194E-06 0.00000E+00
 -1      1031 1.11581E-04 3.35785E-05 0.00000E+00
 -1      1032 1.10599E-04 2.50826E-05 0.00000E+00
 -1      1033 1.09906E-04 1.85918E-05 0.00000E+00
 -1      1034 1.19861E-04 1.43469E-05 0.00000E+00
 -1      1035 1.22522E-04 9.74793E-06 0.00000E+00
 -1      1036 1.25719E-04 1.38383E-05 0.00000E+00
 -1      1037 9.82929E-05 2.34180E-05 0.00000E+00
 -1      1038 1.06282E-04 1.51042E-05 0.00000E+00
 -1      1039 1.02272E-04 1.37217E-05 0.00000E+00
 -1      1040 1.00456E-04 9.74441E-06 0.00000E+00
 -1      1041 1.70331E-04 0.00000E+00-3.13079E-05
 -1      1042 1.71889E-04 0.00000E+00-2.59220E-05
 -1      1043 1.70843E-04 0.00000E+00-3.70981E-05
 -1      1044 1.71125E-04 0.00000E+00-4.28203E-05
 -1      1045 1.70042E-04 0.00000E+00-2.14422E-05
 -1      1046 1.70640E-04 0.00000E+00-1.73346E-05
 -1      1047 1.69856E-04 0.00000E+00-1.35995E-05
 -1      1048 1.71401E-04 0.00000E+00-4.78931E-05
 -1      1049 1.69843E-04 0.00000E+00-1.07711E-05
 -1      1050 1.69732E-04 0.00000E+00-5.27208E-05
 -1      1051 1.71005E-04 0.00000E+00-5.82145E-05
 -1      1052 1.68768E-04 0.00000E+00-6.33868E-05
 -1      1053 1.71342E-04 0.00000E+00-8.79407E-06
 -1      1054 1.70651E-04 0.00000E+00-6.37280E-06
 -1      1055 1.71175E-04 0.00000E+00-3.41643E-05
 -1      1056 1.69862E-04 0.00000E+00-2.84210E-05
 -1      1057 8.51732E-05 0.00000E+00-4.48957E-06
 -1      1058 1.06722E-04 0.00000E+00-5.45647E-05
 -1      1059 1.69144E-04 0.00000E+00-7.06582E-05
 -1      1060 1.71069E-04 0.00000E+00-4.15221E-06
 -1      1061 1.69570E-04 0.00000E+00-4.55145E-05
 -1      1062 1.69541E-04 0.00000E+00-1.54568E-05
 -1      1063 1.70383E-04 0.00000E+00-1.91016E-05
 -1      1064 1.71990E-04 0.00000E+00-4.00925E-05
 -1      1065 1.70905E-04 0.00000E+00-2.32089E-05
 -1      1066 1.20270E-04 0.00000E+00-2.50066E-06
 -1      1067 1.32053E-04 0.00000E+00-7.18833E-05
 -1      1068 1.38137E-04 0.00000E+00-1.54891E-06
 -1      1069 1.67687E-04 0.00000E+00-7.62108E-05
 -1      1070 1.70035E-04 0.00000E+00-2.40136E-06
 -1      1071 7.88589E-05 0.00000E+00-3.25446E-05
 -1      1072 1.45548E-04 0.00000E+00-8.01760E-05
 -1      1073 5.63855E-05 0.00000E+00-4.26643E-06
 -1      1074 1.51842E-04 0.00000E+00-8.48098E-07
 -1      1075 1.70777E-04 0.00000E+00-5.40587E-06
 -1      1076 1.69905E-04 0.00000E+00-6.71948E-05
 -1      1077 1.70067E-04 0.00000E+00-7.41820E-06
 -1      1078 1.69613E-04 0.00000E+00-6.06448E-05
 -1      1079 1.70311E-04 0.00000E+00-5.58846E-05
 -1      1080 1.70619E-04 0.00000E+00-9.79867E-06
 -1      1081 1.70244E-04 0.00000E+00-1.18847E-05
 -1      1082 1.71446E-04 0.00000E+00-5.07682E-05
 -1      1083 1.70859E-04 0.00000E+00-3.86331E-05
 -1      1084 1.70473E-04 0.00000E+00-3.55671E-05
 -1      1085 1.71254E-04 0.00000E+00-3.24735E-05
 -1      1086 1.67436E-04 0.00000E+00-8.07490E-05
 -1      1087 1.69283E-04 0.00000E+00-1.33637E-06
 -1      1088 5.00229E-05 0.00000E+00-7.57333E-06
 -1      1089 1.55043E-04 0.00000E+00-8.39755E-05
 -1      1090 2.54598E-05 0.00000E+00 1.54213E-06
 -1      1091 1.65623E-04 0.00000E+00-3.34758E-07
 -1      1092 1.60668E-04 0.00000E+00-8.57349E-05
 -1      1093 9.57868E-05 0.00000E+00-4.20839E-06
 -1      1094 9.32032E-05 0.00000E+00-8.62617E-06
 -1      1095 7.99043E-05 0.00000E+00-8.99812E-06
 -1      1096 8.93512E-05 0.00000E+00-1.33742E-05
 -1      1097 1.02778E-04 0.00000E+00-1.34065E-05
 -1      1098 9.85005E-05 0.00000E+00-1.79255E-05
 -1      1099 1.09346E-04 0.00000E+00-1.77990E-05
 -1      1100 1.06939E-04 0.00000E+00-2.18267E-05
 -1      1101 9.71061E-05 0.00000E+00-2.21213E-05
 -1      1102 1.05177E-04 0.00000E+00-2.61479E-05
 -1      1103 1.14973E-04 0.00000E+00-2.56558E-05
 -1      1104 1.13575E-04 0.00000E+00-3.00618E-05
 -1      1105 1.04047E-04 0.00000E+00-3.06332E-05
 -1      1106 1.14725E-04 0.00000E+00-3.52024E-05
 -1      1107 1.23196E-04 0.00000E+00-2.94298E-05
 -1      1108 1.24998E-04 0.00000E+00-2.52881E-05
 -1      1109 1.04095E-04 0.00000E+00-3.54335E-05
 -1      1110 1.12905E-04 0.00000E+00-3.99202E-05
 -1      1111 1.22524E-04 0.00000E+00-3.96820E-05
 -1      1112 1.20965E-04 0.00000E+00-4.38045E-05
 -1      1113 1.29264E-04 0.00000E+00-4.28724E-05
 -1      1114 1.28477E-04 0.00000E+00-4.69748E-05
 -1      1115 1.31622E-04 0.00000E+00-2.78456E-05
 -1      1116 1.33561E-04 0.00000E+00-2.49879E-05
 -1      1117 9.52475E-05 0.00000E+00-3.06628E-05
 -1      1118 1.36599E-04 0.00000E+00-4.55281E-05
 -1      1119 1.35530E-04 0.00000E+00-4.94245E-05
 -1      1120 1.28555E-04 0.00000E+00-5.08878E-05
 -1      1121 1.36081E-04 0.00000E+00-5.36290E-05
 -1      1122 1.36879E-04 0.00000E+00-4.18449E-05
 -1      1123 1.29126E-04 0.00000E+00-5.49766E-05
 -1      1124 1.35950E-04 0.00000E+00-5.78237E-05
 -1      1125 7.76316E-05 0.00000E+00-1.32464E-05
 -1      1126 1.40107E-04 0.00000E+00-2.68217E-05
 -1      1127 1.38126E-04 0.00000E+00-2.94352E-05
 -1      1128 1.41760E-04 0.00000E+00-2.43591E-05
 -1      1129 1.36243E-04 0.00000E+00-2.26424E-05
 -1      1130 1.43024E-04 0.00000E+00-2.22191E-05
 -1      1131 1.37907E-04 0.00000E+00-2.06087E-05
 -1      1132 1.46096E-04 0.00000E+00-2.02584E-05
 -1      1133 1.40339E-04 0.00000E+00-1.87430E-05
 -1      1134 9.51861E-05 0.00000E+00-3.55026E-05
 -1      1135 8.59180E-05 0.00000E+00-2.94898E-05
 -1      1136 1.22450E-04 0.00000E+00-5.18810E-05
 -1      1137 1.22721E-04 0.00000E+00-5.62347E-05
 -1      1138 1.42556E-04 0.00000E+00-5.62320E-05
 -1      1139 1.43058E-04 0.00000E+00-6.02242E-05
 -1      1140 1.41813E-04 0.00000E+00-4.82151E-05
 -1      1141 1.47003E-04 0.00000E+00-1.84547E-05
 -1      1142 1.43097E-04 0.00000E+00-1.69625E-05
 -1      1143 1.35339E-04 0.00000E+00-1.70676E-05
 -1      1144 1.38101E-04 0.00000E+00-1.54040E-05
 -1      1145 1.30166E-04 0.00000E+00-2.09962E-05
 -1      1146 1.43976E-04 0.00000E+00-1.51887E-05
 -1      1147 1.40333E-04 0.00000E+00-1.37177E-05
 -1      1148 1.33784E-04 0.00000E+00-1.39021E-05
 -1      1149 1.36663E-04 0.00000E+00-1.20426E-05
 -1      1150 1.29182E-04 0.00000E+00-1.20552E-05
 -1      1151 1.44100E-04 0.00000E+00-1.20725E-05
 -1      1152 1.40002E-04 0.00000E+00-1.03831E-05
 -1      1153 1.46851E-04 0.00000E+00-1.03210E-05
 -1      1154 1.44408E-04 0.00000E+00-8.86212E-06
 -1      1155 1.36707E-04 0.00000E+00-8.85384E-06
 -1      1156 1.45663E-04 0.00000E+00-2.85170E-05
 -1      1157 1.45665E-04 0.00000E+00-3.06917E-05
 -1      1158 1.38247E-04 0.00000E+00-3.17129E-05
 -1      1159 1.44342E-04 0.00000E+00-3.30333E-05
 -1      1160 1.38274E-04 0.00000E+00-3.40555E-05
 -1      1161 1.44051E-04 0.00000E+00-3.51698E-05
 -1      1162 1.40238E-04 0.00000E+00-7.30341E-06
 -1      1163 1.47183E-04 0.00000E+00-7.16450E-06
 -1      1164 1.36639E-04 0.00000E+00-6.18625E-05
 -1      1165 1.42860E-04 0.00000E+00-6.42119E-05
 -1      1166 1.47875E-04 0.00000E+00-2.34475E-05
 -1      1167 1.48741E-04 0.00000E+00-5.78528E-05
 -1      1168 1.48658E-04 0.00000E+00-5.48546E-05
 -1      1169 1.14886E-04 0.00000E+00-5.18176E-05
 -1      1170 1.50499E-04 0.00000E+00-3.39791E-05
 -1      1171 1.50152E-04 0.00000E+00-3.60414E-05
 -1      1172 1.51480E-04 0.00000E+00-2.95399E-05
 -1      1173 1.52182E-04 0.00000E+00-2.79235E-05
 -1      1174 1.51718E-04 0.00000E+00-1.14391E-05
 -1      1175 1.43759E-04 0.00000E+00-5.88931E-06
 -1      1176 1.36937E-04 0.00000E+00-5.66941E-06
 -1      1177 1.51071E-04 0.00000E+00-5.81820E-06
 -1      1178 1.47236E-04 0.00000E+00-4.66825E-06
 -1      1179 1.52202E-04 0.00000E+00-1.94652E-05
 -1      1180 1.53688E-04 0.00000E+00-1.81315E-05
 -1      1181 1.54030E-04 0.00000E+00-1.02817E-05
 -1      1182 1.53525E-04 0.00000E+00-7.15668E-06
 -1      1183 1.53724E-04 0.00000E+00-4.61189E-06
 -1      1184 1.54495E-04 0.00000E+00-5.59141E-05
 -1      1185 1.55141E-04 0.00000E+00-5.34933E-05
 -1      1186 1.54846E-04 0.00000E+00-5.83786E-05
 -1      1187 1.26637E-04 0.00000E+00-1.41766E-05
 -1      1188 1.21644E-04 0.00000E+00-1.21264E-05
 -1      1189 1.50653E-04 0.00000E+00-3.57876E-06
 -1      1190 1.37087E-04 0.00000E+00-6.59719E-05
 -1      1191 1.43088E-04 0.00000E+00-6.82531E-05
 -1      1192 1.48639E-04 0.00000E+00-6.65095E-05
 -1      1193 1.49204E-04 0.00000E+00-7.00358E-05
 -1      1194 1.54636E-04 0.00000E+00-6.77128E-05
 -1      1195 1.54774E-04 0.00000E+00-6.46497E-05
 -1      1196 1.55505E-04 0.00000E+00-7.11937E-05
 -1      1197 1.56176E-04 0.00000E+00-3.51105E-05
 -1      1198 1.55803E-04 0.00000E+00-3.67230E-05
 -1      1199 1.50512E-04 0.00000E+00-3.78873E-05
 -1      1200 1.56525E-04 0.00000E+00-3.86439E-05
 -1      1201 1.51008E-04 0.00000E+00-3.95680E-05
 -1      1202 1.55743E-04 0.00000E+00-4.02799E-05
 -1      1203 1.50963E-04 0.00000E+00-4.14186E-05
 -1      1204 1.56827E-04 0.00000E+00-4.19845E-05
 -1      1205 1.51670E-04 0.00000E+00-4.32171E-05
 -1      1206 1.57058E-04 0.00000E+00-4.38902E-05
 -1      1207 1.57114E-04 0.00000E+00-3.35580E-05
 -1      1208 1.49598E-04 0.00000E+00-5.23066E-05
 -1      1209 1.55478E-04 0.00000E+00-5.11631E-05
 -1      1210 1.56791E-04 0.00000E+00-3.61970E-06
 -1      1211 1.49945E-04 0.00000E+00-7.35215E-05
 -1      1212 1.54302E-04 0.00000E+00-7.48892E-05
 -1      1213 1.38141E-04 0.00000E+00-3.63537E-05
 -1      1214 1.31845E-04 0.00000E+00-3.50177E-05
 -1      1215 1.57982E-04 0.00000E+00-1.15162E-05
 -1      1216 1.55218E-04 0.00000E+00-1.25234E-05
 -1      1217 1.16131E-04 0.00000E+00-5.67019E-05
 -1      1218 1.58143E-04 0.00000E+00-2.88293E-05
 -1      1219 1.70849E-04 0.00000E+00-2.71348E-05
 -1      1220 1.70863E-04 0.00000E+00-2.98697E-05
 -1      1221 1.57033E-04 0.00000E+00-3.02515E-05
 -1      1222 1.59680E-04 0.00000E+00-2.73411E-05
 -1      1223 1.53835E-04 0.00000E+00-2.66362E-05
 -1      1224 1.51759E-04 0.00000E+00-4.50706E-05
 -1      1225 1.57549E-04 0.00000E+00-4.56508E-05
 -1      1226 1.25565E-04 0.00000E+00-9.66415E-06
 -1      1227 1.15675E-04 0.00000E+00-9.69052E-06
 -1      1228 1.25052E-04 0.00000E+00-6.18475E-05
 -1      1229 1.45414E-04 0.00000E+00-3.90897E-05
 -1      1230 1.58845E-04 0.00000E+00-1.90626E-05
 -1      1231 1.69627E-04 0.00000E+00-2.01745E-05
 -1      1232 1.56954E-04 0.00000E+00-2.02357E-05
 -1      1233 1.52745E-04 0.00000E+00-4.69349E-05
 -1      1234 1.58031E-04 0.00000E+00-4.75773E-05
 -1      1235 1.50656E-04 0.00000E+00-8.37748E-06
 -1      1236 1.57062E-04 0.00000E+00-8.08631E-06
 -1      1237 8.66145E-05 0.00000E+00-3.40848E-05
 -1      1238 7.67389E-05 0.00000E+00-2.69684E-05
 -1      1239 7.80167E-05 0.00000E+00-2.28657E-05
 -1      1240 6.69017E-05 0.00000E+00-1.99083E-05
 -1      1241 9.63791E-05 0.00000E+00-4.08610E-05
 -1      1242 1.60017E-04 0.00000E+00-4.56416E-06
 -1      1243 1.60153E-04 0.00000E+00-1.78541E-05
 -1      1244 1.55803E-04 0.00000E+00-1.69523E-05
 -1      1245 1.60972E-04 0.00000E+00-5.41405E-05
 -1      1246 1.60581E-04 0.00000E+00-5.65937E-05
 -1      1247 1.60676E-04 0.00000E+00-2.61641E-05
 -1      1248 1.70401E-04 0.00000E+00-2.45662E-05
 -1      1249 1.55544E-04 0.00000E+00-2.53002E-05
 -1      1250 1.50272E-04 0.00000E+00-2.56466E-05
 -1      1251 1.60485E-04 0.00000E+00-1.02618E-05
 -1      1252 1.57260E-04 0.00000E+00-6.07000E-06
 -1      1253 1.60393E-04 0.00000E+00-6.99676E-06
 -1      1254 1.46696E-04 0.00000E+00-4.43978E-05
 -1      1255 1.08812E-04 0.00000E+00-5.14270E-05
 -1      1256 1.61167E-04 0.00000E+00-5.85114E-05
 -1      1257 1.60351E-04 0.00000E+00-6.54364E-05
 -1      1258 1.59838E-04 0.00000E+00-6.30147E-05
 -1      1259 6.63283E-05 0.00000E+00-1.56511E-05
 -1      1260 5.49357E-05 0.00000E+00-1.24673E-05
 -1      1261 1.62250E-04 0.00000E+00-4.42866E-05
 -1      1262 1.54332E-04 0.00000E+00-2.63822E-06
 -1      1263 1.48523E-04 0.00000E+00-2.51958E-06
 -1      1264 1.49768E-04 0.00000E+00-2.18526E-05
 -1      1265 1.55034E-04 0.00000E+00-2.30545E-05
 -1      1266 1.50578E-04 0.00000E+00-7.70223E-05
 -1      1267 1.55075E-04 0.00000E+00-7.83078E-05
 -1      1268 1.30395E-04 0.00000E+00-3.95771E-05
 -1      1269 1.38294E-04 0.00000E+00-6.99706E-05
 -1      1270 1.50670E-04 0.00000E+00-5.00053E-05
 -1      1271 1.59985E-04 0.00000E+00-2.67904E-06
 -1      1272 1.45974E-04 0.00000E+00-7.54088E-05
 -1      1273 1.20331E-04 0.00000E+00-7.23744E-06
 -1      1274 1.11413E-04 0.00000E+00-6.92087E-06
 -1      1275 1.45376E-04 0.00000E+00-5.07924E-05
 -1      1276 1.60154E-04 0.00000E+00-6.81722E-05
 -1      1277 1.55049E-04 0.00000E+00-6.20887E-05
 -1      1278 1.17075E-04 0.00000E+00-2.13617E-05
 -1      1279 1.49705E-04 0.00000E+00-3.21723E-05
 -1      1280 1.13557E-04 0.00000E+00-4.46774E-05
 -1      1281 1.60780E-04 0.00000E+00-3.57499E-05
 -1      1282 1.61591E-04 0.00000E+00-3.72212E-05
 -1      1283 1.62185E-04 0.00000E+00-3.85337E-05
 -1      1284 1.61007E-04 0.00000E+00-3.44427E-05
 -1      1285 1.51853E-04 0.00000E+00-8.05455E-05
 -1      1286 1.63050E-04 0.00000E+00-4.01759E-05
 -1      1287 1.62058E-04 0.00000E+00-4.27339E-05
 -1      1288 1.61994E-04 0.00000E+00-2.48652E-05
 -1      1289 1.61966E-04 0.00000E+00-1.68115E-05
 -1      1290 1.58346E-04 0.00000E+00-1.59189E-05
 -1      1291 1.52649E-04 0.00000E+00-1.61467E-05
 -1      1292 1.55384E-04 0.00000E+00-1.50752E-05
 -1      1293 1.61225E-04 0.00000E+00-1.49896E-05
 -1      1294 1.58062E-04 0.00000E+00-1.41945E-05
 -1      1295 1.52470E-04 0.00000E+00-1.40901E-05
 -1      1296 1.50653E-04 0.00000E+00-1.28644E-05
 -1      1297 1.19787E-04 0.00000E+00-6.25219E-05
 -1      1298 1.60887E-04 0.00000E+00-7.08825E-05
 -1      1299 1.62151E-04 0.00000E+00-7.37212E-05
 -1      1300 1.18578E-04 0.00000E+00-1.77209E-05
 -1      1301 1.50427E-04 0.00000E+00-6.05779E-05
 -1      1302 1.61274E-04 0.00000E+00-1.21263E-05
 -1      1303 1.47483E-04 0.00000E+00-1.15785E-06
 -1      1304 1.20816E-04 0.00000E+00-3.29574E-05
 -1      1305 6.95262E-05 0.00000E+00-2.48076E-05
 -1      1306 1.62461E-04 0.00000E+00-2.97391E-05
 -1      1307 1.61471E-04 0.00000E+00-3.10453E-05
 -1      1308 1.62136E-04 0.00000E+00-3.32375E-05
 -1      1309 1.61114E-04 0.00000E+00-5.19914E-05
 -1      1310 1.61414E-04 0.00000E+00-5.00523E-05
 -1      1311 1.62752E-04 0.00000E+00-4.63349E-05
 -1      1312 1.58052E-04 0.00000E+00-1.86419E-06
 -1      1313 1.64116E-04 0.00000E+00-3.50064E-06
 -1      1314 7.00326E-05 0.00000E+00-4.43317E-06
 -1      1315 1.63459E-04 0.00000E+00-1.98974E-05
 -1      1316 1.61342E-04 0.00000E+00-2.07876E-05
 -1      1317 1.63398E-04 0.00000E+00-4.76665E-05
 -1      1318 1.59299E-04 0.00000E+00-8.20981E-05
 -1      1319 3.79311E-05 0.00000E+00-2.64487E-06
 -1      1320 3.49130E-05 0.00000E+00-9.70382E-07
 -1      1321 3.89778E-05 0.00000E+00 3.26473E-06
 -1      1322 2.37612E-05 0.00000E+00 8.38462E-06
 -1      1323 8.84464E-05 0.00000E+00-3.99629E-05
 -1      1324 1.27164E-04 0.00000E+00-3.01575E-06
 -1      1325 1.37780E-04 0.00000E+00-7.47632E-05
 -1      1326 1.59038E-04 0.00000E+00-3.21248E-05
 -1      1327 1.63140E-04 0.00000E+00-2.81336E-05
 -1      1328 1.11787E-04 0.00000E+00-2.86539E-06
 -1      1329 1.64524E-04 0.00000E+00-1.98556E-06
 -1      1330 1.62987E-04 0.00000E+00-7.98800E-06
 -1      1331 1.61931E-04 0.00000E+00-8.82879E-06
 -1      1332 1.32088E-04 0.00000E+00-6.69073E-05
 -1      1333 1.60210E-04 0.00000E+00-7.14936E-07
 -1      1334 1.66663E-04 0.00000E+00-5.51512E-05
 -1      1335 1.12138E-04 0.00000E+00-1.24522E-05
 -1      1336 1.64992E-04 0.00000E+00-6.63142E-05
 -1      1337 1.63398E-04 0.00000E+00-1.13695E-05
 -1      1338 1.27216E-04 0.00000E+00-7.18649E-06
 -1      1339 1.67602E-04 0.00000E+00-4.66214E-05
 -1      1340 1.57616E-04 0.00000E+00-2.41028E-05
 -1      1341 1.63367E-04 0.00000E+00-2.38681E-05
 -1      1342 1.55999E-04 0.00000E+00-2.16917E-05
 -1      1343 1.61104E-04 0.00000E+00-2.23601E-05
 -1      1344 1.64512E-04 0.00000E+00-1.84295E-05
 -1      1345 6.48482E-05 0.00000E+00-8.57299E-06
 -1      1346 6.98452E-05 0.00000E+00-2.48318E-05
 -1      1347 1.26171E-04 0.00000E+00-6.82860E-05
 -1      1348 1.63619E-04 0.00000E+00-6.23104E-06
 -1      1349 1.30624E-04 0.00000E+00-3.07835E-05
 -1      1350 1.24036E-04 0.00000E+00-4.95493E-06
 -1      1351 1.63872E-04 0.00000E+00-2.68866E-05
 -1      1352 1.64328E-04 0.00000E+00-7.90118E-05
 -1      1353 1.55280E-04 0.00000E+00-9.13792E-06
 -1      1354 1.65707E-04 0.00000E+00-3.19033E-05
 -1      1355 1.29745E-04 0.00000E+00-5.94125E-05
 -1      1356 1.64135E-04 0.00000E+00-1.41040E-05
 -1      1357 1.61004E-04 0.00000E+00-1.33904E-05
 -1      1358 1.66249E-04 0.00000E+00-1.26038E-05
 -1      1359 1.62004E-04 0.00000E+00-4.13630E-05
 -1      1360 1.56637E-04 0.00000E+00-4.93239E-05
 -1      1361 1.49723E-04 0.00000E+00-6.34431E-05
 -1      1362 1.04996E-04 0.00000E+00-9.73503E-06
 -1      1363 1.67425E-04 0.00000E+00-1.49185E-05
 -1      1364 1.64038E-04 0.00000E+00-1.60503E-05
 -1      1365 1.67762E-04 0.00000E+00-1.64976E-05
 -1      1366 1.04113E-04 0.00000E+00-4.04511E-05
 -1      1367 1.07385E-04 0.00000E+00-4.66238E-05
 -1      1368 1.60960E-04 0.00000E+00-6.06784E-05
 -1      1369 1.70315E-04 0.00000E+00-1.03421E-06
 -1      1370 1.65610E-04 0.00000E+00-8.41090E-05
 -1      1371 1.40856E-04 0.00000E+00-4.42492E-06
 -1      1372 1.34181E-04 0.00000E+00-4.08797E-06
 -1      1373 8.69444E-05 0.00000E+00-1.77197E-05
 -1      1374 8.67492E-05 0.00000E+00-2.21908E-05
 -1      1375 1.70455E-04 0.00000E+00-2.60428E-06
 -1      1376 1.70416E-04 0.00000E+00-1.71147E-06
 -1      1377 1.63626E-04 0.00000E+00-1.22651E-06
 -1      1378 1.67957E-04 0.00000E+00-7.42374E-05
 -1      1379 1.70452E-04 0.00000E+00-3.47309E-06
 -1      1380 1.69649E-04 0.00000E+00-4.66778E-06
 -1      1381 1.67791E-04 0.00000E+00-7.22684E-05
 -1      1382 1.69522E-04 0.00000E+00-5.80183E-06
 -1      1383 1.66132E-04 0.00000E+00-5.47689E-06
 -1      1384 1.68931E-04 0.00000E+00-6.88964E-05
 -1      1385 1.69682E-04 0.00000E+00-6.86126E-06
 -1      1386 1.69702E-04 0.00000E+00-6.45814E-05
 -1      1387 1.70310E-04 0.00000E+00-9.31139E-06
 -1      1388 1.64934E-04 0.00000E+00-9.30101E-06
 -1      1389 1.70381E-04 0.00000E+00-7.80398E-06
 -1      1390 1.70302E-04 0.00000E+00-6.21254E-05
 -1      1391 1.69925E-04 0.00000E+00-5.95239E-05
 -1      1392 1.71395E-04 0.00000E+00-5.69657E-05
 -1      1393 1.65367E-04 0.00000E+00-5.67229E-05
 -1      1394 1.73158E-04 0.00000E+00-5.45445E-05
 -1      1395 1.68812E-04 0.00000E+00-1.15436E-05
 -1      1396 1.69947E-04 0.00000E+00-1.03742E-05
 -1      1397 1.69978E-04 0.00000E+00-5.18419E-05
 -1      1398 1.65606E-04 0.00000E+00-5.27248E-05
 -1      1399 1.70800E-04 0.00000E+00-4.99513E-05
 -1      1400 1.70518E-04 0.00000E+00-5.36420E-05
 -1      1401 1.65181E-04 0.00000E+00-5.92730E-05
 -1      1402 1.71333E-04 0.00000E+00-4.90075E-05
 -1      1403 1.71224E-04 0.00000E+00-4.44151E-05
 -1      1404 1.69943E-04 0.00000E+00-1.77577E-05
 -1      1405 1.69986E-04 0.00000E+00-1.97063E-05
 -1      1406 1.71397E-04 0.00000E+00-1.82277E-05
 -1      1407 1.71270E-04 0.00000E+00-4.19538E-05
 -1      1408 1.71733E-04 0.00000E+00-2.07891E-05
 -1      1409 1.70809E-04 0.00000E+00-2.21489E-05
 -1      1410 1.62763E-04 0.00000E+00-7.61884E-05
 -1      1411 1.71541E-04 0.00000E+00-4.34899E-05
 -1      1412 1.70944E-04 0.00000E+00-4.09608E-05
 -1      1413 1.71745E-04 0.00000E+00-3.95806E-05
 -1      1414 1.69254E-04 0.00000E+00-2.41012E-05
 -1      1415 1.71490E-04 0.00000E+00-3.77500E-05
 -1      1416 1.71832E-04 0.00000E+00-3.64969E-05
 -1      1417 1.70025E-04 0.00000E+00-2.52069E-05
 -1      1418 1.70049E-04 0.00000E+00-2.65670E-05
 -1      1419 1.70608E-04 0.00000E+00-2.27329E-05
 -1      1420 1.71270E-04 0.00000E+00-3.48447E-05
 -1      1421 1.70842E-04 0.00000E+00-3.34738E-05
 -1      1422 1.71882E-04 0.00000E+00-3.19994E-05
 -1      1423 1.70619E-04 0.00000E+00-2.77989E-05
 -1      1424 1.71473E-04 0.00000E+00-3.03967E-05
 -1      1425 1.71475E-04 0.00000E+00-2.93856E-05
 -1      1426 1.65407E-04 0.00000E+00-2.54690E-05
 -1      1427 5.43060E-05 0.00000E+00-8.50188E-06
 -1      1428 1.65764E-04 0.00000E+00-4.85247E-05
 -1      1429 1.64796E-04 0.00000E+00-2.28763E-05
 -1      1430 1.11049E-04 0.00000E+00-5.60800E-05
 -1      1431 1.25504E-04 0.00000E+00-3.64524E-05
 -1      1432 1.64898E-04 0.00000E+00-2.18522E-05
 -1      1433 1.00016E-04 0.00000E+00-4.71896E-05
 -1      1434 1.44776E-04 0.00000E+00-3.36478E-06
 -1      1435 4.49662E-05 0.00000E+00-6.95943E-06
 -1      1436 1.65539E-04 0.00000E+00-5.05988E-05
 -1      1437 1.64812E-04 0.00000E+00-6.17323E-05
 -1      1438 1.65983E-04 0.00000E+00-3.74943E-05
 -1      1439 1.49838E-04 0.00000E+00-1.71861E-05
 -1      1440 5.73910E-05 0.00000E+00-1.57672E-05
 -1      1441 1.33349E-04 0.00000E+00-1.03341E-05
 -1      1442 1.24625E-04 0.00000E+00-2.21043E-05
 -1      1443 1.59678E-04 0.00000E+00-2.32131E-05
 -1      1444 1.52206E-04 0.00000E+00-2.43558E-05
 -1      1445 1.64545E-04 0.00000E+00-6.88078E-05
 -1      1446 1.64973E-04 0.00000E+00-1.05432E-05
 -1      1447 1.47599E-04 0.00000E+00-2.69799E-05
 -1      1448 1.44773E-04 0.00000E+00-2.57154E-05
 -1      1449 1.19180E-04 0.00000E+00-1.46040E-05
 -1      1450 1.27407E-04 0.00000E+00-1.67955E-05
 -1      1451 1.70191E-04 0.00000E+00-1.31528E-05
 -1      1452 1.44338E-04 0.00000E+00-7.19603E-05
 -1      1453 1.36632E-05 0.00000E+00 6.58146E-06
 -1      1454 9.57379E-05 0.00000E+00-2.63582E-05
 -1      1455 1.65178E-04 0.00000E+00-3.92495E-05
 -1      1456 1.65207E-04 0.00000E+00-1.76058E-05
 -1      1457 1.33177E-04 0.00000E+00-1.89834E-05
 -1      1458 1.46372E-04 0.00000E+00-1.39456E-05
 -1      1459 1.63994E-04 0.00000E+00-6.34419E-05
 -1      1460 4.44532E-05 0.00000E+00-6.54810E-06
 -1      1461 1.49900E-04 0.00000E+00-9.35374E-06
 -1      1462 1.31517E-04 0.00000E+00-6.32004E-05
 -1      1463 1.43280E-04 0.00000E+00-5.33621E-05
 -1      1464 1.46873E-04 0.00000E+00-4.63803E-05
 -1      1465 1.46377E-04 0.00000E+00-4.07398E-05
 -1      1466 1.40251E-04 0.00000E+00-7.34987E-05
 -1      1467 1.65220E-04 0.00000E+00-4.58876E-06
 -1      1468 1.65362E-04 0.00000E+00-4.50402E-05
 -1      1469 1.38060E-04 0.00000E+00-3.89800E-05
 -1      1470 8.07303E-05 0.00000E+00-3.28478E-05
 -1      1471 1.43851E-04 0.00000E+00-3.72511E-05
 -1      1472 1.47268E-04 0.00000E+00-4.27077E-05
 -1      1473 1.42738E-04 0.00000E+00-4.30201E-05
 -1      1474 1.21551E-04 0.00000E+00-4.78308E-05
 -1      1475 1.64909E-04 0.00000E+00-7.11841E-06
 -1      1476 1.65585E-04 0.00000E+00-3.60659E-05
 -1      1477 2.34397E-05 0.00000E+00 2.02400E-05
 -1      1478 1.43232E-04 0.00000E+00-2.00278E-06
 -1      1479 7.70399E-05 0.00000E+00-1.75811E-05
 -1      1480 1.70458E-04 0.00000E+00-1.43028E-05
 -1      1481 1.51871E-04 0.00000E+00-2.05994E-05
 -1      1482 1.42399E-04 0.00000E+00-4.55693E-05
 -1      1483 1.65399E-04 0.00000E+00-2.89992E-05
 -1      1484 1.55762E-04 0.00000E+00-8.08326E-05
 -1      1485 1.55627E-04 0.00000E+00-1.33119E-05
 -1      1486 1.25984E-04 0.00000E+00-1.89449E-05
 -1      1487 1.39920E-04 0.00000E+00-5.15166E-05
 -1      1488 1.70359E-04 0.00000E+00-6.56791E-05
 -1      1489 1.17869E-04 0.00000E+00-4.89066E-06
 -1      1490 1.65799E-04 0.00000E+00-5.37048E-05
 -1      1491 1.60302E-04 0.00000E+00-2.16505E-05
 -1      1492 1.66112E-04 0.00000E+00-4.08506E-05
 -1      1493 1.65800E-04 0.00000E+00-2.87693E-06
 -1      1494 1.53440E-04 0.00000E+00-4.84163E-05
 -1      1495 1.48241E-04 0.00000E+00-4.84670E-05
 -1      1496 1.38963E-04 0.00000E+00-3.03589E-06
 -1      1497 1.49368E-04 0.00000E+00-1.51393E-05
 -1      1498 1.65751E-04 0.00000E+00-3.03260E-05
 -1      1499 1.65598E-04 0.00000E+00-3.38490E-05
 -1      1500 1.30707E-04 0.00000E+00-5.53427E-06
 -1      1501 1.66188E-04 0.00000E+00-4.33992E-05
 -1      1502 1.65899E-04 0.00000E+00-3.50307E-05
 -1      1503 1.66045E-04 0.00000E+00-1.33642E-05
 -1      1504 1.65923E-04 0.00000E+00-2.45049E-05
 -1      1505 1.71802E-04 0.00000E+00-1.25790E-05
 -1      1506 1.65140E-04 0.00000E+00-4.79259E-06
 -1      1507 1.68669E-04 0.00000E+00-7.85382E-05
 -1      1508 1.65616E-04 0.00000E+00-6.04344E-05
 -1      1509 1.64209E-04 0.00000E+00-1.02142E-05
 -1      1510 1.65839E-04 0.00000E+00-5.80132E-05
 -1      1511 1.50166E-04 0.00000E+00-8.23742E-05
 -1      1512 1.66116E-04 0.00000E+00-5.17414E-05
 -1      1513 1.66489E-04 0.00000E+00-4.96573E-05
 -1      1514 1.65373E-04 0.00000E+00-2.13171E-05
 -1      1515 1.66057E-04 0.00000E+00-2.24038E-05
 -1      1516 1.66658E-04 0.00000E+00-3.69645E-05
 -1      1517 1.66154E-04 0.00000E+00-4.16365E-05
 -1      1518 1.65706E-04 0.00000E+00-2.04833E-05
 -1      1519 1.66399E-04 0.00000E+00-3.11230E-05
 -1      1520 1.66182E-04 0.00000E+00-2.49933E-05
 -1      1521 1.70510E-04 0.00000E+00-1.57846E-05
 -1      1522 1.04877E-04 0.00000E+00-4.71956E-06
 -1      1523 1.52796E-04 0.00000E+00-1.76084E-06
 -1      1524 1.71619E-04 0.00000E+00-4.70242E-05
 -1      1525 1.57014E-04 0.00000E+00-3.12105E-05
 -1      1526 1.15329E-04 0.00000E+00-6.10730E-05
 -1      1527 1.56842E-04 0.00000E+00-5.20732E-06
 -1      1528 1.27562E-04 0.00000E+00-6.68875E-05
 -1      1529 1.52317E-04 0.00000E+00-3.09802E-05
 -1      1530 1.31681E-04 0.00000E+00-1.55595E-05
 -1      1531 1.33074E-04 0.00000E+00-3.29651E-05
 -1      1532 1.65277E-04 0.00000E+00-1.91333E-05
 -1      1533 1.65367E-04 0.00000E+00-1.53091E-05
 -1      1534 1.72808E-04 0.00000E+00-4.64014E-05
 -1      1535 1.59828E-04 0.00000E+00-9.58409E-06
 -1      1536 1.47148E-04 0.00000E+00-1.62064E-05
 -1      1537 1.65471E-04 0.00000E+00-6.76860E-06
 -1      1538 1.65235E-04 0.00000E+00-6.45755E-05
 -1      1539 1.64736E-04 0.00000E+00-2.75122E-05
 -1      1540 1.47693E-04 0.00000E+00-7.86931E-05
 -1      1541 1.55713E-04 0.00000E+00-6.01885E-05
 -1      1542 8.99732E-05 0.00000E+00-3.90985E-05
 -1      1543 1.66842E-04 0.00000E+00-3.84161E-05
 -1      1544 1.63298E-04 0.00000E+00-7.19922E-05
 -1      1545 1.58962E-04 0.00000E+00-7.29921E-05
 -1      1546 1.45911E-04 0.00000E+00-6.22596E-05
 -1      1547 1.29980E-04 0.00000E+00-2.31241E-05
 -1      1548 1.15567E-04 0.00000E+00-4.86770E-05
 -1      1549 1.58588E-04 0.00000E+00-7.57779E-05
 -1      1550 1.65869E-04 0.00000E+00-8.39879E-06
 -1      1551 9.95909E-05 0.00000E+00-7.09882E-06
 -1      1552 1.61261E-04 0.00000E+00-4.53808E-05
 -1      1553 1.33502E-04 0.00000E+00-7.19293E-06
 -1      1554 1.66777E-04 0.00000E+00-4.24356E-05
 -1      1555 1.34455E-04 0.00000E+00-7.08564E-05
 -1      1556 1.31380E-04 0.00000E+00-8.70317E-06
 -1      1557 1.59140E-04 0.00000E+00-7.84896E-05
 -1      1558 1.60976E-04 0.00000E+00-4.88380E-05
 -1      1559 1.66151E-04 0.00000E+00-2.64818E-05
 -1      1560 1.47375E-04 0.00000E+00-2.47808E-05
 -1      1561 1.54512E-04 0.00000E+00-3.24796E-05
 -1      1562 1.56404E-04 0.00000E+00-1.16643E-06
 -1      1563 1.66090E-04 0.00000E+00-8.89080E-06
 -1      1564 1.71939E-04 0.00000E+00-4.37013E-07
 -1      1565 1.65552E-04 0.00000E+00-8.67943E-05
 -1      1566 1.59463E-04 0.00000E+00-4.08827E-05
 -1      1567 8.74569E-05 0.00000E+00-2.61575E-05
 -1      1568 1.41776E-04 0.00000E+00-4.02441E-05
 -1      1569 1.72249E-04 0.00000E+00-1.45695E-05
 -1      1570 6.93228E-05 0.00000E+00-1.30466E-05
 -1      1571 1.27289E-04 0.00000E+00-3.30007E-05
 -1      1572 4.42913E-05 0.00000E+00-2.63280E-06
 -1      1573 1.66887E-04 0.00000E+00-2.98199E-05
 -1      1574 9.80478E-05 0.00000E+00-4.78754E-05
 -1      1575 1.66788E-04 0.00000E+00-3.99795E-05
 -1      1576 1.66855E-04 0.00000E+00-3.32483E-05
 -1      1577 1.32483E-04 0.00000E+00-3.72903E-05
 -1      1578 1.64962E-04 0.00000E+00-7.02625E-05
 -1      1579 1.32962E-04 0.00000E+00-1.85348E-06
 -1      1580 1.65479E-04 0.00000E+00-1.20031E-05
 -1      1581 1.62744E-04 0.00000E+00-8.27924E-05
 -1      1582 1.41587E-04 0.00000E+00-7.80888E-05
 -1      1583 1.60859E-04 0.00000E+00-1.09078E-05
 -1      1584 1.56915E-04 0.00000E+00-1.07182E-05
 -1      1585 1.61055E-04 0.00000E+00-5.39927E-06
 -1      1586 1.22539E-04 0.00000E+00-2.03208E-05
 -1      1587 1.59986E-04 0.00000E+00-3.94992E-05
 -1      1588 1.42925E-04 0.00000E+00-7.65978E-05
 -1      1589 1.67412E-04 0.00000E+00-4.76969E-05
 -1      1590 1.12115E-04 0.00000E+00-1.51478E-05
 -1      1591 1.66426E-04 0.00000E+00-4.41783E-05
 -1      1592 1.53715E-05 0.00000E+00 2.71774E-06
 -1      1593 6.93584E-06 0.00000E+00 4.18580E-06
 -1      1594 9.55534E-06 0.00000E+00 1.19586E-05
 -1      1595 1.73890E-04 0.00000E+00-1.56717E-07
 -1      1596 1.69419E-04 0.00000E+00 8.73471E-10
 -1      1597 1.73946E-04 0.00000E+00-3.72315E-07
 -1      1598 2.36393E-05 0.00000E+00 2.98205E-05
 -1      1599 3.14894E-05 0.00000E+00 1.93050E-05
 -1      1600 1.41146E-05 0.00000E+00 2.05046E-05
 -1      1601 1.63225E-04 0.00000E+00-8.82829E-05
 -1      1602 1.66578E-04 0.00000E+00-8.80569E-05
 -1      1603 1.67679E-04 0.00000E+00-8.57650E-05
 -1      1604 2.83717E-05 0.00000E+00 1.03243E-07
 -1      1605 2.12740E-05 0.00000E+00 1.38551E-06
 -1      1606 1.94492E-05 0.00000E+00 4.01728E-06
 -1      1607 4.57027E-05 0.00000E+00-1.42786E-06
 -1      1608 3.78573E-05 0.00000E+00-8.15613E-07
 -1      1609 3.47266E-05 0.00000E+00-9.69059E-07
 -1      1610 3.13589E-05 0.00000E+00-4.67675E-07
 -1      1611 4.08928E-05 0.00000E+00-2.91435E-06
 -1      1612 5.94231E-05 0.00000E+00-2.29647E-06
 -1      1613 5.16495E-05 0.00000E+00-1.84351E-06
 -1      1614 5.00543E-05 0.00000E+00-3.44513E-06
 -1      1615 7.36931E-05 0.00000E+00-2.36010E-06
 -1      1616 6.62351E-05 0.00000E+00-2.09514E-06
 -1      1617 6.28836E-05 0.00000E+00-4.43476E-06
 -1      1618 8.83090E-05 0.00000E+00-2.29701E-06
 -1      1619 8.13094E-05 0.00000E+00-2.15984E-06
 -1      1620 7.72763E-05 0.00000E+00-4.54341E-06
 -1      1621 9.98723E-05 0.00000E+00-2.14562E-06
 -1      1622 9.36573E-05 0.00000E+00-2.07466E-06
 -1      1623 9.03364E-05 0.00000E+00-4.35736E-06
 -1      1624 1.13626E-04 0.00000E+00-1.43618E-06
 -1      1625 1.07910E-04 0.00000E+00-1.40993E-06
 -1      1626 1.04511E-04 0.00000E+00-2.34691E-06
 -1      1627 1.00217E-04 0.00000E+00-4.47411E-06
 -1      1628 1.08271E-04 0.00000E+00-3.80687E-06
 -1      1629 1.22813E-04 0.00000E+00-1.26316E-06
 -1      1630 1.17861E-04 0.00000E+00-1.25279E-06
 -1      1631 1.15928E-04 0.00000E+00-2.68469E-06
 -1      1632 1.33672E-04 0.00000E+00-9.22907E-07
 -1      1633 1.29144E-04 0.00000E+00-9.35954E-07
 -1      1634 1.26301E-04 0.00000E+00-1.50398E-06
 -1      1635 1.23651E-04 0.00000E+00-2.76977E-06
 -1      1636 1.30004E-04 0.00000E+00-2.42891E-06
 -1      1637 1.40135E-04 0.00000E+00-7.82068E-07
 -1      1638 1.36209E-04 0.00000E+00-7.72397E-07
 -1      1639 1.35510E-04 0.00000E+00-1.71448E-06
 -1      1640 1.48428E-04 0.00000E+00-5.76502E-07
 -1      1641 1.44813E-04 0.00000E+00-5.76779E-07
 -1      1642 1.42726E-04 0.00000E+00-1.00080E-06
 -1      1643 1.40638E-04 0.00000E+00-1.77882E-06
 -1      1644 1.45309E-04 0.00000E+00-1.56985E-06
 -1      1645 1.53806E-04 0.00000E+00-4.41630E-07
 -1      1646 1.50599E-04 0.00000E+00-4.33819E-07
 -1      1647 1.49615E-04 0.00000E+00-9.96041E-07
 -1      1648 1.61104E-04 0.00000E+00-3.10903E-07
 -1      1649 1.57954E-04 0.00000E+00-3.30187E-07
 -1      1650 1.56151E-04 0.00000E+00-5.74987E-07
 -1      1651 1.54069E-04 0.00000E+00-1.02702E-06
 -1      1652 1.58264E-04 0.00000E+00-9.73242E-07
 -1      1653 1.66903E-04 0.00000E+00-1.51688E-07
 -1      1654 1.63685E-04 0.00000E+00-1.82852E-07
 -1      1655 1.62813E-04 0.00000E+00-5.54513E-07
 -1      1656 1.68233E-04 0.00000E+00-3.69909E-07
 -1      1657 3.91220E-05 0.00000E+00 9.62490E-06
 -1      1658 4.57663E-05 0.00000E+00 1.07904E-06
 -1      1659 3.08946E-05 0.00000E+00 1.20005E-05
 -1      1660 5.14985E-05 0.00000E+00-4.96409E-06
 -1      1661 5.80559E-05 0.00000E+00-1.22953E-05
 -1      1662 4.42017E-05 0.00000E+00-1.97412E-06
 -1      1663 6.82748E-05 0.00000E+00-2.15322E-05
 -1      1664 7.49521E-05 0.00000E+00-2.80553E-05
 -1      1665 5.33779E-05 0.00000E+00-1.18129E-05
 -1      1666 6.13846E-05 0.00000E+00-1.70768E-05
 -1      1667 6.32502E-05 0.00000E+00-2.00639E-05
 -1      1668 7.94735E-05 0.00000E+00-3.21716E-05
 -1      1669 8.55602E-05 0.00000E+00-3.76283E-05
 -1      1670 7.42231E-05 0.00000E+00-2.86287E-05
 -1      1671 9.54776E-05 0.00000E+00-4.56000E-05
 -1      1672 1.01206E-04 0.00000E+00-5.03687E-05
 -1      1673 8.34728E-05 0.00000E+00-3.62372E-05
 -1      1674 9.03431E-05 0.00000E+00-4.17070E-05
 -1      1675 9.30803E-05 0.00000E+00-4.38140E-05
 -1      1676 1.05538E-04 0.00000E+00-5.38202E-05
 -1      1677 1.10577E-04 0.00000E+00-5.77628E-05
 -1      1678 1.02282E-04 0.00000E+00-5.11835E-05
 -1      1679 1.14996E-04 0.00000E+00-6.11036E-05
 -1      1680 1.19357E-04 0.00000E+00-6.43117E-05
 -1      1681 1.10958E-04 0.00000E+00-5.77905E-05
 -1      1682 1.24713E-04 0.00000E+00-6.80568E-05
 -1      1683 1.28599E-04 0.00000E+00-7.06750E-05
 -1      1684 1.22885E-04 0.00000E+00-6.53504E-05
 -1      1685 1.21266E-04 0.00000E+00-6.52447E-05
 -1      1686 1.17377E-04 0.00000E+00-6.18953E-05
 -1      1687 1.31520E-04 0.00000E+00-7.25761E-05
 -1      1688 1.34850E-04 0.00000E+00-7.46129E-05
 -1      1689 1.29049E-04 0.00000E+00-7.00647E-05
 -1      1690 1.39654E-04 0.00000E+00-7.78338E-05
 -1      1691 1.42666E-04 0.00000E+00-7.95288E-05
 -1      1692 1.34840E-04 0.00000E+00-7.33277E-05
 -1      1693 1.37671E-04 0.00000E+00-7.62270E-05
 -1      1694 1.39644E-04 0.00000E+00-7.64057E-05
 -1      1695 1.44644E-04 0.00000E+00-8.06398E-05
 -1      1696 1.47228E-04 0.00000E+00-8.19250E-05
 -1      1697 1.43522E-04 0.00000E+00-7.91216E-05
 -1      1698 1.49507E-04 0.00000E+00-8.31080E-05
 -1      1699 1.51842E-04 0.00000E+00-8.40931E-05
 -1      1700 1.47778E-04 0.00000E+00-8.12711E-05
 -1      1701 1.54196E-04 0.00000E+00-8.50521E-05
 -1      1702 1.56372E-04 0.00000E+00-8.58201E-05
 -1      1703 1.52460E-04 0.00000E+00-8.31709E-05
 -1      1704 1.58982E-04 0.00000E+00-8.69562E-05
 -1      1705 1.61379E-04 0.00000E+00-8.74006E-05
 -1      1706 1.57531E-04 0.00000E+00-8.48592E-05
 -1      1707 1.62696E-04 0.00000E+00-8.63170E-05
 -1      1708 1.83757E-05 0.00000E+00 8.04577E-06
 -1      1709 1.54408E-05 0.00000E+00 1.42428E-05
 -1      1710 2.32429E-05 0.00000E+00 1.37773E-05
 -1      1711 1.73368E-04 0.00000E+00-1.34484E-06
 -1      1712 1.73160E-04 0.00000E+00-7.54212E-07
 -1      1713 1.71011E-04 0.00000E+00-7.31076E-07
 -1      1714 1.72130E-04 0.00000E+00-1.43116E-06
 -1      1715 1.72295E-04 0.00000E+00-1.46676E-06
 -1      1716 1.69603E-04 0.00000E+00-1.31686E-06
 -1      1717 1.73469E-04 0.00000E+00-1.84716E-06
 -1      1718 1.73007E-04 0.00000E+00-1.44478E-06
 -1      1719 1.69833E-04 0.00000E+00-1.47410E-06
 -1      1720 1.73334E-04 0.00000E+00-2.48607E-06
 -1      1721 1.73355E-04 0.00000E+00-2.21703E-06
 -1      1722 1.70196E-04 0.00000E+00-2.08066E-06
 -1      1723 1.73335E-04 0.00000E+00-3.06705E-06
 -1      1724 1.73492E-04 0.00000E+00-2.69388E-06
 -1      1725 1.70269E-04 0.00000E+00-2.55796E-06
 -1      1726 1.73476E-04 0.00000E+00-3.60610E-06
 -1      1727 1.73076E-04 0.00000E+00-3.26848E-06
 -1      1728 1.70484E-04 0.00000E+00-3.16976E-06
 -1      1729 1.73642E-04 0.00000E+00-4.42028E-06
 -1      1730 1.73971E-04 0.00000E+00-3.95599E-06
 -1      1731 1.70745E-04 0.00000E+00-3.74456E-06
 -1      1732 1.72446E-04 0.00000E+00-4.84332E-06
 -1      1733 1.72991E-04 0.00000E+00-4.77986E-06
 -1      1734 1.70154E-04 0.00000E+00-4.48306E-06
 -1      1735 1.73483E-04 0.00000E+00-5.28326E-06
 -1      1736 1.73369E-04 0.00000E+00-4.90429E-06
 -1      1737 1.70108E-04 0.00000E+00-4.85616E-06
 -1      1738 1.72939E-04 0.00000E+00-6.03079E-06
 -1      1739 1.72914E-04 0.00000E+00-5.60363E-06
 -1      1740 1.70104E-04 0.00000E+00-5.59975E-06
 -1      1741 1.73695E-04 0.00000E+00-6.77519E-06
 -1      1742 1.73418E-04 0.00000E+00-6.38411E-06
 -1      1743 1.70000E-04 0.00000E+00-6.06876E-06
 -1      1744 1.72902E-04 0.00000E+00-6.78588E-06
 -1      1745 1.72710E-04 0.00000E+00-6.70857E-06
 -1      1746 1.69992E-04 0.00000E+00-6.80636E-06
 -1      1747 1.73110E-04 0.00000E+00-7.79809E-06
 -1      1748 1.73478E-04 0.00000E+00-7.06490E-06
 -1      1749 1.69771E-04 0.00000E+00-6.99452E-06
 -1      1750 1.73035E-04 0.00000E+00-8.02251E-06
 -1      1751 1.73195E-04 0.00000E+00-7.70493E-06
 -1      1752 1.70036E-04 0.00000E+00-7.61573E-06
 -1      1753 1.73881E-04 0.00000E+00-8.73608E-06
 -1      1754 1.73459E-04 0.00000E+00-8.53417E-06
 -1      1755 1.70249E-04 0.00000E+00-8.26662E-06
 -1      1756 1.73209E-04 0.00000E+00-9.37163E-06
 -1      1757 1.73229E-04 0.00000E+00-8.87630E-06
 -1      1758 1.70661E-04 0.00000E+00-9.11442E-06
 -1      1759 1.74009E-04 0.00000E+00-9.88992E-06
 -1      1760 1.73617E-04 0.00000E+00-9.55392E-06
 -1      1761 1.70372E-04 0.00000E+00-9.44679E-06
 -1      1762 1.73421E-04 0.00000E+00-1.06381E-05
 -1      1763 1.73750E-04 0.00000E+00-1.02372E-05
 -1      1764 1.70107E-04 0.00000E+00-1.01416E-05
 -1      1765 1.73369E-04 0.00000E+00-1.12250E-05
 -1      1766 1.73289E-04 0.00000E+00-1.08110E-05
 -1      1767 1.69757E-04 0.00000E+00-1.05458E-05
 -1      1768 1.72189E-04 0.00000E+00-1.15688E-05
 -1      1769 1.72372E-04 0.00000E+00-1.14212E-05
 -1      1770 1.69298E-04 0.00000E+00-1.12783E-05
 -1      1771 1.73421E-04 0.00000E+00-1.17838E-05
 -1      1772 1.73269E-04 0.00000E+00-1.16358E-05
 -1      1773 1.69555E-04 0.00000E+00-1.16820E-05
 -1      1774 1.74755E-04 0.00000E+00-1.25448E-05
 -1      1775 1.74549E-04 0.00000E+00-1.20016E-05
 -1      1776 1.70941E-04 0.00000E+00-1.21556E-05
 -1      1777 1.73882E-04 0.00000E+00-1.33698E-05
 -1      1778 1.73943E-04 0.00000E+00-1.29384E-05
 -1      1779 1.70839E-04 0.00000E+00-1.29095E-05
 -1      1780 1.73378E-04 0.00000E+00-1.41114E-05
 -1      1781 1.73562E-04 0.00000E+00-1.36804E-05
 -1      1782 1.69898E-04 0.00000E+00-1.33884E-05
 -1      1783 1.73430E-04 0.00000E+00-1.42890E-05
 -1      1784 1.73391E-04 0.00000E+00-1.42420E-05
 -1      1785 1.70178E-04 0.00000E+00-1.40848E-05
 -1      1786 1.75164E-04 0.00000E+00-1.48504E-05
 -1      1787 1.74633E-04 0.00000E+00-1.42927E-05
 -1      1788 1.71406E-04 0.00000E+00-1.44054E-05
 -1      1789 1.73160E-04 0.00000E+00-1.57342E-05
 -1      1790 1.73658E-04 0.00000E+00-1.52860E-05
 -1      1791 1.70815E-04 0.00000E+00-1.50864E-05
 -1      1792 1.73741E-04 0.00000E+00-1.59307E-05
 -1      1793 1.73504E-04 0.00000E+00-1.58704E-05
 -1      1794 1.69876E-04 0.00000E+00-1.56240E-05
 -1      1795 1.72448E-04 0.00000E+00-1.66715E-05
 -1      1796 1.71890E-04 0.00000E+00-1.61876E-05
 -1      1797 1.69004E-04 0.00000E+00-1.62171E-05
 -1      1798 1.73700E-04 0.00000E+00-1.77801E-05
 -1      1799 1.74224E-04 0.00000E+00-1.72227E-05
 -1      1800 1.69036E-04 0.00000E+00-1.68618E-05
 -1      1801 1.72789E-04 0.00000E+00-1.79120E-05
 -1      1802 1.73016E-04 0.00000E+00-1.79040E-05
 -1      1803 1.70354E-04 0.00000E+00-1.76163E-05
 -1      1804 1.73826E-04 0.00000E+00-1.82441E-05
 -1      1805 1.73958E-04 0.00000E+00-1.78521E-05
 -1      1806 1.70501E-04 0.00000E+00-1.78477E-05
 -1      1807 1.73531E-04 0.00000E+00-1.92026E-05
 -1      1808 1.73415E-04 0.00000E+00-1.86557E-05
 -1      1809 1.70823E-04 0.00000E+00-1.86584E-05
 -1      1810 1.73265E-04 0.00000E+00-2.02886E-05
 -1      1811 1.73356E-04 0.00000E+00-1.96255E-05
 -1      1812 1.70129E-04 0.00000E+00-1.93980E-05
 -1      1813 1.72726E-04 0.00000E+00-2.00881E-05
 -1      1814 1.72477E-04 0.00000E+00-2.01085E-05
 -1      1815 1.69706E-04 0.00000E+00-2.01532E-05
 -1      1816 1.74394E-04 0.00000E+00-2.10050E-05
 -1      1817 1.74153E-04 0.00000E+00-2.03057E-05
 -1      1818 1.70423E-04 0.00000E+00-2.02897E-05
 -1      1819 1.73729E-04 0.00000E+00-2.16032E-05
 -1      1820 1.73273E-04 0.00000E+00-2.10980E-05
 -1      1821 1.70681E-04 0.00000E+00-2.12266E-05
 -1      1822 1.73923E-04 0.00000E+00-2.20511E-05
 -1      1823 1.73984E-04 0.00000E+00-2.19572E-05
 -1      1824 1.70176E-04 0.00000E+00-2.17173E-05
 -1      1825 1.73734E-04 0.00000E+00-2.27495E-05
 -1      1826 1.73659E-04 0.00000E+00-2.23804E-05
 -1      1827 1.70641E-04 0.00000E+00-2.23919E-05
 -1      1828 1.73821E-04 0.00000E+00-2.37433E-05
 -1      1829 1.73686E-04 0.00000E+00-2.31886E-05
 -1      1830 1.70496E-04 0.00000E+00-2.30058E-05
 -1      1831 1.72558E-04 0.00000E+00-2.41760E-05
 -1      1832 1.72417E-04 0.00000E+00-2.39301E-05
 -1      1833 1.69722E-04 0.00000E+00-2.38156E-05
 -1      1834 1.73768E-04 0.00000E+00-2.45580E-05
 -1      1835 1.73398E-04 0.00000E+00-2.43721E-05
 -1      1836 1.69816E-04 0.00000E+00-2.43039E-05
 -1      1837 1.73103E-04 0.00000E+00-2.54243E-05
 -1      1838 1.73512E-04 0.00000E+00-2.50359E-05
 -1      1839 1.70210E-04 0.00000E+00-2.48881E-05
 -1      1840 1.74457E-04 0.00000E+00-2.60761E-05
 -1      1841 1.74332E-04 0.00000E+00-2.56331E-05
 -1      1842 1.70642E-04 0.00000E+00-2.54824E-05
 -1      1843 1.73972E-04 0.00000E+00-2.66249E-05
 -1      1844 1.73255E-04 0.00000E+00-2.61634E-05
 -1      1845 1.70795E-04 0.00000E+00-2.63857E-05
 -1      1846 1.74045E-04 0.00000E+00-2.75719E-05
 -1      1847 1.74346E-04 0.00000E+00-2.70584E-05
 -1      1848 1.70339E-04 0.00000E+00-2.68160E-05
 -1      1849 1.74047E-04 0.00000E+00-2.79233E-05
 -1      1850 1.74014E-04 0.00000E+00-2.74312E-05
 -1      1851 1.70742E-04 0.00000E+00-2.74692E-05
 -1      1852 1.73297E-04 0.00000E+00-2.86737E-05
 -1      1853 1.73653E-04 0.00000E+00-2.83210E-05
 -1      1854 1.70135E-04 0.00000E+00-2.81550E-05
 -1      1855 1.74390E-04 0.00000E+00-2.93944E-05
 -1      1856 1.74443E-04 0.00000E+00-2.90248E-05
 -1      1857 1.70541E-04 0.00000E+00-2.88375E-05
 -1      1858 1.73983E-04 0.00000E+00-3.01641E-05
 -1      1859 1.74178E-04 0.00000E+00-2.97204E-05
 -1      1860 1.71070E-04 0.00000E+00-2.96150E-05
 -1      1861 1.74381E-04 0.00000E+00-3.09030E-05
 -1      1862 1.74328E-04 0.00000E+00-3.01191E-05
 -1      1863 1.70977E-04 0.00000E+00-3.01129E-05
 -1      1864 1.73445E-04 0.00000E+00-3.13212E-05
 -1      1865 1.73380E-04 0.00000E+00-3.12229E-05
 -1      1866 1.70791E-04 0.00000E+00-3.10097E-05
 -1      1867 1.74332E-04 0.00000E+00-3.20403E-05
 -1      1868 1.74670E-04 0.00000E+00-3.15194E-05
 -1      1869 1.71047E-04 0.00000E+00-3.15181E-05
 -1      1870 1.74557E-04 0.00000E+00-3.28578E-05
 -1      1871 1.74120E-04 0.00000E+00-3.23272E-05
 -1      1872 1.71482E-04 0.00000E+00-3.22526E-05
 -1      1873 1.74457E-04 0.00000E+00-3.35844E-05
 -1      1874 1.74134E-04 0.00000E+00-3.30894E-05
 -1      1875 1.71174E-04 0.00000E+00-3.30848E-05
 -1      1876 1.74098E-04 0.00000E+00-3.42951E-05
 -1      1877 1.74340E-04 0.00000E+00-3.38200E-05
 -1      1878 1.70988E-04 0.00000E+00-3.38182E-05
 -1      1879 1.74302E-04 0.00000E+00-3.51493E-05
 -1      1880 1.74552E-04 0.00000E+00-3.46343E-05
 -1      1881 1.71152E-04 0.00000E+00-3.45018E-05
 -1      1882 1.73617E-04 0.00000E+00-3.58566E-05
 -1      1883 1.73833E-04 0.00000E+00-3.55007E-05
 -1      1884 1.70784E-04 0.00000E+00-3.51933E-05
 -1      1885 1.74577E-04 0.00000E+00-3.63790E-05
 -1      1886 1.74439E-04 0.00000E+00-3.58507E-05
 -1      1887 1.70897E-04 0.00000E+00-3.59846E-05
 -1      1888 1.74196E-04 0.00000E+00-3.72271E-05
 -1      1889 1.74239E-04 0.00000E+00-3.67819E-05
 -1      1890 1.71266E-04 0.00000E+00-3.67690E-05
 -1      1891 1.74684E-04 0.00000E+00-3.80303E-05
 -1      1892 1.74439E-04 0.00000E+00-3.76243E-05
 -1      1893 1.71059E-04 0.00000E+00-3.74365E-05
 -1      1894 1.73909E-04 0.00000E+00-3.87130E-05
 -1      1895 1.73944E-04 0.00000E+00-3.83789E-05
 -1      1896 1.71186E-04 0.00000E+00-3.83138E-05
 -1      1897 1.74246E-04 0.00000E+00-3.95636E-05
 -1      1898 1.74707E-04 0.00000E+00-3.89866E-05
 -1      1899 1.71355E-04 0.00000E+00-3.90577E-05
 -1      1900 1.74708E-04 0.00000E+00-4.04422E-05
 -1      1901 1.74304E-04 0.00000E+00-3.99117E-05
 -1      1902 1.71725E-04 0.00000E+00-3.98284E-05
 -1      1903 1.74269E-04 0.00000E+00-4.11411E-05
 -1      1904 1.73939E-04 0.00000E+00-4.07770E-05
 -1      1905 1.71461E-04 0.00000E+00-4.05844E-05
 -1      1906 1.74122E-04 0.00000E+00-4.22663E-05
 -1      1907 1.74366E-04 0.00000E+00-4.17377E-05
 -1      1908 1.71019E-04 0.00000E+00-4.14293E-05
 -1      1909 1.74000E-04 0.00000E+00-4.27867E-05
 -1      1910 1.73894E-04 0.00000E+00-4.24274E-05
 -1      1911 1.71190E-04 0.00000E+00-4.24140E-05
 -1      1912 1.73983E-04 0.00000E+00-4.35015E-05
 -1      1913 1.74416E-04 0.00000E+00-4.32055E-05
 -1      1914 1.71192E-04 0.00000E+00-4.30938E-05
 -1      1915 1.74451E-04 0.00000E+00-4.43464E-05
 -1      1916 1.73868E-04 0.00000E+00-4.39844E-05
 -1      1917 1.70783E-04 0.00000E+00-4.39663E-05
 -1      1918 1.73707E-04 0.00000E+00-4.54554E-05
 -1      1919 1.73348E-04 0.00000E+00-4.49039E-05
 -1      1920 1.70216E-04 0.00000E+00-4.50082E-05
 -1      1921 1.75569E-04 0.00000E+00-4.63511E-05
 -1      1922 1.76064E-04 0.00000E+00-4.58193E-05
 -1      1923 1.71044E-04 0.00000E+00-4.58559E-05
 -1      1924 1.74538E-04 0.00000E+00-4.72686E-05
 -1      1925 1.74995E-04 0.00000E+00-4.67672E-05
 -1      1926 1.72020E-04 0.00000E+00-4.66972E-05
 -1      1927 1.73980E-04 0.00000E+00-4.82054E-05
 -1      1928 1.74911E-04 0.00000E+00-4.76546E-05
 -1      1929 1.71490E-04 0.00000E+00-4.73477E-05
 -1      1930 1.74267E-04 0.00000E+00-4.89957E-05
 -1      1931 1.74336E-04 0.00000E+00-4.84719E-05
 -1      1932 1.71239E-04 0.00000E+00-4.83171E-05
 -1      1933 1.73668E-04 0.00000E+00-5.01125E-05
 -1      1934 1.73952E-04 0.00000E+00-4.94843E-05
 -1      1935 1.70909E-04 0.00000E+00-4.94878E-05
 -1      1936 1.74163E-04 0.00000E+00-5.09319E-05
 -1      1937 1.74108E-04 0.00000E+00-5.05956E-05
 -1      1938 1.71006E-04 0.00000E+00-5.03436E-05
 -1      1939 1.73441E-04 0.00000E+00-5.20192E-05
 -1      1940 1.73138E-04 0.00000E+00-5.12336E-05
 -1      1941 1.70425E-04 0.00000E+00-5.13796E-05
 -1      1942 1.72901E-04 0.00000E+00-5.30033E-05
 -1      1943 1.73411E-04 0.00000E+00-5.23187E-05
 -1      1944 1.69713E-04 0.00000E+00-5.22548E-05
 -1      1945 1.73225E-04 0.00000E+00-5.37857E-05
 -1      1946 1.73475E-04 0.00000E+00-5.32845E-05
 -1      1947 1.70000E-04 0.00000E+00-5.31788E-05
 -1      1948 1.74528E-04 0.00000E+00-5.45880E-05
 -1      1949 1.74809E-04 0.00000E+00-5.41549E-05
 -1      1950 1.71449E-04 0.00000E+00-5.40293E-05
 -1      1951 1.73879E-04 0.00000E+00-5.60128E-05
 -1      1952 1.73486E-04 0.00000E+00-5.52596E-05
 -1      1953 1.71175E-04 0.00000E+00-5.53848E-05
 -1      1954 1.73894E-04 0.00000E+00-5.72187E-05
 -1      1955 1.74147E-04 0.00000E+00-5.66926E-05
 -1      1956 1.70527E-04 0.00000E+00-5.64012E-05
 -1      1957 1.73626E-04 0.00000E+00-5.83273E-05
 -1      1958 1.73483E-04 0.00000E+00-5.78107E-05
 -1      1959 1.70632E-04 0.00000E+00-5.76387E-05
 -1      1960 1.73075E-04 0.00000E+00-5.94181E-05
 -1      1961 1.72849E-04 0.00000E+00-5.88674E-05
 -1      1962 1.70238E-04 0.00000E+00-5.89549E-05
 -1      1963 1.72525E-04 0.00000E+00-6.07775E-05
 -1      1964 1.72951E-04 0.00000E+00-6.01543E-05
 -1      1965 1.69740E-04 0.00000E+00-6.00717E-05
 -1      1966 1.73380E-04 0.00000E+00-6.23436E-05
 -1      1967 1.73388E-04 0.00000E+00-6.12518E-05
 -1      1968 1.69789E-04 0.00000E+00-6.12505E-05
 -1      1969 1.71677E-04 0.00000E+00-6.33178E-05
 -1      1970 1.72111E-04 0.00000E+00-6.29561E-05
 -1      1971 1.69377E-04 0.00000E+00-6.28943E-05
 -1      1972 1.72703E-04 0.00000E+00-6.43960E-05
 -1      1973 1.72672E-04 0.00000E+00-6.36275E-05
 -1      1974 1.69168E-04 0.00000E+00-6.38306E-05
 -1      1975 1.73399E-04 0.00000E+00-6.58003E-05
 -1      1976 1.73121E-04 0.00000E+00-6.48838E-05
 -1      1977 1.69944E-04 0.00000E+00-6.51485E-05
 -1      1978 1.72734E-04 0.00000E+00-6.76490E-05
 -1      1979 1.73049E-04 0.00000E+00-6.66875E-05
 -1      1980 1.70051E-04 0.00000E+00-6.64042E-05
 -1      1981 1.71765E-04 0.00000E+00-6.89635E-05
 -1      1982 1.71924E-04 0.00000E+00-6.83304E-05
 -1      1983 1.69450E-04 0.00000E+00-6.81508E-05
 -1      1984 1.71953E-04 0.00000E+00-7.09156E-05
 -1      1985 1.71846E-04 0.00000E+00-6.98518E-05
 -1      1986 1.68997E-04 0.00000E+00-6.96962E-05
 -1      1987 1.70874E-04 0.00000E+00-7.21171E-05
 -1      1988 1.70863E-04 0.00000E+00-7.13968E-05
 -1      1989 1.68348E-04 0.00000E+00-7.15491E-05
 -1      1990 1.71124E-04 0.00000E+00-7.40626E-05
 -1      1991 1.71330E-04 0.00000E+00-7.29287E-05
 -1      1992 1.67837E-04 0.00000E+00-7.31344E-05
 -1      1993 1.70350E-04 0.00000E+00-7.62918E-05
 -1      1994 1.71082E-04 0.00000E+00-7.51768E-05
 -1      1995 1.67746E-04 0.00000E+00-7.52038E-05
 -1      1996 1.70266E-04 0.00000E+00-7.84792E-05
 -1      1997 1.71089E-04 0.00000E+00-7.71653E-05
 -1      1998 1.68184E-04 0.00000E+00-7.72330E-05
 -1      1999 1.69288E-04 0.00000E+00-8.10171E-05
 -1      2000 1.69671E-04 0.00000E+00-7.96520E-05
 -1      2001 1.68024E-04 0.00000E+00-7.95778E-05
 -1      2002 1.67793E-04 0.00000E+00-8.43165E-05
 -1      2003 1.68366E-04 0.00000E+00-8.25077E-05
 -1      2004 1.66525E-04 0.00000E+00-8.23565E-05
 -1      2005 1.65498E-04 0.00000E+00-8.54067E-05
 -1      2006 1.68656E-04 0.00000E+00-3.19080E-05
 -1      2007 1.67886E-04 0.00000E+00-3.16650E-05
 -1      2008 1.65806E-04 0.00000E+00-3.15403E-05
 -1      2009 1.68284E-04 0.00000E+00-3.11952E-05
 -1      2010 1.68875E-04 0.00000E+00-3.08830E-05
 -1      2011 1.68438E-04 0.00000E+00-2.56366E-05
 -1      2012 1.67578E-04 0.00000E+00-2.53490E-05
 -1      2013 1.68071E-04 0.00000E+00-2.65150E-05
 -1      2014 1.68956E-04 0.00000E+00-2.62064E-05
 -1      2015 1.65859E-04 0.00000E+00-2.59387E-05
 -1      2016 1.68508E-04 0.00000E+00-3.76169E-05
 -1      2017 1.68295E-04 0.00000E+00-3.72915E-05
 -1      2018 1.68645E-04 0.00000E+00-3.70264E-05
 -1      2019 1.69142E-04 0.00000E+00-3.67224E-05
 -1      2020 1.66212E-04 0.00000E+00-3.72372E-05
 -1      2021 1.68908E-04 0.00000E+00-4.26425E-05
 -1      2022 1.68916E-04 0.00000E+00-4.22301E-05
 -1      2023 1.68540E-04 0.00000E+00-4.34184E-05
 -1      2024 1.68665E-04 0.00000E+00-4.30885E-05
 -1      2025 1.66506E-04 0.00000E+00-4.28999E-05
 -1      2026 1.67572E-04 0.00000E+00-2.13219E-05
 -1      2027 1.68475E-04 0.00000E+00-2.10375E-05
 -1      2028 1.67712E-04 0.00000E+00-2.18954E-05
 -1      2029 1.67394E-04 0.00000E+00-2.15606E-05
 -1      2030 1.65009E-04 0.00000E+00-2.15838E-05
 -1      2031 1.64810E-04 0.00000E+00-1.66658E-05
 -1      2032 1.66109E-04 0.00000E+00-1.70276E-05
 -1      2033 1.67930E-04 0.00000E+00-1.74461E-05
 -1      2034 1.63540E-04 0.00000E+00-1.72161E-05
 -1      2035 1.67398E-04 0.00000E+00-1.76851E-05
 -1      2036 1.67006E-04 0.00000E+00-1.42248E-05
 -1      2037 1.66724E-04 0.00000E+00-1.38976E-05
 -1      2038 1.65004E-04 0.00000E+00-1.37377E-05
 -1      2039 1.67857E-04 0.00000E+00-1.34024E-05
 -1      2040 1.68003E-04 0.00000E+00-1.32502E-05
 -1      2041 1.68519E-04 0.00000E+00-4.86327E-05
 -1      2042 1.68436E-04 0.00000E+00-4.82376E-05
 -1      2043 1.66478E-04 0.00000E+00-4.81537E-05
 -1      2044 1.69375E-04 0.00000E+00-4.77364E-05
 -1      2045 1.69459E-04 0.00000E+00-4.73324E-05
 -1      2046 1.65896E-04 0.00000E+00-1.14769E-05
 -1      2047 1.66275E-04 0.00000E+00-1.11083E-05
 -1      2048 1.64113E-04 0.00000E+00-1.09578E-05
 -1      2049 1.67315E-04 0.00000E+00-1.05713E-05
 -1      2050 1.67328E-04 0.00000E+00-1.04590E-05
 -1      2051 1.67502E-04 0.00000E+00-5.26988E-05
 -1      2052 1.67626E-04 0.00000E+00-5.22096E-05
 -1      2053 1.67661E-04 0.00000E+00-5.31926E-05
 -1      2054 1.65701E-04 0.00000E+00-5.31997E-05
 -1      2055 1.68061E-04 0.00000E+00-5.36414E-05
 -1      2056 1.67474E-04 0.00000E+00-5.94357E-05
 -1      2057 1.67756E-04 0.00000E+00-5.88712E-05
 -1      2058 1.68171E-04 0.00000E+00-5.80815E-05
 -1      2059 1.68271E-04 0.00000E+00-5.75381E-05
 -1      2060 1.65510E-04 0.00000E+00-5.86439E-05
 -1      2061 1.67371E-04 0.00000E+00-6.45626E-05
 -1      2062 1.66898E-04 0.00000E+00-6.39455E-05
 -1      2063 1.66221E-04 0.00000E+00-6.34730E-05
 -1      2064 1.66733E-04 0.00000E+00-6.28487E-05
 -1      2065 1.64559E-04 0.00000E+00-6.40268E-05
 -1      2066 1.68238E-04 0.00000E+00-9.15404E-06
 -1      2067 1.68383E-04 0.00000E+00-8.91962E-06
 -1      2068 1.68313E-04 0.00000E+00-8.49380E-06
 -1      2069 1.67880E-04 0.00000E+00-8.18753E-06
 -1      2070 1.65961E-04 0.00000E+00-8.65859E-06
 -1      2071 1.66569E-04 0.00000E+00-6.00804E-06
 -1      2072 1.66730E-04 0.00000E+00-6.27965E-06
 -1      2073 1.67735E-04 0.00000E+00-6.69712E-06
 -1      2074 1.64541E-04 0.00000E+00-6.47006E-06
 -1      2075 1.67501E-04 0.00000E+00-6.87841E-06
 -1      2076 1.68464E-04 0.00000E+00-3.49408E-05
 -1      2077 1.68310E-04 0.00000E+00-3.45784E-05
 -1      2078 1.68354E-04 0.00000E+00-3.39535E-05
 -1      2079 1.68294E-04 0.00000E+00-3.36072E-05
 -1      2080 1.65792E-04 0.00000E+00-3.44703E-05
 -1      2081 1.66463E-04 0.00000E+00-2.79691E-05
 -1      2082 1.66222E-04 0.00000E+00-2.83212E-05
 -1      2083 1.67598E-04 0.00000E+00-2.86906E-05
 -1      2084 1.64213E-04 0.00000E+00-2.85673E-05
 -1      2085 1.68172E-04 0.00000E+00-2.90923E-05
 -1      2086 9.43944E-05 0.00000E+00-6.45302E-06
 -1      2087 8.90932E-05 0.00000E+00-6.49835E-06
 -1      2088 8.62564E-05 0.00000E+00-8.92574E-06
 -1      2089 8.24475E-05 0.00000E+00-6.81866E-06
 -1      2090 7.48492E-05 0.00000E+00-6.62192E-06
 -1      2091 1.03100E-04 0.00000E+00-5.08477E-05
 -1      2092 1.05338E-04 0.00000E+00-5.14766E-05
 -1      2093 1.08711E-04 0.00000E+00-5.54375E-05
 -1      2094 1.12981E-04 0.00000E+00-5.85858E-05
 -1      2095 9.86944E-05 0.00000E+00-4.77322E-05
 -1      2096 1.65386E-04 0.00000E+00-7.22004E-05
 -1      2097 1.65963E-04 0.00000E+00-7.13316E-05
 -1      2098 1.67024E-04 0.00000E+00-7.04447E-05
 -1      2099 1.66926E-04 0.00000E+00-6.95570E-05
 -1      2100 1.64102E-04 0.00000E+00-7.11435E-05
 -1      2101 1.67248E-04 0.00000E+00-3.53029E-06
 -1      2102 1.67566E-04 0.00000E+00-3.87076E-06
 -1      2103 1.68057E-04 0.00000E+00-4.40435E-06
 -1      2104 1.64848E-04 0.00000E+00-4.07924E-06
 -1      2105 1.67390E-04 0.00000E+00-4.63074E-06
 -1      2106 1.68551E-04 0.00000E+00-4.60405E-05
 -1      2107 1.65115E-04 0.00000E+00-4.64212E-05
 -1      2108 1.66069E-04 0.00000E+00-4.58913E-05
 -1      2109 1.64000E-04 0.00000E+00-4.56931E-05
 -1      2110 1.67480E-04 0.00000E+00-4.52953E-05
 -1      2111 1.70158E-04 0.00000E+00-4.65593E-05
 -1      2112 1.67910E-04 0.00000E+00-4.47891E-05
 -1      2113 1.67424E-04 0.00000E+00-1.53858E-05
 -1      2114 1.66312E-04 0.00000E+00-1.51434E-05
 -1      2115 1.68419E-04 0.00000E+00-1.52125E-05
 -1      2116 1.69847E-04 0.00000E+00-1.47713E-05
 -1      2117 1.67341E-04 0.00000E+00-1.58676E-05
 -1      2118 1.66764E-04 0.00000E+00-1.56675E-05
 -1      2119 1.64674E-04 0.00000E+00-1.56717E-05
 -1      2120 1.67613E-04 0.00000E+00-1.83277E-05
 -1      2121 1.67339E-04 0.00000E+00-1.87688E-05
 -1      2122 1.67827E-04 0.00000E+00-1.90832E-05
 -1      2123 1.64832E-04 0.00000E+00-1.87807E-05
 -1      2124 1.67315E-04 0.00000E+00-1.93570E-05
 -1      2125 1.68496E-04 0.00000E+00-4.09326E-05
 -1      2126 1.68672E-04 0.00000E+00-4.05625E-05
 -1      2127 1.69170E-04 0.00000E+00-4.00815E-05
 -1      2128 1.69101E-04 0.00000E+00-3.97225E-05
 -1      2129 1.66407E-04 0.00000E+00-4.04176E-05
 -1      2130 1.66092E-04 0.00000E+00-2.40456E-05
 -1      2131 1.66462E-04 0.00000E+00-2.37267E-05
 -1      2132 1.64058E-04 0.00000E+00-2.34198E-05
 -1      2133 1.67658E-04 0.00000E+00-2.29889E-05
 -1      2134 1.67514E-04 0.00000E+00-2.27790E-05
 -1      2135 1.25601E-04 0.00000E+00-3.98279E-06
 -1      2136 1.22138E-04 0.00000E+00-3.72880E-06
 -1      2137 1.19053E-04 0.00000E+00-3.69920E-06
 -1      2138 1.14797E-04 0.00000E+00-3.86890E-06
 -1      2139 1.20889E-04 0.00000E+00-4.92355E-06
 -1      2140 1.33119E-04 0.00000E+00-7.14536E-05
 -1      2141 1.36067E-04 0.00000E+00-7.27783E-05
 -1      2142 1.26735E-04 0.00000E+00-6.76613E-05
 -1      2143 1.29738E-04 0.00000E+00-6.93434E-05
 -1      2144 1.30906E-04 0.00000E+00-6.88483E-05
 -1      2145 1.41057E-04 0.00000E+00-2.50659E-06
 -1      2146 1.38555E-04 0.00000E+00-2.29371E-06
 -1      2147 1.35923E-04 0.00000E+00-2.44422E-06
 -1      2148 1.63372E-04 0.00000E+00-7.75470E-05
 -1      2149 1.65081E-04 0.00000E+00-7.62796E-05
 -1      2150 1.65951E-04 0.00000E+00-7.76198E-05
 -1      2151 1.66561E-04 0.00000E+00-7.87510E-05
 -1      2152 1.65137E-04 0.00000E+00-7.52695E-05
 -1      2153 1.67323E-04 0.00000E+00-1.85017E-06
 -1      2154 1.67167E-04 0.00000E+00-2.19402E-06
 -1      2155 1.67813E-04 0.00000E+00-2.58247E-06
 -1      2156 1.64967E-04 0.00000E+00-2.37832E-06
 -1      2157 1.68200E-04 0.00000E+00-2.78862E-06
 -1      2158 6.93601E-05 0.00000E+00-2.50042E-05
 -1      2159 7.38973E-05 0.00000E+00-2.85595E-05
 -1      2160 7.49336E-05 0.00000E+00-2.87352E-05
 -1      2161 7.94944E-05 0.00000E+00-3.28657E-05
 -1      2162 8.44132E-05 0.00000E+00-3.63221E-05
 -1      2163 1.46483E-04 0.00000E+00-7.95086E-05
 -1      2164 1.48855E-04 0.00000E+00-8.04946E-05
 -1      2165 1.44171E-04 0.00000E+00-7.83697E-05
 -1      2166 1.45237E-04 0.00000E+00-7.76508E-05
 -1      2167 1.42136E-04 0.00000E+00-7.74032E-05
 -1      2168 6.73514E-05 0.00000E+00-6.61693E-06
 -1      2169 6.05031E-05 0.00000E+00-6.26818E-06
 -1      2170 5.92885E-05 0.00000E+00-8.73104E-06
 -1      2171 5.52246E-05 0.00000E+00-6.50396E-06
 -1      2172 4.91416E-05 0.00000E+00-5.20219E-06
 -1      2173 1.52315E-04 0.00000E+00-1.31314E-06
 -1      2174 1.50057E-04 0.00000E+00-1.45564E-06
 -1      2175 1.54545E-04 0.00000E+00-1.46891E-06
 -1      2176 1.67889E-04 0.00000E+00-4.96937E-06
 -1      2177 1.67355E-04 0.00000E+00-4.70482E-06
 -1      2178 1.67819E-04 0.00000E+00-5.68712E-06
 -1      2179 1.68339E-04 0.00000E+00-5.40632E-06
 -1      2180 1.65692E-04 0.00000E+00-5.15479E-06
 -1      2181 1.67215E-04 0.00000E+00-6.79881E-05
 -1      2182 1.64901E-04 0.00000E+00-6.75137E-05
 -1      2183 1.67444E-04 0.00000E+00-6.68438E-05
 -1      2184 1.67639E-04 0.00000E+00-6.60491E-05
 -1      2185 1.66700E-04 0.00000E+00-6.88369E-05
 -1      2186 1.66373E-04 0.00000E+00-7.92059E-06
 -1      2187 1.66457E-04 0.00000E+00-7.73269E-06
 -1      2188 1.63983E-04 0.00000E+00-7.52044E-06
 -1      2189 1.67257E-04 0.00000E+00-7.22168E-06
 -1      2190 1.67171E-04 0.00000E+00-6.95332E-06
 -1      2191 1.67385E-04 0.00000E+00-6.18246E-05
 -1      2192 1.67038E-04 0.00000E+00-6.11946E-05
 -1      2193 1.67483E-04 0.00000E+00-6.05646E-05
 -1      2194 1.67607E-04 0.00000E+00-5.99717E-05
 -1      2195 1.65178E-04 0.00000E+00-6.10993E-05
 -1      2196 1.67810E-04 0.00000E+00-5.62676E-05
 -1      2197 1.65903E-04 0.00000E+00-5.59014E-05
 -1      2198 1.68369E-04 0.00000E+00-5.56416E-05
 -1      2199 1.69887E-04 0.00000E+00-5.49443E-05
 -1      2200 1.68285E-04 0.00000E+00-5.67265E-05
 -1      2201 1.67740E-04 0.00000E+00-9.55203E-06
 -1      2202 1.67601E-04 0.00000E+00-9.33147E-06
 -1      2203 1.67343E-04 0.00000E+00-1.00396E-05
 -1      2204 1.64741E-04 0.00000E+00-9.75303E-06
 -1      2205 1.67068E-04 0.00000E+00-1.02870E-05
 -1      2206 1.69013E-04 0.00000E+00-1.26754E-05
 -1      2207 1.68101E-04 0.00000E+00-1.22683E-05
 -1      2208 1.65780E-04 0.00000E+00-1.23118E-05
 -1      2209 1.67846E-04 0.00000E+00-1.19799E-05
 -1      2210 1.67006E-04 0.00000E+00-1.17442E-05
 -1      2211 1.67939E-04 0.00000E+00-5.17646E-05
 -1      2212 1.68690E-04 0.00000E+00-5.13127E-05
 -1      2213 1.68187E-04 0.00000E+00-5.06804E-05
 -1      2214 1.68010E-04 0.00000E+00-5.02425E-05
 -1      2215 1.65853E-04 0.00000E+00-5.11183E-05
 -1      2216 1.68266E-04 0.00000E+00-3.93331E-05
 -1      2217 1.67828E-04 0.00000E+00-3.89368E-05
 -1      2218 1.68800E-04 0.00000E+00-3.84819E-05
 -1      2219 1.69186E-04 0.00000E+00-3.80542E-05
 -1      2220 1.65839E-04 0.00000E+00-3.88626E-05
 -1      2221 1.68290E-04 0.00000E+00-3.61931E-05
 -1      2222 1.67837E-04 0.00000E+00-3.58575E-05
 -1      2223 1.68025E-04 0.00000E+00-3.52910E-05
 -1      2224 1.65694E-04 0.00000E+00-3.55441E-05
 -1      2225 1.68427E-04 0.00000E+00-3.21988E-05
 -1      2226 1.69020E-04 0.00000E+00-3.29221E-05
 -1      2227 1.66315E-04 0.00000E+00-3.25747E-05
 -1      2228 1.68853E-04 0.00000E+00-3.33389E-05
 -1      2229 1.65826E-04 0.00000E+00-7.99689E-05
 -1      2230 1.65020E-04 0.00000E+00-8.18899E-05
 -1      2231 1.63525E-04 0.00000E+00-8.08740E-05
 -1      2232 1.64164E-04 0.00000E+00-8.34585E-05
 -1      2233 1.66825E-04 0.00000E+00-1.67398E-06
 -1      2234 1.64109E-04 0.00000E+00-1.58849E-06
 -1      2235 1.66255E-04 0.00000E+00-1.29287E-06
 -1      2236 1.66678E-04 0.00000E+00-1.14864E-06
 -1      2237 4.13411E-05 0.00000E+00-2.38593E-06
 -1      2238 4.71578E-05 0.00000E+00-7.36938E-06
 -1      2239 5.08875E-05 0.00000E+00-1.10117E-05
 -1      2240 1.56975E-04 0.00000E+00-8.31998E-05
 -1      2241 1.59967E-04 0.00000E+00-8.38461E-05
 -1      2242 1.53716E-04 0.00000E+00-8.07481E-05
 -1      2243 1.55330E-04 0.00000E+00-8.24183E-05
 -1      2244 1.53403E-04 0.00000E+00-8.21914E-05
 -1      2245 1.50912E-04 0.00000E+00-8.15286E-05
 -1      2246 1.57465E-04 0.00000E+00-8.14677E-05
 -1      2247 3.60508E-05 0.00000E+00-2.24315E-06
 -1      2248 2.98580E-05 0.00000E+00 7.52586E-07
 -1      2249 2.90344E-05 0.00000E+00 3.57673E-06
 -1      2250 2.41312E-05 0.00000E+00 4.36119E-06
 -1      2251 1.64598E-04 0.00000E+00-8.32419E-07
 -1      2252 1.61896E-04 0.00000E+00-9.74361E-07
 -1      2253 1.67940E-04 0.00000E+00-6.32345E-07
 -1      2254 1.60980E-04 0.00000E+00-8.24777E-05
 -1      2255 1.61652E-04 0.00000E+00-8.42682E-05
 -1      2256 1.63083E-04 0.00000E+00-8.51224E-05
 -1      2257 9.76734E-05 0.00000E+00-5.64235E-06
 -1      2258 9.63295E-05 0.00000E+00-7.88386E-06
 -1      2259 1.02201E-04 0.00000E+00-5.91448E-06
 -1      2260 9.12164E-05 0.00000E+00-1.10277E-05
 -1      2261 8.45154E-05 0.00000E+00-1.11243E-05
 -1      2262 9.78056E-05 0.00000E+00-1.09756E-05
 -1      2263 9.57932E-05 0.00000E+00-1.34660E-05
 -1      2264 9.88754E-05 0.00000E+00-9.21491E-06
 -1      2265 1.03834E-04 0.00000E+00-1.15918E-05
 -1      2266 1.02298E-04 0.00000E+00-8.39705E-06
 -1      2267 8.32855E-05 0.00000E+00-1.33737E-05
 -1      2268 7.87392E-05 0.00000E+00-1.11466E-05
 -1      2269 7.10224E-05 0.00000E+00-1.07963E-05
 -1      2270 7.20645E-05 0.00000E+00-8.91668E-06
 -1      2271 1.00600E-04 0.00000E+00-1.56860E-05
 -1      2272 9.37765E-05 0.00000E+00-1.55851E-05
 -1      2273 9.25247E-05 0.00000E+00-1.78909E-05
 -1      2274 8.81316E-05 0.00000E+00-1.55636E-05
 -1      2275 8.21416E-05 0.00000E+00-1.53900E-05
 -1      2276 1.05999E-04 0.00000E+00-1.55904E-05
 -1      2277 1.03806E-04 0.00000E+00-1.78983E-05
 -1      2278 1.07320E-04 0.00000E+00-1.42956E-05
 -1      2279 1.10709E-04 0.00000E+00-1.64603E-05
 -1      2280 1.08487E-04 0.00000E+00-1.10798E-05
 -1      2281 1.07294E-04 0.00000E+00-1.29941E-05
 -1      2282 1.12120E-04 0.00000E+00-1.37894E-05
 -1      2283 1.08102E-04 0.00000E+00-1.98195E-05
 -1      2284 1.02666E-04 0.00000E+00-1.98677E-05
 -1      2285 1.01867E-04 0.00000E+00-2.20483E-05
 -1      2286 9.77696E-05 0.00000E+00-2.00284E-05
 -1      2287 9.18831E-05 0.00000E+00-1.98764E-05
 -1      2288 1.13107E-04 0.00000E+00-1.95547E-05
 -1      2289 1.11842E-04 0.00000E+00-2.16628E-05
 -1      2290 1.13815E-04 0.00000E+00-1.77820E-05
 -1      2291 1.17817E-04 0.00000E+00-1.95203E-05
 -1      2292 1.15269E-04 0.00000E+00-1.64024E-05
 -1      2293 1.06088E-04 0.00000E+00-2.39828E-05
 -1      2294 1.01037E-04 0.00000E+00-2.40778E-05
 -1      2295 1.10853E-04 0.00000E+00-2.37334E-05
 -1      2296 1.09949E-04 0.00000E+00-2.59831E-05
 -1      2297 1.15978E-04 0.00000E+00-2.35001E-05
 -1      2298 1.00299E-04 0.00000E+00-2.63335E-05
 -1      2299 9.63663E-05 0.00000E+00-2.42307E-05
 -1      2300 9.17427E-05 0.00000E+00-2.22657E-05
 -1      2301 8.67996E-05 0.00000E+00-1.99598E-05
 -1      2302 9.11356E-05 0.00000E+00-2.42617E-05
 -1      2303 1.14271E-04 0.00000E+00-2.78460E-05
 -1      2304 1.09288E-04 0.00000E+00-2.81000E-05
 -1      2305 1.08690E-04 0.00000E+00-3.04212E-05
 -1      2306 1.04600E-04 0.00000E+00-2.83912E-05
 -1      2307 9.97774E-05 0.00000E+00-2.84637E-05
 -1      2308 1.18959E-04 0.00000E+00-2.75291E-05
 -1      2309 1.18219E-04 0.00000E+00-2.97903E-05
 -1      2310 1.19786E-04 0.00000E+00-2.55302E-05
 -1      2311 1.24089E-04 0.00000E+00-2.73304E-05
 -1      2312 1.20919E-04 0.00000E+00-2.33001E-05
 -1      2313 1.14166E-04 0.00000E+00-3.25975E-05
 -1      2314 1.09267E-04 0.00000E+00-3.29302E-05
 -1      2315 1.17120E-04 0.00000E+00-3.15166E-05
 -1      2316 1.17709E-04 0.00000E+00-3.41209E-05
 -1      2317 1.21965E-04 0.00000E+00-3.11782E-05
 -1      2318 1.09228E-04 0.00000E+00-3.54384E-05
 -1      2319 1.04063E-04 0.00000E+00-3.30068E-05
 -1      2320 9.95591E-05 0.00000E+00-3.30102E-05
 -1      2321 9.94804E-05 0.00000E+00-3.07375E-05
 -1      2322 9.54627E-05 0.00000E+00-2.85080E-05
 -1      2323 1.13798E-04 0.00000E+00-3.75478E-05
 -1      2324 1.08392E-04 0.00000E+00-3.76491E-05
 -1      2325 1.18581E-04 0.00000E+00-3.74302E-05
 -1      2326 1.17576E-04 0.00000E+00-3.99115E-05
 -1      2327 1.19962E-04 0.00000E+00-3.58989E-05
 -1      2328 1.23989E-04 0.00000E+00-3.80679E-05
 -1      2329 1.23153E-04 0.00000E+00-3.46855E-05
 -1      2330 1.28225E-04 0.00000E+00-2.65689E-05
 -1      2331 1.27289E-04 0.00000E+00-2.86596E-05
 -1      2332 1.31126E-04 0.00000E+00-2.93018E-05
 -1      2333 1.26788E-04 0.00000E+00-3.01065E-05
 -1      2334 1.25177E-04 0.00000E+00-3.11746E-05
 -1      2335 1.23988E-04 0.00000E+00-3.30048E-05
 -1      2336 1.28933E-04 0.00000E+00-3.18870E-05
 -1      2337 1.29143E-04 0.00000E+00-2.51594E-05
 -1      2338 1.32561E-04 0.00000E+00-2.64079E-05
 -1      2339 1.27450E-04 0.00000E+00-2.42062E-05
 -1      2340 1.31733E-04 0.00000E+00-2.40516E-05
 -1      2341 1.20754E-04 0.00000E+00-2.17376E-05
 -1      2342 1.24816E-04 0.00000E+00-2.36809E-05
 -1      2343 1.27261E-04 0.00000E+00-2.26178E-05
 -1      2344 1.08341E-04 0.00000E+00-4.03147E-05
 -1      2345 1.04064E-04 0.00000E+00-3.79356E-05
 -1      2346 9.94357E-05 0.00000E+00-3.55939E-05
 -1      2347 9.51586E-05 0.00000E+00-3.30931E-05
 -1      2348 9.95342E-05 0.00000E+00-3.79502E-05
 -1      2349 1.21767E-04 0.00000E+00-4.17197E-05
 -1      2350 1.16837E-04 0.00000E+00-4.18634E-05
 -1      2351 1.17157E-04 0.00000E+00-4.43304E-05
 -1      2352 1.13208E-04 0.00000E+00-4.22773E-05
 -1      2353 1.08710E-04 0.00000E+00-4.25817E-05
 -1      2354 1.25798E-04 0.00000E+00-4.12799E-05
 -1      2355 1.24979E-04 0.00000E+00-4.34188E-05
 -1      2356 1.26330E-04 0.00000E+00-3.96795E-05
 -1      2357 1.29804E-04 0.00000E+00-4.12201E-05
 -1      2358 1.27898E-04 0.00000E+00-3.80004E-05
 -1      2359 1.28879E-04 0.00000E+00-4.48953E-05
 -1      2360 1.24619E-04 0.00000E+00-4.54002E-05
 -1      2361 1.24907E-04 0.00000E+00-4.74532E-05
 -1      2362 1.21240E-04 0.00000E+00-4.57923E-05
 -1      2363 1.17474E-04 0.00000E+00-4.62917E-05
 -1      2364 1.32875E-04 0.00000E+00-4.42159E-05
 -1      2365 1.32474E-04 0.00000E+00-4.63064E-05
 -1      2366 1.32958E-04 0.00000E+00-4.24182E-05
 -1      2367 1.36731E-04 0.00000E+00-4.36507E-05
 -1      2368 1.33551E-04 0.00000E+00-4.07133E-05
 -1      2369 1.36071E-04 0.00000E+00-4.74540E-05
 -1      2370 1.31944E-04 0.00000E+00-4.82070E-05
 -1      2371 1.31926E-04 0.00000E+00-5.02051E-05
 -1      2372 1.28522E-04 0.00000E+00-4.88981E-05
 -1      2373 1.24953E-04 0.00000E+00-4.93628E-05
 -1      2374 1.36808E-04 0.00000E+00-2.59374E-05
 -1      2375 1.35772E-04 0.00000E+00-2.73772E-05
 -1      2376 1.39123E-04 0.00000E+00-2.81120E-05
 -1      2377 1.34795E-04 0.00000E+00-2.86295E-05
 -1      2378 1.34304E-04 0.00000E+00-3.01038E-05
 -1      2379 1.37552E-04 0.00000E+00-2.46878E-05
 -1      2380 1.40923E-04 0.00000E+00-2.55966E-05
 -1      2381 1.34873E-04 0.00000E+00-2.38154E-05
 -1      2382 1.38951E-04 0.00000E+00-2.34936E-05
 -1      2383 1.33042E-04 0.00000E+00-2.28911E-05
 -1      2384 9.04804E-05 0.00000E+00-3.24263E-05
 -1      2385 9.04287E-05 0.00000E+00-3.01742E-05
 -1      2386 8.66595E-05 0.00000E+00-2.78491E-05
 -1      2387 9.12836E-05 0.00000E+00-2.83739E-05
 -1      2388 9.14872E-05 0.00000E+00-2.63372E-05
 -1      2389 1.39156E-04 0.00000E+00-4.68803E-05
 -1      2390 1.38598E-04 0.00000E+00-4.88635E-05
 -1      2391 1.39749E-04 0.00000E+00-4.24422E-05
 -1      2392 1.39568E-04 0.00000E+00-4.43006E-05
 -1      2393 1.39423E-04 0.00000E+00-4.55659E-05
 -1      2394 1.42119E-04 0.00000E+00-4.68727E-05
 -1      2395 1.42578E-04 0.00000E+00-4.42833E-05
 -1      2396 1.35760E-04 0.00000E+00-5.14866E-05
 -1      2397 1.32184E-04 0.00000E+00-5.22662E-05
 -1      2398 1.37683E-04 0.00000E+00-5.04733E-05
 -1      2399 1.37954E-04 0.00000E+00-5.25862E-05
 -1      2400 1.40865E-04 0.00000E+00-4.98576E-05
 -1      2401 1.32480E-04 0.00000E+00-5.44098E-05
 -1      2402 1.28837E-04 0.00000E+00-5.29054E-05
 -1      2403 1.25702E-04 0.00000E+00-5.34360E-05
 -1      2404 1.25411E-04 0.00000E+00-5.14634E-05
 -1      2405 1.22012E-04 0.00000E+00-4.98299E-05
 -1      2406 1.36025E-04 0.00000E+00-5.56872E-05
 -1      2407 1.32464E-04 0.00000E+00-5.64128E-05
 -1      2408 1.39211E-04 0.00000E+00-5.49303E-05
 -1      2409 1.39151E-04 0.00000E+00-5.70942E-05
 -1      2410 1.39571E-04 0.00000E+00-5.35413E-05
 -1      2411 1.42888E-04 0.00000E+00-5.47838E-05
 -1      2412 1.41578E-04 0.00000E+00-5.24316E-05
 -1      2413 1.34135E-04 0.00000E+00-3.93203E-05
 -1      2414 1.37460E-04 0.00000E+00-4.03990E-05
 -1      2415 1.39889E-04 0.00000E+00-3.96166E-05
 -1      2416 1.39289E-04 0.00000E+00-4.10461E-05
 -1      2417 1.42274E-04 0.00000E+00-4.16269E-05
 -1      2418 1.32785E-04 0.00000E+00-5.86840E-05
 -1      2419 1.29426E-04 0.00000E+00-5.71618E-05
 -1      2420 1.25780E-04 0.00000E+00-5.57286E-05
 -1      2421 1.22532E-04 0.00000E+00-5.40411E-05
 -1      2422 1.26142E-04 0.00000E+00-5.78443E-05
 -1      2423 1.42808E-04 0.00000E+00-5.81953E-05
 -1      2424 1.39382E-04 0.00000E+00-5.90575E-05
 -1      2425 1.39738E-04 0.00000E+00-6.11222E-05
 -1      2426 1.36271E-04 0.00000E+00-5.98116E-05
 -1      2427 1.33103E-04 0.00000E+00-6.06556E-05
 -1      2428 7.33819E-05 0.00000E+00-1.32000E-05
 -1      2429 6.70487E-05 0.00000E+00-1.07307E-05
 -1      2430 8.17888E-05 0.00000E+00-1.77484E-05
 -1      2431 7.72449E-05 0.00000E+00-1.54128E-05
 -1      2432 7.31525E-05 0.00000E+00-1.52478E-05
 -1      2433 1.42870E-04 0.00000E+00-2.76933E-05
 -1      2434 1.41831E-04 0.00000E+00-2.89644E-05
 -1      2435 1.43241E-04 0.00000E+00-2.50386E-05
 -1      2436 1.42390E-04 0.00000E+00-2.62841E-05
 -1      2437 1.43752E-04 0.00000E+00-2.69235E-05
 -1      2438 1.46556E-04 0.00000E+00-2.77476E-05
 -1      2439 1.46170E-04 0.00000E+00-2.63499E-05
 -1      2440 1.45670E-04 0.00000E+00-2.95978E-05
 -1      2441 1.41787E-04 0.00000E+00-3.00758E-05
 -1      2442 1.41831E-04 0.00000E+00-3.12197E-05
 -1      2443 1.38183E-04 0.00000E+00-3.05496E-05
 -1      2444 1.34362E-04 0.00000E+00-3.12641E-05
 -1      2445 1.39558E-04 0.00000E+00-2.24250E-05
 -1      2446 1.42412E-04 0.00000E+00-2.32696E-05
 -1      2447 1.45436E-04 0.00000E+00-2.28467E-05
 -1      2448 1.44730E-04 0.00000E+00-2.39192E-05
 -1      2449 1.47636E-04 0.00000E+00-2.41091E-05
 -1      2450 1.44485E-04 0.00000E+00-2.45655E-05
 -1      2451 1.46069E-04 0.00000E+00-2.52477E-05
 -1      2452 1.37097E-04 0.00000E+00-2.16127E-05
 -1      2453 1.40488E-04 0.00000E+00-2.14269E-05
 -1      2454 1.33113E-04 0.00000E+00-2.18078E-05
 -1      2455 1.33939E-04 0.00000E+00-2.08028E-05
 -1      2456 1.30098E-04 0.00000E+00-2.20441E-05
 -1      2457 1.41932E-04 0.00000E+00-2.04416E-05
 -1      2458 1.44512E-04 0.00000E+00-2.12199E-05
 -1      2459 1.47829E-04 0.00000E+00-2.10294E-05
 -1      2460 1.46319E-04 0.00000E+00-2.20283E-05
 -1      2461 1.48831E-04 0.00000E+00-2.26521E-05
 -1      2462 1.39149E-04 0.00000E+00-1.96607E-05
 -1      2463 1.43088E-04 0.00000E+00-1.94849E-05
 -1      2464 1.35514E-04 0.00000E+00-1.98055E-05
 -1      2465 1.36638E-04 0.00000E+00-1.88660E-05
 -1      2466 1.31643E-04 0.00000E+00-1.99906E-05
 -1      2467 1.43575E-04 0.00000E+00-1.85873E-05
 -1      2468 1.46494E-04 0.00000E+00-1.93622E-05
 -1      2469 1.49598E-04 0.00000E+00-1.89564E-05
 -1      2470 1.49056E-04 0.00000E+00-1.98697E-05
 -1      2471 1.52032E-04 0.00000E+00-2.00281E-05
 -1      2472 1.48891E-04 0.00000E+00-2.03942E-05
 -1      2473 1.50770E-04 0.00000E+00-2.12357E-05
 -1      2474 1.41712E-04 0.00000E+00-1.78502E-05
 -1      2475 1.45064E-04 0.00000E+00-1.77133E-05
 -1      2476 1.37810E-04 0.00000E+00-1.79165E-05
 -1      2477 1.39122E-04 0.00000E+00-1.70460E-05
 -1      2478 1.34261E-04 0.00000E+00-1.80153E-05
 -1      2479 9.06535E-05 0.00000E+00-3.49514E-05
 -1      2480 8.61811E-05 0.00000E+00-3.18168E-05
 -1      2481 9.57136E-05 0.00000E+00-3.81861E-05
 -1      2482 9.13459E-05 0.00000E+00-3.73923E-05
 -1      2483 1.00015E-04 0.00000E+00-4.08156E-05
 -1      2484 8.15466E-05 0.00000E+00-3.04158E-05
 -1      2485 8.10805E-05 0.00000E+00-2.83588E-05
 -1      2486 7.71618E-05 0.00000E+00-2.50401E-05
 -1      2487 8.18865E-05 0.00000E+00-2.60690E-05
 -1      2488 8.25664E-05 0.00000E+00-2.45318E-05
 -1      2489 1.18698E-04 0.00000E+00-5.40002E-05
 -1      2490 1.18524E-04 0.00000E+00-5.19375E-05
 -1      2491 1.15187E-04 0.00000E+00-5.02558E-05
 -1      2492 1.18921E-04 0.00000E+00-5.02807E-05
 -1      2493 1.18450E-04 0.00000E+00-4.83343E-05
 -1      2494 1.19262E-04 0.00000E+00-5.66003E-05
 -1      2495 1.15444E-04 0.00000E+00-5.42446E-05
 -1      2496 1.23856E-04 0.00000E+00-5.90112E-05
 -1      2497 1.20483E-04 0.00000E+00-5.92592E-05
 -1      2498 1.27311E-04 0.00000E+00-6.07313E-05
 -1      2499 1.45511E-04 0.00000E+00-5.70720E-05
 -1      2500 1.45833E-04 0.00000E+00-5.90798E-05
 -1      2501 1.45512E-04 0.00000E+00-5.55783E-05
 -1      2502 1.48746E-04 0.00000E+00-5.63208E-05
 -1      2503 1.45925E-04 0.00000E+00-5.41412E-05
 -1      2504 1.42993E-04 0.00000E+00-6.21737E-05
 -1      2505 1.39681E-04 0.00000E+00-6.30664E-05
 -1      2506 1.44483E-04 0.00000E+00-6.12298E-05
 -1      2507 1.44355E-04 0.00000E+00-6.32496E-05
 -1      2508 1.49579E-04 0.00000E+00-5.91935E-05
 -1      2509 1.46628E-04 0.00000E+00-6.04380E-05
 -1      2510 1.48104E-04 0.00000E+00-6.14452E-05
 -1      2511 1.42598E-04 0.00000E+00-5.11861E-05
 -1      2512 1.43607E-04 0.00000E+00-4.95068E-05
 -1      2513 1.44952E-04 0.00000E+00-4.83740E-05
 -1      2514 1.46763E-04 0.00000E+00-4.96166E-05
 -1      2515 1.44601E-04 0.00000E+00-4.59793E-05
 -1      2516 1.44296E-04 0.00000E+00-4.73185E-05
 -1      2517 1.47558E-04 0.00000E+00-4.74197E-05
 -1      2518 1.46400E-04 0.00000E+00-1.70864E-05
 -1      2519 1.48467E-04 0.00000E+00-1.78165E-05
 -1      2520 1.50261E-04 0.00000E+00-1.82805E-05
 -1      2521 1.52888E-04 0.00000E+00-1.87995E-05
 -1      2522 1.51715E-04 0.00000E+00-1.76631E-05
 -1      2523 1.36747E-04 0.00000E+00-1.62372E-05
 -1      2524 1.40554E-04 0.00000E+00-1.61900E-05
 -1      2525 1.40945E-04 0.00000E+00-1.53131E-05
 -1      2526 1.43543E-04 0.00000E+00-1.60806E-05
 -1      2527 1.45528E-04 0.00000E+00-1.56974E-05
 -1      2528 1.45096E-04 0.00000E+00-1.65922E-05
 -1      2529 1.48475E-04 0.00000E+00-1.66969E-05
 -1      2530 1.33491E-04 0.00000E+00-1.63165E-05
 -1      2531 1.34822E-04 0.00000E+00-1.54903E-05
 -1      2532 1.30176E-04 0.00000E+00-1.78648E-05
 -1      2533 1.31239E-04 0.00000E+00-1.69458E-05
 -1      2534 1.29481E-04 0.00000E+00-1.61937E-05
 -1      2535 1.39156E-04 0.00000E+00-1.45669E-05
 -1      2536 1.42082E-04 0.00000E+00-1.44454E-05
 -1      2537 1.35919E-04 0.00000E+00-1.46456E-05
 -1      2538 1.36989E-04 0.00000E+00-1.38005E-05
 -1      2539 1.32735E-04 0.00000E+00-1.47166E-05
 -1      2540 1.27352E-04 0.00000E+00-2.15638E-05
 -1      2541 1.23567E-04 0.00000E+00-2.12092E-05
 -1      2542 1.26254E-04 0.00000E+00-2.06664E-05
 -1      2543 1.28053E-04 0.00000E+00-1.99650E-05
 -1      2544 1.29506E-04 0.00000E+00-1.89669E-05
 -1      2545 1.24235E-04 0.00000E+00-1.96365E-05
 -1      2546 1.43250E-04 0.00000E+00-1.38332E-05
 -1      2547 1.45171E-04 0.00000E+00-1.45577E-05
 -1      2548 1.47894E-04 0.00000E+00-1.45396E-05
 -1      2549 1.46617E-04 0.00000E+00-1.51831E-05
 -1      2550 1.48247E-04 0.00000E+00-1.56679E-05
 -1      2551 1.35199E-04 0.00000E+00-1.29632E-05
 -1      2552 1.38424E-04 0.00000E+00-1.28679E-05
 -1      2553 1.40267E-04 0.00000E+00-1.20681E-05
 -1      2554 1.42128E-04 0.00000E+00-1.29129E-05
 -1      2555 1.45230E-04 0.00000E+00-1.30154E-05
 -1      2556 1.31441E-04 0.00000E+00-1.29713E-05
 -1      2557 1.32798E-04 0.00000E+00-1.20505E-05
 -1      2558 1.30147E-04 0.00000E+00-1.40558E-05
 -1      2559 1.27900E-04 0.00000E+00-1.31181E-05
 -1      2560 1.29125E-04 0.00000E+00-1.48707E-05
 -1      2561 1.31244E-04 0.00000E+00-1.11928E-05
 -1      2562 1.34994E-04 0.00000E+00-1.11877E-05
 -1      2563 1.38295E-04 0.00000E+00-1.12172E-05
 -1      2564 1.41999E-04 0.00000E+00-1.12213E-05
 -1      2565 1.36617E-04 0.00000E+00-1.03638E-05
 -1      2566 1.24108E-04 0.00000E+00-1.31636E-05
 -1      2567 1.25319E-04 0.00000E+00-1.20982E-05
 -1      2568 1.23595E-04 0.00000E+00-1.08916E-05
 -1      2569 1.27355E-04 0.00000E+00-1.08522E-05
 -1      2570 1.29344E-04 0.00000E+00-1.00084E-05
 -1      2571 1.43299E-04 0.00000E+00-1.03653E-05
 -1      2572 1.45460E-04 0.00000E+00-1.12007E-05
 -1      2573 1.49244E-04 0.00000E+00-1.08872E-05
 -1      2574 1.47721E-04 0.00000E+00-1.17569E-05
 -1      2575 1.51179E-04 0.00000E+00-1.21457E-05
 -1      2576 1.47267E-04 0.00000E+00-1.24738E-05
 -1      2577 1.48471E-04 0.00000E+00-1.34074E-05
 -1      2578 1.42156E-04 0.00000E+00-9.61544E-06
 -1      2579 1.45613E-04 0.00000E+00-9.58814E-06
 -1      2580 1.38312E-04 0.00000E+00-9.60186E-06
 -1      2581 1.40410E-04 0.00000E+00-8.83985E-06
 -1      2582 1.35032E-04 0.00000E+00-9.59640E-06
 -1      2583 1.47097E-04 0.00000E+00-9.10351E-06
 -1      2584 1.48360E-04 0.00000E+00-9.84903E-06
 -1      2585 1.50318E-04 0.00000E+00-1.03172E-05
 -1      2586 1.52827E-04 0.00000E+00-1.08580E-05
 -1      2587 1.51918E-04 0.00000E+00-9.81588E-06
 -1      2588 1.38446E-04 0.00000E+00-8.06890E-06
 -1      2589 1.42297E-04 0.00000E+00-8.06553E-06
 -1      2590 1.43648E-04 0.00000E+00-7.19839E-06
 -1      2591 1.45746E-04 0.00000E+00-8.01560E-06
 -1      2592 1.48863E-04 0.00000E+00-7.76834E-06
 -1      2593 1.47464E-04 0.00000E+00-8.60367E-06
 -1      2594 1.50285E-04 0.00000E+00-8.86397E-06
 -1      2595 1.35063E-04 0.00000E+00-8.01494E-06
 -1      2596 1.36784E-04 0.00000E+00-7.24474E-06
 -1      2597 1.32367E-04 0.00000E+00-9.52277E-06
 -1      2598 1.34015E-04 0.00000E+00-8.79523E-06
 -1      2599 1.32443E-04 0.00000E+00-7.95057E-06
 -1      2600 1.48441E-04 0.00000E+00-2.90379E-05
 -1      2601 1.48502E-04 0.00000E+00-3.01190E-05
 -1      2602 1.48784E-04 0.00000E+00-2.82232E-05
 -1      2603 1.51844E-04 0.00000E+00-2.87285E-05
 -1      2604 1.49818E-04 0.00000E+00-2.74378E-05
 -1      2605 1.44993E-04 0.00000E+00-3.18450E-05
 -1      2606 1.41194E-04 0.00000E+00-3.23813E-05
 -1      2607 1.47637E-04 0.00000E+00-3.14453E-05
 -1      2608 1.46944E-04 0.00000E+00-3.26220E-05
 -1      2609 1.51865E-04 0.00000E+00-3.02433E-05
 -1      2610 1.48887E-04 0.00000E+00-3.08221E-05
 -1      2611 1.50991E-04 0.00000E+00-3.15741E-05
 -1      2612 1.41213E-04 0.00000E+00-3.35785E-05
 -1      2613 1.38214E-04 0.00000E+00-3.28803E-05
 -1      2614 1.35626E-04 0.00000E+00-3.35146E-05
 -1      2615 1.35621E-04 0.00000E+00-3.23465E-05
 -1      2616 1.31840E-04 0.00000E+00-3.18647E-05
 -1      2617 1.44198E-04 0.00000E+00-3.40934E-05
 -1      2618 1.41080E-04 0.00000E+00-3.46054E-05
 -1      2619 1.47323E-04 0.00000E+00-3.34966E-05
 -1      2620 1.47159E-04 0.00000E+00-3.45752E-05
 -1      2621 1.50099E-04 0.00000E+00-3.30684E-05
 -1      2622 1.41014E-04 0.00000E+00-3.57729E-05
 -1      2623 1.38155E-04 0.00000E+00-3.51915E-05
 -1      2624 1.34959E-04 0.00000E+00-3.57074E-05
 -1      2625 1.34971E-04 0.00000E+00-3.45603E-05
 -1      2626 1.32457E-04 0.00000E+00-3.39872E-05
 -1      2627 1.50298E-04 0.00000E+00-3.50061E-05
 -1      2628 1.47007E-04 0.00000E+00-3.56086E-05
 -1      2629 1.46926E-04 0.00000E+00-3.66560E-05
 -1      2630 1.43963E-04 0.00000E+00-3.62090E-05
 -1      2631 1.40935E-04 0.00000E+00-3.68242E-05
 -1      2632 1.41964E-04 0.00000E+00-6.59540E-06
 -1      2633 1.45431E-04 0.00000E+00-6.52603E-06
 -1      2634 1.38580E-04 0.00000E+00-6.48654E-06
 -1      2635 1.40256E-04 0.00000E+00-5.76373E-06
 -1      2636 1.35188E-04 0.00000E+00-6.43247E-06
 -1      2637 1.47292E-04 0.00000E+00-5.86315E-06
 -1      2638 1.49051E-04 0.00000E+00-6.51158E-06
 -1      2639 1.52324E-04 0.00000E+00-6.50988E-06
 -1      2640 1.50249E-04 0.00000E+00-7.17841E-06
 -1      2641 1.52117E-04 0.00000E+00-7.74784E-06
 -1      2642 1.39886E-04 0.00000E+00-6.51724E-05
 -1      2643 1.36862E-04 0.00000E+00-6.38905E-05
 -1      2644 1.34275E-04 0.00000E+00-6.45966E-05
 -1      2645 1.33989E-04 0.00000E+00-6.26192E-05
 -1      2646 1.30655E-04 0.00000E+00-6.12883E-05
 -1      2647 1.42966E-04 0.00000E+00-6.62145E-05
 -1      2648 1.40010E-04 0.00000E+00-6.71592E-05
 -1      2649 1.45673E-04 0.00000E+00-6.53874E-05
 -1      2650 1.45784E-04 0.00000E+00-6.74756E-05
 -1      2651 1.46159E-04 0.00000E+00-6.39100E-05
 -1      2652 1.49309E-04 0.00000E+00-6.49353E-05
 -1      2653 1.47786E-04 0.00000E+00-6.28721E-05
 -1      2654 1.52302E-04 0.00000E+00-2.24560E-05
 -1      2655 1.51378E-04 0.00000E+00-2.32557E-05
 -1      2656 1.53597E-04 0.00000E+00-2.36787E-05
 -1      2657 1.50044E-04 0.00000E+00-2.39131E-05
 -1      2658 1.49778E-04 0.00000E+00-2.45483E-05
 -1      2659 1.51534E-04 0.00000E+00-5.54135E-05
 -1      2660 1.51530E-04 0.00000E+00-5.69168E-05
 -1      2661 1.54674E-04 0.00000E+00-5.71369E-05
 -1      2662 1.51694E-04 0.00000E+00-5.81410E-05
 -1      2663 1.52571E-04 0.00000E+00-5.94924E-05
 -1      2664 1.51837E-04 0.00000E+00-5.41875E-05
 -1      2665 1.54782E-04 0.00000E+00-5.46880E-05
 -1      2666 1.49216E-04 0.00000E+00-5.35593E-05
 -1      2667 1.52276E-04 0.00000E+00-5.29043E-05
 -1      2668 1.46354E-04 0.00000E+00-5.28695E-05
 -1      2669 1.12444E-04 0.00000E+00-5.40388E-05
 -1      2670 1.11719E-04 0.00000E+00-5.17160E-05
 -1      2671 1.08022E-04 0.00000E+00-4.90303E-05
 -1      2672 1.11070E-04 0.00000E+00-4.91773E-05
 -1      2673 1.11351E-04 0.00000E+00-4.77147E-05
 -1      2674 1.53318E-04 0.00000E+00-3.45530E-05
 -1      2675 1.53108E-04 0.00000E+00-3.55650E-05
 -1      2676 1.53750E-04 0.00000E+00-3.37711E-05
 -1      2677 1.56601E-04 0.00000E+00-3.43394E-05
 -1      2678 1.52532E-04 0.00000E+00-3.32233E-05
 -1      2679 1.55803E-04 0.00000E+00-3.30294E-05
 -1      2680 1.52054E-04 0.00000E+00-3.23421E-05
 -1      2681 1.55952E-04 0.00000E+00-3.59133E-05
 -1      2682 1.52926E-04 0.00000E+00-3.63839E-05
 -1      2683 1.53042E-04 0.00000E+00-3.73149E-05
 -1      2684 1.50339E-04 0.00000E+00-3.69500E-05
 -1      2685 1.47151E-04 0.00000E+00-3.75847E-05
 -1      2686 1.55156E-04 0.00000E+00-2.83863E-05
 -1      2687 1.54724E-04 0.00000E+00-2.91698E-05
 -1      2688 1.57630E-04 0.00000E+00-2.95183E-05
 -1      2689 1.54164E-04 0.00000E+00-2.98843E-05
 -1      2690 1.54615E-04 0.00000E+00-3.06193E-05
 -1      2691 1.55890E-04 0.00000E+00-2.76111E-05
 -1      2692 1.58925E-04 0.00000E+00-2.80766E-05
 -1      2693 1.52996E-04 0.00000E+00-2.72766E-05
 -1      2694 1.56745E-04 0.00000E+00-2.70004E-05
 -1      2695 1.50606E-04 0.00000E+00-2.67979E-05
 -1      2696 1.55429E-04 0.00000E+00-1.04790E-05
 -1      2697 1.54209E-04 0.00000E+00-1.10903E-05
 -1      2698 1.56549E-04 0.00000E+00-1.20194E-05
 -1      2699 1.53423E-04 0.00000E+00-1.19786E-05
 -1      2700 1.54695E-04 0.00000E+00-1.14740E-05
 -1      2701 1.57435E-04 0.00000E+00-1.11218E-05
 -1      2702 1.52898E-04 0.00000E+00-1.27060E-05
 -1      2703 1.38877E-04 0.00000E+00-5.03935E-06
 -1      2704 1.42254E-04 0.00000E+00-5.14612E-06
 -1      2705 1.45428E-04 0.00000E+00-5.29640E-06
 -1      2706 1.49157E-04 0.00000E+00-5.25573E-06
 -1      2707 1.43958E-04 0.00000E+00-4.55167E-06
 -1      2708 1.35547E-04 0.00000E+00-4.87056E-06
 -1      2709 1.37437E-04 0.00000E+00-4.24307E-06
 -1      2710 1.33739E-04 0.00000E+00-5.60499E-06
 -1      2711 1.32412E-04 0.00000E+00-4.81372E-06
 -1      2712 1.32071E-04 0.00000E+00-6.35905E-06
 -1      2713 1.50371E-04 0.00000E+00-4.64191E-06
 -1      2714 1.52350E-04 0.00000E+00-5.21517E-06
 -1      2715 1.54053E-04 0.00000E+00-5.94917E-06
 -1      2716 1.55290E-04 0.00000E+00-6.61660E-06
 -1      2717 1.55254E-04 0.00000E+00-4.90461E-06
 -1      2718 1.53837E-04 0.00000E+00-5.52527E-06
 -1      2719 1.57035E-04 0.00000E+00-5.64224E-06
 -1      2720 1.48940E-04 0.00000E+00-4.10132E-06
 -1      2721 1.52173E-04 0.00000E+00-4.09854E-06
 -1      2722 1.45963E-04 0.00000E+00-4.00941E-06
 -1      2723 1.47615E-04 0.00000E+00-3.47836E-06
 -1      2724 1.42782E-04 0.00000E+00-3.89951E-06
 -1      2725 1.56203E-04 0.00000E+00-1.85948E-05
 -1      2726 1.55341E-04 0.00000E+00-1.92632E-05
 -1      2727 1.57881E-04 0.00000E+00-1.96441E-05
 -1      2728 1.54440E-04 0.00000E+00-1.98394E-05
 -1      2729 1.54336E-04 0.00000E+00-2.04205E-05
 -1      2730 1.56689E-04 0.00000E+00-1.79758E-05
 -1      2731 1.59483E-04 0.00000E+00-1.84384E-05
 -1      2732 1.54719E-04 0.00000E+00-1.75389E-05
 -1      2733 1.57820E-04 0.00000E+00-1.73487E-05
 -1      2734 1.52690E-04 0.00000E+00-1.70759E-05
 -1      2735 1.56843E-04 0.00000E+00-9.92919E-06
 -1      2736 1.60139E-04 0.00000E+00-9.92754E-06
 -1      2737 1.57129E-04 0.00000E+00-1.02499E-05
 -1      2738 1.58697E-04 0.00000E+00-1.04924E-05
 -1      2739 1.52498E-04 0.00000E+00-9.24290E-06
 -1      2740 1.54628E-04 0.00000E+00-9.70426E-06
 -1      2741 1.57528E-04 0.00000E+00-9.36216E-06
 -1      2742 1.55198E-04 0.00000E+00-7.62746E-06
 -1      2743 1.53744E-04 0.00000E+00-8.23090E-06
 -1      2744 1.56725E-04 0.00000E+00-7.09587E-06
 -1      2745 1.58595E-04 0.00000E+00-7.59512E-06
 -1      2746 1.58747E-04 0.00000E+00-6.50637E-06
 -1      2747 1.53686E-04 0.00000E+00-3.60115E-06
 -1      2748 1.55238E-04 0.00000E+00-4.12238E-06
 -1      2749 1.58313E-04 0.00000E+00-4.08303E-06
 -1      2750 1.56722E-04 0.00000E+00-4.58777E-06
 -1      2751 1.58398E-04 0.00000E+00-4.90475E-06
 -1      2752 1.57955E-04 0.00000E+00-5.38308E-05
 -1      2753 1.57616E-04 0.00000E+00-5.50816E-05
 -1      2754 1.57526E-04 0.00000E+00-5.63146E-05
 -1      2755 1.57639E-04 0.00000E+00-5.74827E-05
 -1      2756 1.60767E-04 0.00000E+00-5.53398E-05
 -1      2757 1.52483E-04 0.00000E+00-5.17744E-05
 -1      2758 1.55280E-04 0.00000E+00-5.23153E-05
 -1      2759 1.58247E-04 0.00000E+00-5.15937E-05
 -1      2760 1.58026E-04 0.00000E+00-5.27471E-05
 -1      2761 1.61021E-04 0.00000E+00-5.30665E-05
 -1      2762 1.60707E-04 0.00000E+00-5.74999E-05
 -1      2763 1.57922E-04 0.00000E+00-5.84480E-05
 -1      2764 1.58352E-04 0.00000E+00-5.93702E-05
 -1      2765 1.55312E-04 0.00000E+00-5.92797E-05
 -1      2766 1.52962E-04 0.00000E+00-6.04051E-05
 -1      2767 1.22804E-04 0.00000E+00-1.44214E-05
 -1      2768 1.20368E-04 0.00000E+00-1.33794E-05
 -1      2769 1.27029E-04 0.00000E+00-1.54783E-05
 -1      2770 1.23164E-04 0.00000E+00-1.56982E-05
 -1      2771 1.18626E-04 0.00000E+00-1.09038E-05
 -1      2772 1.20493E-04 0.00000E+00-9.69065E-06
 -1      2773 1.16787E-04 0.00000E+00-1.23003E-05
 -1      2774 1.13890E-04 0.00000E+00-1.10756E-05
 -1      2775 1.15620E-04 0.00000E+00-1.35406E-05
 -1      2776 1.52447E-04 0.00000E+00-3.11010E-06
 -1      2777 1.55544E-04 0.00000E+00-3.14346E-06
 -1      2778 1.49591E-04 0.00000E+00-3.05582E-06
 -1      2779 1.51335E-04 0.00000E+00-2.58523E-06
 -1      2780 1.46599E-04 0.00000E+00-2.95417E-06
 -1      2781 1.40574E-04 0.00000E+00-6.92148E-05
 -1      2782 1.37673E-04 0.00000E+00-6.79402E-05
 -1      2783 1.35137E-04 0.00000E+00-6.84489E-05
 -1      2784 1.34489E-04 0.00000E+00-6.65357E-05
 -1      2785 1.31784E-04 0.00000E+00-6.50498E-05
 -1      2786 1.48990E-04 0.00000E+00-6.82201E-05
 -1      2787 1.46099E-04 0.00000E+00-6.92126E-05
 -1      2788 1.46683E-04 0.00000E+00-7.10824E-05
 -1      2789 1.43716E-04 0.00000E+00-7.00820E-05
 -1      2790 1.41214E-04 0.00000E+00-7.09853E-05
 -1      2791 1.51564E-04 0.00000E+00-6.71418E-05
 -1      2792 1.51767E-04 0.00000E+00-6.89311E-05
 -1      2793 1.51687E-04 0.00000E+00-6.56184E-05
 -1      2794 1.54704E-04 0.00000E+00-6.61527E-05
 -1      2795 1.52231E-04 0.00000E+00-6.40695E-05
 -1      2796 1.55027E-04 0.00000E+00-6.94169E-05
 -1      2797 1.52199E-04 0.00000E+00-7.06790E-05
 -1      2798 1.52571E-04 0.00000E+00-7.24584E-05
 -1      2799 1.49594E-04 0.00000E+00-7.17497E-05
 -1      2800 1.47032E-04 0.00000E+00-7.27665E-05
 -1      2801 1.57486E-04 0.00000E+00-6.50838E-05
 -1      2802 1.57438E-04 0.00000E+00-6.66018E-05
 -1      2803 1.57324E-04 0.00000E+00-6.79877E-05
 -1      2804 1.57741E-04 0.00000E+00-6.97137E-05
 -1      2805 1.60263E-04 0.00000E+00-6.67774E-05
 -1      2806 1.57236E-04 0.00000E+00-6.38609E-05
 -1      2807 1.60078E-04 0.00000E+00-6.41949E-05
 -1      2808 1.54936E-04 0.00000E+00-6.33494E-05
 -1      2809 1.57333E-04 0.00000E+00-6.25635E-05
 -1      2810 1.52341E-04 0.00000E+00-6.27911E-05
 -1      2811 1.54905E-04 0.00000E+00-7.30066E-05
 -1      2812 1.52037E-04 0.00000E+00-7.42402E-05
 -1      2813 1.57161E-04 0.00000E+00-7.20552E-05
 -1      2814 1.56534E-04 0.00000E+00-7.40019E-05
 -1      2815 1.60513E-04 0.00000E+00-6.95091E-05
 -1      2816 1.58080E-04 0.00000E+00-7.10789E-05
 -1      2817 1.59897E-04 0.00000E+00-7.19499E-05
 -1      2818 1.58351E-04 0.00000E+00-3.54049E-05
 -1      2819 1.58158E-04 0.00000E+00-3.62710E-05
 -1      2820 1.59050E-04 0.00000E+00-3.40148E-05
 -1      2821 1.58505E-04 0.00000E+00-3.47866E-05
 -1      2822 1.60908E-04 0.00000E+00-3.50996E-05
 -1      2823 1.56138E-04 0.00000E+00-3.76712E-05
 -1      2824 1.53383E-04 0.00000E+00-3.82705E-05
 -1      2825 1.58534E-04 0.00000E+00-3.70035E-05
 -1      2826 1.58957E-04 0.00000E+00-3.79431E-05
 -1      2827 1.61155E-04 0.00000E+00-3.64834E-05
 -1      2828 1.53688E-04 0.00000E+00-3.91397E-05
 -1      2829 1.50763E-04 0.00000E+00-3.87387E-05
 -1      2830 1.48143E-04 0.00000E+00-3.93225E-05
 -1      2831 1.47934E-04 0.00000E+00-3.84884E-05
 -1      2832 1.44636E-04 0.00000E+00-3.81668E-05
 -1      2833 1.56109E-04 0.00000E+00-3.94465E-05
 -1      2834 1.53334E-04 0.00000E+00-3.99384E-05
 -1      2835 1.58228E-04 0.00000E+00-3.90686E-05
 -1      2836 1.57793E-04 0.00000E+00-3.98948E-05
 -1      2837 1.61906E-04 0.00000E+00-3.78738E-05
 -1      2838 1.59261E-04 0.00000E+00-3.85703E-05
 -1      2839 1.61078E-04 0.00000E+00-3.90160E-05
 -1      2840 1.53345E-04 0.00000E+00-4.08486E-05
 -1      2841 1.50981E-04 0.00000E+00-4.04883E-05
 -1      2842 1.48618E-04 0.00000E+00-4.10867E-05
 -1      2843 1.48607E-04 0.00000E+00-4.01777E-05
 -1      2844 1.45904E-04 0.00000E+00-3.98990E-05
 -1      2845 1.56287E-04 0.00000E+00-4.11501E-05
 -1      2846 1.53881E-04 0.00000E+00-4.17308E-05
 -1      2847 1.57553E-04 0.00000E+00-4.05700E-05
 -1      2848 1.58077E-04 0.00000E+00-4.14498E-05
 -1      2849 1.59747E-04 0.00000E+00-4.01889E-05
 -1      2850 1.54179E-04 0.00000E+00-4.26087E-05
 -1      2851 1.51330E-04 0.00000E+00-4.23120E-05
 -1      2852 1.49394E-04 0.00000E+00-4.29670E-05
 -1      2853 1.49104E-04 0.00000E+00-4.20448E-05
 -1      2854 1.46811E-04 0.00000E+00-4.17079E-05
 -1      2855 1.56948E-04 0.00000E+00-4.29180E-05
 -1      2856 1.54272E-04 0.00000E+00-4.35509E-05
 -1      2857 1.59378E-04 0.00000E+00-4.23600E-05
 -1      2858 1.59485E-04 0.00000E+00-4.33139E-05
 -1      2859 1.59319E-04 0.00000E+00-4.16958E-05
 -1      2860 1.62017E-04 0.00000E+00-4.20421E-05
 -1      2861 1.60705E-04 0.00000E+00-4.11130E-05
 -1      2862 1.54374E-04 0.00000E+00-4.44681E-05
 -1      2863 1.51727E-04 0.00000E+00-4.41357E-05
 -1      2864 1.49157E-04 0.00000E+00-4.47576E-05
 -1      2865 1.49098E-04 0.00000E+00-4.38298E-05
 -1      2866 1.46988E-04 0.00000E+00-4.35478E-05
 -1      2867 1.57288E-04 0.00000E+00-4.47545E-05
 -1      2868 1.54636E-04 0.00000E+00-4.53814E-05
 -1      2869 1.59534E-04 0.00000E+00-4.40724E-05
 -1      2870 1.59735E-04 0.00000E+00-4.49992E-05
 -1      2871 1.62128E-04 0.00000E+00-4.35333E-05
 -1      2872 1.59545E-04 0.00000E+00-3.34250E-05
 -1      2873 1.61499E-04 0.00000E+00-3.38450E-05
 -1      2874 1.58080E-04 0.00000E+00-3.28384E-05
 -1      2875 1.60556E-04 0.00000E+00-3.26701E-05
 -1      2876 1.56682E-04 0.00000E+00-3.23047E-05
 -1      2877 1.50150E-04 0.00000E+00-5.11424E-05
 -1      2878 1.53044E-04 0.00000E+00-5.06071E-05
 -1      2879 1.47440E-04 0.00000E+00-5.15651E-05
 -1      2880 1.47933E-04 0.00000E+00-5.04178E-05
 -1      2881 1.44350E-04 0.00000E+00-5.20648E-05
 -1      2882 1.53601E-04 0.00000E+00-4.96783E-05
 -1      2883 1.56043E-04 0.00000E+00-5.02447E-05
 -1      2884 1.58330E-04 0.00000E+00-5.06394E-05
 -1      2885 1.61255E-04 0.00000E+00-5.09934E-05
 -1      2886 1.58921E-04 0.00000E+00-4.96981E-05
 -1      2887 1.60214E-04 0.00000E+00-3.61076E-06
 -1      2888 1.62003E-04 0.00000E+00-4.07487E-06
 -1      2889 1.57082E-04 0.00000E+00-2.67044E-06
 -1      2890 1.58280E-04 0.00000E+00-3.16420E-06
 -1      2891 1.61972E-04 0.00000E+00-3.15481E-06
 -1      2892 1.52369E-04 0.00000E+00-7.60211E-05
 -1      2893 1.50260E-04 0.00000E+00-7.52365E-05
 -1      2894 1.48213E-04 0.00000E+00-7.62357E-05
 -1      2895 1.47896E-04 0.00000E+00-7.45387E-05
 -1      2896 1.45108E-04 0.00000E+00-7.36403E-05
 -1      2897 1.54714E-04 0.00000E+00-7.65543E-05
 -1      2898 1.52731E-04 0.00000E+00-7.76895E-05
 -1      2899 1.56416E-04 0.00000E+00-7.53834E-05
 -1      2900 1.56789E-04 0.00000E+00-7.70741E-05
 -1      2901 1.58696E-04 0.00000E+00-7.43448E-05
 -1      2902 1.35278E-04 0.00000E+00-3.68391E-05
 -1      2903 1.32179E-04 0.00000E+00-3.61427E-05
 -1      2904 1.40887E-04 0.00000E+00-3.81308E-05
 -1      2905 1.38095E-04 0.00000E+00-3.76565E-05
 -1      2906 1.35236E-04 0.00000E+00-3.81404E-05
 -1      2907 1.26391E-04 0.00000E+00-3.47063E-05
 -1      2908 1.29535E-04 0.00000E+00-3.40143E-05
 -1      2909 1.28593E-04 0.00000E+00-3.57587E-05
 -1      2910 1.28889E-04 0.00000E+00-3.68833E-05
 -1      2911 1.30127E-04 0.00000E+00-3.29979E-05
 -1      2912 1.59598E-04 0.00000E+00-1.18108E-05
 -1      2913 1.58064E-04 0.00000E+00-1.23244E-05
 -1      2914 1.60594E-04 0.00000E+00-1.14492E-05
 -1      2915 1.62323E-04 0.00000E+00-1.18049E-05
 -1      2916 1.59365E-04 0.00000E+00-1.12296E-05
 -1      2917 1.62048E-04 0.00000E+00-1.11137E-05
 -1      2918 1.58835E-04 0.00000E+00-1.07970E-05
 -1      2919 1.55382E-04 0.00000E+00-1.29226E-05
 -1      2920 1.53098E-04 0.00000E+00-1.30915E-05
 -1      2921 1.61177E-04 0.00000E+00-1.27280E-05
 -1      2922 1.57965E-04 0.00000E+00-1.29187E-05
 -1      2923 1.58185E-04 0.00000E+00-1.33695E-05
 -1      2924 1.22180E-04 0.00000E+00-6.23550E-05
 -1      2925 1.17864E-04 0.00000E+00-5.95938E-05
 -1      2926 1.13429E-04 0.00000E+00-5.64845E-05
 -1      2927 1.09821E-04 0.00000E+00-5.37655E-05
 -1      2928 1.15296E-04 0.00000E+00-5.92032E-05
 -1      2929 1.60284E-04 0.00000E+00-2.93167E-05
 -1      2930 1.59649E-04 0.00000E+00-3.00177E-05
 -1      2931 1.61331E-04 0.00000E+00-2.77381E-05
 -1      2932 1.60655E-04 0.00000E+00-2.84742E-05
 -1      2933 1.61770E-04 0.00000E+00-2.89366E-05
 -1      2934 1.63877E-04 0.00000E+00-2.93856E-05
 -1      2935 1.66880E-04 0.00000E+00-2.66651E-05
 -1      2936 1.67295E-04 0.00000E+00-2.68966E-05
 -1      2937 1.67547E-04 0.00000E+00-2.72927E-05
 -1      2938 1.64349E-04 0.00000E+00-2.72030E-05
 -1      2939 1.67434E-04 0.00000E+00-2.76119E-05
 -1      2940 1.68285E-04 0.00000E+00-3.03731E-05
 -1      2941 1.68136E-04 0.00000E+00-3.00982E-05
 -1      2942 1.68671E-04 0.00000E+00-2.98212E-05
 -1      2943 1.69096E-04 0.00000E+00-2.96228E-05
 -1      2944 1.66200E-04 0.00000E+00-3.00430E-05
 -1      2945 1.61931E-04 0.00000E+00-3.03859E-05
 -1      2946 1.59143E-04 0.00000E+00-3.06348E-05
 -1      2947 1.59175E-04 0.00000E+00-3.11320E-05
 -1      2948 1.56998E-04 0.00000E+00-3.07274E-05
 -1      2949 1.54593E-04 0.00000E+00-3.10823E-05
 -1      2950 1.57204E-04 0.00000E+00-2.64106E-05
 -1      2951 1.60086E-04 0.00000E+00-2.67641E-05
 -1      2952 1.62185E-04 0.00000E+00-2.65141E-05
 -1      2953 1.61690E-04 0.00000E+00-2.71616E-05
 -1      2954 1.62049E-04 0.00000E+00-2.74617E-05
 -1      2955 1.63917E-04 0.00000E+00-2.78290E-05
 -1      2956 1.54792E-04 0.00000E+00-2.59283E-05
 -1      2957 1.58079E-04 0.00000E+00-2.57407E-05
 -1      2958 1.52046E-04 0.00000E+00-2.61477E-05
 -1      2959 1.52838E-04 0.00000E+00-2.54614E-05
 -1      2960 1.48902E-04 0.00000E+00-2.63253E-05
 -1      2961 1.55042E-04 0.00000E+00-4.63044E-05
 -1      2962 1.52248E-04 0.00000E+00-4.60018E-05
 -1      2963 1.49769E-04 0.00000E+00-4.66929E-05
 -1      2964 1.49294E-04 0.00000E+00-4.57315E-05
 -1      2965 1.46776E-04 0.00000E+00-4.53859E-05
 -1      2966 1.57739E-04 0.00000E+00-4.66175E-05
 -1      2967 1.55237E-04 0.00000E+00-4.72515E-05
 -1      2968 1.60018E-04 0.00000E+00-4.59953E-05
 -1      2969 1.60285E-04 0.00000E+00-4.69812E-05
 -1      2970 1.61779E-04 0.00000E+00-4.48270E-05
 -1      2971 1.59336E-04 0.00000E+00-4.55152E-05
 -1      2972 1.62040E-04 0.00000E+00-4.58559E-05
 -1      2973 1.18010E-04 0.00000E+00-8.46227E-06
 -1      2974 1.22892E-04 0.00000E+00-8.44368E-06
 -1      2975 1.23689E-04 0.00000E+00-7.21457E-06
 -1      2976 1.26376E-04 0.00000E+00-8.41928E-06
 -1      2977 1.29272E-04 0.00000E+00-7.94541E-06
 -1      2978 1.28409E-04 0.00000E+00-9.19362E-06
 -1      2979 1.13500E-04 0.00000E+00-8.30026E-06
 -1      2980 1.15753E-04 0.00000E+00-7.09987E-06
 -1      2981 1.10174E-04 0.00000E+00-9.72408E-06
 -1      2982 1.08104E-04 0.00000E+00-8.34949E-06
 -1      2983 1.26247E-04 0.00000E+00-6.43614E-05
 -1      2984 1.23530E-04 0.00000E+00-6.47036E-05
 -1      2985 1.28194E-04 0.00000E+00-6.26056E-05
 -1      2986 1.28527E-04 0.00000E+00-6.43408E-05
 -1      2987 1.29714E-04 0.00000E+00-6.69705E-05
 -1      2988 1.44035E-04 0.00000E+00-4.05075E-05
 -1      2989 1.43563E-04 0.00000E+00-3.96675E-05
 -1      2990 1.41611E-04 0.00000E+00-3.90392E-05
 -1      2991 1.61176E-04 0.00000E+00-1.94920E-05
 -1      2992 1.60123E-04 0.00000E+00-2.00775E-05
 -1      2993 1.62164E-04 0.00000E+00-1.81256E-05
 -1      2994 1.61648E-04 0.00000E+00-1.87140E-05
 -1      2995 1.62055E-04 0.00000E+00-1.90626E-05
 -1      2996 1.64281E-04 0.00000E+00-1.95289E-05
 -1      2997 1.66381E-04 0.00000E+00-1.98495E-05
 -1      2998 1.66367E-04 0.00000E+00-2.01352E-05
 -1      2999 1.67613E-04 0.00000E+00-2.02597E-05
 -1      3000 1.64536E-04 0.00000E+00-2.02273E-05
 -1      3001 1.68418E-04 0.00000E+00-2.05231E-05
 -1      3002 1.62418E-04 0.00000E+00-2.03512E-05
 -1      3003 1.59117E-04 0.00000E+00-2.04808E-05
 -1      3004 1.58576E-04 0.00000E+00-2.12506E-05
 -1      3005 1.56438E-04 0.00000E+00-2.09684E-05
 -1      3006 1.53829E-04 0.00000E+00-2.11582E-05
 -1      3007 1.55670E-04 0.00000E+00-4.80084E-05
 -1      3008 1.53085E-04 0.00000E+00-4.76715E-05
 -1      3009 1.50434E-04 0.00000E+00-4.77057E-05
 -1      3010 1.50788E-04 0.00000E+00-4.84398E-05
 -1      3011 1.63134E-04 0.00000E+00-4.69851E-05
 -1      3012 1.60622E-04 0.00000E+00-4.76416E-05
 -1      3013 1.62221E-04 0.00000E+00-4.82257E-05
 -1      3014 1.59459E-04 0.00000E+00-4.81846E-05
 -1      3015 1.54990E-04 0.00000E+00-4.88665E-05
 -1      3016 1.57322E-04 0.00000E+00-4.84417E-05
 -1      3017 1.58726E-04 0.00000E+00-4.90889E-05
 -1      3018 1.56177E-04 0.00000E+00-8.62380E-06
 -1      3019 1.52892E-04 0.00000E+00-8.75786E-06
 -1      3020 1.61627E-04 0.00000E+00-7.46801E-06
 -1      3021 1.59838E-04 0.00000E+00-8.06239E-06
 -1      3022 1.62350E-04 0.00000E+00-8.44417E-06
 -1      3023 1.59461E-04 0.00000E+00-8.47363E-06
 -1      3024 1.58405E-04 0.00000E+00-9.00293E-06
 -1      3025 8.34703E-05 0.00000E+00-3.36056E-05
 -1      3026 7.85470E-05 0.00000E+00-2.99014E-05
 -1      3027 9.30365E-05 0.00000E+00-4.00674E-05
 -1      3028 8.82105E-05 0.00000E+00-3.65680E-05
 -1      3029 8.52312E-05 0.00000E+00-3.59390E-05
 -1      3030 7.16715E-05 0.00000E+00-2.32866E-05
 -1      3031 7.21413E-05 0.00000E+00-2.15594E-05
 -1      3032 7.27577E-05 0.00000E+00-2.61252E-05
 -1      3033 6.79190E-05 0.00000E+00-2.24536E-05
 -1      3034 6.65067E-05 0.00000E+00-1.78396E-05
 -1      3035 7.19819E-05 0.00000E+00-1.90836E-05
 -1      3036 7.14619E-05 0.00000E+00-1.67179E-05
 -1      3037 7.74771E-05 0.00000E+00-2.02176E-05
 -1      3038 8.17479E-05 0.00000E+00-1.98298E-05
 -1      3039 8.21703E-05 0.00000E+00-2.26889E-05
 -1      3040 8.70700E-05 0.00000E+00-2.41662E-05
 -1      3041 6.07216E-05 0.00000E+00-1.60117E-05
 -1      3042 6.02760E-05 0.00000E+00-1.42802E-05
 -1      3043 6.14639E-05 0.00000E+00-1.83602E-05
 -1      3044 5.56658E-05 0.00000E+00-1.43425E-05
 -1      3045 6.32127E-05 0.00000E+00-2.02195E-05
 -1      3046 1.05713E-04 0.00000E+00-4.34760E-05
 -1      3047 1.01701E-04 0.00000E+00-4.37328E-05
 -1      3048 1.03318E-04 0.00000E+00-4.71510E-05
 -1      3049 9.80553E-05 0.00000E+00-4.40291E-05
 -1      3050 9.48867E-05 0.00000E+00-4.30251E-05
 -1      3051 1.62485E-04 0.00000E+00-4.50818E-06
 -1      3052 1.65133E-04 0.00000E+00-4.69451E-06
 -1      3053 1.62542E-04 0.00000E+00-4.69749E-06
 -1      3054 1.63012E-04 0.00000E+00-5.12038E-06
 -1      3055 1.60537E-04 0.00000E+00-4.99488E-06
 -1      3056 1.58927E-04 0.00000E+00-5.31566E-06
 -1      3057 1.58769E-04 0.00000E+00-1.69160E-05
 -1      3058 1.60980E-04 0.00000E+00-1.73373E-05
 -1      3059 1.62545E-04 0.00000E+00-1.77646E-05
 -1      3060 1.64758E-04 0.00000E+00-1.79998E-05
 -1      3061 1.57012E-04 0.00000E+00-1.64702E-05
 -1      3062 1.60157E-04 0.00000E+00-1.64514E-05
 -1      3063 1.54182E-04 0.00000E+00-1.65452E-05
 -1      3064 1.55388E-04 0.00000E+00-1.60426E-05
 -1      3065 1.51190E-04 0.00000E+00-1.66566E-05
 -1      3066 1.63582E-04 0.00000E+00-5.45912E-05
 -1      3067 1.63617E-04 0.00000E+00-5.57812E-05
 -1      3068 1.63197E-04 0.00000E+00-5.23402E-05
 -1      3069 1.63170E-04 0.00000E+00-5.35112E-05
 -1      3070 1.63287E-04 0.00000E+00-5.39664E-05
 -1      3071 1.66137E-04 0.00000E+00-5.43868E-05
 -1      3072 1.62831E-04 0.00000E+00-5.66504E-05
 -1      3073 1.63178E-04 0.00000E+00-5.76556E-05
 -1      3074 1.58645E-04 0.00000E+00-2.50746E-05
 -1      3075 1.61230E-04 0.00000E+00-2.55006E-05
 -1      3076 1.63599E-04 0.00000E+00-2.51645E-05
 -1      3077 1.62870E-04 0.00000E+00-2.58395E-05
 -1      3078 1.63173E-04 0.00000E+00-2.62292E-05
 -1      3079 1.64932E-04 0.00000E+00-2.67084E-05
 -1      3080 1.68069E-04 0.00000E+00-2.45449E-05
 -1      3081 1.67491E-04 0.00000E+00-2.42887E-05
 -1      3082 1.67997E-04 0.00000E+00-2.51032E-05
 -1      3083 1.68133E-04 0.00000E+00-2.47786E-05
 -1      3084 1.66074E-04 0.00000E+00-2.47509E-05
 -1      3085 1.51195E-04 0.00000E+00-2.49907E-05
 -1      3086 1.53838E-04 0.00000E+00-2.48432E-05
 -1      3087 1.56559E-04 0.00000E+00-2.46921E-05
 -1      3088 1.59714E-04 0.00000E+00-2.44548E-05
 -1      3089 1.54818E-04 0.00000E+00-2.42335E-05
 -1      3090 1.48835E-04 0.00000E+00-2.52059E-05
 -1      3091 1.47483E-04 0.00000E+00-2.57080E-05
 -1      3092 1.62298E-04 0.00000E+00-1.01801E-05
 -1      3093 1.64495E-04 0.00000E+00-1.04013E-05
 -1      3094 1.62591E-04 0.00000E+00-1.04309E-05
 -1      3095 1.62881E-04 0.00000E+00-1.07384E-05
 -1      3096 1.60660E-04 0.00000E+00-1.05665E-05
 -1      3097 1.61947E-04 0.00000E+00-9.86604E-06
 -1      3098 1.60302E-04 0.00000E+00-6.12088E-06
 -1      3099 1.61994E-04 0.00000E+00-6.61697E-06
 -1      3100 1.59112E-04 0.00000E+00-5.72993E-06
 -1      3101 1.62316E-04 0.00000E+00-5.81146E-06
 -1      3102 1.62592E-04 0.00000E+00-7.05809E-06
 -1      3103 1.62842E-04 0.00000E+00-6.88591E-06
 -1      3104 1.65183E-04 0.00000E+00-6.94150E-06
 -1      3105 1.44532E-04 0.00000E+00-4.49842E-05
 -1      3106 1.44699E-04 0.00000E+00-4.37190E-05
 -1      3107 1.44964E-04 0.00000E+00-4.28850E-05
 -1      3108 1.04229E-04 0.00000E+00-4.93522E-05
 -1      3109 1.63072E-04 0.00000E+00-5.88898E-05
 -1      3110 1.63061E-04 0.00000E+00-5.99962E-05
 -1      3111 1.61051E-04 0.00000E+00-5.95668E-05
 -1      3112 1.58283E-04 0.00000E+00-6.04603E-05
 -1      3113 1.65680E-04 0.00000E+00-5.74034E-05
 -1      3114 1.63352E-04 0.00000E+00-5.82711E-05
 -1      3115 1.61857E-04 0.00000E+00-6.32378E-05
 -1      3116 1.62176E-04 0.00000E+00-6.44232E-05
 -1      3117 1.62600E-04 0.00000E+00-6.59135E-05
 -1      3118 1.62477E-04 0.00000E+00-6.72393E-05
 -1      3119 1.62720E-04 0.00000E+00-6.50039E-05
 -1      3120 1.65155E-04 0.00000E+00-6.54526E-05
 -1      3121 1.57848E-04 0.00000E+00-6.14293E-05
 -1      3122 1.60386E-04 0.00000E+00-6.18270E-05
 -1      3123 1.62830E-04 0.00000E+00-6.12068E-05
 -1      3124 1.62210E-04 0.00000E+00-6.24128E-05
 -1      3125 1.64399E-04 0.00000E+00-6.25889E-05
 -1      3126 5.44849E-05 0.00000E+00-1.05669E-05
 -1      3127 6.00035E-05 0.00000E+00-1.17793E-05
 -1      3128 6.13748E-05 0.00000E+00-1.07176E-05
 -1      3129 6.77453E-05 0.00000E+00-1.44297E-05
 -1      3130 4.94764E-05 0.00000E+00-9.30031E-06
 -1      3131 4.89913E-05 0.00000E+00-7.84833E-06
 -1      3132 4.94290E-05 0.00000E+00-1.00366E-05
 -1      3133 4.43866E-05 0.00000E+00-6.90910E-06
 -1      3134 1.64009E-04 0.00000E+00-4.30518E-05
 -1      3135 1.64110E-04 0.00000E+00-4.38865E-05
 -1      3136 1.63286E-04 0.00000E+00-4.51882E-05
 -1      3137 1.63745E-04 0.00000E+00-4.46615E-05
 -1      3138 1.64261E-04 0.00000E+00-4.42611E-05
 -1      3139 1.65898E-04 0.00000E+00-4.46284E-05
 -1      3140 1.66283E-04 0.00000E+00-4.37605E-05
 -1      3141 1.50604E-04 0.00000E+00-2.13328E-06
 -1      3142 1.53540E-04 0.00000E+00-2.19653E-06
 -1      3143 1.56201E-04 0.00000E+00-2.22654E-06
 -1      3144 1.59007E-04 0.00000E+00-2.28523E-06
 -1      3145 1.55374E-04 0.00000E+00-1.81795E-06
 -1      3146 1.45786E-04 0.00000E+00-2.24847E-06
 -1      3147 1.47991E-04 0.00000E+00-1.82826E-06
 -1      3148 1.43972E-04 0.00000E+00-2.68369E-06
 -1      3149 1.52730E-04 0.00000E+00-2.17801E-05
 -1      3150 1.55521E-04 0.00000E+00-2.23485E-05
 -1      3151 1.57285E-04 0.00000E+00-2.31184E-05
 -1      3152 1.58628E-04 0.00000E+00-2.36689E-05
 -1      3153 1.56252E-04 0.00000E+00-2.35532E-05
 -1      3154 1.58437E-04 0.00000E+00-2.20243E-05
 -1      3155 1.58017E-04 0.00000E+00-2.26667E-05
 -1      3156 1.60392E-04 0.00000E+00-2.27704E-05
 -1      3157 1.53369E-04 0.00000E+00-7.95105E-05
 -1      3158 1.51199E-04 0.00000E+00-7.87470E-05
 -1      3159 1.49074E-04 0.00000E+00-7.79147E-05
 -1      3160 1.46829E-04 0.00000E+00-7.70237E-05
 -1      3161 1.49717E-04 0.00000E+00-7.96242E-05
 -1      3162 1.55430E-04 0.00000E+00-7.95323E-05
 -1      3163 1.57042E-04 0.00000E+00-7.84434E-05
 -1      3164 1.57383E-04 0.00000E+00-7.97250E-05
 -1      3165 1.58818E-04 0.00000E+00-7.71241E-05
 -1      3166 1.31428E-04 0.00000E+00-3.84296E-05
 -1      3167 1.36256E-04 0.00000E+00-7.04975E-05
 -1      3168 1.33255E-04 0.00000E+00-6.88666E-05
 -1      3169 1.42158E-04 0.00000E+00-7.28209E-05
 -1      3170 1.39244E-04 0.00000E+00-7.17170E-05
 -1      3171 1.37250E-04 0.00000E+00-7.21803E-05
 -1      3172 1.49421E-04 0.00000E+00-4.92272E-05
 -1      3173 1.52015E-04 0.00000E+00-4.92120E-05
 -1      3174 1.61338E-04 0.00000E+00-1.94666E-06
 -1      3175 1.62176E-04 0.00000E+00-2.31418E-06
 -1      3176 1.62846E-04 0.00000E+00-2.67605E-06
 -1      3177 1.64878E-04 0.00000E+00-3.19387E-06
 -1      3178 1.43013E-04 0.00000E+00-7.45073E-05
 -1      3179 1.44340E-04 0.00000E+00-7.60748E-05
 -1      3180 1.41577E-04 0.00000E+00-7.50286E-05
 -1      3181 1.14563E-04 0.00000E+00-5.93290E-06
 -1      3182 1.19104E-04 0.00000E+00-6.06289E-06
 -1      3183 1.22156E-04 0.00000E+00-6.09670E-06
 -1      3184 1.25641E-04 0.00000E+00-6.07207E-06
 -1      3185 1.11596E-04 0.00000E+00-4.90361E-06
 -1      3186 1.08112E-04 0.00000E+00-5.81030E-06
 -1      3187 1.05374E-04 0.00000E+00-6.99591E-06
 -1      3188 1.62258E-04 0.00000E+00-6.84805E-05
 -1      3189 1.62635E-04 0.00000E+00-6.98208E-05
 -1      3190 1.50103E-04 0.00000E+00-6.19947E-05
 -1      3191 1.52585E-04 0.00000E+00-6.13279E-05
 -1      3192 1.55355E-04 0.00000E+00-6.11382E-05
 -1      3193 1.20539E-04 0.00000E+00-1.90167E-05
 -1      3194 1.19761E-04 0.00000E+00-2.08428E-05
 -1      3195 1.53376E-04 0.00000E+00-3.17231E-05
 -1      3196 1.10327E-04 0.00000E+00-4.57626E-05
 -1      3197 1.14535E-04 0.00000E+00-4.66456E-05
 -1      3198 1.63083E-04 0.00000E+00-3.58916E-05
 -1      3199 1.63517E-04 0.00000E+00-3.66311E-05
 -1      3200 1.63303E-04 0.00000E+00-3.47447E-05
 -1      3201 1.63226E-04 0.00000E+00-3.54325E-05
 -1      3202 1.63731E-04 0.00000E+00-3.73604E-05
 -1      3203 1.63996E-04 0.00000E+00-3.80407E-05
 -1      3204 1.64054E-04 0.00000E+00-3.71073E-05
 -1      3205 1.66110E-04 0.00000E+00-3.64991E-05
 -1      3206 1.66402E-04 0.00000E+00-3.79249E-05
 -1      3207 1.64341E-04 0.00000E+00-3.84718E-05
 -1      3208 1.63578E-04 0.00000E+00-3.89059E-05
 -1      3209 1.62444E-04 0.00000E+00-3.93969E-05
 -1      3210 1.63846E-04 0.00000E+00-3.36101E-05
 -1      3211 1.63178E-04 0.00000E+00-3.41447E-05
 -1      3212 1.64480E-04 0.00000E+00-4.05092E-05
 -1      3213 1.63954E-04 0.00000E+00-4.11191E-05
 -1      3214 1.62534E-04 0.00000E+00-4.08045E-05
 -1      3215 1.61196E-04 0.00000E+00-4.05433E-05
 -1      3216 1.65980E-04 0.00000E+00-3.96288E-05
 -1      3217 1.64788E-04 0.00000E+00-4.00704E-05
 -1      3218 1.64067E-04 0.00000E+00-3.97095E-05
 -1      3219 1.61514E-04 0.00000E+00-3.98534E-05
 -1      3220 1.64081E-04 0.00000E+00-4.15193E-05
 -1      3221 1.63983E-04 0.00000E+00-4.21678E-05
 -1      3222 1.64255E-04 0.00000E+00-4.25865E-05
 -1      3223 1.66436E-04 0.00000E+00-4.20276E-05
 -1      3224 1.60370E-04 0.00000E+00-2.40004E-05
 -1      3225 1.62638E-04 0.00000E+00-2.44286E-05
 -1      3226 1.64600E-04 0.00000E+00-2.42165E-05
 -1      3227 1.63891E-04 0.00000E+00-2.47329E-05
 -1      3228 1.64012E-04 0.00000E+00-2.49550E-05
 -1      3229 1.65777E-04 0.00000E+00-2.52688E-05
 -1      3230 1.61102E-04 0.00000E+00-1.59652E-05
 -1      3231 1.63022E-04 0.00000E+00-1.64042E-05
 -1      3232 1.65817E-04 0.00000E+00-1.62469E-05
 -1      3233 1.53968E-04 0.00000E+00-1.56242E-05
 -1      3234 1.56822E-04 0.00000E+00-1.54743E-05
 -1      3235 1.58205E-04 0.00000E+00-1.50124E-05
 -1      3236 1.59741E-04 0.00000E+00-1.54594E-05
 -1      3237 1.62585E-04 0.00000E+00-1.55043E-05
 -1      3238 1.50957E-04 0.00000E+00-1.56398E-05
 -1      3239 1.52246E-04 0.00000E+00-1.51082E-05
 -1      3240 1.49814E-04 0.00000E+00-1.61672E-05
 -1      3241 1.56693E-04 0.00000E+00-1.46443E-05
 -1      3242 1.59641E-04 0.00000E+00-1.45627E-05
 -1      3243 1.53889E-04 0.00000E+00-1.45801E-05
 -1      3244 1.55162E-04 0.00000E+00-1.41452E-05
 -1      3245 1.50867E-04 0.00000E+00-1.46197E-05
 -1      3246 1.60981E-04 0.00000E+00-1.41508E-05
 -1      3247 1.62678E-04 0.00000E+00-1.45727E-05
 -1      3248 1.65632E-04 0.00000E+00-1.44590E-05
 -1      3249 1.64081E-04 0.00000E+00-1.49314E-05
 -1      3250 1.63266E-04 0.00000E+00-1.51487E-05
 -1      3251 1.54003E-04 0.00000E+00-1.37143E-05
 -1      3252 1.56819E-04 0.00000E+00-1.37451E-05
 -1      3253 1.59509E-04 0.00000E+00-1.38178E-05
 -1      3254 1.62575E-04 0.00000E+00-1.37418E-05
 -1      3255 1.49386E-04 0.00000E+00-1.39873E-05
 -1      3256 1.51559E-04 0.00000E+00-1.34767E-05
 -1      3257 1.64683E-04 0.00000E+00-6.95161E-05
 -1      3258 1.62890E-04 0.00000E+00-7.06281E-05
 -1      3259 1.61045E-04 0.00000E+00-7.25374E-05
 -1      3260 1.62109E-04 0.00000E+00-7.14406E-05
 -1      3261 1.64789E-04 0.00000E+00-7.30472E-05
 -1      3262 1.64849E-04 0.00000E+00-7.39659E-05
 -1      3263 1.62494E-04 0.00000E+00-7.49689E-05
 -1      3264 1.62740E-04 0.00000E+00-7.28590E-05
 -1      3265 1.60561E-04 0.00000E+00-7.60200E-05
 -1      3266 1.60286E-04 0.00000E+00-7.47837E-05
 -1      3267 1.60477E-04 0.00000E+00-7.33406E-05
 -1      3268 1.22834E-04 0.00000E+00-1.72840E-05
 -1      3269 1.18879E-04 0.00000E+00-1.61620E-05
 -1      3270 1.15590E-04 0.00000E+00-1.48733E-05
 -1      3271 1.26661E-04 0.00000E+00-1.78661E-05
 -1      3272 1.22193E-04 0.00000E+00-1.83452E-05
 -1      3273 1.64351E-04 0.00000E+00-1.16772E-05
 -1      3274 1.63266E-04 0.00000E+00-1.20512E-05
 -1      3275 1.63671E-04 0.00000E+00-1.23533E-05
 -1      3276 1.63571E-04 0.00000E+00-1.30129E-05
 -1      3277 1.64058E-04 0.00000E+00-3.00751E-05
 -1      3278 1.63592E-04 0.00000E+00-3.06630E-05
 -1      3279 1.66110E-04 0.00000E+00-2.93730E-05
 -1      3280 1.64639E-04 0.00000E+00-2.97997E-05
 -1      3281 1.63319E-04 0.00000E+00-3.14776E-05
 -1      3282 1.62109E-04 0.00000E+00-3.20757E-05
 -1      3283 1.60227E-04 0.00000E+00-3.15469E-05
 -1      3284 1.57981E-04 0.00000E+00-3.16695E-05
 -1      3285 1.63838E-04 0.00000E+00-3.09861E-05
 -1      3286 1.66110E-04 0.00000E+00-3.06887E-05
 -1      3287 1.63863E-04 0.00000E+00-3.25849E-05
 -1      3288 1.64463E-04 0.00000E+00-3.32270E-05
 -1      3289 1.66182E-04 0.00000E+00-3.35297E-05
 -1      3290 1.63400E-04 0.00000E+00-5.03502E-05
 -1      3291 1.63186E-04 0.00000E+00-5.12678E-05
 -1      3292 1.63436E-04 0.00000E+00-5.18288E-05
 -1      3293 1.65776E-04 0.00000E+00-5.22434E-05
 -1      3294 1.61182E-04 0.00000E+00-4.94408E-05
 -1      3295 1.66161E-04 0.00000E+00-4.91078E-05
 -1      3296 1.63932E-04 0.00000E+00-4.98303E-05
 -1      3297 1.63596E-04 0.00000E+00-4.92944E-05
 -1      3298 1.63381E-04 0.00000E+00-4.87228E-05
 -1      3299 1.65972E-04 0.00000E+00-5.01476E-05
 -1      3300 1.65341E-04 0.00000E+00-4.71851E-05
 -1      3301 1.60869E-04 0.00000E+00-1.54362E-06
 -1      3302 1.57248E-04 0.00000E+00-1.51236E-06
 -1      3303 1.59916E-04 0.00000E+00-1.21951E-06
 -1      3304 1.67268E-04 0.00000E+00-3.20758E-06
 -1      3305 1.63431E-04 0.00000E+00-2.06626E-05
 -1      3306 1.60813E-04 0.00000E+00-2.12371E-05
 -1      3307 1.58106E-04 0.00000E+00-2.16634E-05
 -1      3308 1.63285E-04 0.00000E+00-2.10280E-05
 -1      3309 1.62635E-04 0.00000E+00-2.14755E-05
 -1      3310 1.65606E-04 0.00000E+00-2.08672E-05
 -1      3311 1.67384E-04 0.00000E+00-4.71518E-05
 -1      3312 1.65293E-04 0.00000E+00-4.76432E-05
 -1      3313 1.64502E-04 0.00000E+00-4.81396E-05
 -1      3314 1.59280E-04 0.00000E+00-8.02315E-05
 -1      3315 1.61595E-04 0.00000E+00-7.87827E-05
 -1      3316 1.61726E-04 0.00000E+00-8.06618E-05
 -1      3317 4.10580E-05 0.00000E+00-4.40779E-06
 -1      3318 3.93895E-05 0.00000E+00-3.91221E-06
 -1      3319 4.56065E-05 0.00000E+00-5.39836E-06
 -1      3320 3.08707E-05 0.00000E+00 6.52857E-06
 -1      3321 3.62106E-05 0.00000E+00 6.88380E-07
 -1      3322 3.97645E-05 0.00000E+00-3.73032E-06
 -1      3323 8.90184E-05 0.00000E+00-3.96533E-05
 -1      3324 9.39287E-05 0.00000E+00-4.36635E-05
 -1      3325 1.28892E-04 0.00000E+00-4.26870E-06
 -1      3326 1.27323E-04 0.00000E+00-5.24242E-06
 -1      3327 1.30574E-04 0.00000E+00-3.53353E-06
 -1      3328 1.33595E-04 0.00000E+00-2.96293E-06
 -1      3329 1.38902E-04 0.00000E+00-7.42141E-05
 -1      3330 1.40267E-04 0.00000E+00-7.57488E-05
 -1      3331 1.55697E-04 0.00000E+00-3.18611E-05
 -1      3332 1.64406E-04 0.00000E+00-8.18972E-06
 -1      3333 1.63759E-04 0.00000E+00-8.59283E-06
 -1      3334 1.60718E-04 0.00000E+00-9.21657E-06
 -1      3335 1.62233E-04 0.00000E+00-9.47804E-06
 -1      3336 1.63292E-04 0.00000E+00-9.05674E-06
 -1      3337 1.63934E-04 0.00000E+00-8.78564E-06
 -1      3338 1.65486E-04 0.00000E+00-9.10122E-06
 -1      3339 1.68455E-04 0.00000E+00-5.43069E-05
 -1      3340 1.67292E-04 0.00000E+00-6.54772E-05
 -1      3341 1.28946E-04 0.00000E+00-6.35359E-06
 -1      3342 1.30315E-04 0.00000E+00-7.18262E-06
 -1      3343 1.69542E-04 0.00000E+00-4.68654E-05
 -1      3344 1.61534E-04 0.00000E+00-2.35348E-05
 -1      3345 1.62215E-04 0.00000E+00-2.30590E-05
 -1      3346 1.60633E-04 0.00000E+00-2.20226E-05
 -1      3347 1.62841E-04 0.00000E+00-2.26668E-05
 -1      3348 1.63522E-04 0.00000E+00-2.24328E-05
 -1      3349 1.65317E-04 0.00000E+00-2.26641E-05
 -1      3350 1.62501E-04 0.00000E+00-2.17985E-05
 -1      3351 1.62910E-04 0.00000E+00-2.21312E-05
 -1      3352 1.65479E-04 0.00000E+00-2.21260E-05
 -1      3353 1.67053E-04 0.00000E+00-1.80030E-05
 -1      3354 1.64857E-04 0.00000E+00-5.81128E-06
 -1      3355 1.63470E-04 0.00000E+00-5.43281E-06
 -1      3356 1.60835E-04 0.00000E+00-7.73530E-05
 -1      3357 1.63518E-04 0.00000E+00-1.33617E-05
 -1      3358 1.68856E-04 0.00000E+00-1.45262E-05
 -1      3359 1.66092E-04 0.00000E+00-1.30001E-05
 -1      3360 1.68128E-04 0.00000E+00-1.29443E-05
 -1      3361 1.66095E-04 0.00000E+00-4.12558E-05
 -1      3362 1.65426E-04 0.00000E+00-5.98555E-05
 -1      3363 1.63267E-04 0.00000E+00-6.05790E-05
 -1      3364 1.36532E-04 0.00000E+00-3.55533E-06
 -1      3365 1.39893E-04 0.00000E+00-3.72456E-06
 -1      3366 1.41791E-04 0.00000E+00-3.20428E-06
 -1      3367 1.68642E-04 0.00000E+00-4.98217E-05
 -1      3368 1.68775E-04 0.00000E+00-4.93317E-05
 -1      3369 1.68504E-04 0.00000E+00-4.42700E-05
 -1      3370 1.68650E-04 0.00000E+00-4.38965E-05
 -1      3371 1.68544E-04 0.00000E+00-4.17668E-05
 -1      3372 1.68404E-04 0.00000E+00-4.13141E-05
 -1      3373 1.68205E-04 0.00000E+00-2.25180E-05
 -1      3374 1.68443E-04 0.00000E+00-2.22207E-05
 -1      3375 1.44549E-04 0.00000E+00-4.18892E-05
 -1      3376 1.81622E-04 3.28312E-05-3.32461E-05
 -1      3377 1.80287E-04 2.96519E-05-2.81621E-05
 -1      3378 1.81484E-04 3.17942E-05-2.26033E-05
 -1      3379 1.82232E-04 3.19960E-05-1.82314E-05
 -1      3380 1.79847E-04 2.92391E-05-3.83926E-05
 -1      3381 1.81254E-04 3.01067E-05-4.41417E-05
 -1      3382 1.81463E-04 2.92589E-05-4.94280E-05
 -1      3383 1.79814E-04 2.80965E-05-1.48938E-05
 -1      3384 1.80836E-04 2.90964E-05-5.39899E-05
 -1      3385 1.82248E-04 3.13114E-05-1.19548E-05
 -1      3386 1.80586E-04 3.32761E-05-8.81033E-06
 -1      3387 1.80565E-04 3.12816E-05-7.05059E-06
 -1      3388 1.80723E-04 2.84344E-05-5.84575E-05
 -1      3389 1.80851E-04 2.89624E-05-6.31484E-05
 -1      3390 1.81078E-04 3.37723E-05-3.06052E-05
 -1      3391 1.81304E-04 3.09300E-05-2.47148E-05
 -1      3392 1.80003E-04 2.54411E-05-6.74161E-05
 -1      3393 1.77182E-04 2.58751E-05-7.20642E-05
 -1      3394 1.80575E-04 3.06872E-05-5.29729E-06
 -1      3395 1.79864E-04 3.07434E-05-3.75228E-06
 -1      3396 1.81232E-04 2.96812E-05-4.65744E-05
 -1      3397 1.80902E-04 3.08383E-05-4.11173E-05
 -1      3398 1.82101E-04 2.77578E-05-2.00046E-05
 -1      3399 1.80577E-04 3.20211E-05-1.65459E-05
 -1      3400 1.81596E-04 3.24056E-05-3.63883E-05
 -1      3401 2.05771E-04 2.81567E-04-2.88961E-05
 -1      3402 2.11168E-04 2.92480E-04-4.38229E-06
 -1      3403 1.91500E-04 1.77218E-04-4.39650E-05
 -1      3404 1.96459E-04 1.86782E-04-2.78314E-06
 -1      3405 1.88251E-04 1.20313E-04-1.64718E-06
 -1      3406 1.82632E-04 1.10526E-04-5.75634E-05
 -1      3407 1.80337E-04 3.00519E-05-2.19520E-06
 -1      3408 1.77502E-04 2.90442E-05-7.54077E-05
 -1      3409 1.80331E-04 3.12866E-05-6.04523E-05
 -1      3410 1.81166E-04 3.05153E-05-8.11289E-06
 -1      3411 1.80387E-04 3.12918E-05-1.01919E-05
 -1      3412 1.81346E-04 2.48994E-05-5.23464E-05
 -1      3413 1.79949E-04 2.81724E-05-5.63179E-05
 -1      3414 1.81413E-04 3.40390E-05-1.31262E-05
 -1      3415 1.77682E-04 6.19363E-05-7.00251E-05
 -1      3416 1.83936E-04 7.17687E-05-9.40911E-07
 -1      3417 1.75095E-04 2.53895E-05-7.96711E-05
 -1      3418 1.81282E-04 3.27699E-05-9.06327E-07
 -1      3419 2.00257E-04 2.33162E-04-3.45516E-05
 -1      3420 2.05522E-04 2.57437E-04-2.94869E-05
 -1      3421 1.99764E-04 2.09001E-04-3.56969E-05
 -1      3422 2.11861E-04 3.13518E-04-2.39368E-05
 -1      3423 2.09453E-04 2.80335E-04-2.39661E-05
 -1      3424 2.04151E-04 2.41952E-04-4.82855E-06
 -1      3425 2.06302E-04 2.56915E-04-8.71604E-06
 -1      3426 2.00067E-04 2.11204E-04-1.05646E-05
 -1      3427 2.13286E-04 3.07778E-04-8.22832E-06
 -1      3428 2.03583E-04 2.35533E-04-1.35980E-05
 -1      3429 1.96984E-04 1.88476E-04-1.41558E-05
 -1      3430 1.95066E-04 1.74948E-04-1.06948E-05
 -1      3431 1.91755E-04 1.47512E-04-1.57059E-05
 -1      3432 1.94807E-04 1.69608E-04-1.78017E-05
 -1      3433 1.89931E-04 1.35371E-04-1.19912E-05
 -1      3434 1.90747E-04 1.39463E-04-1.85094E-05
 -1      3435 1.91825E-04 1.45977E-04-2.09285E-05
 -1      3436 1.95890E-04 1.78015E-04-2.04234E-05
 -1      3437 1.93383E-04 1.56972E-04-2.33915E-05
 -1      3438 1.89360E-04 1.24305E-04-2.41804E-05
 -1      3439 1.90918E-04 1.35897E-04-2.63822E-05
 -1      3440 1.94533E-04 1.64386E-04-2.60470E-05
 -1      3441 1.91455E-04 1.38691E-04-2.93718E-05
 -1      3442 1.95329E-04 1.68721E-04-2.88347E-05
 -1      3443 1.92399E-04 1.45128E-04-3.21638E-05
 -1      3444 1.98550E-04 1.94566E-04-2.51277E-05
 -1      3445 1.89539E-04 1.21346E-04-3.26624E-05
 -1      3446 1.89640E-04 1.21264E-04-3.53432E-05
 -1      3447 1.92842E-04 1.46969E-04-3.49428E-05
 -1      3448 1.90150E-04 1.24331E-04-3.79923E-05
 -1      3449 1.88268E-04 1.13509E-04-2.62560E-05
 -1      3450 1.86603E-04 9.84171E-05-2.39445E-05
 -1      3451 1.87613E-04 1.01139E-04-3.82648E-05
 -1      3452 1.87328E-04 9.92689E-05-4.11059E-05
 -1      3453 1.90201E-04 1.23268E-04-4.06656E-05
 -1      3454 1.87390E-04 9.92689E-05-4.39364E-05
 -1      3455 1.89819E-04 1.20523E-04-4.34038E-05
 -1      3456 1.87289E-04 9.90875E-05-4.68353E-05
 -1      3457 1.89585E-04 1.18747E-04-4.60713E-05
 -1      3458 1.87531E-04 9.99883E-05-4.91213E-05
 -1      3459 1.89316E-04 1.17546E-04-4.85569E-05
 -1      3460 1.86793E-04 9.55397E-05-5.25242E-05
 -1      3461 1.88671E-04 1.14924E-04-5.11370E-05
 -1      3462 1.86953E-04 9.77204E-05-5.47985E-05
 -1      3463 1.87957E-04 1.13724E-04-5.33287E-05
 -1      3464 1.85475E-04 9.22270E-05-5.79193E-05
 -1      3465 1.92651E-04 1.45200E-04-4.03458E-05
 -1      3466 1.91070E-04 1.35688E-04-4.72507E-05
 -1      3467 1.85212E-04 8.14315E-05-2.63764E-05
 -1      3468 1.81033E-04 3.03716E-05-2.66167E-05
 -1      3469 1.85077E-04 7.72376E-05-4.59843E-05
 -1      3470 1.99413E-04 1.99383E-04-2.79874E-05
 -1      3471 2.02963E-04 2.27115E-04-2.39031E-05
 -1      3472 1.85551E-04 8.06439E-05-4.03342E-05
 -1      3473 1.85358E-04 7.78322E-05-3.82601E-05
 -1      3474 1.80818E-04 2.73089E-05-3.98082E-05
 -1      3475 1.85206E-04 7.94752E-05-5.20407E-05
 -1      3476 1.84438E-04 7.53862E-05-5.48539E-05
 -1      3477 1.83615E-04 6.79363E-05-5.90242E-05
 -1      3478 1.85361E-04 7.83980E-05-4.85692E-05
 -1      3479 1.88345E-04 1.15404E-04-2.21349E-05
 -1      3480 1.85799E-04 9.04151E-05-2.25331E-05
 -1      3481 1.84428E-04 7.63014E-05-2.37725E-05
 -1      3482 1.81731E-04 3.42093E-05-2.36640E-05
 -1      3483 1.87159E-04 1.04703E-04-2.06792E-05
 -1      3484 1.85038E-04 8.20715E-05-2.09185E-05
 -1      3485 1.85901E-04 9.45857E-05-1.93033E-05
 -1      3486 1.79440E-04 2.55057E-05-2.17978E-05
 -1      3487 1.84146E-04 7.12133E-05-1.94640E-05
 -1      3488 1.84953E-04 8.45217E-05-1.80496E-05
 -1      3489 1.88712E-04 1.23002E-04-1.58875E-05
 -1      3490 1.85607E-04 8.10677E-05-4.36513E-05
 -1      3491 1.86401E-04 1.09170E-04-5.60653E-05
 -1      3492 1.88877E-04 1.30661E-04-5.13333E-05
 -1      3493 1.84438E-04 8.83192E-05-6.08038E-05
 -1      3494 1.82958E-04 7.26441E-05-6.24824E-05
 -1      3495 1.82252E-04 6.99635E-05-6.47910E-05
 -1      3496 1.86696E-04 9.43633E-05-3.65600E-05
 -1      3497 1.85368E-04 7.31001E-05-3.64800E-05
 -1      3498 1.84143E-04 6.69544E-05-2.28426E-05
 -1      3499 1.88404E-04 1.13387E-04-2.96752E-05
 -1      3500 1.86608E-04 9.25781E-05-3.21621E-05
 -1      3501 1.85941E-04 8.75750E-05-3.49863E-05
 -1      3502 1.84440E-04 6.82569E-05-3.52099E-05
 -1      3503 1.81536E-04 3.11814E-05-3.45041E-05
 -1      3504 1.83833E-04 6.39315E-05-3.99410E-05
 -1      3505 1.83912E-04 6.01607E-05-4.17736E-05
 -1      3506 1.84085E-04 6.33005E-05-4.54839E-05
 -1      3507 1.83870E-04 5.97365E-05-4.73262E-05
 -1      3508 1.83553E-04 6.11877E-05-4.36754E-05
 -1      3509 1.81523E-04 5.67783E-05-6.58096E-05
 -1      3510 1.82083E-04 5.74306E-05-6.35956E-05
 -1      3511 1.96819E-04 1.88825E-04-7.69721E-06
 -1      3512 1.92773E-04 1.58421E-04-8.19398E-06
 -1      3513 2.15835E-04 3.35585E-04-1.94595E-05
 -1      3514 2.12238E-04 2.99769E-04-1.74890E-05
 -1      3515 1.92456E-04 1.56668E-04-2.99967E-06
 -1      3516 2.01099E-04 2.14848E-04-2.09176E-05
 -1      3517 1.83276E-04 5.89689E-05-5.48846E-05
 -1      3518 1.83560E-04 5.91237E-05-5.26343E-05
 -1      3519 1.81148E-04 9.05529E-05-6.21753E-05
 -1      3520 1.86115E-04 9.90052E-05-1.75201E-06
 -1      3521 1.87142E-04 1.08780E-04-3.08791E-06
 -1      3522 1.85066E-04 8.69956E-05-3.07506E-06
 -1      3523 1.85921E-04 9.78848E-05-4.43207E-06
 -1      3524 1.88117E-04 1.19497E-04-4.58030E-06
 -1      3525 1.86901E-04 1.06161E-04-5.89120E-06
 -1      3526 1.84771E-04 8.34295E-05-5.58872E-06
 -1      3527 1.85397E-04 9.14762E-05-7.18931E-06
 -1      3528 1.87568E-04 1.13005E-04-7.39339E-06
 -1      3529 1.85874E-04 9.78043E-05-8.55846E-06
 -1      3530 1.84358E-04 7.55836E-05-8.47114E-06
 -1      3531 1.84784E-04 8.22689E-05-9.68890E-06
 -1      3532 1.86621E-04 1.02901E-04-1.00441E-05
 -1      3533 1.85114E-04 8.64914E-05-1.10682E-05
 -1      3534 1.83497E-04 6.84015E-05-7.06534E-06
 -1      3535 1.83055E-04 5.82716E-05-6.21588E-06
 -1      3536 1.83658E-04 6.71037E-05-4.91494E-06
 -1      3537 1.83577E-04 6.55044E-05-1.07862E-05
 -1      3538 1.83620E-04 6.74429E-05-1.20444E-05
 -1      3539 1.85394E-04 8.82108E-05-1.25455E-05
 -1      3540 1.83462E-04 6.95155E-05-1.33173E-05
 -1      3541 1.85557E-04 8.95308E-05-1.34999E-05
 -1      3542 1.83822E-04 7.04458E-05-1.45434E-05
 -1      3543 1.85704E-04 9.11146E-05-1.50616E-05
 -1      3544 1.84142E-04 7.47720E-05-1.57803E-05
 -1      3545 1.83048E-04 6.15266E-05-9.51419E-06
 -1      3546 1.87021E-04 1.07251E-04-1.39967E-05
 -1      3547 1.85484E-04 8.99908E-05-1.65723E-05
 -1      3548 1.83150E-04 6.28574E-05-1.83028E-05
 -1      3549 1.83819E-04 5.94564E-05-3.86481E-05
 -1      3550 1.84970E-04 1.33084E-04-5.27076E-05
 -1      3551 1.83647E-04 6.04919E-05-2.08352E-05
 -1      3552 1.82854E-04 5.61580E-05-5.68792E-05
 -1      3553 1.87205E-04 1.06059E-04-1.74537E-05
 -1      3554 1.83543E-04 6.94717E-05-6.08388E-05
 -1      3555 1.80453E-04 5.28014E-05-6.85714E-05
 -1      3556 1.81183E-04 6.54884E-05-6.74231E-05
 -1      3557 1.82773E-04 5.32925E-05-1.37781E-05
 -1      3558 1.82575E-04 5.49182E-05-1.54577E-05
 -1      3559 1.82605E-04 5.15312E-05-1.93411E-05
 -1      3560 1.83337E-04 5.33853E-05-3.74964E-05
 -1      3561 1.86765E-04 1.05527E-04-1.15102E-05
 -1      3562 1.88483E-04 1.21979E-04-1.08572E-05
 -1      3563 2.03123E-04 2.30326E-04-3.00421E-05
 -1      3564 1.98397E-04 1.91373E-04-3.47573E-05
 -1      3565 1.95584E-04 1.70739E-04-3.94837E-05
 -1      3566 1.95645E-04 1.78755E-04-4.10449E-05
 -1      3567 1.82686E-04 5.35087E-05-8.59904E-06
 -1      3568 1.81800E-04 5.21434E-05-6.21351E-05
 -1      3569 1.82327E-04 4.93500E-05-6.04681E-05
 -1      3570 1.82558E-04 4.54265E-05-4.53169E-05
 -1      3571 1.79434E-04 4.82192E-05-7.12534E-05
 -1      3572 1.83742E-04 5.73762E-05-2.39914E-05
 -1      3573 1.83404E-04 6.07377E-05-2.48835E-05
 -1      3574 1.85300E-04 7.74009E-05-4.20605E-05
 -1      3575 1.84122E-04 7.22833E-05-1.71202E-05
 -1      3576 1.82748E-04 5.27552E-05-1.72251E-05
 -1      3577 1.88992E-04 1.27590E-04-6.07953E-06
 -1      3578 1.84867E-04 7.29646E-05-5.07963E-05
 -1      3579 1.83182E-04 5.53322E-05-5.11369E-05
 -1      3580 1.83738E-04 6.02111E-05-4.89660E-05
 -1      3581 1.94178E-04 1.69681E-04-5.42812E-06
 -1      3582 1.83006E-04 5.64124E-05-1.63425E-05
 -1      3583 1.99810E-04 2.06854E-04-1.73032E-05
 -1      3584 2.05565E-04 2.49322E-04-1.68732E-05
 -1      3585 1.80048E-04 4.10694E-05-6.89395E-05
 -1      3586 1.81722E-04 3.64755E-05-3.71914E-05
 -1      3587 1.83135E-04 5.11669E-05-3.65080E-05
 -1      3588 1.76470E-04 4.65776E-05-7.43308E-05
 -1      3589 1.82711E-04 5.43555E-05-1.28263E-05
 -1      3590 1.82968E-04 5.49924E-05-1.11164E-06
 -1      3591 1.83414E-04 6.37659E-05-1.54214E-06
 -1      3592 2.18308E-04 3.71684E-04-1.96221E-05
 -1      3593 1.76254E-04 2.90077E-05-7.73190E-05
 -1      3594 2.09729E-04 2.80510E-04-1.24335E-05
 -1      3595 1.78141E-04 4.72600E-05-7.30458E-05
 -1      3596 1.80024E-04 2.77555E-05-1.20224E-06
 -1      3597 1.81037E-04 3.17828E-05-2.12064E-06
 -1      3598 1.77208E-04 2.76258E-05-7.35887E-05
 -1      3599 1.81646E-04 3.13199E-05-2.88864E-06
 -1      3600 1.82428E-04 5.16972E-05-2.77312E-06
 -1      3601 1.79177E-04 2.97967E-05-4.15825E-06
 -1      3602 1.81764E-04 5.04888E-05-3.71842E-06
 -1      3603 1.82078E-04 4.85206E-05-4.69084E-06
 -1      3604 1.95842E-04 1.71987E-04-3.15867E-05
 -1      3605 1.81715E-04 2.75798E-05-4.44924E-06
 -1      3606 1.78050E-04 2.70059E-05-6.56962E-05
 -1      3607 1.79863E-04 2.71478E-05-6.88018E-05
 -1      3608 1.81185E-04 3.44057E-05-6.02910E-06
 -1      3609 1.79453E-04 2.73677E-05-6.49314E-05
 -1      3610 1.80251E-04 2.79175E-05-6.22031E-05
 -1      3611 1.81590E-04 4.71677E-05-5.88061E-05
 -1      3612 1.82300E-04 4.33829E-05-5.67077E-05
 -1      3613 1.80743E-04 3.48820E-05-5.96936E-06
 -1      3614 1.80589E-04 2.93476E-05-5.93675E-05
 -1      3615 1.80244E-04 3.09915E-05-7.40908E-06
 -1      3616 1.82266E-04 4.93040E-05-7.84395E-06
 -1      3617 1.81341E-04 3.15102E-05-8.27451E-06
 -1      3618 1.81421E-04 3.19276E-05-9.69438E-06
 -1      3619 1.80857E-04 3.17861E-05-1.09843E-05
 -1      3620 1.81422E-04 2.97387E-05-5.52276E-05
 -1      3621 1.79961E-04 3.18596E-05-1.27350E-05
 -1      3622 1.82783E-04 5.05552E-05-3.53092E-05
 -1      3623 1.83744E-04 6.08201E-05-3.39518E-05
 -1      3624 1.85270E-04 8.03145E-05-3.36341E-05
 -1      3625 1.84636E-04 7.39803E-05-3.24080E-05
 -1      3626 1.81889E-04 3.06864E-05-3.18703E-05
 -1      3627 1.85664E-04 8.59085E-05-3.08437E-05
 -1      3628 1.83877E-04 6.23537E-05-3.13736E-05
 -1      3629 1.84575E-04 7.17149E-05-2.98269E-05
 -1      3630 1.82247E-04 3.79777E-05-2.88429E-05
 -1      3631 1.86424E-04 9.39306E-05-2.89961E-05
 -1      3632 1.85071E-04 7.93515E-05-2.84003E-05
 -1      3633 1.83672E-04 6.10777E-05-2.87314E-05
 -1      3634 1.84182E-04 6.84040E-05-2.76371E-05
 -1      3635 1.82916E-04 5.20472E-05-3.27939E-05
 -1      3636 1.83875E-04 6.51135E-05-2.62694E-05
 -1      3637 1.82844E-04 5.37414E-05-3.04329E-05
 -1      3638 1.82522E-04 4.42402E-05-3.37869E-05
 -1      3639 1.81058E-04 2.84267E-05-5.33099E-05
 -1      3640 1.82303E-04 3.48165E-05-5.13731E-05
 -1      3641 1.80225E-04 3.34912E-05-1.37488E-05
 -1      3642 1.81626E-04 3.03414E-05-4.85153E-05
 -1      3643 1.82280E-04 3.06596E-05-5.03291E-05
 -1      3644 1.80697E-04 2.64438E-05-4.56779E-05
 -1      3645 1.81493E-04 3.10125E-05-4.73426E-05
 -1      3646 1.83071E-04 4.73325E-05-4.64558E-05
 -1      3647 1.81675E-04 3.34090E-05-1.53748E-05
 -1      3648 1.81711E-04 3.12627E-05-4.31109E-05
 -1      3649 1.82614E-04 4.78669E-05-4.31408E-05
 -1      3650 1.82147E-04 3.04441E-05-4.21946E-05
 -1      3651 1.80239E-04 3.19447E-05-1.68401E-05
 -1      3652 1.81129E-04 3.18170E-05-1.12549E-05
 -1      3653 1.82181E-04 4.89815E-05-1.15088E-05
 -1      3654 1.81656E-04 3.30641E-05-1.92281E-05
 -1      3655 1.80998E-04 3.31674E-05-1.42727E-05
 -1      3656 1.81403E-04 3.48793E-05-2.05971E-05
 -1      3657 1.80504E-04 2.95801E-05-2.28429E-05
 -1      3658 1.82245E-04 3.15072E-05-3.53535E-05
 -1      3659 1.80727E-04 2.98613E-05-4.47978E-05
 -1      3660 1.81446E-04 2.96910E-05-2.96607E-05
 -1      3661 1.79512E-04 2.64788E-05-2.69459E-05
 -1      3662 1.83337E-04 4.84858E-05-2.71287E-05
 -1      3663 1.82278E-04 4.83940E-05-2.80458E-05
 -1      3664 1.82312E-04 3.58288E-05-1.59893E-05
 -1      3665 1.82162E-04 3.31778E-05-1.77065E-05
 -1      3666 1.81649E-04 3.02663E-05-1.97518E-05
 -1      3667 1.82521E-04 4.88333E-05-6.61584E-06
 -1      3668 1.80618E-04 2.96816E-05-2.20798E-05
 -1      3669 1.83144E-04 5.12059E-05-2.22543E-05
 -1      3670 1.81475E-04 2.90679E-05-4.07269E-05
 -1      3671 1.81837E-04 2.95190E-05-3.92380E-05
 -1      3672 1.80451E-04 3.00921E-05-2.45422E-05
 -1      3673 1.82472E-04 3.12682E-05-2.57502E-05
 -1      3674 1.81331E-04 2.94415E-05-2.82362E-05
 -1      3675 1.81612E-04 3.36510E-05-3.08599E-05
 -1      3676 1.81037E-04 2.98658E-05-3.21548E-05
 -1      3677 1.84478E-04 8.03234E-05-1.80641E-06
 -1      3678 1.83732E-04 6.92192E-05-2.33810E-06
 -1      3679 1.82923E-04 6.56170E-05-3.41295E-06
 -1      3680 1.89271E-04 1.29822E-04-3.14780E-06
 -1      3681 1.88135E-04 1.07750E-04-3.46230E-05
 -1      3682 1.83591E-04 6.53640E-05-2.16968E-05
 -1      3683 1.82115E-04 4.91665E-05-5.36262E-06
 -1      3684 1.89549E-04 1.27331E-04-2.01859E-05
 -1      3685 1.82462E-04 4.87871E-05-2.59206E-05
 -1      3686 2.22769E-04 3.94170E-04-1.36295E-05
 -1      3687 2.19454E-04 3.56517E-04-4.76491E-06
 -1      3688 1.92789E-04 1.46386E-04-3.76492E-05
 -1      3689 1.88096E-04 1.14617E-04-1.90568E-05
 -1      3690 1.82448E-04 4.59277E-05-5.41667E-05
 -1      3691 1.85101E-04 8.16162E-05-2.50768E-05
 -1      3692 2.04029E-04 2.34944E-04-2.64306E-05
 -1      3693 2.07057E-04 2.58912E-04-2.23907E-05
 -1      3694 2.26385E-04 4.21084E-04-6.61130E-06
 -1      3695 1.82441E-04 4.88753E-05-1.06458E-05
 -1      3696 1.88090E-04 1.10458E-04-2.81252E-05
 -1      3697 1.90586E-04 1.41271E-04-1.62830E-06
 -1      3698 1.82383E-04 8.19624E-05-6.34860E-05
 -1      3699 1.88355E-04 1.19525E-04-9.17588E-06
 -1      3700 1.96807E-04 1.82475E-04-2.32539E-05
 -1      3701 1.82974E-04 4.80849E-05-5.02805E-05
 -1      3702 2.17889E-04 3.41800E-04-1.09873E-05
 -1      3703 1.82454E-04 4.81185E-05-4.09807E-05
 -1      3704 1.82359E-04 5.10277E-05-1.99737E-05
 -1      3705 1.92275E-04 1.42339E-04-4.30624E-05
 -1      3706 1.89797E-04 1.30101E-04-4.99933E-05
 -1      3707 1.91991E-04 1.54541E-04-4.63875E-05
 -1      3708 1.89174E-04 1.49574E-04-4.86790E-05
 -1      3709 1.91220E-04 1.35021E-04-4.56740E-05
 -1      3710 1.93699E-04 1.58068E-04-4.31422E-05
 -1      3711 1.82391E-04 4.93379E-05-1.32386E-05
 -1      3712 1.85073E-04 8.29929E-05-5.78669E-05
 -1      3713 1.83249E-04 6.38888E-05-4.09381E-06
 -1      3714 1.84490E-04 8.03122E-05-4.20165E-06
 -1      3715 1.83738E-04 9.99099E-05-5.92930E-05
 -1      3716 1.86226E-04 1.22759E-04-5.41818E-05
 -1      3717 1.82341E-04 4.74122E-05-1.80660E-05
 -1      3718 1.86800E-04 1.03183E-04-1.27797E-05
 -1      3719 1.95597E-04 1.69018E-04-3.44310E-05
 -1      3720 1.99446E-04 1.98752E-04-3.10942E-05
 -1      3721 1.91134E-04 1.44494E-04-1.02395E-05
 -1      3722 1.81385E-04 2.95574E-05-3.67964E-05
 -1      3723 1.83022E-04 4.87594E-05-3.11899E-05
 -1      3724 1.83678E-04 4.74162E-05-4.84636E-05
 -1      3725 1.87062E-04 1.07450E-04-1.54153E-05
 -1      3726 1.89315E-04 1.28525E-04-1.39350E-05
 -1      3727 1.81320E-04 2.59645E-05-3.37891E-05
 -1      3728 1.79524E-04 2.40454E-05-5.73306E-05
 -1      3729 2.12094E-04 3.36177E-04-2.38403E-05
 -1      3730 1.82098E-04 4.77795E-05-2.30360E-05
 -1      3731 1.90773E-04 1.42646E-04-4.69272E-06
 -1      3732 1.91566E-04 1.49117E-04-6.46719E-06
 -1      3733 1.90202E-04 1.36057E-04-7.94479E-06
 -1      3734 1.83344E-04 5.09639E-05-2.95315E-05
 -1      3735 1.83292E-04 4.89498E-05-2.47018E-05
 -1      3736 2.24464E-04 4.38646E-04-1.58980E-05
 -1      3737 1.77524E-04 2.30903E-05-7.03810E-05
 -1      3738 1.95126E-04 2.09422E-04-3.88642E-05
 -1      3739 2.00794E-04 2.18175E-04-2.84617E-06
 -1      3740 1.79304E-04 4.10099E-05-7.12331E-05
 -1      3741 1.82266E-04 5.09172E-05-2.00860E-06
 -1      3742 1.82899E-04 5.02536E-05-1.46105E-05
 -1      3743 1.83640E-04 6.40718E-05-5.77038E-05
 -1      3744 1.78587E-04 7.94274E-05-6.52811E-05
 -1      3745 1.87258E-04 1.00720E-04-3.32687E-05
 -1      3746 1.85307E-04 8.80098E-05-9.93357E-07
 -1      3747 1.80421E-04 4.29547E-05-6.63412E-05
 -1      3748 1.83091E-04 4.57131E-05-3.97507E-05
 -1      3749 1.95256E-04 1.65803E-04-3.73259E-05
 -1      3750 1.82397E-04 4.40049E-05-5.22768E-05
 -1      3751 1.79680E-04 5.97853E-05-6.96065E-05
 -1      3752 1.84697E-04 7.23722E-05-4.76275E-05
 -1      3753 1.82075E-04 4.76734E-05-3.20870E-06
 -1      3754 2.05936E-04 2.50639E-04-2.03736E-05
 -1      3755 1.82360E-04 4.76869E-05-1.86521E-05
 -1      3756 1.82821E-04 4.81356E-05-7.17626E-06
 -1      3757 1.82096E-04 4.24678E-05-5.53922E-05
 -1      3758 1.82062E-04 4.66473E-05-9.37945E-06
 -1      3759 1.82095E-04 4.64443E-05-1.20808E-05
 -1      3760 1.82271E-04 4.64024E-05-1.08536E-05
 -1      3761 1.82630E-04 4.45432E-05-4.95451E-05
 -1      3762 1.81922E-04 4.47543E-05-4.43621E-05
 -1      3763 1.82308E-04 4.41377E-05-4.76753E-05
 -1      3764 1.82028E-04 4.53564E-05-9.92617E-06
 -1      3765 1.82378E-04 4.39629E-05-4.16954E-05
 -1      3766 1.82840E-04 4.31304E-05-5.32072E-05
 -1      3767 1.82666E-04 4.67001E-05-2.15025E-05
 -1      3768 1.82420E-04 4.40574E-05-4.23699E-05
 -1      3769 1.82380E-04 4.60467E-05-3.19337E-05
 -1      3770 1.82619E-04 4.53501E-05-2.53503E-05
 -1      3771 1.82538E-04 4.62368E-05-1.67234E-05
 -1      3772 1.86401E-04 9.32249E-05-2.70579E-05
 -1      3773 1.75057E-04 3.58877E-05-7.75528E-05
 -1      3774 1.82313E-04 4.35396E-05-6.88700E-07
 -1      3775 1.81407E-04 4.24818E-05-6.20105E-05
 -1      3776 1.83266E-04 6.19397E-05-7.82155E-06
 -1      3777 1.88278E-04 1.18514E-04-1.23742E-05
 -1      3778 1.85138E-04 8.15268E-05-5.60181E-05
 -1      3779 1.82487E-04 4.61958E-05-1.51995E-06
 -1      3780 1.73019E-04 2.16773E-05-8.22648E-05
 -1      3781 1.80017E-04 2.71922E-05 3.98890E-08
 -1      3782 1.95585E-04 1.93879E-04-4.02486E-05
 -1      3783 1.81412E-04 4.37947E-05-6.43117E-05
 -1      3784 1.82896E-04 4.53697E-05-3.87285E-05
 -1      3785 1.89265E-04 1.26757E-04-1.73319E-05
 -1      3786 1.81736E-04 4.65015E-05-8.17006E-06
 -1      3787 1.85911E-04 8.54328E-05-4.67796E-05
 -1      3788 1.84126E-04 6.62408E-05-5.00204E-05
 -1      3789 1.89678E-04 1.25702E-04-2.83224E-05
 -1      3790 1.98720E-04 2.03802E-04-5.09315E-06
 -1      3791 2.01333E-04 2.21262E-04-7.43324E-06
 -1      3792 1.86243E-04 8.68239E-05-4.94272E-05
 -1      3793 1.81782E-04 4.42461E-05-5.78811E-05
 -1      3794 1.80687E-04 7.46451E-05-6.60072E-05
 -1      3795 1.86656E-04 9.93082E-05-2.55419E-05
 -1      3796 1.82503E-04 4.48546E-05-3.46140E-05
 -1      3797 1.88689E-04 1.12430E-04-3.14348E-05
 -1      3798 1.84547E-04 7.65583E-05-2.20673E-05
 -1      3799 1.92412E-04 1.54091E-04-1.28655E-05
 -1      3800 1.84572E-04 6.66909E-05-3.78400E-05
 -1      3801 1.81396E-04 3.20919E-05-2.58770E-08
 -1      3802 1.78454E-04 1.63089E-05-2.48031E-07
 -1      3803 1.77534E-04 1.48787E-05-4.13605E-07
 -1      3804 2.30561E-04 4.69838E-04-2.99859E-06
 -1      3805 2.25847E-04 4.12868E-04-3.44968E-06
 -1      3806 2.29858E-04 4.68746E-04-8.38819E-06
 -1      3807 1.70687E-04 1.27184E-05-8.54346E-05
 -1      3808 1.72938E-04 2.56010E-05-8.15340E-05
 -1      3809 1.71206E-04 1.17930E-05-8.34346E-05
 -1      3810 2.21086E-04 4.18960E-04-1.80998E-05
 -1      3811 2.25241E-04 4.75878E-04-1.56963E-05
 -1      3812 2.28692E-04 4.77125E-04-1.27683E-05
 -1      3813 1.82599E-04 5.21210E-05-3.54813E-07
 -1      3814 1.82027E-04 4.00935E-05-2.47515E-07
 -1      3815 1.81397E-04 3.61213E-05-4.70467E-07
 -1      3816 1.84175E-04 7.68875E-05-4.69782E-07
 -1      3817 1.83419E-04 6.58157E-05-4.83897E-07
 -1      3818 1.83456E-04 6.37650E-05-9.21157E-07
 -1      3819 1.82843E-04 5.71905E-05-5.33787E-07
 -1      3820 1.82720E-04 4.94691E-05-8.85079E-07
 -1      3821 1.85943E-04 9.73061E-05-4.74188E-07
 -1      3822 1.84860E-04 8.49459E-05-4.96060E-07
 -1      3823 1.84684E-04 8.02573E-05-9.72171E-07
 -1      3824 1.88937E-04 1.27083E-04-8.15744E-07
 -1      3825 1.87475E-04 1.13296E-04-8.27486E-07
 -1      3826 1.87239E-04 1.10033E-04-1.70787E-06
 -1      3827 1.86383E-04 1.02510E-04-8.70445E-07
 -1      3828 1.85720E-04 9.36197E-05-1.36309E-06
 -1      3829 1.92135E-04 1.54057E-04-8.13304E-07
 -1      3830 1.90110E-04 1.37474E-04-8.16337E-07
 -1      3831 1.89453E-04 1.31106E-04-1.64312E-06
 -1      3832 1.97755E-04 1.96521E-04-1.36552E-06
 -1      3833 1.95074E-04 1.76641E-04-1.40818E-06
 -1      3834 1.94525E-04 1.72089E-04-2.87644E-06
 -1      3835 1.93061E-04 1.61483E-04-1.48826E-06
 -1      3836 1.91531E-04 1.49125E-04-2.30569E-06
 -1      3837 2.03439E-04 2.37238E-04-1.38503E-06
 -1      3838 1.99906E-04 2.12137E-04-1.44237E-06
 -1      3839 1.98707E-04 2.02789E-04-2.83969E-06
 -1      3840 2.13011E-04 3.06197E-04-2.11684E-06
 -1      3841 2.08648E-04 2.74308E-04-2.30329E-06
 -1      3842 2.07796E-04 2.67598E-04-4.60296E-06
 -1      3843 2.05077E-04 2.48897E-04-2.37386E-06
 -1      3844 2.02512E-04 2.30183E-04-3.87513E-06
 -1      3845 2.22355E-04 3.80546E-04-2.21968E-06
 -1      3846 2.17213E-04 3.38260E-04-2.51143E-06
 -1      3847 2.15502E-04 3.24806E-04-4.60408E-06
 -1      3848 2.23182E-04 3.88988E-04-5.83206E-06
 -1      3849 1.73647E-04 3.26424E-05-7.89740E-05
 -1      3850 1.74003E-04 4.36578E-05-7.54759E-05
 -1      3851 1.74237E-04 2.93133E-05-7.96780E-05
 -1      3852 1.75748E-04 5.62450E-05-7.17984E-05
 -1      3853 1.76371E-04 6.69625E-05-6.88475E-05
 -1      3854 1.74958E-04 4.83975E-05-7.41193E-05
 -1      3855 1.77171E-04 5.45367E-05-7.20493E-05
 -1      3856 1.75911E-04 4.13723E-05-7.58002E-05
 -1      3857 1.76927E-04 7.56904E-05-6.64473E-05
 -1      3858 1.77825E-04 8.78067E-05-6.33464E-05
 -1      3859 1.78173E-04 7.10125E-05-6.74961E-05
 -1      3860 1.80208E-04 1.03170E-04-5.95308E-05
 -1      3861 1.81465E-04 1.16914E-04-5.64574E-05
 -1      3862 1.79340E-04 9.30153E-05-6.19182E-05
 -1      3863 1.81917E-04 1.00870E-04-5.97663E-05
 -1      3864 1.79982E-04 8.51069E-05-6.36756E-05
 -1      3865 1.82800E-04 1.28157E-04-5.40279E-05
 -1      3866 1.84580E-04 1.44864E-04-5.06654E-05
 -1      3867 1.83849E-04 1.22134E-04-5.50016E-05
 -1      3868 1.88276E-04 1.66766E-04-4.63014E-05
 -1      3869 1.90602E-04 1.87055E-04-4.28642E-05
 -1      3870 1.86995E-04 1.52751E-04-4.87952E-05
 -1      3871 1.90361E-04 1.63668E-04-4.62159E-05
 -1      3872 1.87230E-04 1.41445E-04-5.06623E-05
 -1      3873 1.92584E-04 2.03088E-04-4.03296E-05
 -1      3874 1.95836E-04 2.28844E-04-3.66833E-05
 -1      3875 1.93349E-04 1.93627E-04-4.12745E-05
 -1      3876 2.01670E-04 2.64720E-04-3.16851E-05
 -1      3877 2.05743E-04 2.97434E-04-2.81416E-05
 -1      3878 1.98668E-04 2.40328E-04-3.46752E-05
 -1      3879 2.03081E-04 2.57681E-04-3.15334E-05
 -1      3880 1.97853E-04 2.21385E-04-3.66494E-05
 -1      3881 2.09123E-04 3.24719E-04-2.56001E-05
 -1      3882 2.14334E-04 3.67889E-04-2.21740E-05
 -1      3883 2.09010E-04 3.09163E-04-2.61589E-05
 -1      3884 2.15403E-04 3.53987E-04-2.16519E-05
 -1      3885 2.17548E-04 3.85285E-04-2.02174E-05
 -1      3886 2.21617E-04 4.05401E-04-1.75502E-05
 -1      3887 1.79432E-04 2.10982E-05-5.30449E-07
 -1      3888 1.79597E-04 2.12094E-05-1.12803E-06
 -1      3889 1.80840E-04 3.04159E-05-6.39669E-07
 -1      3890 1.78735E-04 1.71797E-05-1.58511E-06
 -1      3891 1.77808E-04 1.58374E-05-1.59994E-06
 -1      3892 1.81014E-04 3.06137E-05-9.91084E-07
 -1      3893 1.78008E-04 1.74520E-05-1.83778E-06
 -1      3894 1.78772E-04 1.90914E-05-1.84128E-06
 -1      3895 1.80136E-04 2.87101E-05-1.68211E-06
 -1      3896 1.79219E-04 2.05293E-05-2.06098E-06
 -1      3897 1.79297E-04 2.04938E-05-2.57698E-06
 -1      3898 1.80842E-04 3.08157E-05-2.14277E-06
 -1      3899 1.79310E-04 1.95159E-05-3.07464E-06
 -1      3900 1.78915E-04 1.79354E-05-3.32264E-06
 -1      3901 1.81415E-04 3.17412E-05-2.54099E-06
 -1      3902 1.77587E-04 1.71806E-05-3.46153E-06
 -1      3903 1.78022E-04 1.81116E-05-3.76576E-06
 -1      3904 1.80723E-04 3.09386E-05-3.21728E-06
 -1      3905 1.77351E-04 1.62708E-05-3.96170E-06
 -1      3906 1.78052E-04 1.72464E-05-4.06738E-06
 -1      3907 1.79578E-04 3.01806E-05-3.85286E-06
 -1      3908 1.80065E-04 1.60984E-05-4.25869E-06
 -1      3909 1.79640E-04 1.64465E-05-4.58401E-06
 -1      3910 1.80897E-04 2.89768E-05-4.28937E-06
 -1      3911 1.79526E-04 1.88213E-05-5.17572E-06
 -1      3912 1.78444E-04 1.75585E-05-5.23398E-06
 -1      3913 1.81394E-04 2.93816E-05-4.87702E-06
 -1      3914 1.79309E-04 2.21190E-05-5.56276E-06
 -1      3915 1.79186E-04 2.20911E-05-6.07580E-06
 -1      3916 1.81054E-04 3.27429E-05-5.75438E-06
 -1      3917 1.78926E-04 2.18930E-05-6.34269E-06
 -1      3918 1.78135E-04 2.04155E-05-6.47863E-06
 -1      3919 1.81105E-04 3.45012E-05-5.97976E-06
 -1      3920 1.78688E-04 1.92190E-05-6.58031E-06
 -1      3921 1.78927E-04 1.97470E-05-6.80946E-06
 -1      3922 1.80703E-04 3.31614E-05-6.57651E-06
 -1      3923 1.78862E-04 1.98166E-05-7.17571E-06
 -1      3924 1.77986E-04 1.89667E-05-7.88748E-06
 -1      3925 1.80695E-04 3.12002E-05-7.25408E-06
 -1      3926 1.79399E-04 1.93175E-05-7.92944E-06
 -1      3927 1.79525E-04 1.93591E-05-8.21613E-06
 -1      3928 1.80771E-04 3.08691E-05-7.85041E-06
 -1      3929 1.79705E-04 2.01060E-05-8.42413E-06
 -1      3930 1.79697E-04 1.97836E-05-8.80666E-06
 -1      3931 1.81544E-04 3.11180E-05-8.21630E-06
 -1      3932 1.77944E-04 1.94710E-05-8.64757E-06
 -1      3933 1.78279E-04 1.90467E-05-9.12183E-06
 -1      3934 1.81027E-04 3.23887E-05-8.41247E-06
 -1      3935 1.78670E-04 1.76031E-05-9.27345E-06
 -1      3936 1.79117E-04 1.92362E-05-9.58885E-06
 -1      3937 1.80870E-04 3.24194E-05-9.31752E-06
 -1      3938 1.78817E-04 1.92633E-05-1.00910E-05
 -1      3939 1.78598E-04 1.92961E-05-1.04646E-05
 -1      3940 1.81110E-04 3.18383E-05-9.98181E-06
 -1      3941 1.78691E-04 1.75988E-05-1.08000E-05
 -1      3942 1.79432E-04 1.95080E-05-1.09832E-05
 -1      3943 1.80720E-04 3.16404E-05-1.05071E-05
 -1      3944 1.79472E-04 1.95731E-05-1.13743E-05
 -1      3945 1.79084E-04 1.86495E-05-1.16272E-05
 -1      3946 1.81083E-04 3.18054E-05-1.11022E-05
 -1      3947 1.80691E-04 1.87617E-05-1.18111E-05
 -1      3948 1.80771E-04 1.85920E-05-1.21127E-05
 -1      3949 1.81730E-04 3.16038E-05-1.18045E-05
 -1      3950 1.77939E-04 1.73897E-05-1.22520E-05
 -1      3951 1.78697E-04 1.97697E-05-1.22748E-05
 -1      3952 1.81392E-04 3.17185E-05-1.21209E-05
 -1      3953 1.79119E-04 2.13327E-05-1.28486E-05
 -1      3954 1.79047E-04 2.12152E-05-1.34176E-05
 -1      3955 1.80896E-04 3.32446E-05-1.29008E-05
 -1      3956 1.78704E-04 2.06239E-05-1.38858E-05
 -1      3957 1.78017E-04 1.90800E-05-1.39759E-05
 -1      3958 1.81051E-04 3.39690E-05-1.34451E-05
 -1      3959 1.79286E-04 2.04463E-05-1.40808E-05
 -1      3960 1.79337E-04 2.05572E-05-1.42757E-05
 -1      3961 1.80599E-04 3.32967E-05-1.42027E-05
 -1      3962 1.78073E-04 1.55461E-05-1.45354E-05
 -1      3963 1.78632E-04 1.68118E-05-1.47615E-05
 -1      3964 1.80420E-04 3.07312E-05-1.44170E-05
 -1      3965 1.79261E-04 2.01564E-05-1.51673E-05
 -1      3966 1.79210E-04 1.88748E-05-1.57537E-05
 -1      3967 1.80920E-04 3.08946E-05-1.51015E-05
 -1      3968 1.81106E-04 2.20432E-05-1.60427E-05
 -1      3969 1.80987E-04 2.17872E-05-1.61997E-05
 -1      3970 1.81982E-04 3.46819E-05-1.58717E-05
 -1      3971 1.78367E-04 1.84029E-05-1.62539E-05
 -1      3972 1.78759E-04 1.94862E-05-1.67818E-05
 -1      3973 1.81658E-04 3.40465E-05-1.61288E-05
 -1      3974 1.78570E-04 1.94114E-05-1.71892E-05
 -1      3975 1.78015E-04 1.76938E-05-1.75234E-05
 -1      3976 1.80645E-04 3.20924E-05-1.67047E-05
 -1      3977 1.80537E-04 1.97702E-05-1.74492E-05
 -1      3978 1.80946E-04 2.04890E-05-1.76832E-05
 -1      3979 1.81427E-04 3.26526E-05-1.73710E-05
 -1      3980 1.80747E-04 1.93926E-05-1.80781E-05
 -1      3981 1.80643E-04 1.94407E-05-1.83941E-05
 -1      3982 1.82342E-04 3.27320E-05-1.79398E-05
 -1      3983 1.79241E-04 1.98864E-05-1.87972E-05
 -1      3984 1.79412E-04 2.04533E-05-1.93495E-05
 -1      3985 1.81864E-04 3.27239E-05-1.85933E-05
 -1      3986 1.79144E-04 1.86142E-05-1.97671E-05
 -1      3987 1.78978E-04 1.71769E-05-2.02598E-05
 -1      3988 1.81767E-04 3.17378E-05-1.94508E-05
 -1      3989 1.80169E-04 1.61317E-05-2.00269E-05
 -1      3990 1.80098E-04 1.61565E-05-2.00989E-05
 -1      3991 1.81716E-04 2.87038E-05-2.00698E-05
 -1      3992 1.79064E-04 2.08106E-05-2.02921E-05
 -1      3993 1.79252E-04 2.14894E-05-2.09257E-05
 -1      3994 1.81670E-04 3.17518E-05-2.01536E-05
 -1      3995 1.77606E-04 1.41042E-05-2.13634E-05
 -1      3996 1.78343E-04 1.54114E-05-2.16387E-05
 -1      3997 1.80563E-04 3.04718E-05-2.10513E-05
 -1      3998 1.78703E-04 1.68177E-05-2.19691E-05
 -1      3999 1.79343E-04 1.92775E-05-2.16908E-05
 -1      4000 1.80104E-04 2.75451E-05-2.18605E-05
 -1      4001 1.79809E-04 2.09639E-05-2.21681E-05
 -1      4002 1.79852E-04 2.10496E-05-2.28312E-05
 -1      4003 1.81508E-04 3.09654E-05-2.23207E-05
 -1      4004 1.79256E-04 1.89683E-05-2.32964E-05
 -1      4005 1.78385E-04 1.76385E-05-2.35097E-05
 -1      4006 1.81237E-04 3.07685E-05-2.27213E-05
 -1      4007 1.79859E-04 2.19755E-05-2.39178E-05
 -1      4008 1.80104E-04 2.17603E-05-2.41255E-05
 -1      4009 1.81231E-04 3.20181E-05-2.34229E-05
 -1      4010 1.78470E-04 1.74691E-05-2.43703E-05
 -1      4011 1.79444E-04 1.88213E-05-2.44167E-05
 -1      4012 1.81247E-04 3.22966E-05-2.39666E-05
 -1      4013 1.79785E-04 1.93477E-05-2.47428E-05
 -1      4014 1.79217E-04 1.85672E-05-2.50829E-05
 -1      4015 1.81016E-04 3.05628E-05-2.46360E-05
 -1      4016 1.80851E-04 1.88189E-05-2.55302E-05
 -1      4017 1.80832E-04 1.86996E-05-2.59787E-05
 -1      4018 1.81996E-04 3.13864E-05-2.54004E-05
 -1      4019 1.78590E-04 1.72792E-05-2.62008E-05
 -1      4020 1.79131E-04 1.82488E-05-2.67351E-05
 -1      4021 1.81832E-04 3.07859E-05-2.59755E-05
 -1      4022 1.78603E-04 1.59481E-05-2.71279E-05
 -1      4023 1.77874E-04 1.45010E-05-2.73636E-05
 -1      4024 1.80524E-04 2.85288E-05-2.68146E-05
 -1      4025 1.78523E-04 1.75787E-05-2.78274E-05
 -1      4026 1.79425E-04 1.91448E-05-2.78016E-05
 -1      4027 1.79890E-04 2.80983E-05-2.76228E-05
 -1      4028 1.79810E-04 1.92194E-05-2.82005E-05
 -1      4029 1.79544E-04 1.89075E-05-2.86019E-05
 -1      4030 1.81224E-04 2.96983E-05-2.81516E-05
 -1      4031 1.79081E-04 2.38417E-05-2.88314E-05
 -1      4032 1.80446E-04 2.49141E-05-2.90682E-05
 -1      4033 1.81669E-04 3.36673E-05-2.83466E-05
 -1      4034 1.79931E-04 1.92936E-05-2.95062E-05
 -1      4035 1.79784E-04 1.93763E-05-2.99988E-05
 -1      4036 1.82002E-04 3.37577E-05-2.92414E-05
 -1      4037 1.79337E-04 2.10748E-05-3.02490E-05
 -1      4038 1.80325E-04 2.20357E-05-3.07466E-05
 -1      4039 1.81473E-04 3.18060E-05-3.00652E-05
 -1      4040 1.80405E-04 2.18950E-05-3.10931E-05
 -1      4041 1.79616E-04 2.08407E-05-3.12366E-05
 -1      4042 1.81809E-04 3.36787E-05-3.06902E-05
 -1      4043 1.80419E-04 1.95635E-05-3.14372E-05
 -1      4044 1.80230E-04 1.97735E-05-3.20546E-05
 -1      4045 1.81847E-04 3.22595E-05-3.14837E-05
 -1      4046 1.79907E-04 1.91002E-05-3.24039E-05
 -1      4047 1.79997E-04 1.86813E-05-3.29683E-05
 -1      4048 1.81871E-04 3.03806E-05-3.20421E-05
 -1      4049 1.78594E-04 1.92665E-05-3.30978E-05
 -1      4050 1.80130E-04 2.13554E-05-3.32014E-05
 -1      4051 1.81431E-04 3.13477E-05-3.25964E-05
 -1      4052 1.79859E-04 1.69021E-05-3.37333E-05
 -1      4053 1.79862E-04 1.68893E-05-3.43623E-05
 -1      4054 1.81681E-04 2.93574E-05-3.35027E-05
 -1      4055 1.78874E-04 1.85158E-05-3.44164E-05
 -1      4056 1.79516E-04 1.81070E-05-3.49314E-05
 -1      4057 1.81468E-04 2.83742E-05-3.38788E-05
 -1      4058 1.81203E-04 1.96119E-05-3.53712E-05
 -1      4059 1.80909E-04 1.93736E-05-3.56106E-05
 -1      4060 1.81915E-04 3.14362E-05-3.51302E-05
 -1      4061 1.79321E-04 1.95580E-05-3.58274E-05
 -1      4062 1.79854E-04 2.07465E-05-3.61983E-05
 -1      4063 1.81908E-04 3.20627E-05-3.56834E-05
 -1      4064 1.79755E-04 1.90398E-05-3.65763E-05
 -1      4065 1.79765E-04 1.89909E-05-3.70833E-05
 -1      4066 1.81629E-04 3.09506E-05-3.65761E-05
 -1      4067 1.80122E-04 2.39284E-05-3.74497E-05
 -1      4068 1.79821E-04 2.33767E-05-3.79272E-05
 -1      4069 1.81714E-04 3.30392E-05-3.70419E-05
 -1      4070 1.77907E-04 1.67931E-05-3.81335E-05
 -1      4071 1.78017E-04 1.71018E-05-3.85878E-05
 -1      4072 1.80993E-04 3.33533E-05-3.77500E-05
 -1      4073 1.80155E-04 1.86900E-05-3.85904E-05
 -1      4074 1.80101E-04 1.90735E-05-3.93370E-05
 -1      4075 1.81224E-04 2.95369E-05-3.89043E-05
 -1      4076 1.79538E-04 1.73744E-05-3.98927E-05
 -1      4077 1.78683E-04 1.62196E-05-4.01972E-05
 -1      4078 1.81639E-04 2.85109E-05-3.94864E-05
 -1      4079 1.79698E-04 1.88205E-05-4.05831E-05
 -1      4080 1.79940E-04 1.88364E-05-4.10266E-05
 -1      4081 1.81227E-04 2.82478E-05-4.03986E-05
 -1      4082 1.79691E-04 1.94670E-05-4.14678E-05
 -1      4083 1.78935E-04 1.83794E-05-4.16506E-05
 -1      4084 1.81452E-04 2.98172E-05-4.09200E-05
 -1      4085 1.80677E-04 1.87309E-05-4.19969E-05
 -1      4086 1.81086E-04 1.90034E-05-4.24537E-05
 -1      4087 1.81561E-04 3.06432E-05-4.17977E-05
 -1      4088 1.81016E-04 1.95847E-05-4.30448E-05
 -1      4089 1.79937E-04 1.83796E-05-4.33015E-05
 -1      4090 1.82158E-04 3.10203E-05-4.25885E-05
 -1      4091 1.80140E-04 1.96693E-05-4.38456E-05
 -1      4092 1.80165E-04 1.95719E-05-4.43512E-05
 -1      4093 1.81617E-04 3.07951E-05-4.37238E-05
 -1      4094 1.78852E-04 1.70124E-05-4.46079E-05
 -1      4095 1.79295E-04 1.79204E-05-4.50005E-05
 -1      4096 1.80995E-04 2.99846E-05-4.42356E-05
 -1      4097 1.79145E-04 1.46160E-05-4.56068E-05
 -1      4098 1.79442E-04 1.63789E-05-4.57531E-05
 -1      4099 1.80862E-04 2.81706E-05-4.51396E-05
 -1      4100 1.79690E-04 1.89041E-05-4.64799E-05
 -1      4101 1.79546E-04 1.88357E-05-4.70230E-05
 -1      4102 1.81215E-04 2.84903E-05-4.62048E-05
 -1      4103 1.79073E-04 1.77295E-05-4.72515E-05
 -1      4104 1.79036E-04 1.78723E-05-4.78171E-05
 -1      4105 1.81500E-04 3.03972E-05-4.68205E-05
 -1      4106 1.80594E-04 1.89298E-05-4.84299E-05
 -1      4107 1.79475E-04 1.77354E-05-4.87197E-05
 -1      4108 1.81663E-04 3.06165E-05-4.81133E-05
 -1      4109 1.79773E-04 1.86839E-05-4.91549E-05
 -1      4110 1.79491E-04 1.85743E-05-4.99163E-05
 -1      4111 1.81678E-04 2.98391E-05-4.90169E-05
 -1      4112 1.79640E-04 1.92554E-05-5.05678E-05
 -1      4113 1.79821E-04 1.74558E-05-5.09412E-05
 -1      4114 1.81987E-04 3.01103E-05-4.98617E-05
 -1      4115 1.79577E-04 1.96524E-05-5.10869E-05
 -1      4116 1.80044E-04 1.92789E-05-5.15750E-05
 -1      4117 1.81939E-04 3.24058E-05-5.07083E-05
 -1      4118 1.79755E-04 1.35684E-05-5.22732E-05
 -1      4119 1.78898E-04 1.32197E-05-5.29245E-05
 -1      4120 1.81923E-04 2.99560E-05-5.18046E-05
 -1      4121 1.79015E-04 1.64548E-05-5.31115E-05
 -1      4122 1.79183E-04 1.74130E-05-5.34510E-05
 -1      4123 1.81156E-04 2.67259E-05-5.27709E-05
 -1      4124 1.79144E-04 1.79405E-05-5.39918E-05
 -1      4125 1.78569E-04 1.61222E-05-5.44066E-05
 -1      4126 1.81135E-04 2.87795E-05-5.36248E-05
 -1      4127 1.78844E-04 1.81832E-05-5.50031E-05
 -1      4128 1.79064E-04 1.81964E-05-5.57630E-05
 -1      4129 1.81113E-04 2.95459E-05-5.46886E-05
 -1      4130 1.78504E-04 1.72496E-05-5.65432E-05
 -1      4131 1.77480E-04 1.58978E-05-5.69625E-05
 -1      4132 1.80952E-04 2.92396E-05-5.57970E-05
 -1      4133 1.77975E-04 1.46323E-05-5.73405E-05
 -1      4134 1.77760E-04 1.40213E-05-5.77970E-05
 -1      4135 1.79756E-04 2.59893E-05-5.70699E-05
 -1      4136 1.79408E-04 1.83840E-05-5.81980E-05
 -1      4137 1.79753E-04 1.85844E-05-5.88492E-05
 -1      4138 1.80314E-04 2.66100E-05-5.79784E-05
 -1      4139 1.79751E-04 1.93264E-05-5.94878E-05
 -1      4140 1.79261E-04 1.89994E-05-6.01219E-05
 -1      4141 1.80798E-04 2.91706E-05-5.89325E-05
 -1      4142 1.78351E-04 1.95531E-05-6.04352E-05
 -1      4143 1.78943E-04 2.01312E-05-6.14612E-05
 -1      4144 1.80459E-04 3.04991E-05-5.98596E-05
 -1      4145 1.78411E-04 1.60706E-05-6.23595E-05
 -1      4146 1.79342E-04 1.69381E-05-6.26881E-05
 -1      4147 1.80487E-04 2.98495E-05-6.12132E-05
 -1      4148 1.79611E-04 1.78348E-05-6.31787E-05
 -1      4149 1.79388E-04 1.77023E-05-6.38482E-05
 -1      4150 1.80926E-04 2.82961E-05-6.26881E-05
 -1      4151 1.77451E-04 1.63649E-05-6.44722E-05
 -1      4152 1.77675E-04 1.72175E-05-6.54830E-05
 -1      4153 1.80184E-04 2.84239E-05-6.39470E-05
 -1      4154 1.77128E-04 1.69150E-05-6.62674E-05
 -1      4155 1.76124E-04 1.47453E-05-6.67509E-05
 -1      4156 1.79026E-04 2.71172E-05-6.52871E-05
 -1      4157 1.78359E-04 1.50032E-05-6.72852E-05
 -1      4158 1.78343E-04 1.52761E-05-6.81611E-05
 -1      4159 1.79312E-04 2.63612E-05-6.66532E-05
 -1      4160 1.78351E-04 1.64364E-05-6.91046E-05
 -1      4161 1.78336E-04 1.60763E-05-6.98546E-05
 -1      4162 1.79948E-04 2.65836E-05-6.81730E-05
 -1      4163 1.75975E-04 1.30353E-05-7.04168E-05
 -1      4164 1.76060E-04 1.35436E-05-7.12064E-05
 -1      4165 1.79044E-04 2.51083E-05-6.93764E-05
 -1      4166 1.75434E-04 1.43715E-05-7.20201E-05
 -1      4167 1.75684E-04 1.56576E-05-7.28026E-05
 -1      4168 1.77400E-04 2.45801E-05-7.11380E-05
 -1      4169 1.75622E-04 1.69777E-05-7.38321E-05
 -1      4170 1.74720E-04 1.61174E-05-7.48623E-05
 -1      4171 1.77451E-04 2.69485E-05-7.28835E-05
 -1      4172 1.76018E-04 1.84486E-05-7.55578E-05
 -1      4173 1.75578E-04 1.85362E-05-7.67935E-05
 -1      4174 1.77465E-04 2.84386E-05-7.46043E-05
 -1      4175 1.74960E-04 1.85817E-05-7.80816E-05
 -1      4176 1.73846E-04 1.75275E-05-7.92850E-05
 -1      4177 1.77126E-04 2.91130E-05-7.63174E-05
 -1      4178 1.73766E-04 1.61331E-05-8.05428E-05
 -1      4179 1.73110E-04 1.58625E-05-8.20822E-05
 -1      4180 1.75774E-04 2.72838E-05-7.85528E-05
 -1      4181 1.74214E-04 2.37511E-05-8.07495E-05
 -1      4182 2.24792E-04 4.07764E-04-1.01444E-05
 -1      4183 2.28062E-04 4.55409E-04-1.13790E-05
 -1      4184 2.24106E-04 4.16354E-04-1.50680E-05
 -1      4185 1.82762E-04 4.80703E-05-3.32095E-05
 -1      4186 1.82192E-04 3.89921E-05-3.35175E-05
 -1      4187 1.82511E-04 4.33136E-05-3.29283E-05
 -1      4188 1.82263E-04 4.22850E-05-3.24888E-05
 -1      4189 1.82085E-04 3.58254E-05-3.37767E-05
 -1      4190 1.81583E-04 3.83623E-05-2.71592E-05
 -1      4191 1.81865E-04 3.96440E-05-2.75735E-05
 -1      4192 1.82879E-04 4.83600E-05-2.76175E-05
 -1      4193 1.81854E-04 3.94156E-05-2.80853E-05
 -1      4194 1.82028E-04 3.95468E-05-2.81310E-05
 -1      4195 1.82000E-04 4.05020E-05-2.28955E-05
 -1      4196 1.81535E-04 3.97686E-05-2.29763E-05
 -1      4197 1.82245E-04 4.16831E-05-2.22629E-05
 -1      4198 1.82361E-04 4.22399E-05-2.25026E-05
 -1      4199 1.82690E-04 4.96033E-05-2.27039E-05
 -1      4200 1.82331E-04 4.07106E-05-1.84753E-05
 -1      4201 1.82165E-04 4.09862E-05-1.88674E-05
 -1      4202 1.82345E-04 4.09824E-05-1.78563E-05
 -1      4203 1.82360E-04 4.04626E-05-1.81659E-05
 -1      4204 1.82283E-04 4.75831E-05-1.83672E-05
 -1      4205 1.82718E-04 4.56302E-05-3.73510E-05
 -1      4206 1.81992E-04 4.27763E-05-3.78907E-05
 -1      4207 1.83118E-04 4.94658E-05-3.81434E-05
 -1      4208 1.81731E-04 3.79974E-05-3.85946E-05
 -1      4209 1.82460E-04 3.79447E-05-3.89792E-05
 -1      4210 1.82314E-04 4.00608E-05-4.32686E-05
 -1      4211 1.82014E-04 3.97374E-05-4.37442E-05
 -1      4212 1.82208E-04 4.63089E-05-4.37573E-05
 -1      4213 1.81707E-04 3.78007E-05-4.41839E-05
 -1      4214 1.81561E-04 3.78756E-05-4.44131E-05
 -1      4215 1.82711E-04 3.92718E-05-4.84678E-05
 -1      4216 1.82614E-04 3.90265E-05-4.89413E-05
 -1      4217 1.82334E-04 3.76670E-05-4.94723E-05
 -1      4218 1.82537E-04 3.81731E-05-4.98888E-05
 -1      4219 1.83055E-04 4.58547E-05-4.90033E-05
 -1      4220 1.81512E-04 4.01568E-05-1.45818E-05
 -1      4221 1.82153E-04 4.21866E-05-1.50145E-05
 -1      4222 1.81990E-04 4.21584E-05-1.43537E-05
 -1      4223 1.81977E-04 3.84752E-05-5.41340E-05
 -1      4224 1.82054E-04 3.86069E-05-5.47110E-05
 -1      4225 1.82076E-04 3.63280E-05-5.32939E-05
 -1      4226 1.81973E-04 3.65480E-05-5.35546E-05
 -1      4227 1.82566E-04 4.44426E-05-5.37278E-05
 -1      4228 1.82212E-04 3.97457E-05-1.19405E-05
 -1      4229 1.81421E-04 3.98727E-05-1.22776E-05
 -1      4230 1.81845E-04 4.12885E-05-1.14199E-05
 -1      4231 1.82274E-04 4.13311E-05-1.17525E-05
 -1      4232 1.82124E-04 4.77648E-05-1.18033E-05
 -1      4233 1.82089E-04 4.36195E-05-8.42238E-06
 -1      4234 1.81919E-04 4.44247E-05-8.63296E-06
 -1      4235 1.82377E-04 4.99892E-05-8.96033E-06
 -1      4236 1.81511E-04 4.05086E-05-9.14741E-06
 -1      4237 1.81795E-04 3.99406E-05-9.52694E-06
 -1      4238 1.81842E-04 4.23164E-05-6.34046E-06
 -1      4239 1.81816E-04 4.08257E-05-6.80090E-06
 -1      4240 1.81851E-04 4.02375E-05-7.10980E-06
 -1      4241 1.81650E-04 3.99402E-05-7.36136E-06
 -1      4242 1.82595E-04 4.83704E-05-6.90588E-06
 -1      4243 1.81049E-04 3.45241E-05-5.70493E-05
 -1      4244 1.81527E-04 3.61172E-05-5.76262E-05
 -1      4245 1.81950E-04 4.37593E-05-5.72933E-05
 -1      4246 1.81396E-04 3.68631E-05-5.81936E-05
 -1      4247 1.81294E-04 3.71983E-05-5.86957E-05
 -1      4248 1.81188E-04 4.14443E-05-6.32430E-05
 -1      4249 1.81566E-04 4.20594E-05-6.26295E-05
 -1      4250 1.81225E-04 3.62718E-05-6.26034E-05
 -1      4251 1.81615E-04 4.75313E-05-6.20742E-05
 -1      4252 1.81050E-04 3.58724E-05-6.20794E-05
 -1      4253 1.82478E-04 4.44244E-05-3.07531E-05
 -1      4254 1.82304E-04 4.45271E-05-3.05053E-05
 -1      4255 1.82371E-04 4.30506E-05-3.00614E-05
 -1      4256 1.83085E-04 5.21962E-05-2.99405E-05
 -1      4257 1.82548E-04 4.13419E-05-2.96651E-05
 -1      4258 1.82004E-04 4.00538E-05-2.46384E-05
 -1      4259 1.82458E-04 4.04398E-05-2.46457E-05
 -1      4260 1.82243E-04 3.87769E-05-2.51241E-05
 -1      4261 1.82585E-04 3.90405E-05-2.55366E-05
 -1      4262 1.82882E-04 4.69185E-05-2.50716E-05
 -1      4263 1.80031E-04 3.60477E-05-6.62544E-05
 -1      4264 1.80439E-04 3.52877E-05-6.69928E-05
 -1      4265 1.80275E-04 3.59285E-05-6.76260E-05
 -1      4266 1.79103E-04 3.31058E-05-6.96013E-05
 -1      4267 1.79028E-04 3.42500E-05-7.03293E-05
 -1      4268 1.79654E-04 4.10395E-05-7.00456E-05
 -1      4269 1.78569E-04 3.43416E-05-7.16878E-05
 -1      4270 1.78451E-04 3.48548E-05-7.24705E-05
 -1      4271 1.82095E-04 3.96455E-05-4.64082E-06
 -1      4272 1.81678E-04 4.07163E-05-4.96006E-06
 -1      4273 1.82099E-04 4.88799E-05-5.03444E-06
 -1      4274 1.81556E-04 4.09727E-05-5.45606E-06
 -1      4275 1.81726E-04 4.25038E-05-5.72637E-06
 -1      4276 1.81930E-04 4.02875E-05-3.02712E-06
 -1      4277 1.81344E-04 4.01576E-05-3.33636E-06
 -1      4278 1.81193E-04 4.16122E-05-3.69300E-06
 -1      4279 1.80729E-04 4.12869E-05-3.94404E-06
 -1      4280 1.81972E-04 4.90004E-05-3.46462E-06
 -1      4281 1.81971E-04 3.71498E-05-4.55353E-05
 -1      4282 1.82167E-04 3.83980E-05-4.59711E-05
 -1      4283 1.82801E-04 4.62066E-05-4.58879E-05
 -1      4284 1.82311E-04 3.93836E-05-4.65341E-05
 -1      4285 1.82413E-04 3.96032E-05-4.70093E-05
 -1      4286 1.81771E-04 3.79805E-05-4.14443E-05
 -1      4287 1.82315E-04 3.78063E-05-4.19255E-05
 -1      4288 1.82174E-04 3.93604E-05-4.07962E-05
 -1      4289 1.81939E-04 4.02943E-05-4.10187E-05
 -1      4290 1.82539E-04 4.59276E-05-4.12734E-05
 -1      4291 1.82487E-04 4.11079E-05-2.00671E-05
 -1      4292 1.82186E-04 4.34553E-05-2.02757E-05
 -1      4293 1.82285E-04 4.17741E-05-1.98490E-05
 -1      4294 1.82778E-04 4.72345E-05-1.61419E-05
 -1      4295 1.82344E-04 4.58165E-05-1.63550E-05
 -1      4296 1.82829E-04 5.16635E-05-1.65092E-05
 -1      4297 1.81683E-04 3.95291E-05-1.65992E-05
 -1      4298 1.81640E-04 3.96758E-05-1.68099E-05
 -1      4299 1.82402E-04 4.23271E-05-3.57694E-05
 -1      4300 1.82915E-04 5.07752E-05-3.58850E-05
 -1      4301 1.82615E-04 4.26453E-05-3.64982E-05
 -1      4302 1.82488E-04 4.12192E-05-3.66959E-05
 -1      4303 1.82628E-04 4.21463E-05-3.53716E-05
 -1      4304 2.03126E-04 2.45402E-04-3.19855E-05
 -1      4305 2.05815E-04 2.69462E-04-2.92742E-05
 -1      4306 2.08763E-04 2.85821E-04-2.65183E-05
 -1      4307 2.09029E-04 2.97641E-04-2.63444E-05
 -1      4308 2.12097E-04 3.24820E-04-2.39390E-05
 -1      4309 2.08780E-04 2.74904E-04-6.45907E-06
 -1      4310 2.05230E-04 2.49486E-04-6.81371E-06
 -1      4311 2.12238E-04 3.00197E-04-6.36149E-06
 -1      4312 2.09905E-04 2.82733E-04-8.49218E-06
 -1      4313 2.16472E-04 3.32357E-04-6.38154E-06
 -1      4314 1.90758E-04 1.52014E-04-4.75934E-05
 -1      4315 1.91952E-04 1.65948E-04-4.52651E-05
 -1      4316 1.93833E-04 1.74717E-04-4.31771E-05
 -1      4317 1.93673E-04 1.85612E-04-4.20904E-05
 -1      4318 1.95440E-04 2.01662E-04-3.95758E-05
 -1      4319 1.95308E-04 1.78338E-04-4.08717E-06
 -1      4320 1.93318E-04 1.63229E-04-4.22055E-06
 -1      4321 1.97619E-04 1.95396E-04-3.96660E-06
 -1      4322 1.96513E-04 1.87207E-04-5.27756E-06
 -1      4323 1.99772E-04 2.11050E-04-3.95375E-06
 -1      4324 1.87667E-04 1.14655E-04-2.39080E-06
 -1      4325 1.86666E-04 1.03924E-04-2.45387E-06
 -1      4326 1.88733E-04 1.25136E-04-2.40164E-06
 -1      4327 1.88191E-04 1.19648E-04-3.14711E-06
 -1      4328 1.89907E-04 1.35635E-04-2.38719E-06
 -1      4329 1.82530E-04 9.52891E-05-6.07387E-05
 -1      4330 1.83270E-04 1.05253E-04-5.84605E-05
 -1      4331 1.84580E-04 1.16700E-04-5.58406E-05
 -1      4332 1.85696E-04 1.27928E-04-5.34836E-05
 -1      4333 1.85014E-04 1.11678E-04-5.66107E-05
 -1      4334 1.81433E-04 3.78840E-05-1.34627E-06
 -1      4335 1.81519E-04 3.86888E-05-1.81140E-06
 -1      4336 1.81496E-04 4.14778E-05-2.09304E-06
 -1      4337 1.81849E-04 4.20686E-05-2.00951E-06
 -1      4338 1.82357E-04 4.81960E-05-1.74901E-06
 -1      4339 1.78829E-04 4.77482E-05-7.21924E-05
 -1      4340 1.78078E-04 3.88805E-05-7.43711E-05
 -1      4341 1.78643E-04 3.93423E-05-7.33290E-05
 -1      4342 1.78683E-04 3.89664E-05-7.27072E-05
 -1      4343 1.77448E-04 3.87739E-05-7.51553E-05
 -1      4344 1.81457E-04 3.95999E-05-6.11466E-05
 -1      4345 1.81392E-04 4.09289E-05-6.03864E-05
 -1      4346 1.81111E-04 3.97136E-05-5.96278E-05
 -1      4347 1.81953E-04 4.82358E-05-5.96267E-05
 -1      4348 1.81282E-04 3.87604E-05-5.91767E-05
 -1      4349 1.81457E-04 4.07530E-05-7.65867E-06
 -1      4350 1.81832E-04 4.05853E-05-7.91643E-06
 -1      4351 1.81926E-04 4.78004E-05-8.02880E-06
 -1      4352 1.81652E-04 3.92144E-05-8.08357E-06
 -1      4353 1.81713E-04 3.96509E-05-8.24430E-06
 -1      4354 1.81803E-04 3.92231E-05-9.77149E-06
 -1      4355 1.81469E-04 3.90226E-05-1.00889E-05
 -1      4356 1.81615E-04 4.11104E-05-1.05262E-05
 -1      4357 1.81826E-04 4.10187E-05-1.07390E-05
 -1      4358 1.82175E-04 4.71012E-05-1.02739E-05
 -1      4359 1.82035E-04 3.58958E-05-5.23535E-05
 -1      4360 1.81962E-04 3.70795E-05-5.27434E-05
 -1      4361 1.82258E-04 3.96628E-05-5.17638E-05
 -1      4362 1.81401E-04 3.61303E-05-5.66791E-05
 -1      4363 1.81379E-04 3.60643E-05-5.58182E-05
 -1      4364 1.82118E-04 4.27273E-05-5.60192E-05
 -1      4365 1.81833E-04 3.66500E-05-5.52627E-05
 -1      4366 1.81750E-04 4.45387E-05-1.27645E-05
 -1      4367 1.82243E-04 4.51815E-05-1.30331E-05
 -1      4368 1.82553E-04 5.18708E-05-1.30467E-05
 -1      4369 1.82044E-04 4.23092E-05-1.31867E-05
 -1      4370 1.81635E-04 4.20750E-05-1.34529E-05
 -1      4371 1.77405E-04 4.69085E-05-7.37242E-05
 -1      4372 1.78143E-04 5.48124E-05-7.16022E-05
 -1      4373 1.78999E-04 5.37465E-05-7.12519E-05
 -1      4374 1.78854E-04 6.07677E-05-6.98983E-05
 -1      4375 1.79328E-04 6.84648E-05-6.79333E-05
 -1      4376 1.79747E-04 7.69556E-05-6.56850E-05
 -1      4377 1.80222E-04 6.74534E-05-6.77660E-05
 -1      4378 1.83698E-04 6.78457E-05-1.24893E-06
 -1      4379 1.83301E-04 5.94805E-05-1.36094E-06
 -1      4380 1.84255E-04 7.61263E-05-1.38790E-06
 -1      4381 1.84015E-04 7.23770E-05-1.67639E-06
 -1      4382 1.84875E-04 8.41819E-05-1.39808E-06
 -1      4383 1.76766E-04 3.84307E-05-7.61109E-05
 -1      4384 1.76107E-04 3.68143E-05-7.69182E-05
 -1      4385 1.75200E-04 3.07990E-05-7.86988E-05
 -1      4386 1.81825E-04 3.83440E-05-8.10678E-07
 -1      4387 1.82273E-04 4.48336E-05-9.20251E-07
 -1      4388 1.82703E-04 5.06718E-05-1.32903E-06
 -1      4389 1.81914E-04 3.99168E-05-1.09240E-06
 -1      4390 2.00211E-04 2.21087E-04-3.52537E-05
 -1      4391 2.02740E-04 2.33678E-04-3.24178E-05
 -1      4392 1.97975E-04 2.13828E-04-3.72519E-05
 -1      4393 1.97923E-04 2.01460E-04-3.80146E-05
 -1      4394 2.01551E-04 2.19814E-04-3.28273E-05
 -1      4395 2.04464E-04 2.44001E-04-2.98926E-05
 -1      4396 2.07652E-04 2.68951E-04-2.67403E-05
 -1      4397 2.10867E-04 2.96947E-04-2.41203E-05
 -1      4398 2.06362E-04 2.55761E-04-2.68200E-05
 -1      4399 1.99222E-04 2.00283E-04-3.53828E-05
 -1      4400 2.00826E-04 2.11215E-04-3.23358E-05
 -1      4401 1.97842E-04 1.90342E-04-3.75847E-05
 -1      4402 1.97050E-04 1.81202E-04-3.70505E-05
 -1      4403 1.97777E-04 1.94148E-04-3.82753E-05
 -1      4404 1.95730E-04 1.74728E-04-4.03767E-05
 -1      4405 1.95744E-04 1.86355E-04-4.07172E-05
 -1      4406 2.12806E-04 3.08271E-04-2.16052E-05
 -1      4407 2.14049E-04 3.24584E-04-2.17026E-05
 -1      4408 2.17265E-04 3.53671E-04-1.96417E-05
 -1      4409 2.15172E-04 3.42848E-04-2.15949E-05
 -1      4410 2.10917E-04 2.90171E-04-2.07408E-05
 -1      4411 2.14258E-04 3.17768E-04-1.86983E-05
 -1      4412 2.08355E-04 2.69675E-04-2.33080E-05
 -1      4413 2.09698E-04 2.79586E-04-1.98307E-05
 -1      4414 2.03600E-04 2.32657E-04-2.82717E-05
 -1      4415 2.06907E-04 2.57951E-04-2.52096E-05
 -1      4416 2.05565E-04 2.47026E-04-2.43482E-05
 -1      4417 2.03876E-04 2.39337E-04-8.11628E-06
 -1      4418 2.02753E-04 2.31679E-04-6.10208E-06
 -1      4419 2.01529E-04 2.23205E-04-4.97848E-06
 -1      4420 2.00053E-04 2.12630E-04-6.28745E-06
 -1      4421 2.04944E-04 2.46322E-04-1.10911E-05
 -1      4422 2.01878E-04 2.23535E-04-1.21394E-05
 -1      4423 2.03261E-04 2.34473E-04-9.61868E-06
 -1      4424 2.00690E-04 2.16273E-04-8.98665E-06
 -1      4425 2.11549E-04 2.94240E-04-1.02629E-05
 -1      4426 2.08045E-04 2.68848E-04-1.06727E-05
 -1      4427 2.06811E-04 2.58416E-04-1.30204E-05
 -1      4428 2.00403E-04 2.12506E-04-1.39182E-05
 -1      4429 1.98567E-04 2.00026E-04-1.23171E-05
 -1      4430 1.96024E-04 1.81755E-04-1.24312E-05
 -1      4431 1.97611E-04 1.93542E-04-1.06251E-05
 -1      4432 1.95917E-04 1.81981E-04-9.19044E-06
 -1      4433 1.98461E-04 2.00177E-04-9.15548E-06
 -1      4434 1.99133E-04 2.05355E-04-7.56423E-06
 -1      4435 2.15646E-04 3.24881E-04-9.71039E-06
 -1      4436 2.14038E-04 3.11454E-04-1.17143E-05
 -1      4437 2.18627E-04 3.49227E-04-7.85790E-06
 -1      4438 2.01730E-04 2.21379E-04-1.54055E-05
 -1      4439 1.98409E-04 1.97815E-04-1.57871E-05
 -1      4440 2.04574E-04 2.42481E-04-1.52762E-05
 -1      4441 2.02756E-04 2.28478E-04-1.71217E-05
 -1      4442 2.07659E-04 2.65108E-04-1.45903E-05
 -1      4443 1.94735E-04 1.71729E-04-1.35388E-05
 -1      4444 1.93775E-04 1.64713E-04-1.17632E-05
 -1      4445 1.95874E-04 1.79163E-04-1.59397E-05
 -1      4446 1.93280E-04 1.58781E-04-1.67868E-05
 -1      4447 1.94441E-04 1.68666E-04-1.49499E-05
 -1      4448 1.92073E-04 1.50797E-04-1.42852E-05
 -1      4449 1.97440E-04 1.88805E-04-1.76013E-05
 -1      4450 1.93917E-04 1.66810E-04-9.47172E-06
 -1      4451 1.94862E-04 1.74067E-04-7.98199E-06
 -1      4452 1.93140E-04 1.60147E-04-1.04965E-05
 -1      4453 1.91954E-04 1.51563E-04-9.21722E-06
 -1      4454 1.91761E-04 1.49350E-04-1.15537E-05
 -1      4455 1.92894E-04 1.54963E-04-1.81658E-05
 -1      4456 1.91275E-04 1.43534E-04-1.70905E-05
 -1      4457 1.90030E-04 1.33190E-04-1.79298E-05
 -1      4458 1.90537E-04 1.37425E-04-1.65118E-05
 -1      4459 1.89010E-04 1.25780E-04-1.49027E-05
 -1      4460 1.90586E-04 1.38204E-04-1.48623E-05
 -1      4461 1.90338E-04 1.35630E-04-1.57966E-05
 -1      4462 1.89020E-04 1.24852E-04-1.66134E-05
 -1      4463 1.90953E-04 1.41718E-04-1.34250E-05
 -1      4464 1.93329E-04 1.58002E-04-1.93501E-05
 -1      4465 1.91302E-04 1.42756E-04-1.97255E-05
 -1      4466 1.95338E-04 1.73823E-04-1.91334E-05
 -1      4467 1.93936E-04 1.62405E-04-2.06961E-05
 -1      4468 1.97896E-04 1.92738E-04-1.88453E-05
 -1      4469 1.89842E-04 1.33585E-04-1.05581E-05
 -1      4470 1.90549E-04 1.39989E-04-1.11103E-05
 -1      4471 1.89246E-04 1.28778E-04-1.14295E-05
 -1      4472 1.89119E-04 1.27113E-04-1.21870E-05
 -1      4473 1.88344E-04 1.20250E-04-1.16273E-05
 -1      4474 1.91213E-04 1.44971E-04-1.24266E-05
 -1      4475 1.88790E-04 1.23588E-04-1.31506E-05
 -1      4476 1.89666E-04 1.31921E-04-1.29398E-05
 -1      4477 1.90700E-04 1.36912E-04-2.05822E-05
 -1      4478 1.90182E-04 1.33493E-04-1.93366E-05
 -1      4479 1.88828E-04 1.21099E-04-1.96246E-05
 -1      4480 1.89460E-04 1.27434E-04-1.87841E-05
 -1      4481 1.88662E-04 1.20789E-04-1.81975E-05
 -1      4482 1.94677E-04 1.67618E-04-2.18853E-05
 -1      4483 1.92600E-04 1.51532E-04-2.21626E-05
 -1      4484 1.91432E-04 1.41317E-04-2.38279E-05
 -1      4485 1.90610E-04 1.35452E-04-2.25332E-05
 -1      4486 1.88859E-04 1.19915E-04-2.31683E-05
 -1      4487 1.90197E-04 1.31359E-04-2.15479E-05
 -1      4488 1.88934E-04 1.21452E-04-2.11480E-05
 -1      4489 1.96360E-04 1.80261E-04-2.18439E-05
 -1      4490 1.95158E-04 1.69979E-04-2.33415E-05
 -1      4491 2.00420E-04 2.10885E-04-1.91362E-05
 -1      4492 1.98610E-04 1.96830E-04-2.07463E-05
 -1      4493 1.99045E-04 1.98959E-04-2.20636E-05
 -1      4494 1.92185E-04 1.46670E-04-2.48931E-05
 -1      4495 1.90139E-04 1.30204E-04-2.52926E-05
 -1      4496 1.93987E-04 1.60733E-04-2.47394E-05
 -1      4497 1.92785E-04 1.50560E-04-2.62456E-05
 -1      4498 1.95688E-04 1.73506E-04-2.46159E-05
 -1      4499 1.89656E-04 1.25073E-04-2.63253E-05
 -1      4500 1.88829E-04 1.18969E-04-2.52029E-05
 -1      4501 1.87482E-04 1.06595E-04-2.58983E-05
 -1      4502 1.88101E-04 1.12282E-04-2.48564E-05
 -1      4503 1.87532E-04 1.07124E-04-2.30284E-05
 -1      4504 1.88042E-04 1.11860E-04-2.40768E-05
 -1      4505 1.86621E-04 9.88525E-05-2.47412E-05
 -1      4506 1.93031E-04 1.51839E-04-2.76826E-05
 -1      4507 1.91162E-04 1.37292E-04-2.78646E-05
 -1      4508 1.90580E-04 1.32313E-04-2.88550E-05
 -1      4509 1.90312E-04 1.30869E-04-2.73426E-05
 -1      4510 1.89531E-04 1.23643E-04-2.72363E-05
 -1      4511 1.88171E-04 1.11995E-04-2.71839E-05
 -1      4512 1.88903E-04 1.18233E-04-2.82234E-05
 -1      4513 1.94938E-04 1.66591E-04-2.74542E-05
 -1      4514 1.93500E-04 1.54162E-04-2.91356E-05
 -1      4515 1.96589E-04 1.79797E-04-2.56315E-05
 -1      4516 1.96949E-04 1.81844E-04-2.69398E-05
 -1      4517 1.97674E-04 1.88561E-04-2.42142E-05
 -1      4518 1.93893E-04 1.57193E-04-3.04632E-05
 -1      4519 1.91949E-04 1.41931E-04-3.07781E-05
 -1      4520 1.91010E-04 1.33530E-04-3.24528E-05
 -1      4521 1.90537E-04 1.30199E-04-3.10024E-05
 -1      4522 1.89102E-04 1.16949E-04-3.20360E-05
 -1      4523 1.90035E-04 1.25986E-04-3.03937E-05
 -1      4524 1.89073E-04 1.19626E-04-2.89959E-05
 -1      4525 1.89986E-04 1.26497E-04-2.95589E-05
 -1      4526 1.88489E-04 1.12895E-04-3.05375E-05
 -1      4527 1.95588E-04 1.70367E-04-3.02205E-05
 -1      4528 1.94175E-04 1.58953E-04-3.19370E-05
 -1      4529 1.98990E-04 1.97004E-04-2.65840E-05
 -1      4530 1.97463E-04 1.84363E-04-2.84576E-05
 -1      4531 1.97672E-04 1.85904E-04-2.97481E-05
 -1      4532 1.91065E-04 1.33494E-04-3.37353E-05
 -1      4533 1.89583E-04 1.21310E-04-3.40099E-05
 -1      4534 1.92598E-04 1.46057E-04-3.35591E-05
 -1      4535 1.91294E-04 1.34488E-04-3.51900E-05
 -1      4536 1.94365E-04 1.59802E-04-3.32415E-05
 -1      4537 2.00814E-04 2.11178E-04-2.45454E-05
 -1      4538 2.01236E-04 2.13477E-04-2.58882E-05
 -1      4539 1.99845E-04 2.04859E-04-2.29612E-05
 -1      4540 2.02062E-04 2.21055E-04-2.24665E-05
 -1      4541 1.88909E-04 1.14675E-04-3.49950E-05
 -1      4542 1.88818E-04 1.14652E-04-3.36590E-05
 -1      4543 1.87651E-04 1.04280E-04-3.39408E-05
 -1      4544 1.88410E-04 1.11368E-04-3.30098E-05
 -1      4545 1.87949E-04 1.06638E-04-3.23576E-05
 -1      4546 1.91558E-04 1.35910E-04-3.64386E-05
 -1      4547 1.89889E-04 1.22821E-04-3.66605E-05
 -1      4548 1.88965E-04 1.13200E-04-3.81467E-05
 -1      4549 1.88617E-04 1.11520E-04-3.67979E-05
 -1      4550 1.87154E-04 9.77685E-05-3.74122E-05
 -1      4551 1.88232E-04 1.08433E-04-3.59651E-05
 -1      4552 1.87443E-04 1.01206E-04-3.55805E-05
 -1      4553 1.92813E-04 1.46692E-04-3.62925E-05
 -1      4554 1.91499E-04 1.35610E-04-3.78573E-05
 -1      4555 1.95727E-04 1.70505E-04-3.29997E-05
 -1      4556 1.94284E-04 1.58238E-04-3.47246E-05
 -1      4557 1.94225E-04 1.57942E-04-3.60211E-05
 -1      4558 1.88862E-04 1.12345E-04-3.95349E-05
 -1      4559 1.87454E-04 1.00160E-04-3.96606E-05
 -1      4560 1.90162E-04 1.23716E-04-3.93267E-05
 -1      4561 1.88902E-04 1.11759E-04-4.09503E-05
 -1      4562 1.91497E-04 1.35100E-04-3.91391E-05
 -1      4563 1.87225E-04 1.02145E-04-2.76094E-05
 -1      4564 1.87326E-04 1.03763E-04-2.66976E-05
 -1      4565 1.86492E-04 9.62513E-05-2.63228E-05
 -1      4566 1.86235E-04 9.44696E-05-2.32439E-05
 -1      4567 1.87139E-04 1.03405E-04-2.22921E-05
 -1      4568 1.85629E-04 8.77710E-05-2.38970E-05
 -1      4569 1.85158E-04 8.35369E-05-2.31629E-05
 -1      4570 1.85934E-04 9.02483E-05-2.44984E-05
 -1      4571 1.84719E-04 7.89447E-05-2.44323E-05
 -1      4572 1.85924E-04 9.07088E-05-2.53334E-05
 -1      4573 1.86427E-04 9.03205E-05-4.07377E-05
 -1      4574 1.86662E-04 9.13523E-05-3.92990E-05
 -1      4575 1.85494E-04 7.91484E-05-3.92880E-05
 -1      4576 1.86546E-04 9.00241E-05-3.83052E-05
 -1      4577 1.86088E-04 8.64223E-05-3.74290E-05
 -1      4578 1.88882E-04 1.11687E-04-4.22827E-05
 -1      4579 1.87460E-04 9.91438E-05-4.25286E-05
 -1      4580 1.86549E-04 9.04004E-05-4.38000E-05
 -1      4581 1.86505E-04 9.04015E-05-4.24017E-05
 -1      4582 1.86341E-04 8.88323E-05-4.15978E-05
 -1      4583 1.85416E-04 7.90451E-05-4.11893E-05
 -1      4584 1.85430E-04 7.90677E-05-4.28285E-05
 -1      4585 1.90017E-04 1.21871E-04-4.20332E-05
 -1      4586 1.88725E-04 1.10332E-04-4.37042E-05
 -1      4587 1.91507E-04 1.34515E-04-4.05658E-05
 -1      4588 1.91282E-04 1.33221E-04-4.18661E-05
 -1      4589 1.92750E-04 1.45795E-04-3.89970E-05
 -1      4590 1.88675E-04 1.10212E-04-4.50873E-05
 -1      4591 1.87398E-04 9.91307E-05-4.53779E-05
 -1      4592 1.86632E-04 9.24273E-05-4.68172E-05
 -1      4593 1.86679E-04 9.25125E-05-4.53449E-05
 -1      4594 1.85283E-04 7.90635E-05-4.48703E-05
 -1      4595 1.86303E-04 8.87205E-05-4.49467E-05
 -1      4596 1.85517E-04 8.14158E-05-4.63740E-05
 -1      4597 1.89732E-04 1.19651E-04-4.47302E-05
 -1      4598 1.88531E-04 1.09236E-04-4.64871E-05
 -1      4599 1.91102E-04 1.31773E-04-4.33202E-05
 -1      4600 1.91003E-04 1.30899E-04-4.45569E-05
 -1      4601 1.92473E-04 1.43777E-04-4.17160E-05
 -1      4602 1.88591E-04 1.09597E-04-4.75953E-05
 -1      4603 1.87511E-04 9.95001E-05-4.79957E-05
 -1      4604 1.86942E-04 9.35847E-05-4.92984E-05
 -1      4605 1.86786E-04 9.30606E-05-4.81150E-05
 -1      4606 1.85603E-04 8.19329E-05-4.76837E-05
 -1      4607 1.86372E-04 8.91343E-05-4.77072E-05
 -1      4608 1.85795E-04 8.26755E-05-4.89928E-05
 -1      4609 1.89432E-04 1.18156E-04-4.73144E-05
 -1      4610 1.88466E-04 1.09001E-04-4.89125E-05
 -1      4611 1.90439E-04 1.27064E-04-4.59339E-05
 -1      4612 1.90286E-04 1.26472E-04-4.70916E-05
 -1      4613 1.91757E-04 1.38711E-04-4.43514E-05
 -1      4614 1.88153E-04 1.06894E-04-5.04788E-05
 -1      4615 1.87145E-04 9.78103E-05-5.07948E-05
 -1      4616 1.86029E-04 8.77711E-05-5.23119E-05
 -1      4617 1.86404E-04 9.01722E-05-5.05825E-05
 -1      4618 1.85725E-04 8.30618E-05-5.07323E-05
 -1      4619 1.89013E-04 1.16235E-04-4.98522E-05
 -1      4620 1.87825E-04 1.05496E-04-5.18967E-05
 -1      4621 1.90260E-04 1.26840E-04-4.79568E-05
 -1      4622 1.89877E-04 1.25549E-04-4.91423E-05
 -1      4623 1.91165E-04 1.35366E-04-4.64791E-05
 -1      4624 1.87812E-04 1.06469E-04-5.29323E-05
 -1      4625 1.86916E-04 9.66267E-05-5.36846E-05
 -1      4626 1.86117E-04 8.98285E-05-5.54299E-05
 -1      4627 1.86010E-04 8.85382E-05-5.42345E-05
 -1      4628 1.85746E-04 8.58398E-05-5.37366E-05
 -1      4629 1.84902E-04 7.73159E-05-5.34444E-05
 -1      4630 1.84774E-04 7.85021E-05-5.54619E-05
 -1      4631 1.88385E-04 1.14316E-04-5.22676E-05
 -1      4632 1.87496E-04 1.05937E-04-5.41074E-05
 -1      4633 1.89284E-04 1.22661E-04-5.06356E-05
 -1      4634 1.88900E-04 1.22076E-04-5.16231E-05
 -1      4635 1.90464E-04 1.32906E-04-4.86316E-05
 -1      4636 1.86760E-04 1.03336E-04-5.55487E-05
 -1      4637 1.86172E-04 9.49162E-05-5.63379E-05
 -1      4638 1.85335E-04 8.76486E-05-5.79357E-05
 -1      4639 1.86016E-04 9.04588E-05-5.62752E-05
 -1      4640 1.85121E-04 8.22857E-05-5.69687E-05
 -1      4641 1.87256E-04 1.11468E-04-5.47111E-05
 -1      4642 1.86084E-04 1.00932E-04-5.70823E-05
 -1      4643 1.88506E-04 1.22299E-04-5.24091E-05
 -1      4644 1.87707E-04 1.20169E-04-5.36066E-05
 -1      4645 1.89402E-04 1.30347E-04-5.07047E-05
 -1      4646 1.85438E-04 9.90119E-05-5.83155E-05
 -1      4647 1.85011E-04 9.02586E-05-5.93765E-05
 -1      4648 1.83841E-04 8.07075E-05-6.17116E-05
 -1      4649 1.84410E-04 8.27644E-05-6.00613E-05
 -1      4650 1.83297E-04 7.11153E-05-6.16816E-05
 -1      4651 1.84624E-04 8.13163E-05-5.93919E-05
 -1      4652 1.84355E-04 7.64551E-05-5.93196E-05
 -1      4653 1.93967E-04 1.56819E-04-4.12578E-05
 -1      4654 1.94213E-04 1.58182E-04-4.00469E-05
 -1      4655 1.94008E-04 1.55679E-04-3.88140E-05
 -1      4656 1.95482E-04 1.68275E-04-3.84609E-05
 -1      4657 1.94051E-04 1.56336E-04-3.75413E-05
 -1      4658 1.91685E-04 1.45280E-04-4.69434E-05
 -1      4659 1.90954E-04 1.42630E-04-4.81710E-05
 -1      4660 1.92406E-04 1.47088E-04-4.51326E-05
 -1      4661 1.92994E-04 1.56318E-04-4.48251E-05
 -1      4662 1.92515E-04 1.46764E-04-4.44272E-05
 -1      4663 1.84085E-04 6.67289E-05-2.69395E-05
 -1      4664 1.84582E-04 7.36695E-05-2.63219E-05
 -1      4665 1.84768E-04 7.51850E-05-2.69890E-05
 -1      4666 1.85823E-04 8.74351E-05-2.67308E-05
 -1      4667 1.85437E-04 8.16354E-05-2.73433E-05
 -1      4668 1.84544E-04 7.37144E-05-2.56710E-05
 -1      4669 1.85143E-04 8.15326E-05-2.57327E-05
 -1      4670 1.85969E-04 9.06581E-05-2.59304E-05
 -1      4671 1.82236E-04 3.99240E-05-2.67543E-05
 -1      4672 1.82120E-04 4.06036E-05-2.61354E-05
 -1      4673 1.82802E-04 4.85356E-05-2.65375E-05
 -1      4674 1.82573E-04 4.10755E-05-2.58189E-05
 -1      4675 1.84589E-04 7.05835E-05-4.57018E-05
 -1      4676 1.84840E-04 7.23977E-05-4.46007E-05
 -1      4677 1.84493E-04 6.89510E-05-4.66276E-05
 -1      4678 1.83949E-04 6.14435E-05-4.63386E-05
 -1      4679 1.84897E-04 7.48467E-05-4.67964E-05
 -1      4680 1.84321E-04 6.63103E-05-4.74861E-05
 -1      4681 1.85335E-04 7.90972E-05-4.72113E-05
 -1      4682 2.03523E-04 2.31065E-04-2.52189E-05
 -1      4683 2.01810E-04 2.17526E-04-2.72788E-05
 -1      4684 1.99417E-04 1.99082E-04-2.95547E-05
 -1      4685 1.97715E-04 1.85597E-04-3.14024E-05
 -1      4686 2.01800E-04 2.17181E-04-2.87059E-05
 -1      4687 2.03595E-04 2.33055E-04-2.06993E-05
 -1      4688 2.04483E-04 2.38998E-04-2.20938E-05
 -1      4689 2.05080E-04 2.43186E-04-2.31628E-05
 -1      4690 2.06526E-04 2.54799E-04-2.14238E-05
 -1      4691 1.84819E-04 7.26299E-05-4.01374E-05
 -1      4692 1.84646E-04 7.10839E-05-3.91066E-05
 -1      4693 1.84810E-04 7.08671E-05-4.10508E-05
 -1      4694 1.83862E-04 6.19744E-05-4.08545E-05
 -1      4695 1.84676E-04 6.91419E-05-4.19212E-05
 -1      4696 1.85246E-04 7.53885E-05-3.73606E-05
 -1      4697 1.85979E-04 8.42783E-05-3.65744E-05
 -1      4698 1.84996E-04 7.24801E-05-3.80244E-05
 -1      4699 1.84970E-04 6.99460E-05-3.71655E-05
 -1      4700 1.83896E-04 6.14819E-05-3.92960E-05
 -1      4701 1.84616E-04 6.90821E-05-3.84936E-05
 -1      4702 1.84194E-04 6.30598E-05-3.82461E-05
 -1      4703 1.82138E-04 3.74073E-05-3.98222E-05
 -1      4704 1.82373E-04 3.77458E-05-4.02339E-05
 -1      4705 1.82590E-04 3.80230E-05-3.94064E-05
 -1      4706 1.83997E-04 6.75897E-05-5.49214E-05
 -1      4707 1.84345E-04 6.97416E-05-5.33970E-05
 -1      4708 1.83322E-04 5.90429E-05-5.37138E-05
 -1      4709 1.84479E-04 6.98120E-05-5.23580E-05
 -1      4710 1.84292E-04 6.63077E-05-5.17122E-05
 -1      4711 1.85061E-04 7.62551E-05-5.14151E-05
 -1      4712 1.85608E-04 8.01182E-05-5.01378E-05
 -1      4713 1.83741E-04 6.62474E-05-5.59295E-05
 -1      4714 1.83142E-04 5.74625E-05-5.58503E-05
 -1      4715 1.84014E-04 6.98134E-05-5.62784E-05
 -1      4716 1.83197E-04 6.01892E-05-5.72964E-05
 -1      4717 1.84514E-04 7.32409E-05-5.69110E-05
 -1      4718 1.82809E-04 6.12958E-05-6.15032E-05
 -1      4719 1.82837E-04 6.03943E-05-6.05118E-05
 -1      4720 1.83615E-04 6.85849E-05-5.99526E-05
 -1      4721 1.84384E-04 7.57309E-05-5.84712E-05
 -1      4722 1.81901E-04 5.07376E-05-6.12372E-05
 -1      4723 1.83054E-04 5.91262E-05-5.97091E-05
 -1      4724 1.82974E-04 5.69288E-05-5.90718E-05
 -1      4725 1.83611E-04 6.59982E-05-5.83689E-05
 -1      4726 1.84424E-04 7.48466E-05-5.74975E-05
 -1      4727 1.84474E-04 6.96398E-05-5.03910E-05
 -1      4728 1.84774E-04 7.25189E-05-4.93221E-05
 -1      4729 1.85042E-04 7.56722E-05-4.96773E-05
 -1      4730 1.84223E-04 6.64870E-05-4.83366E-05
 -1      4731 1.84996E-04 7.54361E-05-4.81081E-05
 -1      4732 1.84545E-04 6.98044E-05-4.88642E-05
 -1      4733 1.83925E-04 6.33344E-05-4.94984E-05
 -1      4734 1.86507E-04 9.77818E-05-2.15873E-05
 -1      4735 1.87756E-04 1.10125E-04-2.14000E-05
 -1      4736 1.88390E-04 1.16423E-04-2.04463E-05
 -1      4737 1.84276E-04 7.16476E-05-2.32814E-05
 -1      4738 1.84997E-04 7.91060E-05-2.26548E-05
 -1      4739 1.85412E-04 8.62193E-05-2.17085E-05
 -1      4740 1.86207E-04 9.40336E-05-2.08235E-05
 -1      4741 1.85223E-04 8.36400E-05-2.22741E-05
 -1      4742 1.84791E-04 7.93641E-05-2.14736E-05
 -1      4743 1.84303E-04 7.18112E-05-2.24820E-05
 -1      4744 1.84124E-04 6.73007E-05-2.38637E-05
 -1      4745 1.83803E-04 6.19683E-05-2.34927E-05
 -1      4746 1.84003E-04 6.87663E-05-2.43440E-05
 -1      4747 1.83619E-04 5.90109E-05-2.43999E-05
 -1      4748 1.84402E-04 7.18108E-05-2.50054E-05
 -1      4749 1.82544E-04 4.52590E-05-2.40726E-05
 -1      4750 1.82820E-04 4.69314E-05-2.37201E-05
 -1      4751 1.82122E-04 4.16034E-05-2.33229E-05
 -1      4752 1.82946E-04 5.27329E-05-2.34655E-05
 -1      4753 1.85482E-04 8.84794E-05-2.01005E-05
 -1      4754 1.86578E-04 9.97669E-05-2.00155E-05
 -1      4755 1.87096E-04 1.04971E-04-1.91973E-05
 -1      4756 1.87649E-04 1.09725E-04-1.98705E-05
 -1      4757 1.84488E-04 7.67668E-05-2.01680E-05
 -1      4758 1.85041E-04 8.35104E-05-1.94104E-05
 -1      4759 1.84316E-04 7.19740E-05-2.07894E-05
 -1      4760 1.83780E-04 6.59302E-05-2.01905E-05
 -1      4761 1.84421E-04 7.41956E-05-2.12761E-05
 -1      4762 1.83602E-04 6.29674E-05-2.12278E-05
 -1      4763 1.84070E-04 7.11911E-05-2.18615E-05
 -1      4764 1.84597E-04 7.80391E-05-1.87707E-05
 -1      4765 1.85483E-04 8.96755E-05-1.86835E-05
 -1      4766 1.86211E-04 9.57526E-05-1.77512E-05
 -1      4767 1.86626E-04 1.00363E-04-1.83426E-05
 -1      4768 1.87641E-04 1.10359E-04-1.82387E-05
 -1      4769 1.82132E-04 4.10854E-05-2.10621E-05
 -1      4770 1.81647E-04 3.74509E-05-2.15252E-05
 -1      4771 1.81925E-04 3.90442E-05-2.18230E-05
 -1      4772 1.83652E-04 6.69918E-05-1.88842E-05
 -1      4773 1.84173E-04 7.41910E-05-1.82305E-05
 -1      4774 1.83478E-04 6.20926E-05-1.93632E-05
 -1      4775 1.82898E-04 5.74718E-05-1.88691E-05
 -1      4776 1.83021E-04 5.58646E-05-2.04128E-05
 -1      4777 1.83410E-04 6.18577E-05-1.97584E-05
 -1      4778 1.82596E-04 5.10955E-05-1.96494E-05
 -1      4779 1.86393E-04 9.82874E-05-1.70073E-05
 -1      4780 1.85275E-04 8.72299E-05-1.73133E-05
 -1      4781 1.84638E-04 7.86234E-05-1.76104E-05
 -1      4782 1.84832E-04 8.16384E-05-1.68514E-05
 -1      4783 1.83657E-04 6.76406E-05-1.77271E-05
 -1      4784 1.87091E-04 1.06732E-04-1.64121E-05
 -1      4785 1.87902E-04 1.15394E-04-1.56413E-05
 -1      4786 1.87992E-04 1.14745E-04-1.66596E-05
 -1      4787 1.88257E-04 1.16757E-04-1.73869E-05
 -1      4788 1.88200E-04 1.18337E-04-1.46719E-05
 -1      4789 1.83837E-04 6.22662E-05-4.45523E-05
 -1      4790 1.84713E-04 7.16305E-05-4.36749E-05
 -1      4791 1.84595E-04 6.96820E-05-4.28371E-05
 -1      4792 1.87670E-04 1.26703E-04-5.27901E-05
 -1      4793 1.86396E-04 1.16034E-04-5.51742E-05
 -1      4794 1.85220E-04 1.04546E-04-5.76763E-05
 -1      4795 1.84164E-04 9.41859E-05-6.00979E-05
 -1      4796 1.90498E-04 1.42865E-04-4.87744E-05
 -1      4797 1.89142E-04 1.40264E-04-5.00417E-05
 -1      4798 1.87732E-04 1.36589E-04-5.13042E-05
 -1      4799 1.83431E-04 7.94524E-05-6.27002E-05
 -1      4800 1.82674E-04 7.12385E-05-6.36549E-05
 -1      4801 1.83451E-04 8.51035E-05-6.21493E-05
 -1      4802 1.82461E-04 7.60907E-05-6.42649E-05
 -1      4803 1.83071E-04 9.12299E-05-6.13285E-05
 -1      4804 1.82014E-04 6.36699E-05-6.53816E-05
 -1      4805 1.82316E-04 6.49340E-05-6.40933E-05
 -1      4806 1.81732E-04 5.70539E-05-6.47016E-05
 -1      4807 1.82605E-04 6.52978E-05-6.31194E-05
 -1      4808 1.82827E-04 6.35172E-05-6.22105E-05
 -1      4809 1.81391E-04 6.18275E-05-6.66517E-05
 -1      4810 1.81003E-04 5.47809E-05-6.71858E-05
 -1      4811 1.81723E-04 6.78091E-05-6.61350E-05
 -1      4812 1.80863E-04 5.93223E-05-6.80622E-05
 -1      4813 1.81799E-04 7.39818E-05-6.53915E-05
 -1      4814 1.85513E-04 8.05347E-05-3.58450E-05
 -1      4815 1.86324E-04 9.10537E-05-3.57701E-05
 -1      4816 1.87068E-04 9.80425E-05-3.48097E-05
 -1      4817 1.84808E-04 7.05910E-05-3.58790E-05
 -1      4818 1.85217E-04 7.84159E-05-3.51075E-05
 -1      4819 1.84415E-04 6.28105E-05-3.65425E-05
 -1      4820 1.83878E-04 6.01200E-05-3.58417E-05
 -1      4821 1.83250E-04 5.20305E-05-3.69869E-05
 -1      4822 1.84370E-04 6.37457E-05-3.70390E-05
 -1      4823 1.83981E-04 6.03112E-05-3.76619E-05
 -1      4824 1.83253E-04 5.78799E-05-2.29477E-05
 -1      4825 1.83365E-04 5.85809E-05-2.20035E-05
 -1      4826 1.83772E-04 6.59422E-05-2.22122E-05
 -1      4827 1.83574E-04 5.91420E-05-2.24744E-05
 -1      4828 1.86089E-04 8.92772E-05-3.15082E-05
 -1      4829 1.87102E-04 1.00455E-04-3.02806E-05
 -1      4830 1.87502E-04 1.03473E-04-3.09246E-05
 -1      4831 1.87723E-04 1.02896E-04-3.18115E-05
 -1      4832 1.86040E-04 8.99020E-05-2.99076E-05
 -1      4833 1.87488E-04 1.04054E-04-2.93540E-05
 -1      4834 1.87317E-04 1.02448E-04-2.85659E-05
 -1      4835 1.88272E-04 1.11919E-04-2.88979E-05
 -1      4836 1.84948E-04 7.71282E-05-3.30203E-05
 -1      4837 1.85749E-04 8.36637E-05-3.23152E-05
 -1      4838 1.86014E-04 8.66074E-05-3.28764E-05
 -1      4839 1.86938E-04 9.67122E-05-3.27251E-05
 -1      4840 1.86329E-04 9.08956E-05-3.34668E-05
 -1      4841 1.85196E-04 7.99649E-05-3.15838E-05
 -1      4842 1.84877E-04 7.44850E-05-3.44285E-05
 -1      4843 1.85605E-04 8.40016E-05-3.43239E-05
 -1      4844 1.86642E-04 9.42962E-05-3.41006E-05
 -1      4845 1.83725E-04 5.98856E-05-3.52375E-05
 -1      4846 1.83253E-04 5.59364E-05-3.46427E-05
 -1      4847 1.84020E-04 6.45528E-05-3.45548E-05
 -1      4848 1.84580E-04 7.10531E-05-3.38231E-05
 -1      4849 1.82269E-04 3.81641E-05-3.40479E-05
 -1      4850 1.82560E-04 4.44335E-05-3.41791E-05
 -1      4851 1.82138E-04 3.85214E-05-3.46016E-05
 -1      4852 1.82411E-04 3.88728E-05-3.50634E-05
 -1      4853 1.83250E-04 5.41003E-05-4.13133E-05
 -1      4854 1.83282E-04 5.63355E-05-4.04490E-05
 -1      4855 1.83562E-04 5.50889E-05-3.98538E-05
 -1      4856 1.83465E-04 5.28354E-05-3.92208E-05
 -1      4857 1.82806E-04 4.69438E-05-4.03602E-05
 -1      4858 1.83802E-04 6.07532E-05-4.27153E-05
 -1      4859 1.83240E-04 5.47486E-05-4.34282E-05
 -1      4860 1.83183E-04 5.41745E-05-4.25591E-05
 -1      4861 1.82527E-04 4.58485E-05-4.27750E-05
 -1      4862 1.83164E-04 5.23301E-05-4.20717E-05
 -1      4863 1.83215E-04 5.25056E-05-4.17098E-05
 -1      4864 1.82412E-04 4.39519E-05-4.20398E-05
 -1      4865 1.83398E-04 5.37135E-05-4.68811E-05
 -1      4866 1.83673E-04 5.58656E-05-4.59684E-05
 -1      4867 1.83346E-04 5.49254E-05-4.53715E-05
 -1      4868 1.83115E-04 5.37574E-05-4.44773E-05
 -1      4869 1.83529E-04 5.39184E-05-4.86993E-05
 -1      4870 1.83553E-04 5.36233E-05-4.79783E-05
 -1      4871 1.83787E-04 5.99357E-05-4.81667E-05
 -1      4872 1.83216E-04 5.24492E-05-4.75030E-05
 -1      4873 1.82697E-04 4.57976E-05-4.70711E-05
 -1      4874 1.82884E-04 4.56832E-05-4.80826E-05
 -1      4875 1.82333E-04 4.49846E-05-4.48382E-05
 -1      4876 1.82928E-04 5.36012E-05-4.39349E-05
 -1      4877 1.81030E-04 5.03414E-05-6.61188E-05
 -1      4878 1.81386E-04 5.06228E-05-6.49043E-05
 -1      4879 1.80283E-04 4.72499E-05-6.88336E-05
 -1      4880 1.80856E-04 4.94809E-05-6.73987E-05
 -1      4881 1.80302E-04 4.19129E-05-6.76521E-05
 -1      4882 1.82111E-04 5.48319E-05-6.28814E-05
 -1      4883 1.81815E-04 5.08867E-05-6.39810E-05
 -1      4884 1.81646E-04 4.81254E-05-6.31565E-05
 -1      4885 1.80887E-04 4.32942E-05-6.53621E-05
 -1      4886 1.93478E-04 1.64136E-04-6.79224E-06
 -1      4887 1.95515E-04 1.79449E-04-6.58341E-06
 -1      4888 1.97795E-04 1.96388E-04-6.37931E-06
 -1      4889 1.92169E-04 1.53827E-04-7.32896E-06
 -1      4890 1.92909E-04 1.59607E-04-5.94778E-06
 -1      4891 1.90645E-04 1.40311E-04-9.08276E-06
 -1      4892 1.91479E-04 1.47527E-04-8.05501E-06
 -1      4893 1.90867E-04 1.42694E-04-7.20360E-06
 -1      4894 2.17970E-04 3.47329E-04-1.54347E-05
 -1      4895 2.19488E-04 3.65089E-04-1.63589E-05
 -1      4896 2.20868E-04 3.82823E-04-1.68030E-05
 -1      4897 2.11094E-04 2.90233E-04-1.51461E-05
 -1      4898 2.09099E-04 2.74888E-04-1.73473E-05
 -1      4899 2.09206E-04 2.75538E-04-1.89065E-05
 -1      4900 2.05778E-04 2.49999E-04-1.86484E-05
 -1      4901 2.15085E-04 3.20856E-04-1.41098E-05
 -1      4902 2.20634E-04 3.68059E-04-1.25746E-05
 -1      4903 1.92514E-04 1.56503E-04-5.07637E-06
 -1      4904 1.91633E-04 1.49774E-04-3.84262E-06
 -1      4905 1.90895E-04 1.43725E-04-3.06481E-06
 -1      4906 1.90033E-04 1.36350E-04-3.91714E-06
 -1      4907 2.03373E-04 2.32328E-04-1.88172E-05
 -1      4908 1.82865E-04 5.27629E-05-5.45101E-05
 -1      4909 1.83054E-04 5.27501E-05-5.33945E-05
 -1      4910 1.82590E-04 4.99745E-05-5.67631E-05
 -1      4911 1.82861E-04 5.15542E-05-5.58430E-05
 -1      4912 1.82768E-04 5.12397E-05-5.51248E-05
 -1      4913 1.82287E-04 4.42407E-05-5.47884E-05
 -1      4914 1.83329E-04 5.71899E-05-5.18421E-05
 -1      4915 1.84095E-04 6.45992E-05-5.09586E-05
 -1      4916 1.83029E-04 5.18926E-05-5.24510E-05
 -1      4917 1.82820E-04 4.99385E-05-5.17238E-05
 -1      4918 1.83345E-04 5.16735E-05-5.29357E-05
 -1      4919 1.82508E-04 4.34077E-05-5.27122E-05
 -1      4920 1.81865E-04 8.62856E-05-6.29133E-05
 -1      4921 1.80918E-04 8.27956E-05-6.40358E-05
 -1      4922 1.81573E-04 7.83051E-05-6.47578E-05
 -1      4923 1.86202E-04 9.83062E-05-3.08307E-06
 -1      4924 1.85610E-04 9.31085E-05-2.39222E-06
 -1      4925 1.84755E-04 8.35231E-05-2.42004E-06
 -1      4926 1.85327E-04 8.99957E-05-1.77821E-06
 -1      4927 1.86506E-04 1.03444E-04-3.77007E-06
 -1      4928 1.85467E-04 9.24105E-05-3.76849E-06
 -1      4929 1.87610E-04 1.14254E-04-3.83084E-06
 -1      4930 1.87056E-04 1.09176E-04-4.49487E-06
 -1      4931 1.88702E-04 1.24738E-04-3.86732E-06
 -1      4932 1.85215E-04 8.94649E-05-4.32066E-06
 -1      4933 1.84744E-04 8.35661E-05-3.66698E-06
 -1      4934 1.84432E-04 7.83511E-05-2.71607E-06
 -1      4935 1.84133E-04 7.49187E-05-2.10377E-06
 -1      4936 1.84157E-04 7.69046E-05-3.22332E-06
 -1      4937 1.83341E-04 6.74894E-05-2.89945E-06
 -1      4938 1.83877E-04 7.32713E-05-3.83201E-06
 -1      4939 1.87499E-04 1.12976E-04-5.25749E-06
 -1      4940 1.86353E-04 1.02047E-04-5.14397E-06
 -1      4941 1.85824E-04 9.52272E-05-5.77074E-06
 -1      4942 1.85325E-04 9.08489E-05-5.03337E-06
 -1      4943 1.84638E-04 8.18659E-05-4.91741E-06
 -1      4944 1.88575E-04 1.23577E-04-5.33143E-06
 -1      4945 1.87973E-04 1.17169E-04-6.00165E-06
 -1      4946 1.89477E-04 1.31444E-04-4.64107E-06
 -1      4947 1.89904E-04 1.35265E-04-5.37810E-06
 -1      4948 1.86168E-04 9.89915E-05-6.55097E-06
 -1      4949 1.85098E-04 8.75435E-05-6.38881E-06
 -1      4950 1.87225E-04 1.09623E-04-6.63199E-06
 -1      4951 1.86536E-04 1.02623E-04-7.28307E-06
 -1      4952 1.88311E-04 1.20353E-04-6.72256E-06
 -1      4953 1.84479E-04 8.08293E-05-7.13926E-06
 -1      4954 1.84138E-04 7.62055E-05-6.33482E-06
 -1      4955 1.83216E-04 6.32153E-05-6.55514E-06
 -1      4956 1.84116E-04 7.17134E-05-5.85422E-06
 -1      4957 1.83313E-04 6.27162E-05-5.53038E-06
 -1      4958 1.84295E-04 7.55767E-05-5.29649E-06
 -1      4959 1.84084E-04 7.39019E-05-4.54997E-06
 -1      4960 1.86762E-04 1.05560E-04-7.99039E-06
 -1      4961 1.85656E-04 9.46607E-05-7.86960E-06
 -1      4962 1.85089E-04 8.72775E-05-8.47250E-06
 -1      4963 1.84886E-04 8.39163E-05-7.85407E-06
 -1      4964 1.83866E-04 7.20500E-05-7.74012E-06
 -1      4965 1.87993E-04 1.16295E-04-8.29133E-06
 -1      4966 1.87192E-04 1.09011E-04-8.86169E-06
 -1      4967 1.89610E-04 1.31871E-04-7.02696E-06
 -1      4968 1.88976E-04 1.24872E-04-7.68012E-06
 -1      4969 1.89291E-04 1.27918E-04-8.53558E-06
 -1      4970 1.85320E-04 9.03191E-05-9.13508E-06
 -1      4971 1.84398E-04 7.88855E-05-9.03183E-06
 -1      4972 1.86264E-04 1.00395E-04-9.30505E-06
 -1      4973 1.85778E-04 9.31360E-05-9.88875E-06
 -1      4974 1.87446E-04 1.11437E-04-9.60438E-06
 -1      4975 1.84002E-04 7.24641E-05-9.61348E-06
 -1      4976 1.83755E-04 6.87917E-05-8.98930E-06
 -1      4977 1.83914E-04 6.90462E-05-8.16183E-06
 -1      4978 1.83365E-04 6.51026E-05-7.44095E-06
 -1      4979 1.82844E-04 5.76457E-05-9.08612E-06
 -1      4980 1.83636E-04 6.52311E-05-8.54345E-06
 -1      4981 1.83011E-04 5.77694E-05-8.22869E-06
 -1      4982 1.85848E-04 9.49749E-05-1.05459E-05
 -1      4983 1.85004E-04 8.44204E-05-1.03806E-05
 -1      4984 1.84391E-04 7.63058E-05-1.08957E-05
 -1      4985 1.84257E-04 7.41286E-05-1.02645E-05
 -1      4986 1.83281E-04 6.34046E-05-1.01024E-05
 -1      4987 1.86637E-04 1.04224E-04-1.07586E-05
 -1      4988 1.85957E-04 9.63659E-05-1.12981E-05
 -1      4989 1.87539E-04 1.12818E-04-1.04436E-05
 -1      4990 1.87653E-04 1.13984E-04-1.11844E-05
 -1      4991 1.88393E-04 1.20726E-04-1.00279E-05
 -1      4992 1.84414E-04 7.73164E-05-1.15599E-05
 -1      4993 1.83397E-04 6.63308E-05-1.13883E-05
 -1      4994 1.85242E-04 8.73880E-05-1.17959E-05
 -1      4995 1.84565E-04 7.82969E-05-1.22433E-05
 -1      4996 1.86113E-04 9.71935E-05-1.19816E-05
 -1      4997 1.83074E-04 5.93488E-05-6.82856E-06
 -1      4998 1.82803E-04 5.35496E-05-6.36150E-06
 -1      4999 1.82552E-04 4.87331E-05-7.50646E-06
 -1      5000 1.83215E-04 5.89504E-05-7.09872E-06
 -1      5001 1.83064E-04 5.94224E-05-7.33282E-06
 -1      5002 1.82871E-04 5.58236E-05-7.85921E-06
 -1      5003 1.82608E-04 5.35511E-05-5.69791E-06
 -1      5004 1.82920E-04 5.86101E-05-5.12692E-06
 -1      5005 1.82209E-04 4.75307E-05-6.00396E-06
 -1      5006 1.82303E-04 4.73451E-05-6.07174E-06
 -1      5007 1.82906E-04 5.82905E-05-4.84317E-06
 -1      5008 1.82715E-04 5.65888E-05-4.41475E-06
 -1      5009 1.83441E-04 6.55133E-05-4.51690E-06
 -1      5010 1.83944E-04 7.24521E-05-4.17198E-06
 -1      5011 1.82918E-04 5.87545E-05-1.18020E-05
 -1      5012 1.82920E-04 5.73484E-05-1.11565E-05
 -1      5013 1.83128E-04 5.75551E-05-1.07134E-05
 -1      5014 1.82711E-04 5.54674E-05-1.00398E-05
 -1      5015 1.82237E-04 4.77536E-05-1.11704E-05
 -1      5016 1.83071E-04 5.64326E-05-1.07711E-05
 -1      5017 1.82294E-04 4.74712E-05-1.07689E-05
 -1      5018 1.84558E-04 7.92644E-05-1.29062E-05
 -1      5019 1.83585E-04 6.84646E-05-1.26636E-05
 -1      5020 1.83170E-04 6.21570E-05-1.30391E-05
 -1      5021 1.83160E-04 6.11834E-05-1.24376E-05
 -1      5022 1.82389E-04 5.05580E-05-1.24756E-05
 -1      5023 1.82908E-04 5.76784E-05-1.20688E-05
 -1      5024 1.85484E-04 8.87315E-05-1.30236E-05
 -1      5025 1.84636E-04 8.00096E-05-1.33726E-05
 -1      5026 1.86144E-04 9.58952E-05-1.26607E-05
 -1      5027 1.86216E-04 9.65185E-05-1.31414E-05
 -1      5028 1.86759E-04 1.04332E-04-1.21419E-05
 -1      5029 1.84656E-04 8.04093E-05-1.40786E-05
 -1      5030 1.83755E-04 6.98440E-05-1.39501E-05
 -1      5031 1.83421E-04 6.22554E-05-1.42399E-05
 -1      5032 1.83279E-04 6.17692E-05-1.35413E-05
 -1      5033 1.82539E-04 5.11616E-05-1.34894E-05
 -1      5034 1.83056E-04 6.00255E-05-1.32335E-05
 -1      5035 1.85541E-04 9.03636E-05-1.42809E-05
 -1      5036 1.84746E-04 8.12632E-05-1.47935E-05
 -1      5037 1.86318E-04 9.86897E-05-1.38030E-05
 -1      5038 1.86373E-04 9.93901E-05-1.44970E-05
 -1      5039 1.86885E-04 1.05165E-04-1.33951E-05
 -1      5040 1.84954E-04 8.32475E-05-1.54637E-05
 -1      5041 1.83979E-04 7.25506E-05-1.51690E-05
 -1      5042 1.83470E-04 6.55343E-05-1.56073E-05
 -1      5043 1.83368E-04 6.30834E-05-1.49568E-05
 -1      5044 1.83456E-04 6.09636E-05-1.45754E-05
 -1      5045 1.82858E-04 5.17419E-05-1.41986E-05
 -1      5046 1.82653E-04 5.26606E-05-1.50109E-05
 -1      5047 1.85597E-04 9.05533E-05-1.58096E-05
 -1      5048 1.84853E-04 8.27161E-05-1.61684E-05
 -1      5049 1.87037E-04 1.07352E-04-1.47033E-05
 -1      5050 1.86386E-04 9.95021E-05-1.52130E-05
 -1      5051 1.86336E-04 9.90718E-05-1.59827E-05
 -1      5052 1.84103E-04 7.34508E-05-1.64404E-05
 -1      5053 1.83668E-04 6.62160E-05-1.60705E-05
 -1      5054 1.82730E-04 5.55949E-05-1.59048E-05
 -1      5055 1.83547E-04 6.47172E-05-1.67083E-05
 -1      5056 1.82624E-04 5.45011E-05-9.48539E-06
 -1      5057 1.82589E-04 5.39143E-05-9.72584E-06
 -1      5058 1.82076E-04 4.60832E-05-9.66400E-06
 -1      5059 1.87582E-04 1.11037E-04-1.25706E-05
 -1      5060 1.87636E-04 1.12996E-04-1.31807E-05
 -1      5061 1.88176E-04 1.18239E-04-1.39671E-05
 -1      5062 1.82547E-04 4.95731E-05-1.89869E-05
 -1      5063 1.82764E-04 5.57811E-05-1.84718E-05
 -1      5064 1.82962E-04 5.80710E-05-1.77755E-05
 -1      5065 1.83482E-04 6.31046E-05-1.72011E-05
 -1      5066 1.82792E-04 5.56482E-05-1.81976E-05
 -1      5067 1.82512E-04 5.01343E-05-1.76600E-05
 -1      5068 1.83443E-04 5.28121E-05-3.86733E-05
 -1      5069 1.83623E-04 5.64923E-05-3.80762E-05
 -1      5070 1.82900E-04 4.55055E-05-3.92028E-05
 -1      5071 1.82781E-04 4.91555E-05-2.06353E-05
 -1      5072 1.83186E-04 5.39474E-05-2.11289E-05
 -1      5073 1.83207E-04 5.67299E-05-2.16201E-05
 -1      5074 1.82819E-04 5.62036E-05-5.83020E-05
 -1      5075 1.82346E-04 5.16744E-05-5.77994E-05
 -1      5076 1.81754E-04 4.57620E-05-5.83477E-05
 -1      5077 1.82437E-04 5.04763E-05-5.73589E-05
 -1      5078 1.80433E-04 5.72451E-05-6.93114E-05
 -1      5079 1.79995E-04 5.04247E-05-6.98733E-05
 -1      5080 1.79431E-04 4.46762E-05-7.13168E-05
 -1      5081 1.79949E-04 4.71991E-05-6.98537E-05
 -1      5082 1.80486E-04 6.26010E-05-6.84923E-05
 -1      5083 1.79672E-04 5.41516E-05-7.05103E-05
 -1      5084 1.81021E-04 7.01516E-05-6.67937E-05
 -1      5085 1.82019E-04 4.39202E-05-1.41032E-05
 -1      5086 1.81741E-04 4.41359E-05-1.39309E-05
 -1      5087 1.82529E-04 4.64624E-05-1.57497E-05
 -1      5088 1.82264E-04 4.51951E-05-1.54537E-05
 -1      5089 1.82380E-04 4.20611E-05-1.95027E-05
 -1      5090 1.82349E-04 4.31717E-05-1.92562E-05
 -1      5091 1.82492E-04 4.43099E-05-3.68849E-05
 -1      5092 1.87543E-04 1.12153E-04-1.19606E-05
 -1      5093 1.89804E-04 1.32421E-04-9.68882E-06
 -1      5094 1.98952E-04 1.95074E-04-3.29132E-05
 -1      5095 2.01364E-04 2.14782E-04-3.06660E-05
 -1      5096 1.96877E-04 1.78819E-04-3.60490E-05
 -1      5097 1.97609E-04 1.84139E-04-3.27376E-05
 -1      5098 1.97103E-04 1.80375E-04-3.46981E-05
 -1      5099 1.95448E-04 1.67386E-04-3.58775E-05
 -1      5100 1.94728E-04 1.68554E-04-4.21249E-05
 -1      5101 1.94663E-04 1.64452E-04-4.12760E-05
 -1      5102 1.93036E-04 1.50291E-04-4.31947E-05
 -1      5103 1.93901E-04 1.66855E-04-4.36238E-05
 -1      5104 1.82157E-04 5.00052E-05-8.35159E-06
 -1      5105 1.82609E-04 5.44885E-05-8.03056E-06
 -1      5106 1.81814E-04 4.58532E-05-6.12204E-05
 -1      5107 1.80611E-04 3.59805E-05-6.47108E-05
 -1      5108 1.81885E-04 3.84273E-05-4.50682E-05
 -1      5109 1.83335E-04 5.50423E-05-2.47091E-05
 -1      5110 1.83505E-04 5.32795E-05-2.43168E-05
 -1      5111 1.83310E-04 5.75553E-05-2.61380E-05
 -1      5112 1.82985E-04 5.50276E-05-2.54032E-05
 -1      5113 1.83628E-04 6.29398E-05-2.55918E-05
 -1      5114 1.82524E-04 4.71406E-05-2.56384E-05
 -1      5115 1.83065E-04 5.35294E-05-2.51504E-05
 -1      5116 1.82937E-04 5.45402E-05-1.67621E-05
 -1      5117 1.82622E-04 4.96036E-05-1.69453E-05
 -1      5118 1.82476E-04 4.41037E-05-1.74722E-05
 -1      5119 1.81871E-04 4.35925E-05-1.71573E-05
 -1      5120 1.91184E-04 1.45913E-04-5.58546E-06
 -1      5121 1.90350E-04 1.38672E-04-6.29763E-06
 -1      5122 1.83694E-04 6.10036E-05-5.05917E-05
 -1      5123 1.82665E-04 4.18576E-05-5.08253E-05
 -1      5124 1.83069E-04 5.18481E-05-5.07023E-05
 -1      5125 1.82744E-04 4.60104E-05-5.12654E-05
 -1      5126 1.83540E-04 5.79325E-05-5.01495E-05
 -1      5127 1.82786E-04 4.63229E-05-4.98796E-05
 -1      5128 1.83299E-04 5.29541E-05-4.92667E-05
 -1      5129 1.83321E-04 5.44132E-05-4.96426E-05
 -1      5130 1.79991E-04 3.48410E-05-6.88138E-05
 -1      5131 1.83040E-04 5.53598E-05-1.54138E-06
 -1      5132 1.83611E-04 6.64018E-05-1.94360E-06
 -1      5133 1.83163E-04 6.07153E-05-2.16221E-06
 -1      5134 1.82909E-04 5.75639E-05-1.76268E-06
 -1      5135 1.82067E-04 4.29478E-05-2.47432E-06
 -1      5136 1.82184E-04 4.26851E-05-2.85895E-06
 -1      5137 1.82423E-04 5.10923E-05-2.42529E-06
 -1      5138 1.82273E-04 4.97566E-05-3.00657E-06
 -1      5139 1.82774E-04 5.89973E-05-3.14929E-06
 -1      5140 1.83082E-04 6.09974E-05-2.61227E-06
 -1      5141 1.82623E-04 5.72556E-05-3.30353E-06
 -1      5142 1.82044E-04 4.94420E-05-4.29122E-06
 -1      5143 1.81376E-04 4.05887E-05-4.48262E-06
 -1      5144 1.82585E-04 5.75282E-05-3.89656E-06
 -1      5145 1.83183E-04 6.47809E-05-3.73299E-06
 -1      5146 1.82514E-04 5.85672E-05-3.55825E-06
 -1      5147 1.79891E-04 3.58745E-05-6.49948E-05
 -1      5148 1.81683E-04 3.96227E-05-1.08977E-05
 -1      5149 1.81833E-04 3.99087E-05-1.10309E-05
 -1      5150 1.82649E-04 4.77646E-05-3.49849E-05
 -1      5151 1.83174E-04 5.33759E-05-3.42954E-05
 -1      5152 1.84244E-04 6.75301E-05-3.32257E-05
 -1      5153 1.83283E-04 5.64125E-05-3.32792E-05
 -1      5154 1.83877E-04 6.34951E-05-3.26044E-05
 -1      5155 1.83257E-04 5.31471E-05-3.37834E-05
 -1      5156 1.84348E-04 6.83297E-05-3.19020E-05
 -1      5157 1.84898E-04 7.49332E-05-3.10937E-05
 -1      5158 1.83445E-04 5.73160E-05-3.20897E-05
 -1      5159 1.82486E-04 4.17361E-05-3.11107E-05
 -1      5160 1.82550E-04 4.04899E-05-3.15440E-05
 -1      5161 1.82305E-04 3.90717E-05-3.18465E-05
 -1      5162 1.82004E-04 3.86413E-05-3.20869E-05
 -1      5163 1.82620E-04 4.73545E-05-3.15617E-05
 -1      5164 1.84290E-04 6.70726E-05-3.06016E-05
 -1      5165 1.85144E-04 7.90027E-05-3.03224E-05
 -1      5166 1.85538E-04 8.32605E-05-2.94197E-05
 -1      5167 1.83493E-04 5.82627E-05-3.09270E-05
 -1      5168 1.83906E-04 6.32714E-05-3.01198E-05
 -1      5169 1.82660E-04 4.91299E-05-3.23644E-05
 -1      5170 1.83255E-04 5.46544E-05-3.16319E-05
 -1      5171 1.83507E-04 5.57814E-05-3.12638E-05
 -1      5172 1.82894E-04 5.12171E-05-3.08742E-05
 -1      5173 1.84864E-04 7.55798E-05-2.91087E-05
 -1      5174 1.85809E-04 8.68995E-05-2.87168E-05
 -1      5175 1.84129E-04 6.66068E-05-2.92735E-05
 -1      5176 1.84486E-04 7.06724E-05-2.85624E-05
 -1      5177 1.84035E-04 6.19370E-05-2.96900E-05
 -1      5178 1.83518E-04 5.60306E-05-2.92071E-05
 -1      5179 1.82376E-04 4.33606E-05-2.84393E-05
 -1      5180 1.83100E-04 5.50664E-05-2.84134E-05
 -1      5181 1.83097E-04 5.04815E-05-2.88424E-05
 -1      5182 1.82774E-04 4.49291E-05-2.91594E-05
 -1      5183 1.85747E-04 8.65218E-05-2.77347E-05
 -1      5184 1.86400E-04 9.35587E-05-2.80251E-05
 -1      5185 1.84037E-04 6.47154E-05-2.81441E-05
 -1      5186 1.84694E-04 7.39733E-05-2.79986E-05
 -1      5187 1.83470E-04 5.91198E-05-2.78007E-05
 -1      5188 1.83783E-04 5.89240E-05-2.73117E-05
 -1      5189 1.83571E-04 5.72203E-05-2.67716E-05
 -1      5190 1.82649E-04 4.03295E-05-5.02199E-05
 -1      5191 1.82073E-04 3.79554E-05-4.75959E-05
 -1      5192 1.82132E-04 3.77838E-05-4.80822E-05
 -1      5193 1.82185E-04 3.82175E-05-4.27120E-05
 -1      5194 1.82384E-04 3.80155E-05-4.22607E-05
 -1      5195 1.82851E-04 4.89462E-05-2.18970E-05
 -1      5196 2.22384E-04 3.81671E-04-8.59315E-06
 -1      5197 1.97743E-04 5.49110E-04-1.26654E-05
 -1      5198 2.00649E-04 5.52663E-04-4.45659E-06
 -1      5199 1.87988E-04 5.70919E-04-2.09985E-06
 -1      5200 2.16162E-04 5.34854E-04-2.41471E-06
 -1      5201 2.15923E-04 5.33967E-04-6.91408E-06
 -1      5202 1.87056E-04 5.70631E-04-6.05343E-06
 -1      5203 2.10317E-04 5.30054E-04-1.42985E-05
 -1      5204 1.82828E-04 5.65324E-04-1.49373E-05
 -1      5205 2.14148E-04 5.32248E-04-1.11085E-05
 -1      5206 1.86105E-04 5.68855E-04-1.00752E-05
 -1      5207 2.01130E-04 5.52081E-04-8.41096E-06
 -1      5208 2.28906E-04 9.19420E-04-5.55972E-06
 -1      5209 2.23794E-04 1.11127E-03-1.96498E-06
 -1      5210 2.12157E-04 1.25972E-03-4.56605E-07
 -1      5211 2.03808E-04 7.21992E-04-9.38434E-06
 -1      5212 2.27787E-04 9.04702E-04-2.24332E-06
 -1      5213 2.21867E-04 1.11398E-03-2.20197E-06
 -1      5214 2.05359E-04 7.33167E-04-3.79656E-06
 -1      5215 2.12007E-04 1.25191E-03-4.28690E-07
 -1      5216 2.10815E-04 7.59303E-04-1.80666E-06
 -1      5217 1.91935E-04 6.59578E-04-2.10211E-06
 -1      5218 1.90539E-04 6.58734E-04-5.52694E-06
 -1      5219 2.10051E-04 1.31300E-03-1.43201E-07
 -1      5220 2.13156E-04 1.23552E-03-3.06505E-07
 -1      5221 2.09402E-04 1.31298E-03 2.21187E-08
 -1      5222 1.87824E-04 6.50408E-04-1.39223E-05
 -1      5223 2.08437E-04 7.50277E-04-1.17759E-05
 -1      5224 1.89393E-04 6.53412E-04-8.63071E-06
 -1      5225 2.10318E-04 1.23308E-03-2.33992E-08
 -1      5226 2.07155E-04 1.31036E-03 1.52796E-06
 -1      5227 2.08797E-04 1.30910E-03 2.54620E-07
 -1      5228 2.29741E-04 9.62022E-04-1.11493E-06
 -1      5229 2.22768E-04 8.44469E-04-1.32900E-06
 -1      5230 2.17750E-04 8.15537E-04-2.93235E-06
 -1      5231 2.19364E-04 1.16326E-03-9.22495E-07
 -1      5232 2.27421E-04 1.06561E-03-1.28288E-06
 -1      5233 2.29012E-04 1.01346E-03-2.32046E-06
 -1      5234 2.17358E-04 1.18998E-03-1.23774E-06
 -1      5235 2.22787E-04 8.49769E-04-8.84135E-06
 -1      5236 2.29627E-04 9.69043E-04-5.18796E-06
 -1      5237 2.18175E-04 8.16828E-04-7.14611E-06
 -1      5238 2.25872E-04 1.06878E-03-2.79171E-06
 -1      5239 2.16391E-04 1.16694E-03-7.13460E-07
 -1      5240 2.27609E-04 1.02211E-03-4.18658E-06
 -1      5241 2.16384E-04 1.18736E-03-1.23238E-06
 -1      5242 2.04735E-04 7.28035E-04-6.41979E-06
 -1      5243 2.12157E-04 1.25587E-03-5.27427E-07
 -1      5244 2.28234E-04 9.12381E-04-3.82908E-06
 -1      5245 2.29209E-04 1.02060E-03-3.68298E-06
 -1      5246 2.22800E-04 1.11218E-03-2.19098E-06
 -1      5247 2.18946E-04 8.22727E-04-4.95067E-06
 -1      5248 2.17545E-04 1.18519E-03-1.37093E-06
 -1      5249-3.74562E-05 1.35960E-03-1.61897E-06
 -1      5250-2.51185E-04 1.39148E-03-2.46920E-06
 -1      5251 7.45447E-05 1.36209E-03-4.97533E-07
 -1      5252-4.08641E-04 1.40277E-03-1.51932E-06
 -1      5253-4.48728E-04 1.40569E-03-2.79478E-06
 -1      5254 1.03202E-04 1.36339E-03-6.76206E-08
 -1      5255 6.31843E-05 1.36165E-03-1.71509E-07
 -1      5256 1.56282E-04 1.36555E-03 3.62639E-08
 -1      5257 1.55561E-04 1.36588E-03 3.72137E-07
 -1      5258-5.01420E-04 1.40565E-03-4.92584E-07
 -1      5259-3.79611E-04 1.40270E-03-8.44119E-07
 -1      5260-5.00987E-04 1.40593E-03-1.52265E-06
 -1      5261 1.39000E-04 1.36627E-03 1.01309E-06
 -1      5262 4.79685E-05 1.36099E-03-9.10838E-07
 -1      5263 1.40824E-04 1.36561E-03 5.27865E-07
 -1      5264-3.97327E-04 1.40431E-03-3.90988E-06
 -1      5265-5.19901E-04 1.40645E-03-2.62909E-06
 -1      5266-5.20733E-04 1.40660E-03-2.07475E-06
 -1      5267-8.37276E-05 1.36480E-03-4.86449E-07
 -1      5268-6.54944E-06 1.35871E-03-7.96590E-07
 -1      5269 2.84424E-05 1.36037E-03-9.44766E-07
 -1      5270-3.00007E-04 1.39707E-03-1.08880E-06
 -1      5271-1.89708E-04 1.38259E-03-1.12558E-06
 -1      5272-1.32367E-04 1.37213E-03-2.25360E-06
 -1      5273-3.28242E-04 1.39827E-03-2.00075E-06
 -1      5274-7.14612E-06 1.35803E-03-2.19224E-06
 -1      5275-8.30089E-05 1.36426E-03-4.74039E-06
 -1      5276 1.56687E-05 1.35990E-03-1.52090E-06
 -1      5277-1.87570E-04 1.38219E-03-4.78195E-06
 -1      5278-2.98130E-04 1.39754E-03-4.13053E-06
 -1      5279-3.47544E-04 1.40069E-03-2.78431E-06
 -1      5280 8.88496E-05 1.36270E-03-2.54437E-07
 -1      5281-4.28814E-04 1.40444E-03-2.17869E-06
 -1      5282-5.99034E-04 1.01983E-03 1.34304E-06
 -1      5283-5.59136E-04 5.53211E-04 8.49315E-06
 -1      5284-4.64253E-04 1.97693E-04 1.18847E-05
 -1      5285-3.91681E-04-1.77461E-05 5.43060E-06
 -1      5286-4.19139E-04 7.69620E-05 9.29570E-06
 -1      5287-5.90143E-04 7.79239E-04 4.54481E-06
 -1      5288-5.15848E-04 3.59174E-04 1.14726E-05
 -1      5289-3.83244E-04-1.04734E-04 2.42074E-06
 -1      5290-5.94669E-04 1.24807E-03-6.41780E-07
 -1      5291-5.95545E-04 1.20626E-03-1.24354E-07
 -1      5292-5.93164E-04 1.32692E-03-5.97451E-07
 -1      5293-5.93017E-04 1.32713E-03-1.05368E-06
 -1      5294-3.83134E-04-1.38302E-04 1.08274E-06
 -1      5295-3.83768E-04-8.79156E-05 1.41774E-06
 -1      5296-3.83091E-04-1.38191E-04 1.96958E-06
 -1      5297-5.92070E-04 1.32692E-03-1.67770E-06
 -1      5298-5.94514E-04 1.20585E-03-8.97876E-07
 -1      5299-3.83543E-04-8.76574E-05 3.92294E-06
 -1      5300-3.83361E-04-1.37392E-04 2.23058E-06
 -1      5301-6.00443E-04 9.65522E-04 1.04140E-06
 -1      5302-5.98358E-04 1.09305E-03 4.47214E-07
 -1      5303-5.96792E-04 1.13623E-03 3.40865E-07
 -1      5304-5.84796E-04 7.22086E-04 2.72112E-06
 -1      5305-5.96050E-04 8.44585E-04 1.87028E-06
 -1      5306-5.97238E-04 8.98357E-04 2.72304E-06
 -1      5307-5.49504E-04 5.03733E-04 4.61655E-06
 -1      5308-5.69023E-04 6.09469E-04 3.72019E-06
 -1      5309-5.76692E-04 6.62030E-04 6.57918E-06
 -1      5310-5.03249E-04 3.17521E-04 5.75251E-06
 -1      5311-5.27605E-04 4.06824E-04 5.46474E-06
 -1      5312-5.38685E-04 4.52287E-04 1.02360E-05
 -1      5313-4.51943E-04 1.65879E-04 5.65046E-06
 -1      5314-4.77390E-04 2.36709E-04 5.94849E-06
 -1      5315-4.90389E-04 2.73993E-04 1.20560E-05
 -1      5316-4.09656E-04 5.06755E-05 4.15927E-06
 -1      5317-4.29218E-04 1.05300E-04 4.96324E-06
 -1      5318-4.40307E-04 1.33593E-04 1.09075E-05
 -1      5319-3.87265E-04-4.39218E-05 2.31360E-06
 -1      5320-3.95977E-04 3.47271E-06 3.05202E-06
 -1      5321-4.03467E-04 2.74969E-05 7.38929E-06
 -1      5322-3.85737E-04-6.02091E-05 3.72169E-06
 -1      5323-5.97643E-04 1.09201E-03 3.14878E-07
 -1      5324-5.99944E-04 9.63570E-04 2.52545E-06
 -1      5325-5.95376E-04 8.41610E-04 5.08958E-06
 -1      5326-5.83785E-04 7.17885E-04 8.87352E-06
 -1      5327-5.67879E-04 6.04584E-04 1.20802E-05
 -1      5328-5.48438E-04 4.98107E-04 1.46897E-05
 -1      5329-5.26835E-04 4.00639E-04 1.68866E-05
 -1      5330-5.02712E-04 3.11029E-04 1.83663E-05
 -1      5331-4.77041E-04 2.30205E-04 1.86282E-05
 -1      5332-4.51707E-04 1.59885E-04 1.77189E-05
 -1      5333-4.28939E-04 1.00130E-04 1.56759E-05
 -1      5334-4.09214E-04 4.69176E-05 1.26342E-05
 -1      5335-3.95464E-04 1.11281E-06 9.60551E-06
 -1      5336-3.86857E-04-4.47331E-05 6.08159E-06
 -1      5337-6.32499E-05-1.10566E-04 1.36599E-05
 -1      5338-1.95705E-04-1.61943E-04 7.26687E-06
 -1      5339-2.95135E-04-1.72621E-04 3.63483E-06
 -1      5340-1.20600E-05-6.23433E-05 2.13335E-05
 -1      5341-1.40270E-05-5.68554E-05 1.09940E-05
 -1      5342-3.54795E-06-2.88003E-05 5.65739E-06
 -1      5343-2.06331E-05-6.50042E-05 5.36482E-06
 -1      5344-7.09146E-07-2.90069E-05 1.49861E-05
 -1      5345-2.85360E-04-1.71838E-04 1.98768E-06
 -1      5346-3.39924E-04-1.72754E-04 1.39441E-06
 -1      5347-3.40055E-04-1.72903E-04 2.43953E-06
 -1      5348-9.67933E-06-6.78599E-05 2.89427E-05
 -1      5349 9.30725E-06-3.18099E-05 3.10726E-05
 -1      5350 1.31835E-06-3.16699E-05 2.03541E-05
 -1      5351-3.40351E-04-1.72133E-04 2.83166E-06
 -1      5352-2.84788E-04-1.71500E-04 5.25115E-06
 -1      5353-1.61416E-04-1.52962E-04 4.41478E-06
 -1      5354-2.36463E-04-1.67778E-04 2.95451E-06
 -1      5355-2.45743E-04-1.68619E-04 5.36307E-06
 -1      5356-4.41331E-05-9.25695E-05 7.27822E-06
 -1      5357-9.53509E-05-1.27415E-04 5.99081E-06
 -1      5358-1.25189E-04-1.41907E-04 1.05603E-05
 -1      5359-3.47916E-05-8.51431E-05 1.26900E-05
 -1      5360-2.34728E-04-1.67756E-04 7.66894E-06
 -1      5361-1.57142E-04-1.53073E-04 1.34790E-05
 -1      5362-8.88388E-05-1.27763E-04 1.88564E-05
 -1      5363-3.53392E-05-9.30684E-05 2.40939E-05
 -1      5364-3.47921E-05-8.77296E-05 1.74115E-05
 -1      5365-1.35110E-05-5.96189E-05 1.60655E-05
 -1      5366-1.39477E-05 1.17820E-03-6.40085E-06
 -1      5367 1.49561E-05 1.13929E-03-3.32130E-06
 -1      5368 3.00986E-05 1.09384E-03-8.89843E-06
 -1      5369 1.56899E-05 1.13934E-03-1.71167E-06
 -1      5370-2.24221E-05 1.18847E-03-9.57694E-07
 -1      5371-2.29818E-05 1.18656E-03-2.49658E-06
 -1      5372 3.81490E-05 1.06137E-03-1.31896E-06
 -1      5373 3.84437E-05 1.06176E-03-3.42156E-06
 -1      5374-3.94828E-05 1.20114E-03-5.43464E-06
 -1      5375 5.56661E-08 1.16248E-03-1.02986E-05
 -1      5376-3.92264E-05 1.19796E-03-3.70826E-06
 -1      5377 2.19446E-05 1.12025E-03-1.19732E-05
 -1      5378 3.75186E-05 1.03311E-03-1.07537E-05
 -1      5379 4.02840E-05 1.03183E-03-5.92667E-06
 -1      5380 1.20930E-05 1.14169E-03-8.06140E-06
 -1      5381 1.16905E-06 1.16004E-03-4.61907E-06
 -1      5382 2.46247E-05 1.11713E-03-5.51405E-06
 -1      5383 1.53949E-06 8.26918E-04-2.14704E-06
 -1      5384-3.04264E-05 7.68399E-04-1.52353E-06
 -1      5385-6.53996E-05 7.30214E-04-6.02546E-07
 -1      5386-8.07085E-05 7.20440E-04-6.50684E-07
 -1      5387-2.87673E-05 7.71313E-04-5.97621E-07
 -1      5388-8.22760E-05 7.21491E-04-1.71327E-06
 -1      5389 1.37129E-05 8.57342E-04-1.11784E-06
 -1      5390 1.57447E-05 8.55854E-04-2.45093E-06
 -1      5391 2.19832E-05 8.92178E-04-4.91915E-06
 -1      5392-1.50385E-05 7.94743E-04 3.82202E-08
 -1      5393 2.47458E-05 8.92377E-04-3.63644E-06
 -1      5394-4.87817E-05 7.46208E-04 1.18978E-06
 -1      5395-1.01892E-04 7.05812E-04-8.96769E-07
 -1      5396-1.01725E-04 7.10831E-04-1.27422E-06
 -1      5397-2.88475E-05 7.71257E-04-1.04581E-06
 -1      5398-1.27065E-05 7.96596E-04-1.91465E-06
 -1      5399-4.68960E-05 7.48562E-04-1.41370E-06
 -1      5400-2.05411E-04 7.44615E-04-5.31339E-06
 -1      5401-2.33184E-04 7.94853E-04-1.87259E-06
 -1      5402-2.45942E-04 8.43579E-04-5.77031E-06
 -1      5403-2.54160E-04 8.80481E-04-8.62306E-07
 -1      5404-2.32685E-04 7.93863E-04-9.42282E-07
 -1      5405-2.54608E-04 8.77435E-04-2.17021E-06
 -1      5406-1.95034E-04 7.33834E-04-9.81128E-07
 -1      5407-1.93788E-04 7.33992E-04-2.08491E-06
 -1      5408-1.76697E-04 7.14392E-04-6.09547E-06
 -1      5409-2.19581E-04 7.63475E-04-8.61510E-06
 -1      5410-1.77726E-04 7.17661E-04-3.38616E-06
 -1      5411-2.38006E-04 8.13352E-04-9.05774E-06
 -1      5412-2.52822E-04 9.06528E-04-5.58082E-06
 -1      5413-2.56078E-04 9.06717E-04-3.46120E-06
 -1      5414-2.29945E-04 7.88392E-04-6.28588E-06
 -1      5415-2.20135E-04 7.68410E-04-3.50429E-06
 -1      5416-2.42069E-04 8.19522E-04-3.84584E-06
 -1      5417-2.11785E-04 1.09600E-03 2.03798E-06
 -1      5418-1.74246E-04 1.14680E-03 8.30089E-07
 -1      5419-1.36183E-04 1.18055E-03 2.97108E-06
 -1      5420-1.16981E-04 1.19301E-03-3.82466E-07
 -1      5421-1.75096E-04 1.14541E-03 3.36132E-07
 -1      5422-1.17216E-04 1.19252E-03-3.25658E-08
 -1      5423-2.24471E-04 1.07080E-03 3.68463E-08
 -1      5424-2.24658E-04 1.07066E-03 2.60867E-07
 -1      5425-1.53687E-04 1.16396E-03 5.54263E-06
 -1      5426-9.67905E-05 1.20252E-03 2.74429E-06
 -1      5427-9.89502E-05 1.20097E-03 6.46039E-07
 -1      5428-2.34689E-04 1.03692E-03 8.96814E-07
 -1      5429-1.91743E-04 1.12148E-03 4.70353E-06
 -1      5430-2.38551E-04 1.03796E-03-2.97255E-08
 -1      5431-1.76235E-04 1.14402E-03 3.00746E-06
 -1      5432-1.55979E-04 1.16506E-03 1.67080E-06
 -1      5433-1.94396E-04 1.12308E-03 1.43728E-06
 -1      5434 1.49607E-04 2.25528E-06-8.42005E-05
 -1      5435 1.25304E-04 1.88480E-06-6.97015E-05
 -1      5436 9.35525E-05 9.52707E-08-4.60520E-05
 -1      5437 1.58068E-04 1.74074E-04-4.55389E-05
 -1      5438 1.59827E-04 8.13832E-05-6.54035E-05
 -1      5439 1.58788E-04 5.35435E-06-8.73639E-05
 -1      5440 1.49691E-04 3.53904E-04-2.33900E-05
 -1      5441 6.83561E-05-3.66936E-06-2.36154E-05
 -1      5442 1.39185E-04 2.09363E-06-7.85622E-05
 -1      5443-3.31559E-04 1.75444E-04 1.04841E-05
 -1      5444 1.58578E-04 3.75199E-05-7.78347E-05
 -1      5445 1.44796E-04 3.15241E-05-7.85766E-05
 -1      5446-2.41799E-04 6.29402E-04-4.73297E-06
 -1      5447-1.34500E-04 5.55974E-04-5.40662E-06
 -1      5448-2.07899E-04 4.68523E-04-3.38163E-06
 -1      5449-1.16223E-04 4.08250E-04-9.20224E-06
 -1      5450-4.79103E-05-5.94308E-05 1.45697E-05
 -1      5451-2.78326E-04-2.54928E-05 6.95993E-06
 -1      5452-1.93666E-04 3.36936E-04-4.72587E-06
 -1      5453-1.06208E-04 2.86128E-04-1.34835E-05
 -1      5454-3.93724E-05 3.47259E-04-1.63692E-05
 -1      5455-3.65842E-05 2.39022E-04-2.27512E-05
 -1      5456-9.17463E-05 1.94048E-04-1.78681E-05
 -1      5457-2.14404E-05 1.48213E-04-3.00696E-05
 -1      5458-6.92495E-05 1.16264E-04-2.17957E-05
 -1      5459-1.70154E-06 7.23547E-05-3.45592E-05
 -1      5460-5.31699E-05 5.62708E-05-2.11041E-05
 -1      5461 2.43470E-05 1.02708E-04-4.10257E-05
 -1      5462 1.14553E-05 2.28990E-05-2.99489E-05
 -1      5463-4.07200E-05 1.33370E-05-1.50498E-05
 -1      5464-1.18545E-04 4.14089E-05-8.41518E-06
 -1      5465-1.46235E-04 1.49468E-04-1.05068E-05
 -1      5466 2.07149E-05 2.91308E-04-2.40709E-05
 -1      5467 3.23131E-05 3.90973E-04-1.77691E-05
 -1      5468-1.01081E-04-4.30348E-06-3.20056E-06
 -1      5469-2.92557E-04 3.84747E-04 3.33404E-06
 -1      5470 1.55185E-04 2.74115E-04-3.11736E-05
 -1      5471 1.74590E-05 2.04387E-04-3.14714E-05
 -1      5472 1.75916E-05-3.33573E-06-1.89316E-05
 -1      5473 3.76170E-05-1.52892E-05 7.66759E-06
 -1      5474 1.58215E-04 4.32050E-04-1.84961E-05
 -1      5475 7.07080E-05 2.49822E-04-3.12455E-05
 -1      5476 6.68583E-05 1.66002E-04-4.17339E-05
 -1      5477 1.12297E-04 2.15366E-04-3.78095E-05
 -1      5478 4.99484E-05 3.01578E-05-4.48429E-05
 -1      5479 7.94713E-05 4.67159E-05-5.79917E-05
 -1      5480 6.12097E-05 8.13305E-06-4.03700E-05
 -1      5481 1.58744E-04 1.39008E-04-5.21821E-05
 -1      5482 1.28502E-04 1.48827E-04-4.94739E-05
 -1      5483 1.28586E-04 1.08873E-04-5.78154E-05
 -1      5484 1.07189E-04 1.17827E-04-5.42880E-05
 -1      5485 1.04965E-04 7.26879E-05-6.25833E-05
 -1      5486 8.00862E-05 1.05690E-04-5.25840E-05
 -1      5487-3.83559E-04 7.76674E-04-8.54904E-07
 -1      5488 8.40039E-05 1.22734E-05-5.30401E-05
 -1      5489-3.14190E-05 4.84934E-04-1.06441E-05
 -1      5490 5.81374E-05 4.89416E-04-1.42104E-05
 -1      5491 1.58749E-05 5.92805E-04-8.44315E-06
 -1      5492-1.96833E-04 1.97448E-05 1.60388E-06
 -1      5493 1.05535E-04 1.14761E-06-5.54972E-05
 -1      5494-3.49123E-04 1.11334E-03 1.80945E-06
 -1      5495 1.46247E-04 9.43684E-06-8.32673E-05
 -1      5496 1.34670E-04 2.62132E-05-7.74792E-05
 -1      5497 1.33697E-04 1.46136E-05-7.84422E-05
 -1      5498 1.56082E-04 2.16479E-04-3.86526E-05
 -1      5499-1.72454E-04-7.30241E-05 8.90959E-06
 -1      5500-2.02721E-04 9.74223E-05-1.79556E-06
 -1      5501 1.19875E-04 3.35458E-05-7.24002E-05
 -1      5502 1.23271E-04 1.42829E-05-7.36738E-05
 -1      5503 1.01778E-04 3.88785E-05-6.58768E-05
 -1      5504 1.04141E-04 2.11343E-05-6.57593E-05
 -1      5505-3.11584E-04 6.15110E-05 9.54625E-06
 -1      5506-3.75785E-04 5.98410E-04 3.92605E-06
 -1      5507 5.34377E-05-7.63712E-06-8.98533E-06
 -1      5508 1.23849E-05-2.14332E-05-1.21537E-06
 -1      5509 1.32839E-04 1.93684E-06-7.46198E-05
 -1      5510 1.22217E-04 6.13550E-06-7.05736E-05
 -1      5511 1.15328E-04 4.70699E-06-6.54292E-05
 -1      5512 8.12866E-05-1.48657E-06-3.57686E-05
 -1      5513 1.44792E-04 2.14452E-06-8.17079E-05
 -1      5514 1.35071E-04 6.22910E-05-6.94854E-05
 -1      5515 1.36759E-04 5.96674E-06-7.86574E-05
 -1      5516 7.84933E-05 3.30271E-04-2.37763E-05
 -1      5517-2.64313E-04 2.67489E-04 2.04353E-06
 -1      5518 1.55044E-04 1.03457E-04-6.00408E-05
 -1      5519 5.79854E-05-2.03655E-06-2.94469E-05
 -1      5520 1.54826E-04 5.66167E-05-7.20363E-05
 -1      5521-3.84244E-04 3.17526E-04 1.28845E-05
 -1      5522 1.03097E-04 1.61784E-04-4.57368E-05
 -1      5523 4.83523E-05 1.18539E-04-4.50273E-05
 -1      5524 1.16019E-04 1.83478E-06-6.33555E-05
 -1      5525-1.69558E-04 2.36049E-04-7.83171E-06
 -1      5526 1.03615E-04 6.71301E-04-1.13016E-05
 -1      5527 1.31848E-04 5.17989E-06-7.56117E-05
 -1      5528 8.83819E-05 3.25074E-06-4.86110E-05
 -1      5529-3.36465E-05-1.17879E-05-7.04179E-06
 -1      5530 2.60962E-05-2.54619E-05 2.43896E-05
 -1      5531 4.55904E-05-8.58333E-06-1.64962E-05
 -1      5532-2.72809E-04 1.25950E-03 8.45714E-08
 -1      5533 1.53883E-04 2.44729E-06-8.59852E-05
 -1      5534 1.76976E-05 1.46342E-04-3.69408E-05
 -1      5535 7.84638E-05 2.82333E-05-5.57554E-05
 -1      5536-2.22813E-04 1.81994E-04-1.64112E-06
 -1      5537-3.05267E-04-9.52686E-05 6.02601E-06
 -1      5538-4.06545E-04 4.57261E-04 1.08659E-05
 -1      5539-7.23999E-05 6.37574E-04-3.29135E-06
 -1      5540 1.30359E-04 1.84411E-04-4.32182E-05
 -1      5541 1.42374E-04 5.99447E-06-8.13975E-05
 -1      5542 9.41343E-05 3.99285E-04-1.92367E-05
 -1      5543 1.34101E-04 4.99277E-04-1.61669E-05
 -1      5544 1.12801E-04 1.12586E-03-7.88735E-06
 -1      5545 8.84134E-05 1.24980E-03-4.08658E-06
 -1      5546-3.56697E-06 1.25252E-03-6.91055E-06
 -1      5547-1.17332E-04 8.96433E-05-1.25984E-05
 -1      5548 1.10881E-04 2.94331E-04-2.80853E-05
 -1      5549-4.32188E-04 1.25959E-03-1.22856E-06
 -1      5550-4.43133E-04 9.59177E-04 1.20075E-06
 -1      5551-1.49317E-04 1.24831E-03 1.97823E-06
 -1      5552 1.03489E-04 4.94189E-06-5.86051E-05
 -1      5553 8.31707E-05 6.58041E-05-5.82507E-05
 -1      5554 1.02183E-04 1.22477E-05-6.23503E-05
 -1      5555-7.97428E-05-3.31752E-05 3.13238E-06
 -1      5556-2.99097E-04 5.07585E-04 1.58403E-06
 -1      5557 7.85370E-05 7.23636E-07-4.03842E-05
 -1      5558-1.66937E-04-2.55651E-05 3.89050E-06
 -1      5559 5.78838E-05 8.09402E-05-5.03885E-05
 -1      5560 4.81365E-05 5.78473E-05-4.77233E-05
 -1      5561 9.26217E-05 5.74759E-04-1.33617E-05
 -1      5562 8.70951E-05 8.19196E-04-6.14330E-06
 -1      5563 7.50259E-06-3.73243E-05 1.57820E-05
 -1      5564 3.88907E-05 4.68035E-06-3.00283E-05
 -1      5565 3.56640E-05-1.14934E-05 2.09716E-05
 -1      5566 2.79960E-05-1.59510E-05 3.27482E-05
 -1      5567 1.19725E-05-4.45606E-05 3.09262E-05
 -1      5568 1.62134E-04 2.09144E-06-8.88399E-05
 -1      5569 1.61653E-04 2.01560E-06-8.87083E-05
 -1      5570 1.61671E-04 1.19988E-05-8.56216E-05
 -1      5571 1.52295E-04 5.41046E-04-1.61758E-05
 -1      5572 1.80042E-04 5.06690E-04-1.63492E-05
 -1      5573 1.93160E-04 4.73408E-04-1.67640E-05
 -1      5574 1.86564E-04 4.15823E-04-1.95699E-05
 -1      5575 1.45819E-04 4.66057E-04-1.71251E-05
 -1      5576 1.54815E-04 7.22508E-04-1.29948E-05
 -1      5577 1.40674E-04 6.25094E-04-1.53897E-05
 -1      5578 9.80361E-05 6.21591E-04-1.24861E-05
 -1      5579 1.32628E-04 5.78113E-04-1.61249E-05
 -1      5580 1.14047E-04 5.36566E-04-1.49959E-05
 -1      5581 1.47237E-04 1.30907E-03 1.05487E-07
 -1      5582 1.48358E-04 1.23364E-03-1.99899E-06
 -1      5583 5.36996E-05 1.30715E-03-2.67912E-06
 -1      5584-5.12012E-04 1.33208E-03-2.23984E-06
 -1      5585-3.88071E-04 1.33035E-03-2.87660E-06
 -1      5586-5.13511E-04 1.21242E-03-1.08750E-06
 -1      5587-3.45849E-04-1.31782E-04 3.79293E-06
 -1      5588-3.47587E-04-8.32515E-05 5.56525E-06
 -1      5589-2.89884E-04-1.29881E-04 6.03784E-06
 -1      5590-9.44852E-05 1.28571E-03-2.55938E-06
 -1      5591-3.65200E-05 1.22765E-03-5.36297E-06
 -1      5592-6.09818E-05 1.30795E-03-4.33939E-06
 -1      5593-1.38757E-04 1.31084E-03-3.12920E-06
 -1      5594-1.01564E-04 1.22609E-03 2.31755E-06
 -1      5595 3.00945E-06 1.20251E-03-1.00707E-05
 -1      5596-1.58416E-04 1.20096E-03 5.98292E-06
 -1      5597 1.30986E-04 9.93347E-04-7.89778E-06
 -1      5598 1.66552E-04 1.07543E-03-5.12283E-06
 -1      5599 7.76707E-05 1.05131E-03-1.13127E-05
 -1      5600 6.19776E-05 8.90041E-04-6.81685E-06
 -1      5601 1.58879E-04 9.21085E-04-7.93756E-06
 -1      5602 5.54193E-05 1.13507E-03-1.20677E-05
 -1      5603 2.32863E-05 7.90627E-04-1.85613E-06
 -1      5604-1.07850E-04 6.70214E-04-2.34861E-06
 -1      5605-5.44545E-05 6.96762E-04 5.37924E-08
 -1      5606-2.35664E-04 7.02743E-04-8.88324E-06
 -1      5607-1.89025E-04 6.69645E-04-6.39284E-06
 -1      5608-1.88123E-04 5.93181E-04-4.93642E-06
 -1      5609-1.37638E-04 6.31722E-04-4.45244E-06
 -1      5610-1.04423E-04 5.96886E-04-4.65255E-06
 -1      5611-3.24741E-04 8.67557E-04-4.21279E-06
 -1      5612-3.00336E-04 7.80464E-04-6.37397E-06
 -1      5613-2.60119E-04 1.13000E-03 3.73741E-06
 -1      5614-2.99574E-04 1.04502E-03 1.58452E-06
 -1      5615-3.50185E-04 9.63156E-04-1.12591E-06
 -1      5616-4.13133E-04 8.67249E-04 1.42436E-07
 -1      5617-3.97267E-04 1.03716E-03 1.01437E-06
 -1      5618 4.79273E-05-6.85031E-06 2.99302E-06
 -1      5619 4.13876E-05-8.86990E-06 1.24642E-05
 -1      5620 3.18212E-05-1.98188E-05 1.60561E-05
 -1      5621 6.19849E-05-3.48174E-06-1.34257E-05
 -1      5622 5.53174E-05-4.38303E-06-5.46986E-06
 -1      5623 4.51912E-05-1.10308E-05-5.00352E-07
 -1      5624 7.58664E-05-1.63503E-06-2.76382E-05
 -1      5625 6.92433E-05-2.19715E-06-2.08111E-05
 -1      5626 6.05694E-05-5.51203E-06-1.61314E-05
 -1      5627 8.85509E-05-5.90499E-07-3.96165E-05
 -1      5628 8.24228E-05-1.04048E-06-3.38190E-05
 -1      5629 7.45853E-05-2.54991E-06-2.95765E-05
 -1      5630 1.00176E-04 1.62567E-07-4.96630E-05
 -1      5631 9.46200E-05-1.95887E-07-4.48179E-05
 -1      5632 8.72285E-05-6.34874E-07-4.08390E-05
 -1      5633 1.11029E-04 6.23670E-07-5.84730E-05
 -1      5634 1.06124E-04 3.68482E-07-5.44233E-05
 -1      5635 9.93961E-05 6.69398E-07-5.07111E-05
 -1      5636 1.20523E-04 9.38563E-07-6.56762E-05
 -1      5637 1.16235E-04 7.14274E-07-6.23836E-05
 -1      5638 1.10623E-04 1.53044E-06-5.94201E-05
 -1      5639 1.28844E-04 9.63494E-07-7.15239E-05
 -1      5640 1.25032E-04 8.17089E-07-6.88076E-05
 -1      5641 1.20550E-04 1.90120E-06-6.65111E-05
 -1      5642 1.35891E-04 1.03112E-06-7.61520E-05
 -1      5643 1.32587E-04 8.49909E-07-7.39686E-05
 -1      5644 1.28974E-04 1.92861E-06-7.21575E-05
 -1      5645 1.41981E-04 1.06546E-06-7.98828E-05
 -1      5646 1.39117E-04 9.22790E-07-7.81488E-05
 -1      5647 1.35943E-04 2.02345E-06-7.66024E-05
 -1      5648 1.47352E-04 1.10771E-06-8.28307E-05
 -1      5649 1.44834E-04 9.50578E-07-8.14571E-05
 -1      5650 1.41908E-04 2.13366E-06-8.01474E-05
 -1      5651 1.52111E-04 1.15605E-06-8.51795E-05
 -1      5652 1.49889E-04 9.61259E-07-8.41059E-05
 -1      5653 1.47151E-04 2.17280E-06-8.29556E-05
 -1      5654 1.56390E-04 1.21154E-06-8.70026E-05
 -1      5655 1.54416E-04 9.98674E-07-8.61827E-05
 -1      5656 1.51711E-04 2.22745E-06-8.51542E-05
 -1      5657 1.60111E-04 1.15896E-06-8.82918E-05
 -1      5658 1.56690E-04 2.62931E-06-8.72377E-05
 -1      5659 1.65905E-04 4.44739E-05-7.57703E-05
 -1      5660 1.63807E-04 3.37312E-05-7.90074E-05
 -1      5661 1.57045E-04 1.92886E-05-8.33742E-05
 -1      5662 1.64752E-04 6.45905E-05-6.98870E-05
 -1      5663 1.62718E-04 5.37262E-05-7.29931E-05
 -1      5664 1.56502E-04 4.78574E-05-7.47762E-05
 -1      5665 1.68691E-04 8.88510E-05-6.34651E-05
 -1      5666 1.66667E-04 7.68740E-05-6.65000E-05
 -1      5667 1.57417E-04 6.97038E-05-6.85355E-05
 -1      5668 1.67753E-04 1.13696E-04-5.76370E-05
 -1      5669 1.65339E-04 9.97341E-05-6.08515E-05
 -1      5670 1.57265E-04 9.28770E-05-6.25134E-05
 -1      5671 1.71621E-04 1.47859E-04-5.04763E-05
 -1      5672 1.68808E-04 1.31380E-04-5.37977E-05
 -1      5673 1.57019E-04 1.22062E-04-5.58313E-05
 -1      5674 1.73948E-04 1.85690E-04-4.36572E-05
 -1      5675 1.70500E-04 1.65362E-04-4.71568E-05
 -1      5676 1.58386E-04 1.57062E-04-4.86553E-05
 -1      5677 1.76488E-04 2.32418E-04-3.66513E-05
 -1      5678 1.72161E-04 2.06847E-04-4.02733E-05
 -1      5679 1.57061E-04 1.95809E-04-4.18813E-05
 -1      5680 1.80455E-04 2.93947E-04-2.92713E-05
 -1      5681 1.75203E-04 2.61103E-04-3.29147E-05
 -1      5682 1.55687E-04 2.45850E-04-3.46382E-05
 -1      5683 1.82953E-04 3.76836E-04-2.20698E-05
 -1      5684 1.76768E-04 3.33767E-04-2.54115E-05
 -1      5685 1.52552E-04 3.14586E-04-2.68956E-05
 -1      5686 1.54126E-04 3.93300E-04-2.06904E-05
 -1      5687 1.48615E-04 7.98506E-04-1.00170E-05
 -1      5688 9.61967E-05 7.41185E-04-8.34276E-06
 -1      5689 1.64255E-04 1.17328E-03-2.94759E-06
 -1      5690 1.00105E-04 1.19201E-03-6.62160E-06
 -1      5691 9.31113E-06 1.30799E-03-3.83381E-06
 -1      5692 3.94548E-05 1.25103E-03-5.95154E-06
 -1      5693-3.08325E-04 1.32722E-03-3.25935E-06
 -1      5694-1.93714E-04 1.32112E-03-3.82100E-06
 -1      5695-2.08192E-04 1.25422E-03 1.10063E-06
 -1      5696-3.52003E-04 1.25959E-03-6.53831E-07
 -1      5697-5.18448E-04 9.32182E-04 2.79267E-06
 -1      5698-5.18291E-04 1.06419E-03 5.06824E-07
 -1      5699-4.71281E-04 1.13732E-03 1.35941E-08
 -1      5700-3.90018E-04 1.18697E-03 4.74011E-07
 -1      5701-4.78430E-04 7.14555E-04 6.62091E-06
 -1      5702-4.84717E-04 8.41266E-04 3.49459E-06
 -1      5703-4.70544E-04 4.49203E-04 1.62748E-05
 -1      5704-4.84850E-04 5.53263E-04 1.32322E-05
 -1      5705-4.70300E-04 6.26485E-04 9.34009E-06
 -1      5706-3.80057E-04 6.84478E-04 1.48738E-06
 -1      5707-3.92512E-04 5.25924E-04 7.53255E-06
 -1      5708-4.38244E-04 2.88860E-04 1.90032E-05
 -1      5709-4.55826E-04 3.78009E-04 1.76013E-05
 -1      5710-3.95773E-04 3.84962E-04 1.20858E-05
 -1      5711-3.89999E-04 1.47661E-04 1.69351E-05
 -1      5712-4.07583E-04 2.17573E-04 1.77104E-05
 -1      5713-3.57491E-04 2.42294E-04 1.19595E-05
 -1      5714-3.61786E-04 3.95151E-05 1.29830E-05
 -1      5715-3.76165E-04 9.06430E-05 1.56198E-05
 -1      5716-3.21205E-04 1.13618E-04 1.01419E-05
 -1      5717-3.36294E-04-4.73336E-05 7.52872E-06
 -1      5718-3.43928E-04-4.93811E-06 9.89322E-06
 -1      5719-2.93402E-04 1.54946E-05 7.93028E-06
 -1      5720-2.91237E-04-5.91817E-05 6.76347E-06
 -1      5721-1.42654E-04-1.04512E-04 1.41174E-05
 -1      5722-2.24423E-04-1.16720E-04 9.21394E-06
 -1      5723-2.40149E-04-8.52093E-05 7.52363E-06
 -1      5724-2.27002E-05-6.78597E-05 2.44949E-05
 -1      5725-8.15872E-05-9.36768E-05 1.94731E-05
 -1      5726-1.06906E-04-6.87005E-05 1.14218E-05
 -1      5727 1.55075E-06-5.10959E-05 2.60602E-05
 -1      5728-1.75357E-05-4.88705E-05 1.52950E-05
 -1      5729 1.85973E-05-3.25337E-05 1.99869E-05
 -1      5730 4.77641E-05 1.19881E-03-9.59348E-06
 -1      5731-7.04148E-06 6.75392E-04-3.53568E-06
 -1      5732 5.75299E-05 6.30424E-04-9.54134E-06
 -1      5733 3.50700E-05 7.17161E-04-4.01395E-06
 -1      5734-2.94970E-05 6.15057E-04-5.36992E-06
 -1      5735-3.06715E-04 7.00019E-04-3.84545E-06
 -1      5736-2.22588E-04 1.20339E-03 3.95105E-06
 -1      5737-3.09529E-04 1.19004E-03 1.60612E-06
 -1      5738 1.49142E-04 4.61065E-06-8.42054E-05
 -1      5739 1.50630E-04 5.42659E-06-8.48320E-05
 -1      5740 1.44516E-04 7.14399E-06-8.25501E-05
 -1      5741 1.46205E-04 4.06905E-06-8.28819E-05
 -1      5742 1.44107E-04 3.70838E-06-8.17525E-05
 -1      5743 1.28144E-04 3.87351E-06-7.27569E-05
 -1      5744 1.24621E-04 3.54097E-06-7.04196E-05
 -1      5745 1.18773E-04 5.38846E-06-6.80649E-05
 -1      5746 1.20719E-04 3.25659E-06-6.76679E-05
 -1      5747 1.16138E-04 2.98583E-06-6.45592E-05
 -1      5748 9.76867E-05 2.11710E-06-5.21870E-05
 -1      5749 9.19952E-05 1.17636E-06-4.76237E-05
 -1      5750 8.66979E-05 3.75577E-07-4.33076E-05
 -1      5751 8.06125E-05-7.90920E-07-3.82515E-05
 -1      5752 8.34024E-05 1.93462E-06-4.44635E-05
 -1      5753 1.42960E-04 1.61627E-04-4.75724E-05
 -1      5754 1.42615E-04 1.43922E-04-5.09849E-05
 -1      5755 1.43555E-04 1.79252E-04-4.44323E-05
 -1      5756 1.29511E-04 1.67125E-04-4.61782E-05
 -1      5757 1.43185E-04 2.00722E-04-4.08884E-05
 -1      5758 1.45667E-04 7.13223E-05-6.78435E-05
 -1      5759 1.44292E-04 8.34288E-05-6.46445E-05
 -1      5760 1.43418E-04 5.90333E-05-7.10232E-05
 -1      5761 1.50427E-04 3.32639E-05-7.87724E-05
 -1      5762 1.50630E-04 1.88482E-05-8.27753E-05
 -1      5763 1.45587E-04 1.64041E-05-8.20296E-05
 -1      5764 1.51971E-04 7.37188E-06-8.51474E-05
 -1      5765 1.30259E-04 3.24418E-04-2.56350E-05
 -1      5766 1.32330E-04 2.84224E-04-2.96629E-05
 -1      5767 1.25899E-04 4.15697E-04-1.90175E-05
 -1      5768 1.21380E-04 3.76706E-04-2.12477E-05
 -1      5769 1.13118E-04 3.41959E-04-2.37864E-05
 -1      5770 8.64354E-05 3.65068E-04-2.13370E-05
 -1      5771 9.44842E-05 3.12397E-04-2.58574E-05
 -1      5772 5.82617E-05-6.04731E-06-2.01071E-05
 -1      5773 5.07347E-05-8.78144E-06-1.30075E-05
 -1      5774 7.11546E-05-1.97799E-06-3.28176E-05
 -1      5775 6.51745E-05-3.83423E-06-2.70122E-05
 -1      5776 5.16472E-05-5.32277E-06-2.29569E-05
 -1      5777 1.35806E-04 3.57750E-06-7.71861E-05
 -1      5778 1.32817E-04 3.25037E-06-7.52669E-05
 -1      5779 1.41139E-04 3.96167E-06-8.03112E-05
 -1      5780 1.38588E-04 3.65482E-06-7.88094E-05
 -1      5781 1.34334E-04 5.53173E-06-7.71562E-05
 -1      5782-2.66296E-04 1.35571E-04 4.06612E-06
 -1      5783-2.58157E-04 7.97306E-05 4.32538E-06
 -1      5784-2.12807E-04 1.37053E-04-1.85598E-06
 -1      5785-2.77325E-04 1.79110E-04 4.53111E-06
 -1      5786-2.99168E-04 2.18873E-04 6.25402E-06
 -1      5787-3.22761E-04 2.92626E-04 7.50427E-06
 -1      5788-2.43476E-04 2.23391E-04 2.68793E-07
 -1      5789 1.48865E-04 4.34715E-05-7.55913E-05
 -1      5790 1.39086E-04 2.75456E-05-7.84272E-05
 -1      5791 1.40395E-04 1.72798E-05-8.04817E-05
 -1      5792 1.39377E-04 4.81595E-05-7.35208E-05
 -1      5793 1.33634E-04 4.25315E-05-7.41413E-05
 -1      5794-2.25388E-04 5.47806E-04-3.28878E-06
 -1      5795-1.71029E-04 5.12096E-04-4.89960E-06
 -1      5796-2.70884E-04 5.67531E-04-1.68216E-06
 -1      5797-2.52487E-04 4.88216E-04-1.02844E-06
 -1      5798-3.06368E-04 6.13600E-04-8.93783E-07
 -1      5799-3.36060E-04 5.52363E-04 2.79740E-06
 -1      5800-1.61837E-04 4.38561E-04-6.03207E-06
 -1      5801-1.24969E-04 4.81136E-04-7.09241E-06
 -1      5802-7.52664E-05 4.46212E-04-1.02258E-05
 -1      5803-8.41931E-05 5.19972E-04-7.59295E-06
 -1      5804-5.05385E-05 5.60931E-04-7.16973E-06
 -1      5805-2.01117E-04 4.01317E-04-3.79904E-06
 -1      5806-1.55664E-04 3.71627E-04-7.31943E-06
 -1      5807-2.50519E-04 4.25592E-04-3.84752E-07
 -1      5808-2.42137E-04 3.61189E-04-6.17509E-07
 -1      5809-2.96318E-04 4.44857E-04 2.66235E-06
 -1      5810-1.49546E-04 3.11931E-04-8.88264E-06
 -1      5811-1.11412E-04 3.46245E-04-1.12616E-05
 -1      5812-7.40346E-05 3.15581E-04-1.52925E-05
 -1      5813-7.76469E-05 3.77648E-04-1.25571E-05
 -1      5814-3.51176E-05 4.15970E-04-1.33801E-05
 -1      5815-6.24784E-05-4.71629E-05 8.27636E-06
 -1      5816-1.25349E-04-5.10902E-05 7.17106E-06
 -1      5817-1.67273E-05-3.71555E-05 7.72810E-06
 -1      5818-2.92331E-05-2.81516E-05 1.03382E-06
 -1      5819 1.01107E-05-2.89235E-05 7.19384E-06
 -1      5820-2.38283E-04-2.29447E-06 5.17827E-06
 -1      5821-2.54224E-04 3.98678E-05 5.07229E-06
 -1      5822-2.23061E-04-2.57633E-05 5.59637E-06
 -1      5823-1.81088E-04-4.29593E-06 2.47717E-06
 -1      5824-2.24241E-04-5.16288E-05 6.66128E-06
 -1      5825-1.69047E-04-4.86356E-05 6.47725E-06
 -1      5826-1.81858E-04 2.85248E-04-6.20727E-06
 -1      5827-1.38389E-04 2.60091E-04-1.08582E-05
 -1      5828-2.78633E-04 3.24447E-04 2.80853E-06
 -1      5829-2.29440E-04 3.01022E-04-1.59313E-06
 -1      5830-2.16336E-04 2.52360E-04-2.76252E-06
 -1      5831-7.11129E-05 2.62934E-04-1.79495E-05
 -1      5832-3.83155E-05 2.92721E-04-1.93925E-05
 -1      5833-9.94209E-05 2.38938E-04-1.57500E-05
 -1      5834-6.49535E-05 2.15095E-04-2.06375E-05
 -1      5835-1.30318E-04 2.15675E-04-1.25579E-05
 -1      5836-9.33143E-06 2.63882E-04-2.38317E-05
 -1      5837-9.04639E-06 3.19412E-04-2.00258E-05
 -1      5838 2.64659E-05 3.41471E-04-2.06867E-05
 -1      5839-4.67367E-06 3.68518E-04-1.72495E-05
 -1      5840 1.35220E-06 4.37612E-04-1.40368E-05
 -1      5841-5.63333E-05 1.72036E-04-2.34883E-05
 -1      5842-2.95812E-05 1.92674E-04-2.64124E-05
 -1      5843-3.40176E-06 1.74069E-04-3.13298E-05
 -1      5844-9.52193E-06 2.21924E-04-2.69460E-05
 -1      5845 1.86645E-05 2.47890E-04-2.76387E-05
 -1      5846-8.09055E-05 1.53319E-04-1.99584E-05
 -1      5847-4.56670E-05 1.30770E-04-2.62090E-05
 -1      5848-1.19334E-04 1.70355E-04-1.43683E-05
 -1      5849-1.07443E-04 1.33582E-04-1.57957E-05
 -1      5850-1.58281E-04 1.90927E-04-9.30108E-06
 -1      5851-3.52694E-05 9.48900E-05-2.78052E-05
 -1      5852-1.20586E-05 1.07456E-04-3.28167E-05
 -1      5853 1.11099E-05 8.59890E-05-3.80989E-05
 -1      5854 1.44273E-06 1.25985E-04-3.52775E-05
 -1      5855 2.06488E-05 1.23743E-04-3.91714E-05
 -1      5856-2.05095E-06 1.47069E-04-3.35195E-05
 -1      5857 1.70514E-05 1.74936E-04-3.42993E-05
 -1      5858-6.11195E-05 8.34866E-05-2.19006E-05
 -1      5859-2.71936E-05 6.41007E-05-2.76202E-05
 -1      5860-9.32600E-05 1.02340E-04-1.72383E-05
 -1      5861-8.49812E-05 7.29306E-05-1.67993E-05
 -1      5862-1.31809E-04 1.18173E-04-1.17013E-05
 -1      5863-1.99847E-05 3.86792E-05-2.56899E-05
 -1      5864 5.82130E-06 4.33736E-05-3.33115E-05
 -1      5865 2.31745E-05 6.59150E-05-4.07686E-05
 -1      5866 3.61170E-05 7.93195E-05-4.46113E-05
 -1      5867 3.06037E-05 2.65293E-05-3.73630E-05
 -1      5868 2.45632E-05 5.02147E-05-3.98289E-05
 -1      5869 4.93391E-05 4.20588E-05-4.67738E-05
 -1      5870-4.62458E-05 3.22670E-05-1.84898E-05
 -1      5871-1.45545E-05 1.88294E-05-2.20767E-05
 -1      5872-8.56420E-05 4.93894E-05-1.43151E-05
 -1      5873-7.86702E-05 2.65111E-05-1.19606E-05
 -1      5874-1.17789E-04 6.37110E-05-1.07297E-05
 -1      5875 3.60351E-05 1.09695E-04-4.32816E-05
 -1      5876 3.29858E-05 1.32798E-04-4.08435E-05
 -1      5877 4.10477E-05 9.22440E-05-4.54825E-05
 -1      5878 5.28918E-05 9.91880E-05-4.78109E-05
 -1      5879 5.28732E-05 6.80471E-05-4.94848E-05
 -1      5880-9.72341E-06 3.55882E-06-1.72532E-05
 -1      5881 1.57926E-05 7.30688E-06-2.50843E-05
 -1      5882 2.81780E-05 7.44838E-07-2.43814E-05
 -1      5883 2.62816E-05 1.24765E-05-3.03508E-05
 -1      5884 3.73440E-05 1.50047E-05-3.52871E-05
 -1      5885 5.68371E-05 1.68254E-05-4.32882E-05
 -1      5886 4.99626E-05 6.61589E-06-3.51052E-05
 -1      5887-1.09101E-04 1.64776E-05-6.16886E-06
 -1      5888-7.06613E-05 5.32076E-06-8.58730E-06
 -1      5889-6.63226E-05-8.57717E-06-5.15047E-06
 -1      5890-3.65310E-05-4.82869E-07-1.13392E-05
 -1      5891-7.60403E-06-6.88790E-06-1.25496E-05
 -1      5892-1.57590E-04 3.11524E-05-2.80232E-06
 -1      5893-1.48166E-04 6.87391E-06-9.27636E-07
 -1      5894-1.60084E-04 6.81502E-05-5.33692E-06
 -1      5895-1.99261E-04 5.51737E-05-2.77932E-07
 -1      5896-1.59745E-04 9.43191E-05-6.91054E-06
 -1      5897-1.74481E-04 1.22114E-04-6.11766E-06
 -1      5898-1.84246E-04 1.66203E-04-5.93263E-06
 -1      5899-1.96510E-04 2.07763E-04-4.83263E-06
 -1      5900 4.86038E-05 3.10312E-04-2.41323E-05
 -1      5901 5.54923E-05 3.60830E-04-2.05864E-05
 -1      5902 4.25118E-05 2.25908E-04-3.17806E-05
 -1      5903 4.55312E-05 2.70741E-04-2.75071E-05
 -1      5904 7.46594E-05 2.90558E-04-2.71919E-05
 -1      5905 4.52270E-05 4.40561E-04-1.57639E-05
 -1      5906 1.22791E-05 4.86608E-04-1.24561E-05
 -1      5907 6.27447E-05 3.94904E-04-1.85956E-05
 -1      5908 7.67288E-05 4.44631E-04-1.65867E-05
 -1      5909-1.33840E-04-1.41694E-05 8.66442E-07
 -1      5910-8.96868E-05-1.96644E-05-3.71984E-07
 -1      5911-5.64300E-05-2.15559E-05-1.56411E-06
 -1      5912-1.22096E-04-3.04409E-05 3.30773E-06
 -1      5913-3.38943E-04 3.50057E-04 7.92394E-06
 -1      5914-3.47571E-04 4.20712E-04 7.15342E-06
 -1      5915-3.52487E-04 4.81783E-04 5.99487E-06
 -1      5916 1.33584E-04 2.45176E-04-3.43454E-05
 -1      5917 1.33295E-04 2.15837E-04-3.83216E-05
 -1      5918 1.11843E-04 2.55748E-04-3.23859E-05
 -1      5919 4.19461E-05 1.85611E-04-3.64044E-05
 -1      5920 6.85891E-05 2.08732E-04-3.61466E-05
 -1      5921 4.09026E-05 1.54424E-04-3.98864E-05
 -1      5922 1.54526E-05-1.31109E-05-1.01869E-05
 -1      5923-7.97435E-06-1.88271E-05-4.85096E-06
 -1      5924 2.91028E-05-1.41353E-05-8.47026E-06
 -1      5925 3.35200E-05-7.07334E-06-1.81104E-05
 -1      5926 3.87887E-05-2.57595E-06-2.41179E-05
 -1      5927 4.94922E-05 5.78522E-07-2.99832E-05
 -1      5928 3.61066E-05-1.44147E-05-5.06316E-06
 -1      5929 2.79926E-05-1.99237E-05 2.90773E-06
 -1      5930 2.41355E-05-2.53013E-05 1.19618E-05
 -1      5931 1.14122E-04 4.49880E-04-1.72524E-05
 -1      5932 8.78458E-05 1.89804E-04-4.01853E-05
 -1      5933 9.08143E-05 2.32687E-04-3.44517E-05
 -1      5934 9.02434E-05 2.72004E-04-2.97158E-05
 -1      5935 8.41191E-05 1.63474E-04-4.38691E-05
 -1      5936 1.07647E-04 1.89102E-04-4.15507E-05
 -1      5937 7.30514E-05 1.36741E-04-4.68147E-05
 -1      5938 8.98412E-05 1.32505E-04-4.95999E-05
 -1      5939 5.66519E-05 1.40928E-04-4.37770E-05
 -1      5940 6.39184E-05 1.12172E-04-4.87639E-05
 -1      5941 1.21109E-04 2.00116E-04-4.04351E-05
 -1      5942 1.16149E-04 1.72947E-04-4.45770E-05
 -1      5943 7.24352E-05 1.01772E-05-4.64849E-05
 -1      5944 6.76695E-05 2.05840E-05-4.91218E-05
 -1      5945 8.19251E-05 1.88290E-05-5.48868E-05
 -1      5946 6.40600E-05 2.94557E-05-5.01525E-05
 -1      5947 6.33929E-05 4.23329E-05-5.18898E-05
 -1      5948 9.03883E-05 4.30445E-05-6.17954E-05
 -1      5949 9.18805E-05 3.32185E-05-6.20243E-05
 -1      5950 1.03300E-04 2.84324E-05-6.63055E-05
 -1      5951 9.22245E-05 5.23540E-05-6.20266E-05
 -1      5952 8.11919E-05 5.51352E-05-5.84704E-05
 -1      5953 7.91480E-05 3.61389E-05-5.72315E-05
 -1      5954 9.10306E-05 2.49854E-05-6.06561E-05
 -1      5955 6.35482E-05 5.26419E-05-5.26473E-05
 -1      5956 7.03192E-05 7.36297E-05-5.42772E-05
 -1      5957 6.85865E-05 6.32930E-05-5.43002E-05
 -1      5958 7.54412E-05 5.55009E-06-4.44759E-05
 -1      5959 8.70045E-05 6.81817E-06-5.11725E-05
 -1      5960 6.01806E-05 2.18355E-06-3.51566E-05
 -1      5961 6.82365E-05-4.36664E-07-3.48176E-05
 -1      5962 7.11698E-05 3.55871E-06-4.07173E-05
 -1      5963 1.28602E-04 1.29631E-04-5.34253E-05
 -1      5964 1.43027E-04 1.24058E-04-5.50177E-05
 -1      5965 1.40497E-04 1.05954E-04-5.91602E-05
 -1      5966 1.17245E-04 1.33193E-04-5.19720E-05
 -1      5967 1.17333E-04 1.13228E-04-5.61402E-05
 -1      5968 1.15154E-04 1.55227E-04-4.76974E-05
 -1      5969 1.05074E-04 1.40483E-04-4.97466E-05
 -1      5970 1.05463E-04 9.51832E-05-5.84976E-05
 -1      5971 1.14853E-04 8.89872E-05-6.09621E-05
 -1      5972 1.18645E-04 6.71656E-05-6.62643E-05
 -1      5973 1.31541E-04 8.72672E-05-6.32222E-05
 -1      5974 9.27118E-05 1.10746E-04-5.37219E-05
 -1      5975 9.22314E-05 9.01671E-05-5.71629E-05
 -1      5976 8.10662E-05 8.49359E-05-5.55969E-05
 -1      5977 9.35352E-05 6.81471E-05-6.08229E-05
 -1      5978 1.11732E-04 5.28767E-05-6.75281E-05
 -1      5979 1.02848E-04 5.30056E-05-6.51345E-05
 -1      5980 1.10560E-04 3.62728E-05-6.90499E-05
 -1      5981 1.25680E-04 4.35465E-05-7.22089E-05
 -1      5982 6.81636E-05 9.14711E-05-5.20160E-05
 -1      5983 9.57771E-05 4.13160E-06-5.34767E-05
 -1      5984 9.44387E-05 8.24079E-06-5.60402E-05
 -1      5985 9.29129E-05 1.23923E-05-5.76764E-05
 -1      5986 9.07430E-05 1.96849E-05-5.92337E-05
 -1      5987 1.03449E-04 7.84622E-06-6.07329E-05
 -1      5988 3.85108E-05 5.40287E-04-1.15563E-05
 -1      5989-8.35503E-06 5.38877E-04-9.54815E-06
 -1      5990 7.51152E-05 5.32134E-04-1.35994E-05
 -1      5991 5.39138E-05 5.83328E-04-1.09056E-05
 -1      5992 9.61167E-05 4.94025E-04-1.53564E-05
 -1      5993 1.10373E-04 3.24493E-06-6.11510E-05
 -1      5994 1.05276E-04 2.56285E-06-5.72663E-05
 -1      5995 1.34389E-04 1.86301E-05-7.84699E-05
 -1      5996 1.39551E-04 1.21811E-05-8.07003E-05
 -1      5997 1.38374E-04 9.84137E-06-8.00461E-05
 -1      5998 1.26767E-04 3.00519E-05-7.48612E-05
 -1      5999 1.26787E-04 2.35430E-05-7.55547E-05
 -1      6000 1.21992E-04 2.18879E-05-7.36657E-05
 -1      6001 1.28411E-04 1.42772E-05-7.60057E-05
 -1      6002 1.30264E-04 9.95401E-06-7.62508E-05
 -1      6003 1.35898E-04 9.22605E-06-7.88781E-05
 -1      6004 1.39529E-04 5.96143E-06-8.00538E-05
 -1      6005 1.12693E-04 2.57471E-05-7.00311E-05
 -1      6006 1.13404E-04 1.79851E-05-6.95685E-05
 -1      6007 1.14333E-04 1.23728E-05-6.86362E-05
 -1      6008 1.23576E-04 9.11988E-06-7.25602E-05
 -1      6009 1.26959E-04 5.70462E-06-7.30626E-05
 -1      6010 1.28349E-04 8.98335E-06-7.49679E-05
 -1      6011 1.03467E-04 1.59056E-05-6.42924E-05
 -1      6012 1.12298E-04 9.32648E-06-6.64757E-05
 -1      6013 1.09515E-04 7.99056E-06-6.41588E-05
 -1      6014 1.09300E-04 4.87474E-06-6.19803E-05
 -1      6015 4.38417E-05 1.02409E-04-2.73255E-05
 -1      6016 7.26701E-05 8.68306E-05-1.41191E-05
 -1      6017 8.82253E-05 7.54822E-05-4.34867E-05
 -1      6018 9.62953E-05 7.37836E-05-3.12159E-05
 -1      6019 1.04633E-04 6.17783E-05-8.51643E-06
 -1      6020 1.06052E-04 6.74323E-05-2.20547E-05
 -1      6021 1.16103E-04 5.39068E-05-5.69190E-05
 -1      6022 1.27088E-04 5.04454E-05-4.58095E-06
 -1      6023 1.21404E-04 5.26559E-05-4.72842E-05
 -1      6024 1.21220E-04 5.16017E-05-3.83281E-05
 -1      6025 1.16380E-04 5.63067E-05-1.55688E-05
 -1      6026 1.25162E-04 4.81422E-05-3.14806E-05
 -1      6027 1.29817E-04 4.52631E-05-2.60167E-05
 -1      6028 1.29879E-04 4.38120E-05-2.07936E-05
 -1      6029 5.17847E-05 2.78979E-05-1.94915E-05
 -1      6030 1.33217E-04 4.00058E-05-6.60899E-05
 -1      6031 1.02812E-04 2.28988E-05-3.05708E-05
 -1      6032 9.22508E-05 2.44743E-05-1.46286E-05
 -1      6033 1.28160E-04 5.04135E-05-1.11560E-05
 -1      6034 8.26905E-05 2.12308E-04-1.94971E-05
 -1      6035 1.35475E-04 4.42496E-05-5.38904E-05
 -1      6036 1.12022E-04 1.53374E-04-3.24542E-05
 -1      6037 1.05873E-04 2.15432E-05-4.60055E-05
 -1      6038 1.37070E-04 4.52854E-05-1.72027E-05
 -1      6039 1.36653E-04 4.32368E-05-7.84449E-06
 -1      6040 1.36243E-04 4.40517E-05-4.32914E-05
 -1      6041 1.41525E-04 3.31116E-05-4.85148E-05
 -1      6042 1.41304E-04 4.18147E-05-3.90099E-05
 -1      6043 1.41535E-04 3.50619E-05-3.50835E-05
 -1      6044 1.27498E-04 1.80515E-05-4.44431E-05
 -1      6045 1.28409E-04 1.23010E-04-4.38550E-05
 -1      6046 1.43384E-04 3.79150E-05-3.14657E-05
 -1      6047 1.15821E-04 1.48453E-04-1.06746E-05
 -1      6048 1.40013E-04 3.61073E-05-1.41708E-05
 -1      6049 1.26187E-04 1.25644E-04-1.75895E-05
 -1      6050 1.19324E-04 1.98336E-05-1.23452E-05
 -1      6051 1.32846E-04 1.09244E-04-3.22369E-05
 -1      6052 1.33204E-04 1.72660E-05-1.63309E-05
 -1      6053 1.15373E-04 1.78949E-05-5.95710E-05
 -1      6054 1.41846E-04 4.04719E-05-5.99472E-05
 -1      6055 1.35364E-04 1.10304E-04-1.27788E-05
 -1      6056 1.21620E-04 1.83817E-05-2.50550E-05
 -1      6057 1.30724E-04 1.67346E-05-5.22280E-05
 -1      6058 1.35066E-04 1.05265E-04-5.31750E-05
 -1      6059 1.29782E-04 1.67486E-05-3.56062E-05
 -1      6060 1.44887E-04 2.93808E-05-2.85233E-05
 -1      6061 1.19475E-04 1.94808E-05-6.11101E-06
 -1      6062 1.43508E-04 3.76026E-05-2.53691E-06
 -1      6063 1.41933E-04 4.16264E-05-2.33219E-05
 -1      6064 1.44214E-04 2.91823E-05-4.81204E-06
 -1      6065 7.55443E-05 1.37613E-05-3.23177E-05
 -1      6066 1.41158E-04 9.08570E-05-2.75160E-05
 -1      6067 1.45607E-04 7.54464E-05-4.85386E-05
 -1      6068 1.45785E-04 3.56092E-05-1.19004E-05
 -1      6069 1.44481E-04 2.61748E-05-7.39471E-05
 -1      6070 1.48747E-04 3.17290E-05-5.19466E-05
 -1      6071 1.37422E-04 1.66439E-05-5.97270E-05
 -1      6072 1.39708E-04 1.50071E-05-3.14445E-05
 -1      6073 1.47242E-04 3.75783E-05-2.59357E-05
 -1      6074 1.51049E-04 3.39541E-05-5.53939E-05
 -1      6075 1.48968E-04 2.23145E-05-4.21181E-05
 -1      6076 1.38948E-04 1.45705E-05-4.00572E-05
 -1      6077 1.33940E-04 1.14666E-04-6.31029E-06
 -1      6078 1.46691E-04 2.11639E-05-2.14654E-05
 -1      6079 1.25065E-04 1.70027E-04-2.28177E-05
 -1      6080 1.50173E-04 2.50275E-05-4.61861E-05
 -1      6081 1.48987E-04 3.62275E-05-9.95535E-06
 -1      6082 1.37389E-04 1.60816E-05-2.49399E-05
 -1      6083 1.38037E-04 1.62246E-05-1.08357E-05
 -1      6084 1.47580E-04 2.73746E-05-6.58240E-05
 -1      6085 1.44287E-04 9.36015E-05-9.42302E-06
 -1      6086 1.52095E-04 2.15778E-05-5.93279E-05
 -1      6087 1.49911E-04 1.89205E-05-3.76873E-05
 -1      6088 1.49036E-04 2.49237E-05-1.92228E-05
 -1      6089-5.84552E-05 2.32781E-04-1.11117E-05
 -1      6090 1.48685E-04 1.62413E-05-8.64259E-06
 -1      6091 1.40412E-04 1.43938E-05-3.26971E-06
 -1      6092 1.44666E-04 1.16010E-05-4.70938E-05
 -1      6093 1.38327E-04 1.16716E-05-7.28751E-05
 -1      6094 1.48745E-04 2.67134E-05-6.93255E-06
 -1      6095 1.45880E-04 7.34762E-05-2.01209E-05
 -1      6096 1.36698E-04 1.25577E-05-2.08753E-05
 -1      6097 1.16775E-04 1.25315E-05-1.82874E-05
 -1      6098 1.41282E-04 1.01399E-04-3.83211E-05
 -1      6099 1.47686E-04 8.09691E-05-1.29162E-05
 -1      6100 1.53100E-04 4.32212E-05-4.78190E-05
 -1      6101 1.43754E-04 8.99199E-05-3.74761E-06
 -1      6102 1.37857E-04 1.32813E-05-6.58815E-06
 -1      6103 4.91567E-06-7.81378E-06-6.67635E-06
 -1      6104 1.47730E-04 6.07603E-05-6.47381E-05
 -1      6105 1.00838E-04 9.75924E-06-5.07130E-05
 -1      6106 1.52013E-04 2.93014E-05-3.37626E-05
 -1      6107 1.48246E-04 8.10541E-05-3.22917E-05
 -1      6108 1.47754E-04 1.54352E-05-1.72774E-05
 -1      6109 1.52798E-04 4.37342E-05-4.35158E-05
 -1      6110 1.01739E-04 1.19763E-05-7.67765E-06
 -1      6111-6.32465E-05 9.07851E-05-1.19166E-05
 -1      6112 1.51443E-04 1.74321E-05-2.46046E-05
 -1      6113 1.13841E-04 1.23878E-05-3.87667E-05
 -1      6114 1.50554E-04 1.38868E-05-1.09356E-05
 -1      6115 1.45186E-04 1.27021E-05-5.41203E-05
 -1      6116 1.24280E-04 1.08167E-05-3.11475E-05
 -1      6117 1.43654E-04 1.25009E-05-1.39217E-05
 -1      6118 1.00573E-04 2.73379E-04-9.07332E-06
 -1      6119 1.48761E-04 3.44775E-05-1.58562E-05
 -1      6120 4.74967E-05 3.96478E-04-9.76686E-06
 -1      6121 1.51410E-04 1.82331E-05-1.33492E-05
 -1      6122 9.49281E-05 1.11304E-05-2.36477E-05
 -1      6123 6.88999E-05 6.28047E-06-1.79652E-05
 -1      6124 1.53909E-04 2.27259E-05-3.99291E-05
 -1      6125 1.46976E-04 8.65562E-05-5.27708E-05
 -1      6126 1.54676E-04 1.40241E-05-4.44367E-05
 -1      6127 1.49369E-04 1.32524E-05-7.17021E-05
 -1      6128 1.52873E-04 2.35145E-05-3.04497E-05
 -1      6129 1.52674E-04 4.09648E-05-8.16507E-06
 -1      6130 1.55186E-04 1.85804E-05-3.56993E-05
 -1      6131 1.47124E-04 1.25579E-05-3.45595E-05
 -1      6132 4.92598E-05 1.96019E-06-2.09437E-05
 -1      6133 1.52822E-04 5.01666E-05-3.67871E-05
 -1      6134 1.52801E-04 3.32720E-05-2.21926E-05
 -1      6135 1.53375E-04 2.99947E-05-1.78240E-05
 -1      6136 1.47360E-04 1.20432E-05-6.38022E-05
 -1      6137 1.49049E-04 8.06092E-05-6.38986E-06
 -1      6138 1.52090E-04 9.39442E-06-4.01484E-05
 -1      6139 1.54763E-04 1.54068E-05-4.92288E-05
 -1      6140 1.55866E-04 4.30483E-05-3.15504E-05
 -1      6141 1.31174E-04 1.98942E-04-3.59182E-05
 -1      6142 1.02637E-04 2.97730E-04-2.08392E-05
 -1      6143 1.49315E-04 8.76442E-05-4.33699E-05
 -1      6144 1.51970E-04 7.81530E-05-1.62907E-05
 -1      6145 1.27727E-04 9.55925E-05-2.26486E-05
 -1      6146 1.54288E-04 3.14804E-05-1.44346E-05
 -1      6147 1.50162E-04 8.21928E-05-2.41484E-05
 -1      6148 1.53437E-04 2.52114E-05-7.02277E-05
 -1      6149 1.54130E-04 1.89230E-05-6.32475E-05
 -1      6150 1.33114E-04 9.32243E-06-6.47486E-05
 -1      6151 1.56045E-04 4.27022E-05-4.11580E-05
 -1      6152 1.55355E-04 5.31330E-05-6.01641E-05
 -1      6153 6.48576E-05 6.48215E-05-2.27799E-05
 -1      6154-1.02444E-05 1.30872E-04-1.15027E-05
 -1      6155 6.81838E-05 1.32357E-04-2.11107E-05
 -1      6156 4.73729E-05 5.18053E-05-3.66724E-05
 -1      6157 1.50350E-04 1.30619E-05-2.72365E-05
 -1      6158 1.53597E-04 1.46012E-05-3.24574E-05
 -1      6159 1.51092E-04 5.20656E-05-6.98389E-05
 -1      6160 1.01033E-04 3.77440E-05-3.71689E-05
 -1      6161 1.51901E-04 5.43040E-05-4.19762E-06
 -1      6162 4.59590E-05 1.65252E-04-3.11378E-05
 -1      6163 1.51226E-04 1.21964E-05-1.54647E-05
 -1      6164 1.48547E-04 1.51450E-04-3.67558E-05
 -1      6165 1.43664E-04 8.08936E-06-4.40136E-05
 -1      6166 1.33002E-04 9.01145E-06-9.23464E-06
 -1      6167 1.53249E-04 1.15415E-05-5.74665E-05
 -1      6168 1.54594E-04 2.81303E-05-2.76773E-05
 -1      6169 1.53778E-04 6.90713E-05-2.79170E-05
 -1      6170 8.41776E-05 8.21004E-06-1.40763E-05
 -1      6171 1.57432E-04 2.88870E-05-5.35222E-05
 -1      6172 1.52534E-04 2.38434E-05-3.47220E-06
 -1      6173-1.95462E-04 2.91508E-04-2.67852E-06
 -1      6174 1.09742E-04 3.75245E-05-1.92304E-05
 -1      6175 1.54567E-04 2.96705E-05-2.05457E-05
 -1      6176 1.40783E-04 1.83290E-04-5.81537E-06
 -1      6177 1.56067E-04 1.24132E-05-2.91620E-05
 -1      6178 1.53646E-04 1.50533E-05-2.06845E-06
 -1      6179 1.48801E-04 9.33711E-06-2.34742E-05
 -1      6180 1.51821E-04 1.39935E-05-8.01583E-05
 -1      6181 1.16566E-04 8.95555E-06-5.31366E-05
 -1      6182 1.56016E-04 5.76088E-05-1.87713E-05
 -1      6183 1.57743E-04 5.65415E-05-4.98053E-05
 -1      6184 1.52495E-04 1.40469E-04-2.68786E-05
 -1      6185 1.53570E-04 1.14310E-04-1.76638E-05
 -1      6186 1.06303E-04 4.55205E-05-2.73510E-05
 -1      6187 1.58078E-04 1.56358E-05-5.10506E-05
 -1      6188 7.42774E-05 4.13121E-06-3.33229E-05
 -1      6189 1.42146E-04 8.88532E-06-2.85545E-05
 -1      6190 1.55766E-04 3.04789E-05-1.10801E-05
 -1      6191 1.56913E-04 1.75736E-05-6.81401E-05
 -1      6192 1.31684E-04 8.17921E-06-4.00703E-05
 -1      6193 1.01273E-04 7.84075E-06-4.03818E-05
 -1      6194 1.04524E-04 9.65571E-05-3.87123E-05
 -1      6195 4.83849E-05 1.83300E-04-9.08652E-06
 -1      6196 1.57461E-04 1.83087E-05-2.64084E-05
 -1      6197 1.57591E-04 2.55603E-05-2.50002E-05
 -1      6198 3.86702E-05 5.84796E-05-1.21487E-05
 -1      6199 1.56552E-04 1.73321E-05-1.21741E-05
 -1      6200 1.55767E-04 4.59993E-05-1.29110E-05
 -1      6201 1.55580E-04 7.13495E-05-1.12414E-05
 -1      6202 1.57353E-04 4.90404E-05-6.40575E-05
 -1      6203 1.14984E-04 8.32963E-06-1.34380E-05
 -1      6204 1.49963E-04 8.17273E-06-7.79799E-05
 -1      6205 1.47420E-04 8.60557E-06-3.76097E-05
 -1      6206 1.07964E-05 2.74482E-05-2.19708E-05
 -1      6207 1.59011E-04 1.51418E-05-4.29750E-05
 -1      6208 1.39910E-04 2.43222E-04-2.06126E-05
 -1      6209 1.58112E-04 5.52927E-05-3.43056E-05
 -1      6210 1.56302E-04 1.98940E-05-9.12284E-06
 -1      6211 1.27782E-04 8.41843E-06-1.48592E-05
 -1      6212 1.09214E-04 8.42587E-05-2.65726E-05
 -1      6213 1.47176E-04 1.01408E-05-1.94854E-05
 -1      6214-9.99392E-05 4.91192E-04-4.03935E-06
 -1      6215 1.56803E-04 1.12691E-05-2.27796E-05
 -1      6216-8.03281E-05 1.79640E-05-5.77149E-06
 -1      6217 1.44160E-04 7.52211E-06-1.57753E-05
 -1      6218 1.58559E-04 5.10920E-05-3.88887E-05
 -1      6219-2.67225E-06 1.82441E-05-8.79077E-06
 -1      6220 1.56914E-04 1.85140E-05-4.79166E-06
 -1      6221 1.53387E-04 1.10996E-05-5.78613E-06
 -1      6222 1.53827E-04 6.99622E-05-2.00315E-06
 -1      6223 1.58015E-04 1.82698E-05-3.85625E-05
 -1      6224 1.49595E-04 1.80246E-04-2.79874E-05
 -1      6225 1.59486E-04 1.76055E-05-4.76653E-05
 -1      6226 8.03730E-05 4.30742E-05-7.40403E-06
 -1      6227 1.59127E-04 1.10631E-05-5.33282E-05
 -1      6228 1.58981E-04 3.84888E-05-4.57288E-05
 -1      6229 1.43101E-04 7.56993E-06-5.08250E-05
 -1      6230 1.29001E-04 7.26466E-06-2.12710E-05
 -1      6231 1.13350E-04 7.65938E-06-2.32750E-05
 -1      6232 1.54138E-04 4.02808E-05-1.59002E-06
 -1      6233 1.51086E-04 9.27553E-06-3.09216E-05
 -1      6234 1.58347E-04 5.70473E-05-1.66978E-05
 -1      6235 1.27184E-04 7.83379E-06-5.07625E-05
 -1      6236 1.35866E-04 7.48665E-06-3.56104E-06
 -1      6237 1.28508E-04 7.05075E-06-6.09919E-06
 -1      6238 1.55889E-04 1.68778E-05-7.46471E-05
 -1      6239 1.21582E-04 8.25850E-05-1.81034E-05
 -1      6240-2.82035E-04 4.52712E-04 7.04396E-07
 -1      6241 1.54726E-04 1.00475E-04-5.71294E-05
 -1      6242 1.49114E-04 8.09699E-06-1.67971E-06
 -1      6243 1.38385E-04 2.09054E-04-1.36344E-05
 -1      6244 1.58193E-04 1.14930E-04-1.14228E-05
 -1      6245 1.51702E-04 1.60559E-04-9.47349E-06
 -1      6246 1.56607E-04 8.03328E-06-2.14715E-05
 -1      6247 1.07784E-04 7.91148E-06-3.20944E-05
 -1      6248 1.57502E-04 6.62326E-05-5.22698E-05
 -1      6249 1.56675E-04 2.77702E-05-5.68006E-06
 -1      6250 1.58102E-04 4.85339E-05-5.66355E-05
 -1      6251 1.60066E-04 2.30084E-05-4.93391E-05
 -1      6252 8.88380E-05 6.21756E-06-2.80297E-05
 -1      6253 1.25390E-04 6.55040E-06-6.69885E-05
 -1      6254 1.59623E-04 5.88211E-05-2.43829E-05
 -1      6255 1.56170E-04 7.10522E-05-2.22780E-05
 -1      6256 4.25664E-05-2.94133E-07-7.80407E-06
 -1      6257-1.89137E-04 1.47053E-04-2.96016E-06
 -1      6258 1.59394E-04 1.06282E-05-4.15255E-05
 -1      6259 1.58269E-04 2.24584E-05-5.74962E-05
 -1      6260 1.59261E-04 9.60264E-06-3.72283E-05
 -1      6261 7.34754E-05 1.23167E-04-7.19944E-06
 -1      6262 1.15091E-04 7.05869E-06-4.12454E-06
 -1      6263 1.52592E-04 7.14338E-06-5.01282E-05
 -1      6264 9.28161E-05 1.11859E-04-4.69529E-05
 -1      6265 1.58445E-04 1.11983E-04-4.68031E-05
 -1      6266 1.59052E-04 7.86829E-06-4.71309E-05
 -1      6267 1.46697E-04 7.42396E-06-8.93240E-06
 -1      6268 1.57285E-04 2.95656E-05-2.34443E-05
 -1      6269 1.47054E-04 7.76182E-06-6.90932E-05
 -1      6270 1.97487E-05 2.93244E-04-8.07995E-06
 -1      6271 1.38521E-04 7.09284E-06-1.30992E-05
 -1      6272 1.57617E-04 2.53151E-05-7.49490E-06
 -1      6273 1.58047E-04 1.02428E-05-6.97449E-06
 -1      6274 1.59100E-04 1.66719E-05-1.03068E-05
 -1      6275 1.59537E-04 7.80671E-05-4.63888E-05
 -1      6276 1.60378E-04 1.66048E-05-3.47318E-05
 -1      6277 1.59511E-04 1.38138E-05-2.17980E-05
 -1      6278 9.73756E-05 1.24574E-04-2.07116E-05
 -1      6279 1.58087E-04 4.27571E-05-2.93063E-05
 -1      6280 1.34153E-04 8.14365E-06-5.75126E-05
 -1      6281 9.35231E-05 2.82335E-05-2.14876E-05
 -1      6282 1.24048E-04 7.04701E-06-3.58265E-05
 -1      6283 2.50134E-06 2.70485E-04-1.76750E-05
 -1      6284 5.24177E-05 1.05545E-04-4.02455E-05
 -1      6285 1.57092E-04 9.09899E-05-3.72256E-05
 -1      6286 1.10150E-05 7.23802E-05-1.93745E-05
 -1      6287-3.45928E-05 1.40459E-04-2.00129E-05
 -1      6288 1.52052E-04 7.80719E-06-4.27403E-05
 -1      6289 1.05039E-04 4.24759E-05-5.08053E-05
 -1      6290 1.38812E-04 6.66097E-06-1.79379E-05
 -1      6291 1.57858E-04 7.29069E-05-9.15366E-06
 -1      6292 1.35282E-04 7.26130E-06-2.54715E-05
 -1      6293 1.55535E-04 1.11186E-04-2.09558E-05
 -1      6294 1.50054E-04 1.59453E-04-2.07429E-05
 -1      6295 6.46433E-05 2.49813E-05-8.37583E-06
 -1      6296 1.53132E-04 8.61028E-06-3.86262E-06
 -1      6297 1.60604E-04 1.55495E-05-5.55774E-05
 -1      6298 1.58486E-04 2.48119E-05-6.08639E-05
 -1      6299 1.48748E-04 1.64327E-04-4.41520E-05
 -1      6300 7.74866E-06 1.88372E-04-1.70502E-05
 -1      6301 1.59205E-04 1.57787E-05-6.52030E-05
 -1      6302 1.60312E-04 2.30065E-05-4.39551E-05
 -1      6303 1.44081E-04 5.69998E-05-4.48914E-05
 -1      6304 1.40994E-04 7.32969E-06-3.39444E-05
 -1      6305 1.28687E-04 2.44028E-05-6.45290E-05
 -1      6306 1.58292E-04 7.29063E-06-3.44254E-05
 -1      6307 1.55546E-04 8.16053E-05-4.06535E-05
 -1      6308 1.60080E-04 1.65886E-05-3.32122E-05
 -1      6309 1.58508E-04 1.69868E-05-1.53962E-05
 -1      6310 1.59476E-04 1.45815E-05-3.15422E-05
 -1      6311 1.57806E-04 2.63436E-05-1.88694E-05
 -1      6312 8.70369E-05 5.42782E-06-6.22075E-06
 -1      6313 1.21947E-04 3.72854E-04-6.85031E-06
 -1      6314 1.58829E-04 1.16724E-04-5.47595E-06
 -1      6315 1.48189E-04 6.77815E-06-5.93591E-05
 -1      6316 1.59734E-04 2.35643E-05-3.69008E-05
 -1      6317 1.58798E-04 2.69925E-05-7.00073E-07
 -1      6318 1.62564E-04 3.59922E-05-4.25795E-05
 -1      6319 9.33687E-05 5.18335E-05-1.30153E-05
 -1      6320 1.58951E-04 8.54028E-06-7.13670E-05
 -1      6321 1.55161E-04 7.48564E-06-6.90108E-05
 -1      6322 1.58696E-04 1.43017E-05-1.65232E-05
 -1      6323 1.56910E-04 8.01030E-06-2.60368E-05
 -1      6324 1.48222E-04 6.94863E-06-2.57897E-05
 -1      6325 1.57549E-04 1.57537E-04-4.30240E-06
 -1      6326 1.51304E-04 8.60922E-06-1.24721E-05
 -1      6327 1.58269E-04 4.32922E-05-2.98846E-06
 -1      6328 6.32849E-05 4.28574E-05-3.05645E-05
 -1      6329 1.58683E-04 7.00033E-06-3.87916E-05
 -1      6330 1.32190E-04 7.36254E-05-3.52215E-05
 -1      6331 1.34839E-04 7.00221E-06-4.64534E-05
 -1      6332 1.59624E-04 6.96789E-06-4.03095E-05
 -1      6333 1.24621E-04 6.14512E-06-1.05923E-05
 -1      6334 1.07917E-04 8.77931E-05-1.16979E-05
 -1      6335 7.92172E-05 3.46050E-05-4.79827E-05
 -1      6336 6.47685E-05 1.74523E-05-3.91785E-05
 -1      6337 1.59585E-04 1.18467E-04-5.03600E-05
 -1      6338 1.59602E-04 4.14193E-05-9.61112E-06
 -1      6339 1.61398E-04 4.47980E-05-3.31796E-05
 -1      6340 4.38191E-06-2.55414E-05 3.38731E-06
 -1      6341 1.57854E-04 8.27906E-05-6.30171E-05
 -1      6342 1.55059E-04 7.82057E-06-6.15841E-05
 -1      6343 1.30670E-04 7.15528E-05-1.48508E-05
 -1      6344 1.25006E-04 7.69746E-05-4.27618E-05
 -1      6345 1.34270E-04 5.88140E-06-7.27801E-05
 -1      6346 1.58808E-04 5.74754E-05-6.82617E-06
 -1      6347 1.52694E-04 2.08421E-04-3.01484E-05
 -1      6348 1.06811E-04 4.76054E-05-4.21385E-05
 -1      6349-1.32647E-04-3.66980E-05 2.20192E-06
 -1      6350 1.52540E-04 2.42653E-04-6.64875E-06
 -1      6351 1.22007E-04 3.31451E-05-1.33050E-05
 -1      6352 1.47669E-04 6.91565E-06-2.16080E-05
 -1      6353 1.62414E-04 4.02726E-05-5.46413E-05
 -1      6354 1.19581E-04 6.04855E-06-4.56168E-05
 -1      6355-8.54054E-05 3.49382E-04-9.07696E-06
 -1      6356 1.61437E-04 1.25305E-05-4.56069E-05
 -1      6357 7.85029E-05 7.60231E-05-3.52507E-05
 -1      6358 5.05989E-05 9.21714E-06-8.09268E-06
 -1      6359 1.46436E-04 7.32939E-06-5.20530E-06
 -1      6360 1.57818E-04 6.41316E-05-1.50277E-05
 -1      6361 1.24194E-04 6.60036E-06-6.02190E-05
 -1      6362 1.59833E-04 9.60390E-06-8.32211E-06
 -1      6363 9.80278E-05 1.32401E-04-2.76918E-05
 -1      6364 1.51899E-04 6.55464E-06-7.40987E-06
 -1      6365 1.56734E-04 9.01903E-05-5.59969E-05
 -1      6366 1.00682E-04 6.00855E-06-1.18657E-05
 -1      6367 1.58429E-04 9.98326E-06-1.81556E-05
 -1      6368 1.57266E-04 1.01468E-05-2.01760E-05
 -1      6369 1.40816E-04 2.01697E-05-4.40209E-05
 -1      6370 1.55065E-04 6.37665E-06-4.58771E-05
 -1      6371 9.56900E-05 4.44521E-05-5.67922E-05
 -1      6372 7.23491E-05 3.10297E-06-2.52461E-05
 -1      6373 1.60935E-04 2.21628E-05-4.07328E-05
 -1      6374 1.56431E-04 1.03923E-05-9.01962E-07
 -1      6375 1.61843E-04 2.58611E-05-3.94579E-05
 -1      6376 1.62011E-04 3.81976E-05-5.16838E-05
 -1      6377 1.61041E-04 9.04232E-06-3.02390E-05
 -1      6378 1.58753E-04 5.34702E-05-2.63431E-05
 -1      6379 1.60684E-04 7.53634E-06-5.84106E-05
 -1      6380 1.47404E-04 5.75982E-06-7.44792E-05
 -1      6381 1.63592E-04 3.52298E-05-4.76485E-05
 -1      6382 1.54806E-04 6.13437E-06-3.66577E-05
 -1      6383-3.41170E-04 2.99121E-04 4.53048E-06
 -1      6384 1.08112E-04 6.65103E-06-1.77374E-05
 -1      6385 1.32276E-04 3.21366E-05-3.75233E-05
 -1      6386 1.12204E-04 4.33391E-05-3.43798E-05
 -1      6387 1.61912E-04 9.80497E-05-3.39698E-05
 -1      6388 1.56982E-04 5.99170E-06-7.49364E-05
 -1      6389 1.01629E-04 4.87530E-04-5.15078E-06
 -1      6390 3.11555E-05 5.39016E-04-7.27045E-06
 -1      6391 1.61261E-04 8.64726E-06-2.49991E-05
 -1      6392-9.53566E-05 1.65624E-04-6.25360E-06
 -1      6393 1.29488E-04 3.14076E-05-4.65139E-05
 -1      6394 1.58852E-04 8.62379E-06-2.78693E-05
 -1      6395 1.21385E-04 3.42922E-05-8.34734E-06
 -1      6396 1.60951E-04 1.48113E-05-1.31167E-05
 -1      6397 1.59279E-04 7.80094E-06-1.14572E-05
 -1      6398 1.44563E-04 5.50739E-06-4.15351E-05
 -1      6399 1.42573E-04 4.16412E-06-7.75456E-05
 -1      6400-1.24724E-04 1.86830E-04-9.75383E-06
 -1      6401 1.31033E-04 2.82356E-05-1.83960E-05
 -1      6402 1.56750E-04 2.57994E-05-7.63183E-05
 -1      6403 1.57632E-04 1.36855E-04-3.32376E-05
 -1      6404 1.58300E-04 9.49788E-06-1.43732E-05
 -1      6405 1.58364E-04 7.85974E-05-3.00251E-05
 -1      6406 1.16100E-04 8.14457E-05-4.90903E-05
 -1      6407 1.63565E-04 3.63765E-05-3.48587E-05
 -1      6408-2.03462E-04 4.88883E-05-1.38479E-08
 -1      6409 1.60496E-04 4.34528E-05-1.54632E-05
 -1      6410 1.01715E-04 3.55112E-05-8.92661E-06
 -1      6411 1.52538E-04 6.27921E-06-3.27592E-05
 -1      6412 1.19700E-04 3.95378E-05-2.34066E-05
 -1      6413 8.86050E-05 2.19420E-04-2.74524E-05
 -1      6414 1.19450E-04 7.77784E-05-8.28446E-06
 -1      6415 1.63501E-04 1.48215E-04-4.23233E-05
 -1      6416 1.55712E-04 8.29825E-06-9.70822E-06
 -1      6417 1.62352E-04 1.31521E-04-3.78509E-05
 -1      6418 9.40358E-05 8.42663E-05-1.68470E-05
 -1      6419 7.83666E-05 1.46405E-04-1.36158E-05
 -1      6420 4.32995E-05 8.93339E-05-7.44577E-06
 -1      6421 1.62059E-04 5.47550E-05-2.16887E-05
 -1      6422 1.58852E-04 6.20183E-06-5.12038E-05
 -1      6423 1.46709E-04 1.96281E-05-5.11336E-05
 -1      6424 1.60898E-04 8.61248E-05-4.82957E-06
 -1      6425 1.48910E-04 6.07661E-06-1.73901E-05
 -1      6426 1.28748E-04 3.36438E-05-2.89931E-05
 -1      6427 1.19394E-04 2.56505E-05-3.11046E-05
 -1      6428 1.60871E-04 4.09211E-05-1.98572E-05
 -1      6429 1.61928E-04 2.53504E-05-5.90006E-05
 -1      6430 1.63815E-04 4.09340E-05-4.98643E-05
 -1      6431 1.36134E-04 3.08268E-05-9.86621E-06
 -1      6432 1.56871E-04 1.18329E-04-2.47917E-05
 -1      6433 9.05409E-05 4.15102E-06-4.52250E-05
 -1      6434 8.20774E-05 2.09869E-05-4.10442E-05
 -1      6435 1.62043E-04 1.01066E-04-1.46265E-05
 -1      6436 1.60185E-04 7.21484E-06-2.38517E-05
 -1      6437 1.07396E-04 4.58804E-05-4.69233E-06
 -1      6438 7.82693E-05 7.46770E-05-5.46177E-06
 -1      6439 1.42348E-04 6.18254E-06-6.36596E-05
 -1      6440 1.35195E-04 2.72767E-05-2.28713E-05
 -1      6441 1.49152E-04 6.34354E-06-1.08866E-05
 -1      6442 1.50449E-04 1.55675E-04-1.43680E-05
 -1      6443 9.48693E-05 3.10921E-04-1.33578E-05
 -1      6444 1.57606E-04 6.79322E-06-6.55414E-05
 -1      6445-2.57933E-05 7.30919E-05-8.18788E-06
 -1      6446 1.62341E-04 7.04139E-05-2.01375E-05
 -1      6447 6.52374E-05-6.49812E-07-2.62311E-05
 -1      6448 1.47369E-04 1.61312E-05-4.79586E-05
 -1      6449 1.61454E-04 2.81754E-05-3.07307E-05
 -1      6450 1.61362E-04 2.64911E-05-3.20343E-05
 -1      6451-6.55616E-05 3.40751E-04-5.22422E-06
 -1      6452 8.10334E-05 8.34169E-05-2.40041E-05
 -1      6453 1.59997E-04 6.02183E-06-4.28673E-05
 -1      6454 1.30209E-04 3.26424E-05-5.15983E-05
 -1      6455 1.61550E-04 3.95325E-05-4.88601E-06
 -1      6456 1.51518E-04 3.13606E-04-5.12361E-06
 -1      6457 1.37494E-04 6.40549E-06-3.10032E-05
 -1      6458 1.25138E-04 5.76534E-06-2.45524E-05
 -1      6459 1.61996E-04 7.58961E-06-6.00510E-05
 -1      6460 4.00196E-05-6.59746E-06-1.11802E-05
 -1      6461 1.41464E-04 5.78928E-06-5.46697E-05
 -1      6462 1.59590E-04 1.44783E-04-7.26792E-06
 -1      6463 1.41547E-04 2.75768E-04-2.67366E-05
 -1      6464 1.63892E-04 7.61301E-05-3.53763E-05
 -1      6465 1.58660E-04 5.96070E-06-3.14619E-05
 -1      6466 1.34786E-04 6.94842E-05-5.91348E-05
 -1      6467 1.17248E-04 4.59156E-04-1.23259E-05
 -1      6468 1.64698E-04 6.18580E-05-4.61007E-05
 -1      6469 9.73481E-05 1.04114E-04-4.68334E-06
 -1      6470 1.61657E-04 3.51823E-05-6.70016E-05
 -1      6471 1.19151E-04 2.96651E-05-3.89539E-05
 -1      6472 1.12193E-04 4.59485E-05-6.33755E-05
 -1      6473 1.60838E-04 1.14814E-04-2.82873E-05
 -1      6474 1.61369E-04 6.59409E-06-3.55100E-05
 -1      6475-2.07415E-04 5.80058E-04-2.18439E-06
 -1      6476-3.62104E-04 6.28375E-04 1.21008E-06
 -1      6477 1.59684E-04 2.38094E-05-2.47454E-06
 -1      6478 1.60573E-04 7.68419E-06-6.27023E-05
 -1      6479 8.85003E-05 1.93644E-04-6.28328E-06
 -1      6480 1.12804E-04 5.39051E-06-5.82984E-05
 -1      6481 1.30374E-04 2.97918E-05-3.43082E-05
 -1      6482 1.61502E-04 4.22069E-05-1.18449E-05
 -1      6483 1.61562E-04 2.13510E-05-2.98043E-05
 -1      6484 1.43267E-04 5.33917E-06-1.88866E-06
 -1      6485-1.85826E-04 4.07026E-04-3.27943E-06
 -1      6486 3.52048E-05 1.31604E-04-1.39268E-05
 -1      6487 1.64148E-04 4.14635E-05-1.82378E-05
 -1      6488 1.23532E-04 5.33277E-06-4.05633E-05
 -1      6489 1.32192E-04 5.91390E-05-2.89363E-05
 -1      6490 1.38945E-04 2.53701E-05-1.26436E-05
 -1      6491 1.60531E-04 4.35772E-05-6.91069E-05
 -1      6492 1.40068E-04 6.24799E-06-2.31188E-05
 -1      6493 1.28905E-04 5.69412E-06-1.77090E-05
 -1      6494 1.62774E-04 9.12625E-05-2.60990E-05
 -1      6495 1.60729E-04 1.18681E-04-2.60015E-06
 -1      6496 1.63256E-04 4.19158E-05-2.56463E-05
 -1      6497 8.83804E-05 4.35349E-06-3.65253E-05
 -1      6498 1.38817E-04 4.54036E-06-1.60102E-05
 -1      6499 8.77181E-05 2.01976E-05-3.37417E-05
 -1      6500-3.19721E-04 1.30898E-04 4.76671E-06
 -1      6501 1.36424E-04 6.40047E-06-3.69420E-05
 -1      6502-1.90689E-05 2.17611E-04-7.03741E-06
 -1      6503 7.01712E-05 1.27735E-04-3.41907E-05
 -1      6504 1.64129E-04 1.80046E-04-2.42733E-05
 -1      6505 8.37773E-05 4.80606E-05-4.14501E-05
 -1      6506 1.50689E-04 7.64920E-06-2.89868E-05
 -1      6507 1.62103E-04 3.42800E-05-6.20811E-05
 -1      6508 1.61314E-04 2.19393E-05-2.84057E-05
 -1      6509 1.44664E-04 4.81013E-06-3.85209E-06
 -1      6510 1.10391E-04 8.34012E-05-5.61814E-05
 -1      6511 7.71524E-05 2.74385E-05-2.53913E-05
 -1      6512 1.40230E-04 5.24467E-06-1.09805E-05
 -1      6513 1.66339E-04 9.79403E-05-1.08120E-05
 -1      6514 1.55575E-04 2.22961E-05-8.03401E-05
 -1      6515 1.08185E-04 9.17649E-05-3.41815E-05
 -1      6516 9.56759E-05 1.60738E-04-3.63859E-05
 -1      6517 1.19225E-04 5.19084E-06-1.89688E-05
 -1      6518 1.63763E-04 6.57437E-06-4.39609E-05
 -1      6519 1.54765E-04 6.00967E-06-1.65984E-05
 -1      6520 1.63761E-04 1.75345E-05-3.39046E-05
 -1      6521 1.43555E-04 4.88329E-05-2.95587E-05
 -1      6522 1.64325E-04 1.21365E-05-4.67532E-05
 -1      6523 1.64254E-04 8.39846E-06-5.21408E-05
 -1      6524 1.60690E-04 2.74292E-05-8.24669E-06
 -1      6525 1.25353E-04 6.32888E-06-3.06412E-06
 -1      6526 1.66453E-04 5.76907E-05-4.79347E-05
 -1      6527 1.57996E-04 1.24337E-04-4.18356E-05
 -1      6528 1.20270E-04 5.16360E-06-3.12762E-05
 -1      6529 6.69042E-05 5.27589E-05-1.60980E-05
 -1      6530 1.61024E-04 2.26228E-05-2.25457E-05
 -1      6531 1.16671E-04 3.43404E-05-4.85611E-05
 -1      6532 1.21409E-04 1.80127E-05-6.73865E-05
 -1      6533 1.53794E-04 2.13177E-04-1.85312E-05
 -1      6534 1.20260E-04 5.26757E-06-7.55323E-06
 -1      6535-1.31941E-05 7.17356E-05-2.36884E-05
 -1      6536 1.00047E-04 7.60771E-05-1.93945E-05
 -1      6537 1.01579E-04 5.97637E-05-1.81099E-05
 -1      6538 1.07677E-04 5.09464E-05-2.07789E-05
 -1      6539 9.32835E-05 7.58060E-05-2.30528E-05
 -1      6540 9.50645E-05 6.05756E-05-2.18215E-05
 -1      6541 8.73978E-05 8.37059E-05-2.04014E-05
 -1      6542 1.70593E-04 1.11945E-04-5.56895E-05
 -1      6543 1.72170E-04 1.16165E-04-5.40745E-05
 -1      6544 1.72962E-04 1.26379E-04-5.27292E-05
 -1      6545 1.63036E-04 7.95179E-06-4.90707E-05
 -1      6546 1.62990E-04 7.91769E-06-4.95258E-05
 -1      6547 1.62359E-04 6.45817E-06-4.95079E-05
 -1      6548 7.28977E-05 1.06313E-06-4.16821E-06
 -1      6549 8.03821E-05 1.31875E-06-4.53740E-06
 -1      6550 7.50852E-05 3.34687E-06-2.77135E-06
 -1      6551 8.30358E-05 4.13515E-06-2.99330E-06
 -1      6552 8.50448E-05 1.91341E-06-7.73911E-06
 -1      6553 1.65673E-04 3.84980E-05-1.07182E-05
 -1      6554 1.67557E-04 4.75805E-05-1.09667E-05
 -1      6555 1.69322E-04 4.49932E-05-1.00798E-05
 -1      6556 1.71026E-04 5.36184E-05-1.00859E-05
 -1      6557 1.57272E-04 3.57921E-05-1.04178E-05
 -1      6558 1.30683E-04 3.60263E-05-4.11681E-05
 -1      6559 1.38450E-04 3.06341E-05-4.36597E-05
 -1      6560 1.28517E-04 4.77932E-05-4.07707E-05
 -1      6561 1.25425E-04 4.11127E-05-4.22615E-05
 -1      6562 1.32733E-04 3.64219E-05-4.49360E-05
 -1      6563 1.34952E-04 2.60156E-05-4.53004E-05
 -1      6564 1.68385E-04 6.08674E-05-5.96182E-05
 -1      6565 1.69919E-04 6.79637E-05-5.81181E-05
 -1      6566 1.70226E-04 6.89878E-05-5.90371E-05
 -1      6567 1.62138E-04 6.28112E-06-4.90871E-05
 -1      6568 1.61158E-04 5.27807E-06-4.97281E-05
 -1      6569 1.64082E-04 2.10846E-06-4.46887E-05
 -1      6570 1.64327E-04 2.21419E-06-4.41953E-05
 -1      6571 1.65799E-04 2.51198E-06-4.45697E-05
 -1      6572-7.11319E-05 4.92859E-05-9.32493E-06
 -1      6573-7.01324E-05 4.14117E-05-4.68830E-06
 -1      6574-6.13977E-05 7.97330E-05-6.00385E-06
 -1      6575-4.43988E-05 8.22550E-05-1.04361E-05
 -1      6576-4.25542E-05 7.10556E-05-3.59938E-06
 -1      6577-5.31959E-05 4.34274E-05-8.34790E-06
 -1      6578 1.47749E-04 6.09028E-05-2.49397E-05
 -1      6579 1.37493E-04 6.03786E-05-2.49773E-05
 -1      6580 1.37666E-04 4.11297E-05-2.60768E-05
 -1      6581 1.49766E-04 5.32642E-05-2.69644E-05
 -1      6582 1.39372E-04 5.35180E-05-2.70015E-05
 -1      6583 1.52012E-04 7.58521E-05-2.59959E-05
 -1      6584 1.50615E-04 4.95860E-06-4.70828E-05
 -1      6585 1.48880E-04 4.51341E-06-4.78727E-05
 -1      6586 1.48345E-04 4.37211E-06-4.68893E-05
 -1      6587 1.10558E-04 4.76398E-06-5.04145E-05
 -1      6588 1.10473E-04 4.61102E-06-5.18908E-05
 -1      6589 1.17893E-04 3.67116E-06-5.12243E-05
 -1      6590 1.17573E-04 3.59507E-06-5.29067E-05
 -1      6591 1.08349E-04 9.54236E-06-5.21619E-05
 -1      6592 1.43531E-04 5.20471E-06-6.22193E-06
 -1      6593 1.44876E-04 5.50680E-06-6.98533E-06
 -1      6594 1.42125E-04 4.83475E-06-6.93407E-06
 -1      6595 1.08304E-04 3.19610E-06-2.92649E-05
 -1      6596 1.12925E-04 3.72988E-06-2.90049E-05
 -1      6597 1.12366E-04 3.66419E-06-3.12010E-05
 -1      6598 1.65336E-04 3.73573E-05-1.10495E-05
 -1      6599 1.40039E-04 4.50561E-06-6.84968E-05
 -1      6600 1.37418E-04 4.12748E-06-6.77274E-05
 -1      6601 1.39660E-04 4.46111E-06-6.68192E-05
 -1      6602 1.54518E-04 2.20042E-05-5.44356E-05
 -1      6603 1.58043E-04 1.79706E-05-5.34051E-05
 -1      6604 1.54017E-04 3.15205E-05-5.44520E-05
 -1      6605 1.55135E-04 2.54606E-05-5.54820E-05
 -1      6606 1.58865E-04 2.21757E-05-5.45386E-05
 -1      6607 1.59786E-04 1.30009E-05-5.43739E-05
 -1      6608 1.65643E-04 1.88726E-05-9.95355E-06
 -1      6609 1.65342E-04 9.47972E-06-1.01424E-05
 -1      6610 1.65872E-04 9.91188E-06-9.92100E-06
 -1      6611 1.29102E-04 3.45102E-06-3.54841E-05
 -1      6612 1.29553E-04 3.50630E-06-3.44555E-05
 -1      6613 1.31782E-04 3.72535E-06-3.50576E-05
 -1      6614-3.05285E-04-9.59988E-05 3.19070E-06
 -1      6615-2.91418E-04-5.84304E-05 3.42069E-06
 -1      6616-2.20029E-04-6.52445E-05 5.32535E-06
 -1      6617-2.06847E-04-3.11595E-05 1.21287E-06
 -1      6618-2.21906E-04-6.48458E-05 1.78895E-06
 -1      6619 1.46143E-04 4.98425E-05-1.97018E-05
 -1      6620 1.44540E-04 4.62475E-05-2.07366E-05
 -1      6621 1.47891E-04 2.28023E-05-2.03323E-05
 -1      6622 1.51541E-04 2.67665E-05-1.98995E-05
 -1      6623 1.50401E-04 2.42492E-05-2.10868E-05
 -1      6624 1.49496E-04 5.40522E-05-2.03972E-05
 -1      6625 1.64463E-04 1.07604E-05-2.65601E-05
 -1      6626 1.64481E-04 1.79329E-05-2.68021E-05
 -1      6627 1.64738E-04 1.13116E-05-2.67895E-05
 -1      6628 1.06754E-04 4.54892E-06-6.24543E-06
 -1      6629 1.09688E-04 5.07208E-06-7.41847E-06
 -1      6630 1.04328E-04 4.17386E-06-7.43603E-06
 -1      6631 1.64530E-04 8.09537E-06-9.04847E-06
 -1      6632 1.63718E-04 6.20331E-06-9.34953E-06
 -1      6633 1.63847E-04 6.64276E-06-8.98471E-06
 -1      6634 1.67823E-04 5.85452E-05-5.88649E-05
 -1      6635 1.72023E-04 6.65229E-05-5.64793E-05
 -1      6636 1.56839E-04 5.08719E-05-5.83838E-05
 -1      6637 1.69965E-04 5.66443E-05-5.71596E-05
 -1      6638 1.53526E-04 3.51684E-06-2.49938E-05
 -1      6639 1.55175E-04 3.81891E-06-2.53468E-05
 -1      6640 1.52938E-04 3.39676E-06-2.55414E-05
 -1      6641 1.61227E-04 2.18892E-05-3.76187E-06
 -1      6642 1.61279E-04 1.39842E-05-3.68173E-06
 -1      6643 1.61203E-04 2.15885E-05-3.34090E-06
 -1      6644-9.40919E-05 7.12914E-05-4.36462E-06
 -1      6645-9.21137E-05 9.75740E-05-4.85812E-06
 -1      6646-1.55847E-04 9.59996E-05-2.34200E-06
 -1      6647-1.54554E-04 1.25328E-04-2.66747E-06
 -1      6648-1.25230E-04 1.20033E-04-7.28954E-06
 -1      6649 1.38723E-04 4.23876E-05-5.68285E-05
 -1      6650 1.43494E-04 6.40659E-05-5.62599E-05
 -1      6651 1.39981E-04 6.43303E-05-5.36123E-05
 -1      6652 1.35020E-04 5.71381E-05-5.67585E-05
 -1      6653 1.40562E-04 7.76699E-05-5.59067E-05
 -1      6654 1.37994E-04 5.58271E-05-5.97304E-05
 -1      6655 1.05076E-04 7.71110E-06-3.86162E-06
 -1      6656 1.06496E-04 1.94807E-06-2.34919E-06
 -1      6657 1.10889E-04 5.56049E-06-2.04926E-06
 -1      6658 1.11392E-04 2.66276E-06-4.45127E-06
 -1      6659 1.08555E-04 9.58145E-06-5.93163E-06
 -1      6660 1.10829E-04 2.97646E-06-2.49756E-05
 -1      6661 1.11657E-04 3.07216E-06-2.27142E-05
 -1      6662 1.15722E-04 3.45401E-06-2.45898E-05
 -1      6663-1.29304E-04 3.44501E-04-1.80153E-06
 -1      6664-8.89218E-05 3.79126E-04-2.08248E-06
 -1      6665-1.89203E-04 3.78037E-04-1.73098E-06
 -1      6666-1.49438E-04 4.13233E-04-2.53958E-06
 -1      6667-1.25148E-04 3.74367E-04-4.93604E-06
 -1      6668 1.68169E-04 4.46383E-05-2.87014E-05
 -1      6669 1.55934E-04 3.51248E-05-2.85540E-05
 -1      6670 1.64545E-04 3.52557E-05-2.79174E-05
 -1      6671 1.70281E-04 3.44736E-05-2.82229E-05
 -1      6672 1.57629E-04 2.50543E-05-2.80845E-05
 -1      6673 1.59561E-04 3.29344E-05-2.89151E-05
 -1      6674-1.97088E-05 4.19915E-05-2.25648E-05
 -1      6675-2.44830E-05 5.60124E-05-1.69984E-05
 -1      6676-5.91121E-05 7.46903E-05-1.70761E-05
 -1      6677-3.35740E-05 6.45523E-05-2.30339E-05
 -1      6678-3.81292E-05 8.19280E-05-1.72441E-05
 -1      6679-2.55114E-07 4.66761E-05-2.34338E-05
 -1      6680 7.51986E-05 6.05575E-06-2.88028E-06
 -1      6681 1.59703E-04 3.66270E-06-9.24900E-06
 -1      6682 1.57159E-04 3.03838E-06-9.38952E-06
 -1      6683 1.57935E-04 3.15125E-06-8.93161E-06
 -1      6684 1.44912E-04 3.19895E-05-4.05197E-05
 -1      6685 1.42179E-04 3.39716E-05-4.27258E-05
 -1      6686 1.38897E-04 4.30566E-05-4.11732E-05
 -1      6687 1.41049E-04 2.88734E-05-4.14460E-05
 -1      6688 1.44873E-04 2.07346E-05-4.30378E-05
 -1      6689 3.21016E-05-7.06083E-06-5.04531E-06
 -1      6690 3.51270E-05-6.05095E-06-7.14956E-06
 -1      6691 4.39109E-05-2.77184E-06-5.44653E-06
 -1      6692 4.70825E-05-2.20446E-06-7.96654E-06
 -1      6693 2.43167E-05-3.16237E-06-7.99389E-06
 -1      6694-3.21994E-04 1.17528E-03 1.25865E-06
 -1      6695-2.42365E-04 1.17875E-03 2.39855E-06
 -1      6696-3.08885E-04 1.24575E-03-2.00632E-07
 -1      6697-3.41206E-04 1.32864E-03-1.89327E-06
 -1      6698-4.20261E-04 1.33118E-03-1.75715E-06
 -1      6699 9.56583E-05 1.75897E-05-2.28131E-05
 -1      6700 9.29195E-05 2.62635E-05-1.80179E-05
 -1      6701 9.45436E-05 1.64945E-05-1.92028E-05
 -1      6702 8.72829E-05 1.82026E-05-2.47088E-05
 -1      6703 8.45852E-05 2.61839E-05-2.01453E-05
 -1      6704 8.51700E-05 2.79555E-05-2.36017E-05
 -1      6705 1.42388E-04 5.35768E-05-4.87415E-05
 -1      6706 1.39654E-04 5.84734E-05-5.12153E-05
 -1      6707 1.38387E-04 3.89519E-05-5.11979E-05
 -1      6708 1.45066E-04 3.23468E-05-5.01823E-05
 -1      6709 1.41732E-04 3.85068E-05-5.30273E-05
 -1      6710 1.46385E-04 5.49478E-05-5.02723E-05
 -1      6711 1.61955E-04 7.19817E-06-1.78349E-06
 -1      6712 1.62615E-04 9.27934E-06-2.12480E-06
 -1      6713 1.61999E-04 7.86685E-06-2.13852E-06
 -1      6714 1.43796E-04 2.50442E-05-1.57203E-05
 -1      6715 1.44131E-04 3.51273E-05-1.50121E-05
 -1      6716 1.48110E-04 2.24215E-05-1.65803E-05
 -1      6717 1.49496E-04 1.38193E-05-1.63756E-05
 -1      6718 1.50014E-04 2.05836E-05-1.56868E-05
 -1      6719 1.45561E-04 2.32596E-05-1.47733E-05
 -1      6720 1.70610E-04 3.42153E-05-2.77017E-05
 -1      6721 1.68978E-04 2.43862E-05-2.80989E-05
 -1      6722-1.94133E-04 3.19994E-04-1.34091E-06
 -1      6723-1.31872E-04 3.14853E-04-4.65692E-06
 -1      6724-1.91224E-04 3.47450E-04-2.99684E-06
 -1      6725 1.42260E-04 6.18127E-05-6.73631E-05
 -1      6726 1.39269E-04 4.80441E-05-6.58315E-05
 -1      6727 1.34768E-04 5.00384E-05-6.86806E-05
 -1      6728 1.36514E-04 6.62013E-05-6.43281E-05
 -1      6729 1.33532E-04 5.41038E-05-6.25731E-05
 -1      6730 1.40973E-04 6.50801E-05-6.18588E-05
 -1      6731 1.72828E-04 4.75240E-05-1.78422E-05
 -1      6732 1.70437E-04 3.78650E-05-1.81142E-05
 -1      6733 1.70770E-04 3.75150E-05-1.77372E-05
 -1      6734 1.61897E-04 3.46250E-06-5.48917E-05
 -1      6735 1.62176E-04 3.60207E-06-5.38279E-05
 -1      6736 1.63860E-04 4.54250E-06-5.43200E-05
 -1      6737 1.50215E-04 3.38194E-06-2.41075E-05
 -1      6738 1.50456E-04 3.45279E-06-2.34915E-05
 -1      6739 1.52304E-04 3.88886E-06-2.39457E-05
 -1      6740 1.65545E-04 9.32459E-06-1.92141E-05
 -1      6741 1.64885E-04 1.55899E-05-1.89216E-05
 -1      6742 1.65090E-04 1.59956E-05-1.90036E-05
 -1      6743 1.40737E-04 2.30716E-05-3.96828E-05
 -1      6744 1.44168E-04 1.63689E-05-4.11083E-05
 -1      6745 1.40049E-04 1.68231E-05-4.20589E-05
 -1      6746 9.93609E-05 4.07887E-06-2.31510E-05
 -1      6747 1.00117E-04 4.20872E-06-2.09038E-05
 -1      6748 1.03991E-04 4.84055E-06-2.29984E-05
 -1      6749 1.61621E-04 1.40012E-05-3.42114E-06
 -1      6750 8.25949E-05 5.21977E-05-2.94241E-05
 -1      6751 9.86241E-05 5.35570E-05-3.42314E-05
 -1      6752 8.00836E-05 6.81361E-05-2.69476E-05
 -1      6753 7.15699E-05 7.00545E-05-2.88404E-05
 -1      6754 8.72703E-05 7.48930E-05-3.33615E-05
 -1      6755 8.96746E-05 5.64825E-05-3.64421E-05
 -1      6756 1.30951E-04 4.80439E-06-3.21470E-05
 -1      6757 1.33090E-04 5.13472E-06-3.26948E-05
 -1      6758 1.36286E-04 2.70913E-06-3.20212E-05
 -1      6759 1.38803E-04 2.92906E-06-3.25355E-05
 -1      6760 1.30759E-04 8.74779E-06-3.11158E-05
 -1      6761 1.58520E-04 4.73787E-06-5.69885E-05
 -1      6762 1.56600E-04 4.01874E-06-5.80251E-05
 -1      6763 1.56335E-04 3.89815E-06-5.68437E-05
 -1      6764 1.65781E-04 7.23253E-06-5.37526E-05
 -1      6765 1.65105E-04 5.79597E-06-5.41635E-05
 -1      6766 1.65360E-04 5.28368E-06-5.36056E-05
 -1      6767 1.44120E-04 3.38233E-05-3.00611E-05
 -1      6768 1.48704E-04 2.66431E-05-2.95263E-05
 -1      6769 1.47833E-04 3.12367E-05-3.10309E-05
 -1      6770 1.47616E-04 2.07617E-05-3.12690E-05
 -1      6771 1.52581E-04 1.39589E-05-3.06052E-05
 -1      6772 1.48466E-04 1.75023E-05-2.97173E-05
 -1      6773 1.50955E-04 4.98637E-06-4.78957E-05
 -1      6774 1.63731E-04 2.92989E-05-1.10125E-05
 -1      6775 1.64065E-04 2.91501E-05-1.05607E-05
 -1      6776 9.32708E-05 3.70087E-06-1.81110E-05
 -1      6777 8.84516E-05 3.19401E-06-1.61354E-05
 -1      6778 9.40292E-05 3.83832E-06-1.60355E-05
 -1      6779 1.64417E-04 1.07589E-05-4.58647E-06
 -1      6780 1.64519E-04 1.13727E-05-4.19331E-06
 -1      6781 1.64519E-04 1.94362E-05-4.43633E-06
 -1      6782-2.78910E-04-2.32479E-05 3.54386E-06
 -1      6783-2.04430E-04-3.25602E-05 3.98097E-06
 -1      6784 1.60329E-04 2.37321E-06-2.40555E-05
 -1      6785 1.62437E-04 2.73535E-06-2.44499E-05
 -1      6786 1.53925E-04 6.61640E-06-2.48578E-05
 -1      6787 1.40024E-04 1.59351E-05-1.67304E-05
 -1      6788 1.36996E-04 2.29632E-05-1.51880E-05
 -1      6789 1.41366E-04 1.48224E-05-1.58592E-05
 -1      6790 1.07074E-04 4.13567E-06-4.93096E-05
 -1      6791 1.03713E-04 4.11669E-05-3.21666E-05
 -1      6792 1.01154E-04 5.93803E-05-2.93602E-05
 -1      6793 1.03926E-04 5.86744E-05-3.28196E-05
 -1      6794 1.09234E-04 4.44249E-05-3.07669E-05
 -1      6795 1.06583E-04 3.99879E-05-3.58438E-05
 -1      6796 7.12704E-05 3.68772E-06-8.79145E-06
 -1      6797 7.03011E-05 3.40841E-06-1.08248E-05
 -1      6798 6.47543E-05 2.08164E-06-8.71522E-06
 -1      6799 1.40349E-04 3.65022E-05-6.39855E-06
 -1      6800 1.46423E-04 2.79630E-05-5.93149E-06
 -1      6801 1.42322E-04 3.55267E-05-7.39539E-06
 -1      6802 1.38001E-04 2.30297E-05-7.34956E-06
 -1      6803 1.43974E-04 1.61762E-05-6.74977E-06
 -1      6804 1.41587E-04 1.78755E-05-5.80907E-06
 -1      6805-4.02965E-04 1.16634E-03 2.53075E-07
 -1      6806-5.13840E-04 1.25356E-03-1.13752E-06
 -1      6807-5.00955E-04 1.32718E-03-1.06394E-06
 -1      6808 1.51335E-04 1.77621E-05-6.31868E-06
 -1      6809 1.48815E-04 1.94586E-05-5.22274E-06
 -1      6810 1.45054E-04 1.18737E-05-6.18796E-06
 -1      6811 1.64222E-04 1.75545E-05-5.38755E-05
 -1      6812 1.64123E-04 1.82457E-05-5.33368E-05
 -1      6813 1.64998E-04 2.64937E-05-5.33899E-05
 -1      6814 1.30765E-04 4.66277E-05-3.86772E-05
 -1      6815 1.37537E-04 7.32540E-05-4.07981E-05
 -1      6816 1.29085E-04 7.33277E-05-3.85216E-05
 -1      6817 1.40354E-04 7.37009E-05-3.88881E-05
 -1      6818-4.24218E-04 9.93355E-04 2.42669E-07
 -1      6819-4.07745E-04 1.05175E-03 6.36409E-07
 -1      6820-2.82489E-04 1.10412E-03 3.90932E-07
 -1      6821-4.75885E-04 1.06556E-03 2.01772E-07
 -1      6822-3.01617E-04 1.04617E-03 4.18802E-08
 -1      6823 1.67764E-04 5.21603E-05-1.67909E-05
 -1      6824 1.66565E-04 4.66449E-05-1.69090E-05
 -1      6825 1.66656E-04 4.65217E-05-1.66694E-05
 -1      6826 6.33719E-05 5.42796E-04-1.99646E-06
 -1      6827 1.00057E-04 5.34968E-04-2.27637E-06
 -1      6828 2.69608E-05 5.70104E-04-3.41470E-06
 -1      6829 6.38825E-05 5.61420E-04-3.86529E-06
 -1      6830 6.68771E-05 5.12904E-04-6.53386E-06
 -1      6831 1.63833E-04 5.46578E-06-2.06018E-05
 -1      6832 1.62428E-04 4.32765E-06-2.07376E-05
 -1      6833 1.62848E-04 4.44068E-06-2.04368E-05
 -1      6834 1.60682E-04 7.76530E-06-1.30466E-05
 -1      6835 1.60661E-04 7.59488E-06-1.33820E-05
 -1      6836 1.65685E-04 4.36399E-06-1.32785E-05
 -1      6837 1.56005E-04 1.65062E-05-1.32562E-05
 -1      6838 1.65635E-04 4.39219E-06-1.29115E-05
 -1      6839 1.39609E-04 3.48904E-06-4.00972E-06
 -1      6840 1.40774E-04 3.59671E-06-4.71003E-06
 -1      6841 1.37751E-04 3.27321E-06-4.61942E-06
 -1      6842 1.65007E-04 1.56553E-05-1.89309E-05
 -1      6843 1.65593E-04 1.03936E-05-1.87860E-05
 -1      6844 1.65203E-04 1.58700E-05-1.86979E-05
 -1      6845 1.67982E-04 7.90550E-06-4.12460E-05
 -1      6846 1.67474E-04 1.29608E-05-4.09555E-05
 -1      6847 1.67591E-04 1.31969E-05-4.14194E-05
 -1      6848 1.55709E-04 3.92886E-06-4.02589E-05
 -1      6849 1.53603E-04 3.41609E-06-3.99555E-05
 -1      6850 1.55985E-04 3.92557E-06-3.93649E-05
 -1      6851 1.55831E-04 4.38310E-06-1.53440E-05
 -1      6852 1.56804E-04 4.66992E-06-1.48346E-05
 -1      6853 1.58073E-04 5.28899E-06-1.53075E-05
 -1      6854 1.47023E-04 2.97293E-06-7.08723E-05
 -1      6855 1.39683E-04 8.65409E-06-6.70493E-05
 -1      6856 1.46544E-04 2.90769E-06-6.90636E-05
 -1      6857 1.64192E-04 4.89679E-06-2.01252E-05
 -1      6858 1.65071E-04 5.45385E-06-1.99480E-05
 -1      6859 1.64826E-04 6.60522E-06-2.03391E-05
 -1      6860 1.41064E-04 4.56990E-06-8.22316E-06
 -1      6861 1.40114E-04 4.39087E-06-9.04234E-06
 -1      6862 1.38284E-04 4.11843E-06-8.23957E-06
 -1      6863 1.71913E-04 2.46509E-04-1.88406E-05
 -1      6864 1.74539E-04 2.62384E-04-1.65238E-05
 -1      6865 1.79864E-04 2.31678E-04-1.76697E-05
 -1      6866 1.82401E-04 2.47912E-04-1.53516E-05
 -1      6867 1.46822E-04 2.28430E-04-1.97338E-05
 -1      6868 1.36781E-04 3.79610E-05-2.72853E-05
 -1      6869 1.46039E-04 3.30748E-05-2.71974E-05
 -1      6870 1.47811E-04 4.74679E-05-2.83119E-05
 -1      6871 1.47956E-04 3.62819E-06-5.04966E-05
 -1      6872 1.46778E-04 3.49714E-06-4.96745E-05
 -1      6873 1.48940E-04 3.81344E-06-4.97110E-05
 -1      6874 1.54326E-04 6.17223E-06-5.42831E-05
 -1      6875 1.54051E-04 6.17273E-06-5.54019E-05
 -1      6876 1.51631E-04 1.16521E-05-5.38398E-05
 -1      6877 1.68469E-04 6.31331E-05-4.36365E-05
 -1      6878 1.66126E-04 5.20320E-05-4.36391E-05
 -1      6879 1.75152E-04 7.18289E-05-4.49193E-05
 -1      6880 1.73142E-04 6.15764E-05-4.48693E-05
 -1      6881 1.58400E-04 5.28816E-05-4.47195E-05
 -1      6882-9.02185E-05 9.22264E-05-1.34343E-05
 -1      6883-9.14893E-05 6.63597E-05-1.17600E-05
 -1      6884-1.53449E-04 1.19555E-04-7.08762E-06
 -1      6885-1.54240E-04 9.05097E-05-6.00536E-06
 -1      6886 6.67724E-05 2.49300E-06-1.09655E-05
 -1      6887-4.71200E-04 1.17889E-03-1.33511E-07
 -1      6888-2.80837E-04 1.10356E-03 2.12765E-06
 -1      6889 1.66657E-04 1.73862E-05-5.59662E-05
 -1      6890 1.66416E-04 9.63159E-06-5.64536E-05
 -1      6891 1.66156E-04 8.96373E-06-5.57650E-05
 -1      6892 1.60597E-04 1.63617E-05-7.06409E-05
 -1      6893 1.60692E-04 2.12691E-05-7.05251E-05
 -1      6894 1.60347E-04 1.59706E-05-7.14369E-05
 -1      6895 1.66285E-04 4.65949E-06-1.16425E-05
 -1      6896 1.64878E-04 3.77190E-06-1.15458E-05
 -1      6897 1.66350E-04 4.75787E-06-1.12858E-05
 -1      6898 1.69992E-04 6.14269E-05-6.33353E-05
 -1      6899 1.69557E-04 6.01734E-05-6.47189E-05
 -1      6900 1.68118E-04 5.29614E-05-6.49813E-05
 -1      6901 1.35428E-04 2.62572E-05-1.68281E-05
 -1      6902 1.38520E-04 4.06809E-05-1.56810E-05
 -1      6903 1.42070E-04 2.93485E-05-1.73408E-05
 -1      6904 1.44171E-04 3.09842E-05-2.23306E-05
 -1      6905 1.37635E-04 3.32998E-05-2.11498E-05
 -1      6906 1.35673E-04 4.24593E-05-2.20349E-05
 -1      6907 1.47085E-04 3.75461E-05-2.27559E-05
 -1      6908 1.40134E-04 3.83004E-05-2.15055E-05
 -1      6909 1.49499E-04 2.59227E-05-2.17824E-05
 -1      6910 1.16209E-04 2.69886E-05-2.21251E-05
 -1      6911 1.07915E-04 4.15370E-05-2.32400E-05
 -1      6912 1.14518E-04 3.05444E-05-2.62926E-05
 -1      6913 1.21358E-04 2.66298E-05-2.42719E-05
 -1      6914 1.12874E-04 4.27577E-05-2.54079E-05
 -1      6915 1.14627E-04 3.82724E-05-2.13074E-05
 -1      6916 1.74975E-04 1.05442E-04-3.26888E-05
 -1      6917 1.75977E-04 1.10216E-04-3.33355E-05
 -1      6918 1.74836E-04 1.18308E-04-3.04630E-05
 -1      6919 1.61328E-04 1.06713E-04-3.10397E-05
 -1      6920 1.73923E-04 1.13759E-04-2.98136E-05
 -1      6921 5.81811E-05 5.26145E-06-3.27910E-05
 -1      6922 6.15726E-05 3.43148E-06-2.67090E-05
 -1      6923 4.46501E-05 3.86553E-06-2.60781E-05
 -1      6924 5.09377E-05 1.15531E-05-3.52901E-05
 -1      6925 5.77891E-05 8.31674E-06-2.97860E-05
 -1      6926 7.15189E-05 9.28094E-06-3.67026E-05
 -1      6927 1.63516E-04 5.63181E-06-6.84586E-05
 -1      6928 1.64359E-04 7.08527E-06-6.85402E-05
 -1      6929 1.63675E-04 5.94381E-06-6.92318E-05
 -1      6930 1.56490E-04 3.68646E-06-3.72949E-06
 -1      6931 1.53784E-04 3.07094E-06-3.73784E-06
 -1      6932 1.55378E-04 3.39130E-06-3.29252E-06
 -1      6933 1.60980E-04 5.17136E-06-4.91535E-05
 -1      6934 1.04689E-04 2.51882E-06-1.79628E-05
 -1      6935 1.08857E-04 2.91752E-06-1.98684E-05
 -1      6936 1.01633E-04 8.96384E-06-2.07633E-05
 -1      6937 1.35623E-04 2.62675E-06-2.94493E-05
 -1      6938 1.38843E-04 2.89935E-06-3.02274E-05
 -1      6939 1.35076E-04 2.62197E-06-3.09571E-05
 -1      6940 5.24897E-05-1.11039E-06-1.06882E-05
 -1      6941 4.48803E-05-3.66825E-06-9.05086E-06
 -1      6942 3.95497E-05-3.29985E-06-1.10304E-05
 -1      6943 4.99780E-05-2.66951E-06-1.26117E-05
 -1      6944 1.57740E-04 3.16866E-04-2.01340E-05
 -1      6945 1.59508E-04 3.34974E-04-2.03260E-05
 -1      6946 1.64391E-04 3.98299E-04-1.53740E-05
 -1      6947 1.65569E-04 4.15928E-04-1.56222E-05
 -1      6948 1.10782E-04 3.79855E-04-1.57177E-05
 -1      6949-6.61999E-05 2.10922E-05-3.79383E-06
 -1      6950-3.81910E-05 4.51579E-05-3.28998E-06
 -1      6951 1.52777E-04 2.69913E-05-6.26437E-06
 -1      6952 1.49860E-04 2.77766E-05-5.41855E-06
 -1      6953 1.49458E-04 4.07916E-05-5.97860E-06
 -1      6954 1.57285E-04 4.34366E-05-6.40878E-06
 -1      6955 1.52516E-04 4.07641E-05-6.90290E-06
 -1      6956 1.14797E-04 2.78563E-05-1.58431E-05
 -1      6957 1.21045E-04 2.76542E-05-1.77695E-05
 -1      6958 1.25979E-04 1.86124E-05-1.43024E-05
 -1      6959 1.21055E-04 2.50678E-05-1.28095E-05
 -1      6960 1.27673E-04 2.48875E-05-1.48454E-05
 -1      6961 1.15640E-04 3.52985E-05-1.62253E-05
 -1      6962 1.33449E-04 3.23601E-06-5.88253E-05
 -1      6963 1.33117E-04 3.17931E-06-5.65565E-05
 -1      6964 1.36560E-04 3.64470E-06-5.78454E-05
 -1      6965 1.48989E-04 3.85558E-06-4.45929E-05
 -1      6966 1.49184E-04 3.90713E-06-4.54992E-05
 -1      6967 1.54629E-04 2.43794E-06-4.55199E-05
 -1      6968 1.54911E-04 2.53961E-06-4.64221E-05
 -1      6969 1.49048E-04 7.34895E-06-4.49766E-05
 -1      6970 7.53515E-05 9.80775E-07-2.44975E-06
 -1      6971 6.83682E-05 6.60378E-07-2.20831E-06
 -1      6972 1.52413E-04 5.87496E-06-1.40429E-05
 -1      6973 1.51590E-04 5.51621E-06-1.45037E-05
 -1      6974 1.50501E-04 5.28269E-06-1.40499E-05
 -1      6975 1.33639E-04 3.48123E-06-7.45797E-06
 -1      6976 1.31232E-04 3.19150E-06-7.40899E-06
 -1      6977 1.32220E-04 3.35799E-06-6.67540E-06
 -1      6978 1.09941E-04 3.85371E-06-4.46108E-05
 -1      6979 1.08614E-04 8.33854E-06-4.64385E-05
 -1      6980 1.18474E-04 2.55618E-06-4.73926E-05
 -1      6981 1.18070E-04 7.48973E-06-4.93654E-05
 -1      6982 1.10043E-04 7.14519E-06-4.31076E-05
 -1      6983 1.49900E-04 3.27724E-05-5.36678E-05
 -1      6984 1.52784E-04 3.00818E-05-5.27359E-05
 -1      6985 1.53394E-04 2.13433E-05-5.26276E-05
 -1      6986 1.48630E-04 5.50963E-05-2.12073E-05
 -1      6987 1.53526E-04 3.16209E-05-2.14867E-05
 -1      6988 6.69858E-05 2.69386E-06-6.56023E-06
 -1      6989 1.65580E-04 3.51270E-06-6.30276E-05
 -1      6990 1.66966E-04 3.94569E-06-6.29130E-05
 -1      6991 1.65381E-04 3.84993E-06-6.37751E-05
 -1      6992-2.99903E-04-1.32857E-04 1.73679E-06
 -1      6993-2.99501E-04-1.31998E-04 4.75673E-06
 -1      6994-2.15443E-04-9.57215E-05 4.70283E-06
 -1      6995 1.50895E-04 1.48531E-05-4.11273E-05
 -1      6996 1.46764E-04 2.31691E-05-3.95022E-05
 -1      6997 1.45120E-04 1.21015E-05-4.01890E-05
 -1      6998-3.83690E-04 1.19132E-03-2.44624E-08
 -1      6999-2.62665E-04 1.13063E-03 1.78185E-07
 -1      7000-4.72463E-04 1.17957E-03 8.52997E-09
 -1      7001 1.65768E-04 5.79590E-06-1.44705E-05
 -1      7002 1.64999E-04 4.63544E-06-1.43141E-05
 -1      7003 1.65773E-04 5.72360E-06-1.41064E-05
 -1      7004 1.62966E-04 3.01163E-05-1.39621E-05
 -1      7005 1.62527E-04 2.97845E-05-1.44282E-05
 -1      7006 1.61588E-04 2.03032E-05-1.42415E-05
 -1      7007-8.17542E-05 4.15066E-04-4.73662E-06
 -1      7008-1.06239E-04 4.54271E-04-2.29869E-06
 -1      7009-1.43466E-04 4.48690E-04-4.05105E-06
 -1      7010 1.68618E-04 4.65374E-05-3.39235E-06
 -1      7011 1.66806E-04 3.71159E-05-3.56455E-06
 -1      7012 1.66603E-04 3.77886E-05-3.33806E-06
 -1      7013 1.64122E-04 8.39184E-06-9.47041E-06
 -1      7014 1.45964E-04 1.12253E-05-5.11271E-05
 -1      7015 1.50215E-04 1.25476E-05-5.06932E-05
 -1      7016 1.47605E-04 7.18041E-06-5.05281E-05
 -1      7017 1.46013E-04 1.03802E-05-4.94683E-05
 -1      7018 1.50324E-04 1.12072E-05-4.89896E-05
 -1      7019 1.47030E-04 1.78589E-05-4.95349E-05
 -1      7020 1.39558E-04 3.27100E-05-2.53691E-05
 -1      7021 1.49222E-04 2.65627E-05-2.53128E-05
 -1      7022 1.48756E-04 2.24239E-05-2.65187E-05
 -1      7023 1.50907E-04 1.49954E-05-2.58999E-05
 -1      7024 1.39316E-04 2.94080E-05-2.66742E-05
 -1      7025 2.21684E-05-8.22758E-06-3.39153E-06
 -1      7026 3.66691E-05-3.32716E-06-1.47963E-06
 -1      7027 3.77884E-05-3.86119E-06-2.81555E-06
 -1      7028 1.43354E-04 1.37134E-05-7.59370E-06
 -1      7029 1.48827E-04 2.07391E-05-7.81115E-06
 -1      7030 1.51016E-04 1.04758E-05-7.99484E-06
 -1      7031 1.51810E-04 1.34028E-05-7.16987E-06
 -1      7032 1.44477E-04 1.01675E-05-7.00303E-06
 -1      7033 1.65742E-04 8.62524E-05-6.82241E-06
 -1      7034 1.68221E-04 9.77212E-05-6.91727E-06
 -1      7035 1.66529E-04 8.94903E-05-7.51106E-06
 -1      7036 1.37540E-04 1.72862E-05-4.87598E-05
 -1      7037 1.37678E-04 2.60852E-05-4.88193E-05
 -1      7038 1.37917E-04 2.44189E-05-4.72939E-05
 -1      7039 1.36973E-04 4.08711E-06-6.57006E-05
 -1      7040 1.34470E-04 3.60663E-06-6.63953E-05
 -1      7041 1.34337E-04 3.66090E-06-6.44539E-05
 -1      7042 1.59688E-04 6.24521E-06-1.33033E-05
 -1      7043 4.99396E-05 7.49456E-05-3.91030E-05
 -1      7044 4.85534E-05 1.04441E-04-3.37721E-05
 -1      7045 4.54172E-05 7.45852E-05-3.23434E-05
 -1      7046 6.80734E-06 9.59596E-05-2.77711E-05
 -1      7047 4.73814E-06 1.23393E-04-2.38404E-05
 -1      7048 8.98499E-06 1.24946E-04-2.88222E-05
 -1      7049 1.60947E-04 6.04293E-06-5.74229E-06
 -1      7050 1.60467E-04 5.32438E-06-5.61303E-06
 -1      7051 1.61198E-04 6.14988E-06-5.49244E-06
 -1      7052 1.60978E-04 2.27877E-05-7.12316E-05
 -1      7053 1.33796E-04 3.50200E-06-5.90940E-06
 -1      7054 1.36613E-04 3.82373E-06-5.97643E-06
 -1      7055 1.35228E-04 3.67490E-06-6.66800E-06
 -1      7056-7.76694E-05 1.97324E-04-8.73484E-06
 -1      7057-1.44400E-04 2.28266E-04-4.80328E-06
 -1      7058-1.26081E-04 2.63408E-04-6.57142E-06
 -1      7059-6.23225E-05 2.85733E-04-7.92409E-06
 -1      7060-8.29949E-05 2.46727E-04-6.04512E-06
 -1      7061 1.61500E-04 3.03778E-06-4.80552E-05
 -1      7062 1.63225E-04 3.59808E-06-4.78887E-05
 -1      7063 1.57130E-04 1.13306E-05-4.81635E-05
 -1      7064 1.65591E-04 6.33596E-06-2.11746E-05
 -1      7065 1.66135E-04 5.61787E-06-2.16811E-05
 -1      7066 1.64707E-04 4.37905E-06-2.14250E-05
 -1      7067 1.46791E-04 3.52425E-06-4.52673E-05
 -1      7068 1.06025E-04 5.55337E-05-2.46693E-05
 -1      7069 1.12473E-04 5.38122E-05-2.27177E-05
 -1      7070-2.90370E-04 1.26881E-03-4.48409E-07
 -1      7071-1.96667E-04 4.42993E-04-1.42647E-06
 -1      7072-1.02395E-04 3.42039E-05-2.88297E-06
 -1      7073-1.64175E-04 5.16627E-05-1.24921E-06
 -1      7074-1.33557E-04 7.14078E-05-5.06974E-06
 -1      7075-1.40579E-04 3.29521E-05-2.81630E-06
 -1      7076 1.56247E-04 3.33086E-06-4.89264E-05
 -1      7077 1.55742E-04 3.29460E-06-4.97714E-05
 -1      7078 1.54216E-04 2.96413E-06-4.93811E-05
 -1      7079 1.65096E-04 2.70312E-05-5.38106E-05
 -1      7080 1.64168E-04 1.88751E-05-5.44031E-05
 -1      7081 1.61496E-04 8.69902E-06-3.10108E-06
 -1      7082 1.61905E-04 1.09283E-05-3.27313E-06
 -1      7083 1.61578E-04 7.93722E-06-3.67338E-06
 -1      7084 2.40403E-05 2.38935E-05-1.38533E-05
 -1      7085 1.80740E-05 3.53389E-05-1.12710E-05
 -1      7086 4.58118E-05 4.15021E-05-1.58882E-05
 -1      7087 5.80561E-05 2.66213E-05-1.40552E-05
 -1      7088 5.24932E-05 4.00844E-05-1.04209E-05
 -1      7089 3.00532E-05 2.33984E-05-9.58067E-06
 -1      7090 1.65344E-04 1.02457E-05-1.51316E-05
 -1      7091 1.65039E-04 1.72825E-05-1.50854E-05
 -1      7092 1.64988E-04 9.67915E-06-1.52270E-05
 -1      7093 2.84857E-05-9.22035E-06-1.28228E-06
 -1      7094 2.48705E-05-1.13737E-05 1.40660E-06
 -1      7095 2.55740E-05-1.00928E-05-2.20015E-07
 -1      7096 1.47438E-04 3.57201E-05-1.09207E-05
 -1      7097 1.37675E-04 4.35793E-05-1.06925E-05
 -1      7098 1.36296E-04 4.34956E-05-1.14897E-05
 -1      7099 1.49480E-04 5.30926E-05-1.16576E-05
 -1      7100 1.39025E-04 5.72931E-05-1.12219E-05
 -1      7101 1.51450E-04 5.39839E-05-1.05281E-05
 -1      7102 1.65342E-04 5.18844E-06-4.82903E-05
 -1      7103 1.65876E-04 5.74695E-06-4.76166E-05
 -1      7104 1.66363E-04 6.96594E-06-4.78085E-05
 -1      7105-4.07559E-05 1.94407E-05-7.89527E-06
 -1      7106-2.67713E-05 2.09588E-05-3.67665E-06
 -1      7107-1.25600E-05 4.08653E-05-9.10272E-06
 -1      7108 1.64593E-04 4.01040E-05-1.42464E-05
 -1      7109 1.65390E-04 8.07816E-06-1.67551E-05
 -1      7110 1.65397E-04 1.75919E-05-1.68884E-05
 -1      7111 1.65536E-04 8.71364E-06-1.69700E-05
 -1      7112 1.64242E-04 8.44868E-05-1.26400E-05
 -1      7113 1.66047E-04 9.23020E-05-1.28631E-05
 -1      7114 1.64420E-04 8.51075E-05-1.33805E-05
 -1      7115 1.31499E-04 6.05437E-05-4.81375E-05
 -1      7116 1.30701E-04 4.37784E-05-4.80072E-05
 -1      7117 1.31489E-04 5.29276E-05-4.62255E-05
 -1      7118 1.42404E-04 4.42467E-05-4.66876E-05
 -1      7119 1.44766E-04 6.64762E-05-4.67423E-05
 -1      7120 8.36541E-05 2.55688E-06-1.39205E-05
 -1      7121 8.96797E-05 3.41159E-06-1.38126E-05
 -1      7122 1.18842E-04 9.00460E-06-2.71363E-05
 -1      7123 1.18499E-04 1.14193E-05-2.43040E-05
 -1      7124 1.23365E-04 1.41259E-05-2.80821E-05
 -1      7125 1.25071E-04 8.05872E-06-2.77923E-05
 -1      7126 1.24860E-04 1.08100E-05-2.48731E-05
 -1      7127 1.19125E-04 6.82126E-06-2.39410E-05
 -1      7128 1.18147E-04 3.55177E-06-5.55080E-05
 -1      7129 1.21390E-04 4.05681E-06-5.50762E-05
 -1      7130-2.24423E-04 1.20204E-03 1.36025E-06
 -1      7131 6.17407E-05 7.48339E-06-2.69890E-05
 -1      7132 5.81912E-05 4.64353E-06-2.04058E-05
 -1      7133 7.24588E-05 9.66592E-06-2.47943E-05
 -1      7134 7.52838E-05 7.09826E-06-2.90034E-05
 -1      7135 7.06914E-05 4.57441E-06-2.17350E-05
 -1      7136 6.11251E-05 2.99525E-06-2.33593E-05
 -1      7137 1.59727E-04 1.18657E-04-3.37059E-05
 -1      7138 1.72280E-04 1.29389E-04-3.30586E-05
 -1      7139 1.59228E-04 1.26303E-04-3.08870E-05
 -1      7140 7.08409E-05 1.45644E-06-1.73074E-05
 -1      7141 5.50549E-05 3.30551E-06-1.23721E-05
 -1      7142 5.79835E-05 8.81767E-09-1.16143E-05
 -1      7143 7.10004E-05 7.71149E-07-2.04219E-05
 -1      7144 5.70330E-05 2.08927E-06-1.53093E-05
 -1      7145-6.63873E-05 3.70047E-05-1.25013E-05
 -1      7146-3.44765E-05 2.48350E-05-1.23273E-05
 -1      7147 1.70453E-04 5.88827E-05-3.83237E-05
 -1      7148 1.71862E-04 6.51319E-05-3.85893E-05
 -1      7149 1.74009E-04 7.70848E-05-3.68431E-05
 -1      7150 1.61432E-04 6.43200E-05-3.71346E-05
 -1      7151 1.72799E-04 7.15908E-05-3.65909E-05
 -1      7152-5.77578E-05 1.85988E-06-7.28588E-06
 -1      7153-3.24825E-05 9.70329E-07-6.88868E-06
 -1      7154-1.36371E-05-9.38910E-06-7.52259E-06
 -1      7155-8.43024E-05-2.10708E-05-3.24989E-07
 -1      7156-5.88249E-05-1.96597E-05-1.23012E-06
 -1      7157-1.06155E-04-8.22726E-06-1.23439E-06
 -1      7158 1.55268E-04 3.18708E-06-5.06821E-05
 -1      7159 1.54976E-04 3.07192E-06-5.17550E-05
 -1      7160 1.52429E-04 2.70602E-06-5.12762E-05
 -1      7161 1.62669E-04 4.29888E-05-3.70855E-05
 -1      7162 1.64663E-04 5.12148E-05-3.71911E-05
 -1      7163 1.62463E-04 4.06244E-05-3.75742E-05
 -1      7164-2.36518E-04 4.00532E-04-3.54412E-07
 -1      7165-2.38024E-04 3.70344E-04-6.42575E-07
 -1      7166-2.33264E-04 4.30128E-04-1.04756E-06
 -1      7167 5.43161E-06-1.77414E-05-1.46388E-06
 -1      7168-2.97386E-05-3.31500E-05 3.21111E-06
 -1      7169-3.49432E-05-1.87676E-05-2.75173E-06
 -1      7170-1.07592E-04-3.45676E-05 2.81273E-06
 -1      7171-5.23724E-05-3.72448E-05 2.32281E-06
 -1      7172 1.62040E-04 1.04752E-05-3.62440E-06
 -1      7173 1.37996E-04 3.28228E-06-2.74277E-05
 -1      7174 1.34847E-04 2.91567E-06-2.66808E-05
 -1      7175 1.36332E-04 6.86282E-06-2.81718E-05
 -1      7176 3.83135E-05 1.04655E-04-4.10050E-05
 -1      7177 3.69788E-05 7.58824E-05-3.99049E-05
 -1      7178 6.24813E-06 8.53487E-05-3.25681E-05
 -1      7179 1.70044E-05 6.27990E-05-2.98225E-05
 -1      7180 1.89749E-05 8.49167E-05-3.22990E-05
 -1      7181 1.72497E-04 8.18943E-05-5.24293E-05
 -1      7182 1.70826E-04 7.32439E-05-5.21755E-05
 -1      7183 1.73154E-04 8.43825E-05-5.07244E-05
 -1      7184 1.36709E-04 4.02112E-06-6.36426E-05
 -1      7185 1.66020E-04 6.86388E-06-5.32061E-05
 -1      7186 1.71357E-04 6.28870E-05-5.58064E-05
 -1      7187 1.64149E-04 1.65123E-05-5.81001E-06
 -1      7188 1.64453E-04 1.69343E-05-6.02437E-06
 -1      7189 1.64741E-04 1.05287E-05-5.97314E-06
 -1      7190 1.23845E-04 1.16446E-05-5.33218E-05
 -1      7191 1.21614E-04 8.51626E-06-5.21432E-05
 -1      7192 1.29704E-04 1.12768E-05-5.16834E-05
 -1      7193 1.32960E-04 1.19123E-05-5.49342E-05
 -1      7194 1.30615E-04 7.94062E-06-5.40304E-05
 -1      7195 1.24783E-04 8.67778E-06-5.55083E-05
 -1      7196-6.30444E-05 5.02462E-06-2.86518E-06
 -1      7197-2.03439E-05-7.22206E-06-2.92703E-06
 -1      7198-8.96361E-05-1.91531E-05-3.21137E-07
 -1      7199 1.63938E-04 4.98288E-06-6.24326E-06
 -1      7200 1.64230E-04 5.04201E-06-6.53429E-06
 -1      7201 1.62455E-04 3.87868E-06-6.49949E-06
 -1      7202 1.62553E-04 1.00352E-05-7.46419E-05
 -1      7203 1.63006E-04 1.05077E-05-7.36681E-05
 -1      7204 1.63077E-04 1.74430E-05-7.33922E-05
 -1      7205 1.07859E-04 4.00813E-06-5.17459E-05
 -1      7206 1.08684E-04 3.88825E-06-5.40645E-05
 -1      7207 1.12073E-04 2.30814E-06-5.50965E-05
 -1      7208 1.13096E-04 2.19966E-06-5.75328E-05
 -1      7209 1.07021E-04 7.58687E-06-5.44666E-05
 -1      7210 1.66464E-04 1.00414E-04-1.79347E-05
 -1      7211 1.54934E-04 8.96399E-05-1.81742E-05
 -1      7212 1.70363E-04 7.17102E-05-1.84296E-05
 -1      7213 1.73464E-04 7.76472E-05-1.91493E-05
 -1      7214 1.59158E-04 6.41309E-05-1.94144E-05
 -1      7215 1.57459E-04 9.44771E-05-1.89066E-05
 -1      7216 1.34034E-04 1.67062E-05-5.58440E-05
 -1      7217 1.25723E-04 1.74373E-05-6.02823E-05
 -1      7218 1.22654E-04 1.76811E-05-5.63229E-05
 -1      7219 1.24762E-04 1.33570E-05-5.89636E-05
 -1      7220 1.36467E-04 1.13134E-05-5.88332E-05
 -1      7221 1.50728E-04 2.50446E-06-7.34452E-06
 -1      7222 1.52724E-04 2.78748E-06-6.64481E-06
 -1      7223 1.53870E-04 2.95114E-06-7.28915E-06
 -1      7224 1.51603E-04 4.35678E-06-1.94518E-05
 -1      7225 1.48741E-04 3.64579E-06-1.98276E-05
 -1      7226 1.49385E-04 3.72227E-06-1.89303E-05
 -1      7227 1.33193E-04 7.67256E-06-4.31842E-05
 -1      7228 1.31935E-04 1.18944E-05-4.55218E-05
 -1      7229 1.30169E-04 1.25321E-05-4.22922E-05
 -1      7230 1.27723E-04 6.45771E-06-4.04123E-05
 -1      7231 1.27258E-04 9.73088E-06-4.26976E-05
 -1      7232 1.29128E-04 5.90025E-06-4.35103E-05
 -1      7233 1.63122E-04 2.61278E-05-2.76315E-05
 -1      7234 1.62909E-04 2.50662E-05-2.73410E-05
 -1      7235 1.64312E-04 3.49961E-05-2.73405E-05
 -1      7236 1.69762E-04 6.75881E-05-1.47542E-05
 -1      7237 1.69522E-04 6.67669E-05-1.41671E-05
 -1      7238 1.71742E-04 7.76688E-05-1.43591E-05
 -1      7239 1.68911E-04 3.30183E-05-4.24361E-05
 -1      7240 1.67288E-04 2.35039E-05-4.23053E-05
 -1      7241 1.69576E-04 3.30621E-05-4.19777E-05
 -1      7242 1.46078E-04 3.74401E-05-5.76615E-05
 -1      7243 1.42423E-04 3.92149E-05-5.46720E-05
 -1      7244 1.44930E-04 4.43551E-05-5.53025E-05
 -1      7245 1.54231E-04 4.07306E-05-5.60015E-05
 -1      7246 1.48831E-04 4.31941E-05-5.83160E-05
 -1      7247 1.45059E-04 4.23125E-05-4.22443E-05
 -1      7248 1.47998E-04 4.14737E-05-4.00666E-05
 -1      7249 1.46879E-04 6.09409E-05-4.00031E-05
 -1      7250 1.55517E-04 6.42753E-05-4.09417E-05
 -1      7251 1.43861E-04 6.08865E-05-4.19767E-05
 -1      7252 1.60310E-04 5.71154E-06-5.62978E-05
 -1      7253 1.56119E-04 1.12167E-05-5.53694E-05
 -1      7254 6.56162E-06-1.47169E-05-5.33243E-06
 -1      7255 6.88752E-06-2.33495E-05 2.12419E-06
 -1      7256 1.65362E-04 7.96192E-06-3.80765E-05
 -1      7257 1.65875E-04 7.51184E-06-3.85554E-05
 -1      7258 1.64979E-04 6.00321E-06-3.83760E-05
 -1      7259 1.26738E-04 1.56486E-04-3.04801E-06
 -1      7260 1.37705E-04 1.50950E-04-5.99669E-06
 -1      7261 1.23429E-04 1.21869E-04-3.03858E-06
 -1      7262 1.33734E-04 1.42450E-04-2.20778E-06
 -1      7263 1.45524E-04 1.36624E-04-5.34209E-06
 -1      7264 1.48798E-04 1.70670E-04-5.05137E-06
 -1      7265 1.46850E-04 1.16946E-04-2.72394E-05
 -1      7266 1.39449E-04 1.18253E-04-2.48865E-05
 -1      7267 1.34126E-04 9.31285E-05-2.50359E-05
 -1      7268 1.23519E-04 8.58349E-05-2.71190E-05
 -1      7269 1.17720E-04 8.89978E-05-2.45383E-05
 -1      7270 1.27555E-04 1.10223E-04-2.67831E-05
 -1      7271 1.65581E-04 5.48075E-06-4.15505E-05
 -1      7272 1.65587E-04 5.31762E-06-4.20595E-05
 -1      7273 1.64613E-04 4.36401E-06-4.19478E-05
 -1      7274 9.46016E-05 2.92788E-06-2.52827E-05
 -1      7275 9.83874E-05 3.33380E-06-2.74451E-05
 -1      7276 9.41290E-05 2.92007E-06-2.73774E-05
 -1      7277 1.14540E-05 1.56389E-04-3.15274E-05
 -1      7278 3.20732E-05 1.56264E-04-3.44422E-05
 -1      7279 1.55589E-05 1.28661E-04-3.53155E-05
 -1      7280 3.54730E-05 1.26700E-04-3.88897E-05
 -1      7281 4.88087E-05 1.34987E-04-3.56400E-05
 -1      7282 1.63576E-04 5.17454E-06-1.97508E-05
 -1      7283 1.62363E-04 4.44934E-06-1.96709E-05
 -1      7284 1.63615E-04 5.44871E-06-1.95004E-05
 -1      7285 1.18306E-04 2.27500E-06-2.84743E-05
 -1      7286 1.17600E-04 2.25104E-06-3.07505E-05
 -1      7287 1.13941E-04 6.65450E-06-3.17605E-05
 -1      7288 1.56993E-04 4.24618E-06-1.28602E-05
 -1      7289 1.55840E-04 3.86717E-06-1.32810E-05
 -1      7290 1.61527E-04 3.40399E-06-1.37744E-05
 -1      7291 1.60154E-04 2.98460E-06-1.42476E-05
 -1      7292 1.54823E-04 8.73497E-06-1.34550E-05
 -1      7293 1.51946E-04 2.00157E-05-5.64544E-05
 -1      7294 1.50991E-04 2.00308E-05-5.46408E-05
 -1      7295 8.52464E-05 3.70900E-06-2.03420E-05
 -1      7296 8.08596E-05 3.00655E-06-2.03555E-05
 -1      7297 8.09496E-05 3.06534E-06-1.82163E-05
 -1      7298-3.54740E-04 2.58733E-05 2.86470E-06
 -1      7299-3.67356E-04 7.42570E-05 3.46305E-06
 -1      7300-3.06794E-04 1.70182E-05 4.29782E-06
 -1      7301-3.16983E-04 6.30137E-05 4.82750E-06
 -1      7302-2.58213E-04 6.03475E-05 1.08603E-06
 -1      7303 6.76786E-05 3.44806E-04-1.94001E-05
 -1      7304 9.11587E-05 3.14005E-04-2.24187E-05
 -1      7305 1.70971E-05 3.30193E-04-1.80782E-05
 -1      7306 3.93343E-05 2.98660E-04-2.12973E-05
 -1      7307 4.98936E-05 2.82628E-04-1.96889E-05
 -1      7308-3.67484E-04 6.98585E-05 1.07188E-05
 -1      7309-3.54875E-04 2.27522E-05 8.82602E-06
 -1      7310-2.57458E-04 5.60364E-05 3.61584E-06
 -1      7311 1.48023E-04 9.19306E-05-3.95595E-05
 -1      7312 1.66595E-04 1.40384E-05-3.68402E-05
 -1      7313 1.66917E-04 8.68858E-06-3.66021E-05
 -1      7314 1.66817E-04 1.43714E-05-3.64594E-05
 -1      7315 1.61608E-04 3.52629E-06-1.47063E-05
 -1      7316 1.54669E-04 1.08757E-05-1.48921E-05
 -1      7317 1.40957E-04 7.38523E-06-4.37847E-06
 -1      7318 1.46486E-04 2.88703E-06-5.49281E-06
 -1      7319 1.44822E-04 2.18525E-06-4.84946E-06
 -1      7320 1.45708E-04 5.93754E-06-4.53220E-06
 -1      7321 1.40156E-04 6.24138E-06-3.70174E-06
 -1      7322 6.88993E-05 6.40704E-06-3.75391E-05
 -1      7323 6.22509E-05 1.31118E-05-4.01800E-05
 -1      7324 1.64155E-04 4.54321E-05-8.53540E-06
 -1      7325 1.63441E-04 4.22453E-05-8.20087E-06
 -1      7326 1.65087E-04 5.01300E-05-8.12250E-06
 -1      7327 1.42683E-04 4.01838E-05-1.65910E-05
 -1      7328 1.68193E-04 3.65487E-06-5.15308E-05
 -1      7329 1.68467E-04 3.40721E-06-5.20476E-05
 -1      7330 1.66808E-04 2.78936E-06-5.18445E-05
 -1      7331 1.72141E-04 5.42168E-05-1.13147E-05
 -1      7332 1.70105E-04 4.43852E-05-1.13807E-05
 -1      7333 1.58210E-04 3.60557E-05-1.15001E-05
 -1      7334 1.57915E-04 3.19979E-06-1.02367E-05
 -1      7335 1.59466E-04 3.61850E-06-1.00028E-05
 -1      7336 1.59478E-04 3.56711E-06-1.03224E-05
 -1      7337 1.68051E-04 2.81869E-05-2.55520E-05
 -1      7338 1.69477E-04 3.71464E-05-2.56722E-05
 -1      7339 1.67705E-04 2.75060E-05-2.59179E-05
 -1      7340 1.61534E-04 2.03293E-05-1.45534E-05
 -1      7341 1.66365E-04 2.76199E-05-1.18772E-05
 -1      7342 1.68022E-04 3.72404E-05-1.17948E-05
 -1      7343 1.66675E-04 2.82406E-05-1.21057E-05
 -1      7344 1.14608E-04 2.96487E-06-5.57901E-06
 -1      7345 1.42536E-04 3.65466E-05-3.33209E-05
 -1      7346 1.33690E-04 4.32475E-05-3.15168E-05
 -1      7347 1.32915E-04 4.21318E-05-3.32122E-05
 -1      7348 1.43432E-04 5.71463E-05-3.38502E-05
 -1      7349 1.34397E-04 6.10854E-05-3.19613E-05
 -1      7350 1.44732E-04 6.00742E-05-3.20517E-05
 -1      7351 1.67531E-04 4.27968E-06-3.55950E-05
 -1      7352 1.66213E-04 3.38370E-06-3.60220E-05
 -1      7353 1.65999E-04 3.49849E-06-3.54482E-05
 -1      7354 1.48163E-04 3.07123E-06-8.10269E-06
 -1      7355 1.46910E-04 2.95243E-06-8.89125E-06
 -1      7356 1.39563E-04 8.26017E-06-9.11621E-06
 -1      7357 1.38747E-04 3.88367E-05-4.58323E-05
 -1      7358 1.42777E-04 3.53596E-05-4.47701E-05
 -1      7359 1.45696E-04 2.94102E-05-4.73802E-05
 -1      7360 1.44418E-04 2.40590E-05-4.82907E-05
 -1      7361 1.48880E-04 1.96866E-05-4.70486E-05
 -1      7362 1.41565E-04 2.94938E-05-4.55770E-05
 -1      7363 1.38665E-04 3.35251E-05-6.97601E-05
 -1      7364 1.38537E-04 1.90046E-05-7.70320E-05
 -1      7365 1.33167E-04 2.58998E-05-7.27686E-05
 -1      7366 1.36191E-04 2.22606E-05-7.01459E-05
 -1      7367 1.36191E-04 1.36205E-05-7.59318E-05
 -1      7368 1.41973E-04 1.58514E-05-7.41910E-05
 -1      7369 1.49953E-04 1.72418E-05-3.42804E-05
 -1      7370 1.45689E-04 2.21533E-05-3.30520E-05
 -1      7371 1.47551E-04 3.38360E-05-3.26390E-05
 -1      7372 1.52817E-04 2.07395E-05-3.31335E-05
 -1      7373 1.48101E-04 2.58700E-05-3.19984E-05
 -1      7374 1.50428E-04 1.30590E-05-3.35216E-05
 -1      7375 1.48758E-04 1.04789E-04-2.61761E-05
 -1      7376 1.54630E-04 1.29693E-04-2.58690E-05
 -1      7377 1.40935E-04 1.06431E-04-2.37834E-05
 -1      7378-2.44841E-04 4.65520E-04-2.67741E-07
 -1      7379 1.65585E-04 1.89756E-05-1.01795E-05
 -1      7380 1.37827E-04 5.37855E-04-6.34803E-06
 -1      7381 1.37636E-04 5.85572E-04-3.52067E-06
 -1      7382 1.02253E-04 5.62218E-04-7.56587E-06
 -1      7383 1.55310E-04 2.56618E-06-4.71811E-05
 -1      7384 1.57482E-04 2.87381E-06-4.67517E-05
 -1      7385 1.62300E-04 1.77518E-05-2.76163E-05
 -1      7386-4.12489E-04 8.07363E-04 5.93097E-07
 -1      7387-4.26339E-04 8.67315E-04 5.90963E-07
 -1      7388-3.17901E-04 7.87842E-04-1.32337E-06
 -1      7389-4.68812E-04 7.02202E-04 3.26540E-06
 -1      7390-3.07958E-04 7.28784E-04-1.95253E-06
 -1      7391 1.57874E-04 2.98436E-06-2.16090E-05
 -1      7392 1.58301E-04 2.91845E-06-2.09499E-05
 -1      7393 1.60108E-04 3.48789E-06-2.12494E-05
 -1      7394 1.25311E-04 4.92215E-05-5.56819E-05
 -1      7395 1.36702E-04 2.70797E-05-5.69803E-05
 -1      7396 1.26683E-04 3.44592E-05-5.87521E-05
 -1      7397 1.23065E-04 4.36180E-05-5.45119E-05
 -1      7398 1.33997E-04 2.39482E-05-5.55111E-05
 -1      7399 1.32646E-04 3.75409E-05-5.27815E-05
 -1      7400-1.49517E-04 2.95295E-04-2.56950E-06
 -1      7401-1.00159E-04 2.28783E-04-2.81813E-06
 -1      7402-8.47579E-05 3.18925E-04-2.50055E-06
 -1      7403 1.35789E-04 8.11516E-05-4.30886E-05
 -1      7404 1.34559E-04 7.56764E-05-4.56295E-05
 -1      7405 1.47524E-04 8.16337E-05-4.58579E-05
 -1      7406 1.53858E-04 1.06918E-04-4.26841E-05
 -1      7407 1.51926E-04 1.01415E-04-4.50707E-05
 -1      7408 1.39483E-04 1.00037E-04-4.25434E-05
 -1      7409 1.65602E-04 7.44111E-06-1.52538E-05
 -1      7410 1.33595E-04 4.00716E-06-1.34528E-05
 -1      7411 1.32381E-04 3.85413E-06-1.43517E-05
 -1      7412 1.38769E-04 2.99291E-06-1.25669E-05
 -1      7413 1.37400E-04 2.86397E-06-1.34713E-05
 -1      7414 1.32964E-04 7.87559E-06-1.40038E-05
 -1      7415 1.62994E-04 4.24114E-06-1.86911E-05
 -1      7416 1.60828E-04 3.14821E-06-1.85827E-05
 -1      7417 1.60205E-04 3.41266E-06-1.95975E-05
 -1      7418 1.57855E-04 1.01982E-05-1.91494E-05
 -1      7419 1.62814E-04 1.31212E-05-2.09026E-05
 -1      7420 1.62412E-04 1.83355E-05-2.08945E-05
 -1      7421 1.62434E-04 1.83911E-05-2.09444E-05
 -1      7422 1.49137E-04 2.83637E-06-2.52730E-05
 -1      7423 1.48598E-04 8.02256E-06-2.46149E-05
 -1      7424 1.51303E-04 3.18670E-06-2.50770E-05
 -1      7425 1.66545E-04 1.34600E-05-4.92862E-05
 -1      7426 1.67163E-04 8.10248E-06-4.95474E-05
 -1      7427 1.66984E-04 8.35766E-06-4.91637E-05
 -1      7428 8.96585E-05 2.41527E-06-2.52919E-05
 -1      7429 1.46704E-04 3.23436E-06-1.48657E-05
 -1      7430 1.49279E-04 3.65093E-06-1.49738E-05
 -1      7431 1.48022E-04 3.48843E-06-1.54574E-05
 -1      7432 1.28046E-04 4.76496E-05-5.86877E-05
 -1      7433 1.24266E-04 5.94281E-05-5.83472E-05
 -1      7434 1.49465E-04 3.43248E-06-6.97598E-05
 -1      7435 1.51650E-04 5.60916E-06-1.36522E-05
 -1      7436 8.31103E-05 1.52870E-06-2.19187E-06
 -1      7437 8.78411E-05 2.17860E-06-5.35345E-06
 -1      7438 1.73467E-04 1.26026E-04-1.96981E-05
 -1      7439 1.74305E-04 1.29624E-04-2.09542E-05
 -1      7440 1.72260E-04 1.19640E-04-2.05782E-05
 -1      7441 1.12985E-04 3.68356E-06-3.37768E-05
 -1      7442 1.11984E-04 3.55923E-06-3.61043E-05
 -1      7443 1.07711E-04 3.12596E-06-3.40347E-05
 -1      7444 1.66859E-04 1.32131E-05-4.94490E-05
 -1      7445 1.66954E-04 8.47993E-06-4.99107E-05
 -1      7446 1.67525E-04 1.04967E-04-1.85328E-05
 -1      7447 1.74525E-04 8.32346E-05-1.97524E-05
 -1      7448 1.63490E-04 5.58790E-05-6.98577E-05
 -1      7449 1.64986E-04 6.35168E-05-6.81667E-05
 -1      7450 1.62870E-04 5.66391E-05-7.03369E-05
 -1      7451 1.42631E-04 2.91592E-06-2.26415E-05
 -1      7452 1.40140E-04 2.61358E-06-2.18691E-05
 -1      7453 1.43839E-04 3.03669E-06-2.16850E-05
 -1      7454 1.40914E-04 3.00677E-06-3.40736E-05
 -1      7455 1.32241E-04 9.30819E-06-3.25956E-05
 -1      7456 1.38293E-04 2.92024E-06-3.55583E-05
 -1      7457 1.30333E-04 8.72235E-06-3.40056E-05
 -1      7458 1.38674E-04 6.83354E-06-3.54401E-05
 -1      7459 1.30192E-04 3.88804E-05-2.34123E-05
 -1      7460 1.24644E-04 4.10886E-05-2.20820E-05
 -1      7461 1.32590E-04 3.51033E-05-2.17801E-05
 -1      7462 1.27122E-04 3.38312E-05-2.31097E-05
 -1      7463 1.38522E-04 3.27607E-05-2.31419E-05
 -1      7464 1.18359E-04 1.55876E-05-1.53026E-05
 -1      7465 1.24924E-04 1.41728E-05-1.73525E-05
 -1      7466 1.14908E-04 2.20503E-05-1.88232E-05
 -1      7467 1.71990E-04 7.28395E-05-4.97079E-05
 -1      7468 1.70469E-04 6.51476E-05-5.02739E-05
 -1      7469 1.71474E-04 7.68438E-05-5.08377E-05
 -1      7470 1.69914E-04 6.96404E-05-5.14648E-05
 -1      7471 1.57772E-04 6.15905E-05-5.10901E-05
 -1      7472 1.43606E-04 2.77547E-05-5.56804E-05
 -1      7473 1.52194E-04 5.37671E-06-5.51239E-05
 -1      7474 1.42131E-04 2.20202E-05-3.15271E-05
 -1      7475 1.42747E-04 1.92939E-05-3.00278E-05
 -1      7476 1.45162E-04 1.23169E-05-3.11822E-05
 -1      7477 1.19887E-04 2.19788E-06-3.79667E-05
 -1      7478 1.18886E-04 2.11586E-06-4.04861E-05
 -1      7479 1.15460E-04 6.80038E-06-3.61930E-05
 -1      7480 1.39254E-04 6.82982E-06-3.24691E-05
 -1      7481 7.52947E-05 8.14078E-06-3.33520E-05
 -1      7482 7.00367E-05 1.59300E-05-3.60698E-05
 -1      7483-1.53865E-04 4.84635E-04-1.59091E-06
 -1      7484 1.62874E-04 3.11704E-06-5.04502E-05
 -1      7485 1.64261E-04 3.46112E-06-5.05798E-05
 -1      7486 1.62849E-04 2.97278E-06-5.09553E-05
 -1      7487 1.42086E-04 3.73952E-06-4.75579E-05
 -1      7488 1.41554E-04 3.68536E-06-4.65373E-05
 -1      7489 1.39941E-04 8.58647E-06-4.69288E-05
 -1      7490 1.54797E-04 3.88097E-05-1.36604E-05
 -1      7491 1.46613E-04 3.91321E-05-1.35967E-05
 -1      7492 1.46385E-04 3.35041E-05-1.43364E-05
 -1      7493 1.55413E-04 4.86242E-05-1.47805E-05
 -1      7494 1.46828E-04 4.72079E-05-1.46513E-05
 -1      7495 1.56812E-04 5.52712E-05-1.39914E-05
 -1      7496 1.63846E-04 3.23050E-06-4.01591E-05
 -1      7497 1.63118E-04 3.05997E-06-3.97790E-05
 -1      7498 1.64971E-04 3.73356E-06-3.99728E-05
 -1      7499 1.40439E-04 2.54679E-06-6.30184E-05
 -1      7500 1.43556E-04 2.87060E-06-6.40760E-05
 -1      7501 1.40592E-04 2.57343E-06-6.51088E-05
 -1      7502 4.46058E-05 1.32432E-04-2.98620E-05
 -1      7503 4.47008E-06 1.50417E-04-2.58559E-05
 -1      7504-3.48690E-04-5.77626E-05 5.41543E-06
 -1      7505-3.38563E-04-2.00697E-05 2.29999E-06
 -1      7506-3.48587E-04-5.71645E-05 1.84347E-06
 -1      7507 1.54854E-04 3.70383E-06-1.28946E-05
 -1      7508 1.63743E-04 4.31959E-05-7.91415E-06
 -1      7509-4.74699E-04 1.06436E-03 5.07073E-07
 -1      7510 1.63783E-04 6.05403E-06-4.86166E-06
 -1      7511 1.64820E-04 7.52232E-06-4.58793E-06
 -1      7512 1.64537E-04 8.31989E-06-5.05491E-06
 -1      7513 1.30905E-04 7.44192E-06-4.86434E-05
 -1      7514 1.28152E-04 1.18981E-05-4.76823E-05
 -1      7515 1.24901E-04 1.00488E-05-4.53930E-05
 -1      7516 1.23379E-04 6.84880E-06-4.81808E-05
 -1      7517 1.26872E-04 6.31897E-06-4.62416E-05
 -1      7518 1.26500E-04 3.25483E-04-2.24786E-05
 -1      7519 1.83873E-04 3.62900E-04-2.13689E-05
 -1      7520 1.34174E-04 4.06941E-04-1.72422E-05
 -1      7521 1.54534E-04 4.90576E-06-1.85988E-05
 -1      7522 1.54236E-04 4.86092E-06-1.92208E-05
 -1      7523 1.52476E-04 9.74750E-06-1.88286E-05
 -1      7524 1.60975E-04 3.55787E-06-1.79222E-05
 -1      7525 1.34322E-04 2.37726E-05-2.09111E-05
 -1      7526 1.30487E-04 3.54394E-05-1.96243E-05
 -1      7527 1.34404E-04 1.89743E-05-1.96140E-05
 -1      7528 1.28717E-04 2.46107E-05-2.21358E-05
 -1      7529 1.25189E-04 3.41194E-05-2.08320E-05
 -1      7530 1.69010E-04 3.37353E-05-5.24407E-05
 -1      7531 1.67122E-04 2.46452E-05-5.21617E-05
 -1      7532 1.68533E-04 3.28058E-05-5.18507E-05
 -1      7533 1.52927E-04 2.80742E-06-5.01482E-05
 -1      7534 1.54213E-04 6.90582E-05-2.52144E-05
 -1      7535 1.51885E-04 4.43580E-05-2.61152E-05
 -1      7536 1.56171E-04 6.17158E-05-2.71480E-05
 -1      7537 8.94658E-05 9.64770E-06-1.86646E-05
 -1      7538 1.44775E-04 3.31017E-06-4.36243E-05
 -1      7539 1.46653E-04 3.61515E-06-4.42607E-05
 -1      7540 1.44680E-04 3.29752E-06-4.48559E-05
 -1      7541-1.82006E-04 2.70528E-04-1.82054E-06
 -1      7542-1.31610E-04 2.07283E-04-2.18548E-06
 -1      7543 1.07163E-04 2.83741E-05-1.56460E-05
 -1      7544 1.06703E-04 3.49355E-05-1.27133E-05
 -1      7545 1.01523E-04 4.47502E-05-1.60780E-05
 -1      7546 1.61587E-04 1.08743E-05-3.86057E-06
 -1      7547 8.48337E-05 2.74000E-06-1.15923E-05
 -1      7548 6.72323E-05 9.34580E-06-1.09818E-05
 -1      7549 3.25136E-05 1.85513E-04-3.17359E-05
 -1      7550 1.11522E-05 2.38528E-04-2.40913E-05
 -1      7551-1.14296E-05 2.07626E-04-2.40618E-05
 -1      7552 2.45365E-05 2.19063E-04-2.35944E-05
 -1      7553 1.71156E-04 6.81008E-05-4.92798E-05
 -1      7554 1.72221E-04 8.24577E-05-4.79063E-05
 -1      7555 1.58748E-04 6.79783E-05-4.80256E-05
 -1      7556 1.71344E-04 7.82885E-05-4.74953E-05
 -1      7557 1.59338E-04 3.20213E-06-2.01979E-05
 -1      7558 1.61186E-04 3.91725E-06-2.05620E-05
 -1      7559 1.56958E-04 8.98590E-06-2.08130E-05
 -1      7560 8.82771E-05 7.52056E-05-1.14290E-05
 -1      7561 8.28603E-05 6.93657E-05-1.36200E-05
 -1      7562 9.88794E-05 5.59423E-05-1.07388E-05
 -1      7563 1.05932E-04 7.40040E-05-1.00962E-05
 -1      7564 9.99021E-05 6.59225E-05-1.24189E-05
 -1      7565 8.94537E-05 8.62131E-05-1.29768E-05
 -1      7566-7.45410E-05 2.20136E-04-5.32425E-06
 -1      7567-9.30019E-05 1.86021E-04-3.09435E-06
 -1      7568-5.49990E-05 2.11950E-04-3.02902E-06
 -1      7569-5.82536E-05 1.89249E-04-6.90778E-06
 -1      7570-3.86583E-05 2.25544E-04-9.47743E-06
 -1      7571 2.10355E-04 4.94663E-04-1.36543E-05
 -1      7572 1.31182E-04 1.16840E-05-1.56201E-05
 -1      7573 1.24293E-04 1.34628E-05-1.36229E-05
 -1      7574 1.22234E-04 1.05673E-05-1.65686E-05
 -1      7575 1.66400E-04 8.80369E-06-5.54838E-05
 -1      7576 1.66464E-04 7.06552E-06-5.52988E-05
 -1      7577 1.66687E-04 9.81492E-06-5.49268E-05
 -1      7578 9.89063E-05 3.48856E-04-2.01131E-05
 -1      7579 1.35880E-04 2.21010E-05-3.88375E-05
 -1      7580 1.36581E-04 3.58648E-05-3.83148E-05
 -1      7581 1.36451E-04 2.61959E-05-4.06601E-05
 -1      7582 1.56811E-04 1.24164E-05-5.66048E-05
 -1      7583 1.64795E-04 4.84916E-06-1.04238E-05
 -1      7584 1.64800E-04 4.69954E-06-1.00395E-05
 -1      7585 1.65961E-04 6.30237E-06-1.02297E-05
 -1      7586 1.54217E-04 4.21687E-05-4.91271E-06
 -1      7587 1.47232E-04 4.01967E-05-4.60002E-06
 -1      7588 1.55371E-04 5.57937E-05-5.54575E-06
 -1      7589 1.09896E-04 2.18330E-06-1.40276E-06
 -1      7590 1.14912E-04 2.97811E-06-3.48026E-06
 -1      7591 1.69773E-04 7.68016E-05-2.15466E-05
 -1      7592 1.72344E-04 8.92854E-05-2.14412E-05
 -1      7593 1.73401E-04 7.65257E-05-2.05360E-05
 -1      7594 1.75708E-04 8.90435E-05-2.04287E-05
 -1      7595 1.59133E-04 7.07174E-05-2.11951E-05
 -1      7596 1.70436E-04 1.17237E-04-5.51442E-05
 -1      7597 1.68508E-04 1.05438E-04-5.76926E-05
 -1      7598 1.53355E-04 4.95991E-06-6.31384E-05
 -1      7599 1.53278E-04 4.97606E-06-6.44220E-05
 -1      7600 1.51390E-04 4.34303E-06-6.38927E-05
 -1      7601 1.67802E-04 1.40896E-05-2.31122E-05
 -1      7602 1.67329E-04 7.75954E-06-2.30677E-05
 -1      7603 1.67294E-04 1.35133E-05-2.26116E-05
 -1      7604 1.52902E-04 8.30670E-06-6.59130E-06
 -1      7605 1.20369E-04 3.85026E-05-3.87472E-05
 -1      7606 1.24264E-04 3.02965E-05-4.26272E-05
 -1      7607 1.29408E-04 2.54493E-05-4.14856E-05
 -1      7608 1.24607E-04 4.16703E-05-2.47076E-05
 -1      7609 1.35598E-04 4.33499E-05-2.47289E-05
 -1      7610 1.32516E-04 3.58860E-05-2.44942E-05
 -1      7611 1.16449E-04 1.67230E-04-1.70791E-05
 -1      7612 1.10404E-04 1.46927E-04-2.18738E-05
 -1      7613 1.31705E-04 1.89965E-04-1.80752E-05
 -1      7614 1.05417E-04 1.76223E-04-1.37894E-05
 -1      7615 9.99018E-05 1.56958E-04-1.82395E-05
 -1      7616 8.76976E-05 1.35710E-04-1.70427E-05
 -1      7617 1.65256E-04 4.98756E-06-7.19662E-05
 -1      7618 1.63741E-04 4.06200E-06-7.29232E-05
 -1      7619 1.64290E-04 3.88672E-06-7.18502E-05
 -1      7620 1.38885E-04 2.97200E-06-3.13873E-05
 -1      7621 1.66725E-04 4.03398E-06-2.50507E-05
 -1      7622 1.67371E-04 5.84499E-06-2.52389E-05
 -1      7623 1.66312E-04 4.41283E-06-2.55100E-05
 -1      7624 1.09318E-04 1.16373E-04-4.56024E-05
 -1      7625 9.92992E-05 1.05048E-04-4.31502E-05
 -1      7626 1.15532E-04 1.08844E-04-4.14956E-05
 -1      7627 1.21578E-04 1.01983E-04-4.64823E-05
 -1      7628 1.10355E-04 8.93391E-05-4.36275E-05
 -1      7629 1.04404E-04 9.77362E-05-4.82228E-05
 -1      7630 1.66092E-04 7.32668E-06-4.84227E-05
 -1      7631 1.49813E-04 4.99092E-06-1.33546E-05
 -1      7632 1.18764E-04 1.42294E-05-3.05801E-06
 -1      7633 1.18744E-04 1.14398E-05-5.20679E-06
 -1      7634 1.16196E-04 8.67923E-06-2.06327E-06
 -1      7635 1.21269E-04 8.49788E-06-1.52694E-06
 -1      7636 1.20088E-04 6.71896E-06-3.61243E-06
 -1      7637 1.23845E-04 1.16436E-05-4.58872E-06
 -1      7638-3.45598E-04-1.00823E-04 1.46854E-06
 -1      7639-3.45693E-04-1.00355E-04 3.94586E-06
 -1      7640-1.71895E-05 2.55008E-04-2.05743E-05
 -1      7641-2.89335E-05 2.50427E-04-1.44671E-05
 -1      7642-4.64832E-05 2.36867E-04-1.70262E-05
 -1      7643-5.98638E-05 2.95323E-04-1.48339E-05
 -1      7644-7.18798E-05 2.90224E-04-1.02749E-05
 -1      7645-4.10893E-05 3.10267E-04-1.28983E-05
 -1      7646 1.69811E-04 5.89634E-05-3.19999E-05
 -1      7647 1.68414E-04 5.25707E-05-3.14979E-05
 -1      7648 1.73107E-04 6.02804E-05-3.28101E-05
 -1      7649 1.71971E-04 5.38338E-05-3.22990E-05
 -1      7650 1.58527E-04 4.38457E-05-3.23605E-05
 -1      7651 1.57235E-04 4.69597E-05-4.00309E-05
 -1      7652 1.48537E-04 4.48332E-05-3.90072E-05
 -1      7653 1.56919E-04 6.76190E-05-3.98013E-05
 -1      7654-4.68595E-05 1.85607E-04-1.53346E-05
 -1      7655-3.56936E-05 1.87359E-04-2.22101E-05
 -1      7656-1.91095E-05 1.99933E-04-1.97872E-05
 -1      7657 1.38988E-04 1.71719E-04-2.95236E-06
 -1      7658 1.46941E-04 1.58529E-04-2.15956E-06
 -1      7659 1.61745E-04 3.47536E-06-7.57666E-05
 -1      7660 1.60602E-04 3.01804E-06-7.69880E-05
 -1      7661 1.60516E-04 2.86916E-06-7.56402E-05
 -1      7662 1.27904E-04 3.00510E-06-1.13405E-05
 -1      7663 1.31262E-04 3.25848E-06-1.13260E-05
 -1      7664 1.29982E-04 3.18098E-06-1.22032E-05
 -1      7665-1.53826E-05 2.18468E-05-1.94701E-05
 -1      7666-6.17068E-05 1.72790E-05-1.00815E-05
 -1      7667 1.67179E-04 6.22824E-06-3.50923E-05
 -1      7668 1.66871E-04 9.53753E-06-3.47823E-05
 -1      7669 1.67306E-04 9.94127E-06-3.51940E-05
 -1      7670 1.51846E-04 3.00258E-05-4.16164E-05
 -1      7671 1.64104E-04 1.64791E-05-5.69040E-06
 -1      7672 1.64962E-04 1.02431E-05-5.78936E-06
 -1      7673 1.64715E-04 1.11037E-05-5.51800E-06
 -1      7674 1.64450E-04 6.02970E-06-2.62440E-05
 -1      7675 1.65234E-04 7.12668E-06-2.65832E-05
 -1      7676 1.64047E-04 5.25491E-06-2.66394E-05
 -1      7677 1.33460E-05 1.06745E-05-2.18970E-05
 -1      7678-3.09642E-05 7.13154E-06-1.16811E-05
 -1      7679 1.36511E-04 3.60369E-06-5.56977E-05
 -1      7680-9.87749E-05 2.99797E-05-7.70287E-06
 -1      7681 1.03276E-04 4.65801E-06-2.51995E-05
 -1      7682 7.54979E-05 3.47789E-04-1.45034E-05
 -1      7683 4.07815E-05 3.94020E-04-1.39365E-05
 -1      7684 2.40613E-05 3.33294E-04-1.34079E-05
 -1      7685 5.51519E-05 1.15628E-04-2.44048E-05
 -1      7686 3.80001E-05 1.61979E-04-1.92727E-05
 -1      7687 2.55366E-05 1.45258E-04-2.19287E-05
 -1      7688 5.62916E-05 1.13607E-04-3.08987E-05
 -1      7689 3.89904E-05 1.59688E-04-2.46249E-05
 -1      7690 6.93948E-05 1.30280E-04-2.75680E-05
 -1      7691 4.53150E-05 9.87333E-07-1.40475E-05
 -1      7692 6.22229E-05 6.27241E-07-1.90688E-05
 -1      7693-3.67097E-05-3.24664E-05 8.27960E-07
 -1      7694-4.15691E-05-1.70223E-05-1.14845E-06
 -1      7695-1.12537E-04-3.33150E-05 7.77208E-07
 -1      7696 1.60972E-04 3.97810E-06-1.01353E-05
 -1      7697 1.51678E-04 4.53137E-06-3.42861E-05
 -1      7698 1.53729E-04 5.23080E-06-3.48516E-05
 -1      7699 1.51444E-04 4.45343E-06-3.53458E-05
 -1      7700 4.03332E-05-4.86140E-06-5.66306E-06
 -1      7701 4.56921E-05-3.96915E-06-9.19474E-06
 -1      7702 1.46495E-04 3.22111E-05-3.45000E-05
 -1      7703 1.49088E-04 5.77072E-05-3.32021E-05
 -1      7704-2.42625E-04 1.40012E-05 1.02825E-06
 -1      7705-3.38749E-04-2.16467E-05 6.58302E-06
 -1      7706-2.41372E-04 1.09675E-05 3.69580E-06
 -1      7707 1.45526E-04 3.43214E-06-5.08781E-05
 -1      7708 1.42838E-04 3.05295E-06-5.13102E-05
 -1      7709 1.43848E-04 3.18079E-06-4.96121E-05
 -1      7710 1.68091E-04 9.35961E-06-3.98063E-05
 -1      7711 1.68100E-04 9.19793E-06-3.93606E-05
 -1      7712 1.67916E-04 1.53463E-05-3.95219E-05
 -1      7713 1.62804E-04 6.89900E-06-7.46480E-05
 -1      7714 1.37017E-04 3.15879E-06-4.41695E-05
 -1      7715 1.36888E-04 3.24814E-06-4.60601E-05
 -1      7716 1.33242E-04 2.81274E-06-4.47878E-05
 -1      7717 1.50416E-04 3.85264E-06-1.54563E-05
 -1      7718 1.66627E-04 5.13172E-05-1.53483E-06
 -1      7719 1.64388E-04 4.20409E-05-1.41129E-06
 -1      7720 1.65469E-04 4.61702E-05-1.00488E-06
 -1      7721 1.27425E-04 7.78662E-05-3.20222E-05
 -1      7722 1.40124E-04 9.60538E-05-3.23294E-05
 -1      7723 1.28393E-04 5.29975E-05-3.01564E-05
 -1      7724 1.39150E-04 6.90120E-05-3.07389E-05
 -1      7725 1.31993E-04 8.53113E-05-3.07997E-05
 -1      7726 1.73874E-04 1.37947E-04-3.13370E-05
 -1      7727 1.76476E-04 1.27378E-04-2.88553E-05
 -1      7728 1.26657E-04 4.19843E-05-3.79442E-05
 -1      7729 1.21576E-04 2.86614E-06-4.68513E-05
 -1      7730 1.21973E-04 2.85576E-06-4.88086E-05
 -1      7731 2.53516E-05 1.39607E-05-8.96358E-06
 -1      7732 5.22196E-05 1.66372E-05-1.35986E-05
 -1      7733 5.80728E-05 1.56497E-05-8.47651E-06
 -1      7734 1.66310E-04 6.29954E-06-5.63345E-05
 -1      7735 1.44782E-04 2.14631E-05-3.48750E-05
 -1      7736 1.63800E-04 2.90788E-05-1.12969E-05
 -1      7737 1.62802E-04 1.94302E-05-1.13189E-05
 -1      7738 1.62483E-04 1.95598E-05-1.10408E-05
 -1      7739 5.71758E-05-8.00784E-07-1.71318E-05
 -1      7740 6.28980E-05 4.47401E-07-2.10774E-05
 -1      7741 1.74203E-04 1.04397E-04-1.43176E-05
 -1      7742 1.73708E-04 1.02185E-04-1.37203E-05
 -1      7743 1.75190E-04 1.10231E-04-1.35295E-05
 -1      7744-1.87239E-04-1.13846E-04 3.15847E-06
 -1      7745-2.50377E-04-1.29418E-04 2.26547E-06
 -1      7746-1.63779E-04-8.94926E-05 5.46883E-06
 -1      7747-1.56462E-04-5.41314E-05 1.60007E-06
 -1      7748 1.01913E-04 6.56002E-05-4.96439E-05
 -1      7749 9.64773E-05 5.87218E-05-4.70621E-05
 -1      7750 1.10494E-04 4.68981E-05-5.39833E-05
 -1      7751 1.05481E-04 4.79753E-05-5.73883E-05
 -1      7752 1.00409E-04 4.38705E-05-5.40243E-05
 -1      7753 9.18632E-05 5.96898E-05-4.99723E-05
 -1      7754-1.84158E-04-1.13427E-04 8.54452E-06
 -1      7755-2.48911E-04-1.28764E-04 6.31083E-06
 -1      7756-1.52535E-04-5.45946E-05 5.53785E-06
 -1      7757 5.95723E-05 4.36564E-06-4.05056E-06
 -1      7758 6.93303E-05 7.98502E-06-7.54424E-06
 -1      7759 1.55708E-04 7.39127E-06-4.85987E-05
 -1      7760 1.60144E-04 2.73583E-06-4.74078E-05
 -1      7761 1.53729E-04 6.78532E-06-4.79592E-05
 -1      7762 1.57094E-04 6.90055E-06-4.65472E-05
 -1      7763 1.33541E-04 9.28032E-06-6.38546E-06
 -1      7764-2.43324E-04 3.38632E-04-4.35530E-07
 -1      7765-2.87662E-04 4.19223E-04 1.77233E-06
 -1      7766-2.39011E-04 3.96454E-04-8.91135E-07
 -1      7767 7.11958E-05 7.28309E-07-2.28044E-05
 -1      7768 1.66072E-04 1.84188E-05-6.55541E-05
 -1      7769 1.65832E-04 1.01957E-05-6.63260E-05
 -1      7770 1.65465E-04 9.57210E-06-6.55028E-05
 -1      7771 1.65004E-04 7.45315E-06-2.68458E-05
 -1      7772-7.50315E-05 2.14469E-04-1.51693E-05
 -1      7773-6.26496E-05 1.68076E-04-1.95350E-05
 -1      7774 1.71297E-04 8.28335E-05-8.13866E-06
 -1      7775 1.53362E-04 7.67612E-05-7.75296E-06
 -1      7776 1.71964E-04 8.62756E-05-8.86053E-06
 -1      7777-8.14875E-05 2.60555E-04-1.31600E-05
 -1      7778 1.59954E-04 3.41995E-06-2.20199E-05
 -1      7779 1.57462E-04 2.79280E-06-2.22213E-05
 -1      7780 1.19692E-04 2.58479E-04-1.45329E-05
 -1      7781 1.52648E-04 2.77002E-04-1.07103E-05
 -1      7782 1.26128E-04 2.43826E-04-1.33668E-05
 -1      7783-1.96341E-04 9.34603E-05-1.57566E-06
 -1      7784 1.54584E-04 4.33541E-05-4.23045E-05
 -1      7785 1.43702E-04 4.29696E-05-4.34133E-05
 -1      7786 1.54082E-04 6.44363E-05-4.20490E-05
 -1      7787 3.17000E-05 1.23807E-04-3.42656E-06
 -1      7788 4.41121E-05 1.32910E-04-8.44016E-06
 -1      7789 3.40776E-05 1.70469E-04-4.46931E-06
 -1      7790 2.79123E-05 1.45642E-04-6.63461E-06
 -1      7791 4.11114E-05 1.56283E-04-1.14664E-05
 -1      7792 3.90830E-05 1.09997E-04-1.08837E-05
 -1      7793 1.47626E-04 2.44123E-06-7.52003E-05
 -1      7794 1.46822E-04 2.35912E-06-7.34249E-05
 -1      7795 1.44790E-04 2.13713E-06-7.67164E-05
 -1      7796 1.43878E-04 2.09867E-06-7.49607E-05
 -1      7797 1.44752E-04 4.92857E-06-7.62732E-05
 -1      7798-1.65440E-04 1.39050E-06 2.35464E-07
 -1      7799 1.39042E-04 1.04345E-04-7.82557E-06
 -1      7800 1.39723E-04 1.02159E-04-1.11216E-05
 -1      7801 1.34696E-04 1.12315E-04-9.52800E-06
 -1      7802 1.25792E-04 9.56461E-05-7.34667E-06
 -1      7803 1.26409E-04 9.32600E-05-1.05773E-05
 -1      7804 1.30212E-04 8.39388E-05-8.78085E-06
 -1      7805 1.42034E-04 1.90833E-06-7.56957E-05
 -1      7806 1.28080E-04 4.85161E-05-5.04829E-05
 -1      7807 1.74229E-04 1.25595E-04-1.17265E-05
 -1      7808 1.76122E-04 1.35760E-04-1.21668E-05
 -1      7809 1.73579E-04 1.22040E-04-1.26798E-05
 -1      7810 7.25855E-05 1.72315E-06-1.57147E-05
 -1      7811 7.64712E-05 2.38236E-06-1.58093E-05
 -1      7812 5.99409E-05 7.84804E-06-1.27709E-05
 -1      7813 1.67968E-04 4.79552E-05-3.87170E-05
 -1      7814 1.66832E-04 4.14929E-05-3.86270E-05
 -1      7815 1.69040E-04 5.21096E-05-3.81817E-05
 -1      7816 1.62312E-04 3.46662E-04-1.69178E-05
 -1      7817 1.68521E-04 4.27030E-04-1.31029E-05
 -1      7818 1.48461E-04 2.48858E-06-7.68364E-05
 -1      7819 1.49896E-04 2.71933E-06-7.59209E-05
 -1      7820 1.50434E-04 2.73677E-06-7.75725E-05
 -1      7821 1.27473E-04 4.73944E-05-1.49164E-05
 -1      7822 1.26220E-04 5.11617E-05-1.63330E-05
 -1      7823 1.24854E-04 3.45629E-05-1.59915E-05
 -1      7824-3.14744E-04 8.08313E-04-4.25273E-06
 -1      7825-3.24144E-04 8.71710E-04-2.81526E-06
 -1      7826-4.83921E-04 7.78315E-04 3.80688E-06
 -1      7827 1.09157E-04 3.80768E-06-4.27710E-05
 -1      7828 1.17477E-04 2.52776E-06-4.53736E-05
 -1      7829 1.62835E-04 2.04896E-05-1.07300E-05
 -1      7830 1.45767E-04 2.94836E-06-5.48241E-05
 -1      7831 1.46078E-04 2.99165E-06-5.35730E-05
 -1      7832 1.48340E-04 3.17546E-06-5.41745E-05
 -1      7833 1.36643E-04 1.81186E-05-2.19122E-05
 -1      7834 1.54156E-04 3.27451E-06-1.81772E-05
 -1      7835 1.52112E-04 2.92886E-06-1.77444E-05
 -1      7836 1.54562E-04 3.29454E-06-1.76016E-05
 -1      7837 1.28569E-04 4.85863E-05-4.53414E-05
 -1      7838 1.39803E-04 4.98785E-05-4.41160E-05
 -1      7839 1.69737E-04 6.15673E-05-4.98691E-05
 -1      7840 1.10406E-04 7.78599E-06-2.76500E-05
 -1      7841 1.16840E-04 6.46669E-06-2.71653E-05
 -1      7842 1.16563E-04 1.27801E-05-5.64991E-05
 -1      7843 1.43951E-04 3.43480E-06-3.16219E-05
 -1      7844 1.42385E-04 3.24748E-06-3.09120E-05
 -1      7845 1.44983E-04 3.57713E-06-3.10277E-05
 -1      7846-6.36004E-05 4.92049E-04-2.45616E-06
 -1      7847-2.65190E-05 4.42333E-04-6.69972E-06
 -1      7848 1.17149E-05 4.44738E-04-3.85135E-06
 -1      7849 3.62310E-05 4.89188E-04-2.17981E-06
 -1      7850 7.40521E-05 4.42199E-04-7.30183E-06
 -1      7851-3.70390E-06 4.86902E-04-5.01822E-06
 -1      7852 1.67722E-04 8.42952E-05-1.64307E-05
 -1      7853 1.69566E-04 9.29127E-05-1.68070E-05
 -1      7854 1.67108E-04 8.11715E-05-1.72110E-05
 -1      7855 1.67194E-04 1.97309E-05-1.32349E-05
 -1      7856 1.67007E-04 8.86313E-06-1.34498E-05
 -1      7857 1.66697E-04 8.36622E-06-1.31561E-05
 -1      7858 1.55799E-04 3.48278E-06-4.33195E-05
 -1      7859 1.53526E-04 3.01650E-06-4.39228E-05
 -1      7860 1.53564E-04 7.14980E-06-4.42919E-05
 -1      7861 1.57064E-04 2.80780E-06-4.48929E-05
 -1      7862 1.59329E-05-5.83826E-06-4.13247E-06
 -1      7863 3.45269E-05-2.10086E-06-3.31045E-06
 -1      7864-1.90870E-04 4.72007E-04-2.17514E-06
 -1      7865 1.22419E-05 2.80701E-04-2.10145E-05
 -1      7866 1.55786E-04 4.10959E-05-4.45990E-05
 -1      7867 1.70578E-04 5.04059E-05-4.47358E-05
 -1      7868 1.61814E-04 5.10645E-05-4.59107E-05
 -1      7869 1.64945E-04 4.81068E-06-1.80575E-05
 -1      7870 1.65742E-04 6.19972E-06-1.78374E-05
 -1      7871 1.65686E-04 6.03605E-06-1.82361E-05
 -1      7872 1.59064E-04 3.11653E-06-4.56543E-05
 -1      7873 1.60460E-04 3.41433E-06-4.54613E-05
 -1      7874 1.59168E-04 6.25200E-06-4.49192E-05
 -1      7875 8.75203E-05 2.74151E-04-2.58180E-05
 -1      7876 3.69850E-05 2.59637E-04-2.42848E-05
 -1      7877 9.57845E-05 2.59249E-04-2.39431E-05
 -1      7878 4.46509E-05 2.45155E-04-2.22815E-05
 -1      7879 8.07164E-05 2.34858E-04-2.97238E-05
 -1      7880 1.42225E-04 1.04483E-05-7.74111E-06
 -1      7881 1.48374E-04 1.04649E-05-8.67439E-06
 -1      7882 1.37589E-04 1.98234E-05-8.24979E-06
 -1      7883 1.42104E-04 2.38291E-05-9.26104E-06
 -1      7884 1.42371E-04 1.66967E-05-9.37088E-06
 -1      7885 1.57078E-04 2.38259E-05-1.38837E-05
 -1      7886 1.39044E-04 2.13973E-06-1.57049E-05
 -1      7887 1.36854E-04 1.99997E-06-1.49248E-05
 -1      7888 1.40067E-04 2.19041E-06-1.48716E-05
 -1      7889 1.52399E-04 7.17734E-06-2.59026E-05
 -1      7890 1.60612E-04 3.45941E-06-2.54863E-05
 -1      7891 1.58402E-04 7.72486E-06-2.49455E-05
 -1      7892 1.37178E-04 9.87200E-06-5.08205E-06
 -1      7893 1.42158E-04 1.03241E-05-5.93733E-06
 -1      7894 9.59005E-05 8.50236E-05-4.12135E-05
 -1      7895 9.03879E-05 9.31186E-05-4.56903E-05
 -1      7896 1.01492E-04 7.75006E-05-4.63591E-05
 -1      7897 1.44279E-04 9.67105E-06-4.55391E-05
 -1      7898 1.01596E-04 2.56538E-06-9.44035E-06
 -1      7899 1.01637E-04 8.64006E-06-9.79120E-06
 -1      7900 1.07102E-04 3.05758E-06-9.46362E-06
 -1      7901-8.33536E-05 5.67615E-04-1.73037E-06
 -1      7902-4.23360E-05 5.45556E-04-2.26610E-06
 -1      7903-1.79583E-05 5.91382E-04-2.71957E-06
 -1      7904-3.77254E-05 5.14308E-04-5.59731E-06
 -1      7905 1.01660E-04 1.16978E-05-5.69236E-05
 -1      7906 1.08407E-04 1.28419E-05-5.54100E-05
 -1      7907 1.07600E-04 1.60088E-05-6.19504E-05
 -1      7908 1.08883E-04 8.81985E-06-6.11400E-05
 -1      7909 1.15385E-04 9.84991E-06-5.96632E-05
 -1      7910 1.67888E-04 7.03442E-05-1.22161E-05
 -1      7911 1.67544E-04 6.94026E-05-1.16309E-05
 -1      7912 1.69879E-04 8.02436E-05-1.18081E-05
 -1      7913 1.68351E-04 2.74997E-05-1.83475E-05
 -1      7914 1.70172E-04 3.72801E-05-1.83387E-05
 -1      7915 1.68594E-04 2.78447E-05-1.86251E-05
 -1      7916 1.62770E-04 6.49203E-05-6.49644E-05
 -1      7917 1.63490E-04 6.62089E-05-6.36433E-05
 -1      7918 1.64970E-04 7.46105E-05-6.27854E-05
 -1      7919 1.62120E-04 7.50191E-05-1.30857E-05
 -1      7920 1.62931E-04 7.04245E-06-7.55309E-05
 -1      7921 1.62434E-04 8.17849E-06-7.65330E-05
 -1      7922 1.61886E-04 6.36882E-06-7.72275E-05
 -1      7923 1.65706E-04 6.64918E-06-9.96366E-06
 -1      7924 1.30403E-04 1.76918E-05-1.59494E-06
 -1      7925 1.29360E-04 1.72754E-05-4.71708E-06
 -1      7926 1.20390E-04 1.99100E-05-3.07402E-06
 -1      7927 1.29144E-04 1.34998E-05-1.75463E-06
 -1      7928 1.28010E-04 1.33138E-05-4.87884E-06
 -1      7929 1.38708E-04 9.95900E-06-3.43352E-06
 -1      7930 1.59296E-04 3.53097E-06-6.12183E-05
 -1      7931 1.56973E-04 3.04361E-06-6.09233E-05
 -1      7932 1.59224E-04 3.47081E-06-6.00687E-05
 -1      7933 1.29156E-04 1.72475E-05-2.50589E-05
 -1      7934 1.31395E-04 1.40642E-05-2.68496E-05
 -1      7935 1.40032E-04 1.21925E-05-2.67231E-05
 -1      7936 1.33199E-04 2.41935E-05-2.69710E-05
 -1      7937 1.36518E-04 1.92467E-05-2.88698E-05
 -1      7938 1.25725E-04 2.36763E-05-2.71110E-05
 -1      7939 1.23372E-04 1.15665E-05-8.33795E-06
 -1      7940 1.12837E-04 9.46690E-06-9.17757E-06
 -1      7941 1.10874E-04 1.45835E-05-6.97113E-06
 -1      7942 1.21938E-04 1.03654E-05-6.89920E-06
 -1      7943 1.11302E-04 8.75038E-06-7.64696E-06
 -1      7944 1.22435E-04 5.68075E-06-9.06133E-06
 -1      7945 1.64218E-04 3.47808E-06-5.10458E-05
 -1      7946 1.42328E-04 2.93190E-05-8.29611E-06
 -1      7947 1.65556E-04 3.61974E-06-2.39748E-05
 -1      7948 1.66638E-04 4.96822E-06-2.36974E-05
 -1      7949 1.67078E-04 4.43999E-06-2.40114E-05
 -1      7950 1.66413E-04 1.76249E-05-5.54825E-05
 -1      7951 1.63865E-04 5.95206E-06-4.43989E-06
 -1      7952 1.06268E-04 4.29321E-04-1.56080E-05
 -1      7953 8.36574E-05 1.48187E-06-3.70739E-05
 -1      7954 8.27162E-05 2.30317E-06-3.97627E-05
 -1      7955 9.16002E-05 3.60414E-07-4.33725E-05
 -1      7956 9.13885E-05 1.33145E-06-4.30644E-05
 -1      7957 9.15913E-05 1.98726E-06-4.59610E-05
 -1      7958 8.20919E-05 4.30650E-06-3.89617E-05
 -1      7959-1.53803E-04 5.35403E-04-2.96252E-06
 -1      7960-2.45082E-04 5.15089E-04-9.02090E-07
 -1      7961-1.96742E-04 4.92020E-04-2.44437E-06
 -1      7962 1.66248E-04 3.38534E-05-5.34417E-05
 -1      7963 1.26112E-04 6.10626E-05-3.68099E-05
 -1      7964 1.31331E-04 5.09584E-05-3.64417E-05
 -1      7965 1.25686E-04 4.05603E-05-3.63143E-05
 -1      7966 1.31329E-04 3.09307E-05-3.59042E-05
 -1      7967 1.30429E-04 4.88745E-05-3.49040E-05
 -1      7968 1.56746E-04 3.68723E-06-4.18500E-05
 -1      7969 1.57773E-04 3.94151E-06-4.21209E-05
 -1      7970 1.61967E-04 2.75904E-06-4.09296E-05
 -1      7971 1.55678E-04 7.26232E-06-4.15007E-05
 -1      7972 1.60716E-04 2.58049E-06-4.06310E-05
 -1      7973 1.29702E-04 9.15756E-06-2.83117E-05
 -1      7974 1.30266E-04 4.67833E-06-2.95991E-05
 -1      7975 1.04209E-04 2.83854E-06-1.07909E-05
 -1      7976 1.62827E-04 9.55001E-05-8.98436E-06
 -1      7977 1.64501E-04 1.03231E-04-8.34719E-06
 -1      7978 1.65363E-04 1.06822E-04-9.24623E-06
 -1      7979 1.57928E-04 2.85944E-06-2.56669E-05
 -1      7980 1.65740E-04 1.63357E-05-2.17739E-05
 -1      7981 1.65969E-04 7.65394E-06-2.16372E-05
 -1      7982 1.65686E-04 1.43846E-05-2.14315E-05
 -1      7983 1.00981E-04 8.94048E-06-4.55380E-05
 -1      7984 1.65763E-04 2.82891E-05-2.40259E-05
 -1      7985 1.68621E-04 4.30191E-05-2.36797E-05
 -1      7986 1.67379E-04 3.72753E-05-2.41431E-05
 -1      7987 1.44073E-04 2.61898E-05-4.98008E-05
 -1      7988 1.35272E-04 3.16749E-05-4.75745E-05
 -1      7989 1.67880E-04 3.12334E-05-6.80214E-05
 -1      7990 1.67715E-04 2.95890E-05-6.88095E-05
 -1      7991 1.66183E-04 2.16976E-05-6.86449E-05
 -1      7992 1.65894E-04 1.91728E-05-1.03399E-05
 -1      7993 1.65651E-04 9.21898E-06-1.02762E-05
 -1      7994 1.51534E-04 2.75312E-05-5.73243E-05
 -1      7995 1.43056E-04 3.39479E-05-5.65757E-05
 -1      7996 1.52822E-04 1.57673E-05-5.84429E-05
 -1      7997 4.35569E-05 1.58357E-05-2.13140E-05
 -1      7998 3.08382E-05 2.88245E-05-2.16443E-05
 -1      7999 6.28556E-05 1.44751E-05-1.90098E-05
 -1      8000 3.60207E-05 1.26177E-05-1.32877E-05
 -1      8001 3.81245E-06 2.29656E-05-1.49376E-05
 -1      8002 1.53242E-04 2.96918E-06-4.21099E-05
 -1      8003 1.55843E-04 3.49110E-06-4.23669E-05
 -1      8004 1.53339E-04 3.08366E-06-4.30189E-05
 -1      8005 1.41999E-04 3.36120E-06-2.90644E-05
 -1      8006 1.43007E-04 3.54780E-06-2.77932E-05
 -1      8007 1.45478E-04 3.95525E-06-2.86270E-05
 -1      8008 1.57495E-04 3.60705E-06-4.95596E-05
 -1      8009 1.65382E-04 4.32261E-06-7.10596E-05
 -1      8010 1.43223E-04 1.37928E-05-3.29338E-05
 -1      8011 1.46330E-04 1.40996E-05-3.19511E-05
 -1      8012-2.43356E-04 3.44114E-04-1.69947E-07
 -1      8013-2.88091E-04 4.24439E-04 5.76061E-07
 -1      8014 1.36633E-04 3.96251E-06-9.03216E-06
 -1      8015 1.35135E-04 3.68142E-06-9.83554E-06
 -1      8016 1.34164E-04 3.56072E-06-9.02080E-06
 -1      8017 1.24338E-04 8.78885E-06-3.34799E-05
 -1      8018 1.64251E-04 1.58520E-05-7.22734E-06
 -1      8019 1.65381E-04 2.57948E-05-7.19826E-06
 -1      8020 1.64578E-04 1.54655E-05-7.41604E-06
 -1      8021 9.21020E-06 4.40427E-04-1.10129E-05
 -1      8022-2.83085E-05 3.68538E-04-1.35034E-05
 -1      8023-2.20746E-05 3.71508E-04-9.86614E-06
 -1      8024-5.91821E-05 4.16267E-04-1.02177E-05
 -1      8025 9.71661E-05 3.01910E-06-5.51813E-06
 -1      8026 9.65190E-05 5.15435E-06-3.24416E-06
 -1      8027 9.46347E-05 8.04901E-06-6.99530E-06
 -1      8028 1.21268E-04 4.09753E-06-5.28415E-05
 -1      8029 1.54364E-04 4.26648E-06-2.75966E-05
 -1      8030 1.55062E-04 4.51737E-06-2.68899E-05
 -1      8031 1.56995E-04 5.38787E-06-2.73932E-05
 -1      8032 1.69908E-04 7.92701E-06-4.61270E-05
 -1      8033 1.69902E-04 1.60028E-05-4.63605E-05
 -1      8034 1.69382E-04 6.92206E-06-4.66699E-05
 -1      8035 1.65123E-04 6.52736E-06-7.18814E-06
 -1      8036 1.64652E-04 4.82409E-06-6.98180E-06
 -1      8037 1.65434E-04 5.95743E-06-6.82431E-06
 -1      8038 1.48917E-04 1.46777E-05-1.93438E-05
 -1      8039 1.47461E-04 1.44116E-05-2.04335E-05
 -1      8040 1.39347E-04 2.63910E-05-1.87939E-05
 -1      8041 1.38308E-04 2.53407E-05-1.98436E-05
 -1      8042 1.39143E-04 1.88986E-05-1.88926E-05
 -1      8043 1.68807E-04 5.80134E-05-1.30390E-05
 -1      8044 1.66830E-04 4.88519E-05-1.34602E-05
 -1      8045 1.67802E-04 5.88324E-05-1.45229E-05
 -1      8046 1.50567E-04 3.76518E-06-3.78134E-05
 -1      8047 1.47484E-04 3.20022E-06-3.75210E-05
 -1      8048 1.50355E-04 3.59899E-06-3.68922E-05
 -1      8049 1.49125E-04 1.20713E-05-5.57740E-05
 -1      8050 1.47454E-04 1.86921E-05-5.30131E-05
 -1      8051 1.38326E-04 2.99389E-06-3.66830E-05
 -1      8052 1.35213E-04 2.65617E-06-3.60587E-05
 -1      8053 5.21069E-05 2.11536E-04-3.02405E-05
 -1      8054 1.35602E-04 1.07033E-05-7.94366E-06
 -1      8055 1.14861E-04 2.65777E-06-5.53630E-05
 -1      8056 1.15692E-04 2.60508E-06-5.78016E-05
 -1      8057 1.70161E-04 3.77439E-05-7.86029E-06
 -1      8058 1.56199E-04 3.46466E-05-8.18159E-06
 -1      8059 1.70141E-04 3.67671E-05-8.20761E-06
 -1      8060 6.40124E-06 6.71622E-05-1.01335E-05
 -1      8061 2.09268E-05 4.95706E-05-8.73908E-06
 -1      8062 1.59244E-04 6.32498E-06-8.01851E-05
 -1      8063 1.59923E-04 7.87430E-06-7.96454E-05
 -1      8064 1.59467E-04 7.51658E-06-8.08507E-05
 -1      8065 1.64564E-04 5.85801E-05-6.86444E-05
 -1      8066 1.21423E-04 1.11746E-04-5.39787E-05
 -1      8067 1.12082E-04 1.07424E-04-5.02210E-05
 -1      8068 1.00759E-04 1.14392E-04-5.08989E-05
 -1      8069 1.27199E-04 1.41174E-04-4.90845E-05
 -1      8070 1.17263E-04 1.35815E-04-4.65439E-05
 -1      8071 1.41963E-04 1.36031E-04-4.84910E-05
 -1      8072 1.44661E-04 3.96373E-05-2.46209E-05
 -1      8073 1.45048E-04 6.14737E-05-2.36583E-05
 -1      8074-3.04458E-04 1.20029E-03-8.70482E-08
 -1      8075-5.15035E-04 1.25387E-03-2.16921E-07
 -1      8076 1.68688E-04 1.07079E-04-5.86250E-05
 -1      8077 1.70676E-04 1.18870E-04-5.59837E-05
 -1      8078 1.55755E-04 1.01638E-04-5.87993E-05
 -1      8079 1.16611E-04 4.67054E-05-3.63531E-05
 -1      8080 1.09455E-04 4.54709E-05-3.81639E-05
 -1      8081 1.13833E-04 4.89216E-05-4.03028E-05
 -1      8082 1.14406E-04 7.21883E-05-3.62478E-05
 -1      8083 1.06926E-04 6.73920E-05-3.81750E-05
 -1      8084 1.09370E-04 6.54981E-05-3.44350E-05
 -1      8085 1.62828E-04 3.35263E-05-1.42985E-06
 -1      8086 1.63036E-04 3.43505E-05-1.65935E-06
 -1      8087 1.61550E-04 2.51706E-05-1.54843E-06
 -1      8088 1.36810E-04 3.58353E-06-5.98929E-05
 -1      8089 1.64156E-04 8.42314E-06-8.80268E-06
 -1      8090 1.64047E-04 1.15145E-05-9.09362E-06
 -1      8091 1.47367E-04 1.22470E-05-1.46797E-05
 -1      8092 1.67269E-04 9.77505E-06-8.35019E-06
 -1      8093 1.67037E-04 1.53026E-05-8.23503E-06
 -1      8094 1.67042E-04 1.59111E-05-8.66252E-06
 -1      8095 1.65025E-04 3.65243E-06-4.02011E-05
 -1      8096 1.48092E-04 4.50199E-06-1.38919E-05
 -1      8097 1.64772E-04 5.18197E-06-1.46686E-05
 -1      8098 1.50770E-04 3.70243E-05-4.97984E-05
 -1      8099 1.46403E-04 3.65093E-05-4.81702E-05
 -1      8100 1.52112E-04 4.30698E-05-5.09084E-05
 -1      8101 1.47664E-04 4.18812E-05-4.92532E-05
 -1      8102 1.55302E-04 4.98338E-05-4.88365E-05
 -1      8103 1.45131E-04 1.13854E-05-4.14406E-05
 -1      8104 1.51384E-04 1.31627E-05-4.24438E-05
 -1      8105 1.52042E-04 8.56970E-06-4.14211E-05
 -1      8106 1.66764E-04 1.79865E-05-5.49609E-05
 -1      8107 1.13723E-04 1.07754E-04-5.46368E-06
 -1      8108 1.04802E-04 1.15878E-04-2.21810E-06
 -1      8109 1.16535E-04 1.42866E-04-5.23419E-06
 -1      8110 1.43304E-04 5.72506E-05-2.17237E-05
 -1      8111 1.36152E-04 5.55218E-05-2.04630E-05
 -1      8112 1.27782E-04 6.96385E-05-2.18541E-05
 -1      8113 1.36199E-04 8.50714E-05-2.13558E-05
 -1      8114 1.33944E-04 7.11563E-05-2.30805E-05
 -1      8115 1.75932E-04 1.01095E-04-4.49156E-05
 -1      8116 1.73575E-04 8.91044E-05-4.65923E-05
 -1      8117 1.73556E-04 8.91900E-05-4.51885E-05
 -1      8118 1.01198E-04 3.19682E-05-4.45993E-06
 -1      8119 1.10726E-04 2.73829E-05-7.55302E-06
 -1      8120 1.09770E-04 2.44841E-05-3.00156E-06
 -1      8121 1.04232E-04 3.57072E-05-2.34820E-06
 -1      8122 1.14077E-04 3.09433E-05-5.42104E-06
 -1      8123 1.04607E-04 4.01170E-05-6.83772E-06
 -1      8124 1.67299E-04 1.93729E-05-1.29505E-05
 -1      8125 1.66634E-04 8.60035E-06-1.30865E-05
 -1      8126 1.67132E-04 9.44690E-06-1.26461E-05
 -1      8127-3.73369E-04 7.00632E-04 4.08278E-07
 -1      8128 1.46372E-04 2.93469E-05-2.39983E-05
 -1      8129-1.14810E-05 3.67261E-04-7.57305E-06
 -1      8130-4.63621E-05 4.16183E-04-2.24781E-06
 -1      8131 1.64543E-04 1.86761E-05-2.63328E-05
 -1      8132 6.58487E-05 1.90950E-04-2.95879E-05
 -1      8133 1.50489E-04 3.12325E-06-2.56968E-05
 -1      8134 1.47815E-04 2.68526E-06-2.57916E-05
 -1      8135 1.51951E-04 3.65859E-06-6.69682E-05
 -1      8136 1.51889E-04 3.66395E-06-6.85569E-05
 -1      8137 1.49397E-04 3.24567E-06-6.79062E-05
 -1      8138 1.13791E-04 1.69028E-05-3.09600E-05
 -1      8139 1.11865E-04 2.08438E-05-2.78817E-05
 -1      8140 1.09522E-04 1.40726E-05-2.69769E-05
 -1      8141 1.38813E-04 3.13542E-05-5.18778E-05
 -1      8142 1.35598E-04 3.24138E-05-5.01017E-05
 -1      8143-2.07804E-04 5.28631E-04-9.95667E-07
 -1      8144 1.54058E-04 6.83139E-05-1.74897E-05
 -1      8145 1.52819E-04 9.76026E-05-1.69800E-05
 -1      8146 1.44720E-04 1.71454E-05-5.98243E-05
 -1      8147 1.44793E-04 1.42631E-05-5.87337E-05
 -1      8148 7.27335E-05 2.27394E-04-9.22611E-06
 -1      8149 6.26062E-05 2.21286E-04-4.26620E-06
 -1      8150 8.95827E-05 2.66856E-04-4.55834E-06
 -1      8151 9.48047E-05 2.34424E-04-7.94467E-06
 -1      8152 8.38978E-05 2.27696E-04-2.88643E-06
 -1      8153 6.77384E-05 1.87789E-04-7.70580E-06
 -1      8154-4.21578E-04 1.33107E-03-4.64694E-07
 -1      8155 1.39267E-04 6.81035E-05-8.73838E-06
 -1      8156 1.45821E-04 6.74307E-05-9.54845E-06
 -1      8157 1.42430E-04 3.98578E-05-8.83275E-06
 -1      8158 1.44697E-04 5.54381E-05-8.55395E-06
 -1      8159 1.52356E-04 5.43473E-05-9.66587E-06
 -1      8160 1.50489E-04 8.37703E-05-9.17327E-06
 -1      8161 1.35793E-04 1.03734E-05-6.86665E-05
 -1      8162 1.43620E-04 4.76545E-06-7.30215E-05
 -1      8163 1.42561E-04 9.92008E-06-7.11787E-05
 -1      8164 5.21048E-05 9.19254E-07-2.55761E-05
 -1      8165 6.51808E-05 2.00870E-06-3.22602E-05
 -1      8166 1.60264E-04 5.57503E-06-5.72117E-05
 -1      8167 1.73416E-04 7.47546E-05-3.59888E-05
 -1      8168-2.98068E-05 4.82547E-05-1.12550E-05
 -1      8169 5.74420E-05 7.55703E-06-4.19346E-06
 -1      8170 1.64349E-04 8.01345E-06-4.38219E-06
 -1      8171 1.23602E-04 6.76458E-06-6.90356E-05
 -1      8172 1.20914E-04 1.15915E-05-6.35058E-05
 -1      8173 1.18219E-04 1.21307E-05-6.56056E-05
 -1      8174 1.21820E-04 1.11240E-05-6.95873E-05
 -1      8175 1.18419E-04 1.80563E-05-6.34358E-05
 -1      8176 1.24568E-04 1.10436E-05-6.76738E-05
 -1      8177 1.68163E-04 3.47195E-05-5.97885E-05
 -1      8178 1.58200E-04 3.75138E-05-5.86137E-05
 -1      8179 1.67967E-04 4.74634E-05-5.77472E-05
 -1      8180 1.70590E-04 3.59397E-05-5.89062E-05
 -1      8181 1.59749E-04 3.81047E-05-5.78295E-05
 -1      8182 1.60238E-04 2.51280E-05-5.99157E-05
 -1      8183 1.57562E-04 3.90814E-06-3.33156E-06
 -1      8184 1.20353E-04 3.06807E-05-5.52423E-05
 -1      8185 1.22468E-04 3.81763E-05-6.07748E-05
 -1      8186 1.33051E-04 2.06662E-05-6.22095E-05
 -1      8187 1.16522E-04 3.39743E-05-5.71309E-05
 -1      8188 1.67718E-04 4.45981E-06-6.03049E-05
 -1      8189 1.66238E-04 3.54691E-06-6.11515E-05
 -1      8190 1.66761E-04 3.48430E-06-6.03438E-05
 -1      8191 1.67720E-04 3.06930E-05-6.74234E-05
 -1      8192 1.66687E-04 2.35189E-05-6.73575E-05
 -1      8193 1.68613E-04 3.16050E-05-6.65625E-05
 -1      8194 1.66724E-04 6.10708E-06-1.29203E-05
 -1      8195 1.28822E-04 2.33946E-05-4.55340E-05
 -1      8196 1.34037E-04 1.85938E-05-4.43251E-05
 -1      8197 1.23457E-04 2.35941E-05-4.16117E-05
 -1      8198 1.53323E-04 3.23373E-04-1.65677E-05
 -1      8199 1.57723E-04 3.52862E-04-1.35570E-05
 -1      8200 9.90109E-05 3.04472E-04-1.71435E-05
 -1      8201 1.66304E-04 1.38878E-05-2.32909E-06
 -1      8202 1.66846E-04 8.52223E-06-2.22183E-06
 -1      8203 1.66461E-04 1.42390E-05-2.06569E-06
 -1      8204-2.72857E-05 1.45012E-04-2.50634E-05
 -1      8205 1.16766E-04 6.71519E-05-2.89675E-05
 -1      8206 1.19706E-04 9.52783E-05-2.93822E-05
 -1      8207 1.20131E-04 7.26729E-05-2.77778E-05
 -1      8208 1.64348E-04 1.32615E-05-5.42963E-05
 -1      8209 1.42943E-04 8.74684E-06-7.37728E-05
 -1      8210 1.47262E-04 6.72462E-06-7.17427E-05
 -1      8211 1.40208E-04 7.39556E-05-1.56036E-05
 -1      8212 1.40886E-04 9.29367E-05-1.62752E-05
 -1      8213 1.57036E-04 8.99710E-05-1.54306E-05
 -1      8214 1.57574E-04 1.07873E-04-1.61712E-05
 -1      8215 1.44115E-04 8.50771E-05-1.47529E-05
 -1      8216-2.02408E-04 1.21812E-03 2.30044E-06
 -1      8217 9.39638E-05 3.06695E-04-4.04279E-06
 -1      8218 1.18217E-04 3.26169E-04-2.35079E-06
 -1      8219 1.13902E-04 2.86786E-04-2.62426E-06
 -1      8220 1.25611E-04 2.93549E-04-7.10290E-06
 -1      8221 1.47466E-04 3.57965E-06-5.16614E-05
 -1      8222 1.49592E-04 3.90886E-06-5.22107E-05
 -1      8223 1.65954E-04 5.08066E-05-6.02905E-05
 -1      8224 1.65802E-04 4.97014E-05-5.95865E-05
 -1      8225 1.51459E-04 8.18698E-05-6.08460E-05
 -1      8226 1.45468E-04 8.22150E-05-6.27859E-05
 -1      8227 1.46018E-04 7.24450E-05-6.62051E-05
 -1      8228 1.56410E-04 9.19171E-05-5.99504E-05
 -1      8229 1.52893E-04 7.20333E-05-6.41832E-05
 -1      8230 1.33014E-04 7.60567E-06-1.63969E-05
 -1      8231 1.36603E-04 1.12949E-05-1.71536E-05
 -1      8232 1.28475E-04 6.96886E-06-1.62660E-05
 -1      8233 1.32544E-04 9.54591E-06-1.70706E-05
 -1      8234 1.33797E-04 5.98143E-06-1.78419E-05
 -1      8235 1.50667E-04 7.21137E-05-2.11958E-05
 -1      8236 1.47809E-04 5.50538E-05-2.27886E-05
 -1      8237 1.40082E-04 8.36605E-05-2.25001E-05
 -1      8238 1.36850E-04 1.00340E-04-2.99222E-05
 -1      8239 1.42338E-04 1.24937E-04-2.94697E-05
 -1      8240 1.59797E-04 3.45097E-06-2.16018E-05
 -1      8241 1.62564E-04 2.80950E-05-1.47515E-05
 -1      8242 7.42160E-05 4.25135E-04-1.50700E-05
 -1      8243 1.68645E-04 5.68945E-05-1.24028E-05
 -1      8244 1.55767E-04 5.96306E-05-1.20664E-05
 -1      8245 1.61582E-04 3.28430E-06-6.71584E-05
 -1      8246 1.61926E-04 3.36532E-06-6.59708E-05
 -1      8247 1.63139E-04 3.82702E-06-6.64811E-05
 -1      8248 1.68628E-04 1.10461E-04-1.75565E-05
 -1      8249 1.51608E-04 9.86145E-06-5.27222E-05
 -1      8250 1.60763E-04 2.66978E-06-5.26934E-05
 -1      8251 1.59283E-04 8.12677E-06-5.23015E-05
 -1      8252 1.70028E-04 3.50980E-05-2.63943E-05
 -1      8253 1.59057E-04 2.84956E-05-2.59607E-05
 -1      8254 1.70139E-04 3.68198E-05-2.61931E-05
 -1      8255 1.68510E-04 5.36838E-05-2.36821E-05
 -1      8256 1.70552E-04 6.26723E-05-2.35160E-05
 -1      8257 1.67856E-04 3.80026E-05-2.32013E-05
 -1      8258 1.69764E-04 4.86654E-05-2.30870E-05
 -1      8259 1.58205E-04 4.53622E-05-2.39373E-05
 -1      8260 1.74338E-04 9.81565E-05-3.99966E-06
 -1      8261 1.75379E-04 1.04110E-04-4.68267E-06
 -1      8262 1.73302E-04 9.23432E-05-4.64338E-06
 -1      8263 6.56107E-05 9.19639E-05-3.84259E-05
 -1      8264 8.34824E-05 7.59676E-05-3.92504E-05
 -1      8265 7.02364E-05 9.18540E-05-4.21726E-05
 -1      8266 6.81942E-05 7.65065E-05-4.17296E-05
 -1      8267 8.59271E-05 6.03661E-05-4.27399E-05
 -1      8268 8.11223E-05 6.12267E-05-3.84485E-05
 -1      8269 1.35535E-04 3.08349E-04-2.54869E-06
 -1      8270 1.57390E-04 2.92767E-06-4.57791E-05
 -1      8271 1.07081E-04 3.86152E-04-1.28861E-05
 -1      8272 1.38152E-04 1.50321E-05-1.51401E-05
 -1      8273 1.42523E-04 2.14669E-05-1.39613E-05
 -1      8274-1.26206E-06-1.31759E-05-2.15747E-06
 -1      8275 1.34005E-04 2.97401E-05-3.98515E-06
 -1      8276 1.39156E-04 1.36947E-05-4.91769E-06
 -1      8277 1.33091E-04 2.76904E-05-5.52208E-06
 -1      8278 1.16727E-04 4.69071E-05-4.65894E-06
 -1      8279 1.22046E-04 2.99321E-05-5.66999E-06
 -1      8280 1.22849E-04 3.12169E-05-4.01999E-06
 -1      8281 1.56396E-04 2.99470E-06-6.31967E-05
 -1      8282 1.51141E-04 1.00743E-05-6.27297E-05
 -1      8283 1.56461E-04 3.02707E-06-6.19178E-05
 -1      8284 1.40649E-04 5.83473E-05-1.86527E-05
 -1      8285 1.43164E-04 6.02367E-05-1.67508E-05
 -1      8286 1.48878E-04 7.56252E-05-1.81571E-05
 -1      8287 1.50637E-04 6.58325E-05-1.93877E-05
 -1      8288 1.44878E-04 4.93336E-05-1.80008E-05
 -1      8289 1.48186E-04 3.28152E-06-3.83706E-05
 -1      8290 1.49722E-04 8.30337E-05-1.03793E-05
 -1      8291 1.56736E-04 7.21065E-05-1.01799E-05
 -1      8292 1.54551E-04 1.12778E-04-1.92863E-05
 -1      8293 1.72222E-04 1.27449E-04-1.80885E-05
 -1      8294 1.51836E-04 1.38233E-04-1.93372E-05
 -1      8295 1.68676E-04 1.49798E-04-1.97312E-05
 -1      8296 1.52789E-04 1.36861E-04-2.09213E-05
 -1      8297 1.67100E-04 2.40188E-05-4.26982E-05
 -1      8298 1.29990E-04 6.72211E-06-3.64650E-05
 -1      8299 1.28413E-04 2.75381E-05-2.41307E-05
 -1      8300 1.33964E-04 2.78801E-05-2.54959E-05
 -1      8301 1.29274E-04 3.90165E-05-2.75024E-05
 -1      8302 1.24148E-04 3.66608E-05-2.61680E-05
 -1      8303 7.85978E-05 6.50294E-06-2.27165E-05
 -1      8304 8.56810E-05 6.72678E-06-1.01183E-05
 -1      8305-3.73478E-04 1.02857E-04 7.51154E-06
 -1      8306-3.15389E-04 1.00123E-04 2.35901E-06
 -1      8307-2.60587E-04 8.75869E-05 2.08089E-06
 -1      8308-1.08318E-04 1.31841E-04-2.78198E-06
 -1      8309-7.93080E-05 1.26047E-04-9.04084E-06
 -1      8310-1.42243E-04 1.56730E-04-5.21588E-06
 -1      8311 1.68158E-04 7.44912E-05-2.81542E-05
 -1      8312 1.69759E-04 8.19394E-05-2.75551E-05
 -1      8313 1.69876E-04 8.22639E-05-2.84684E-05
 -1      8314-3.15182E-04 9.51401E-05 7.17728E-06
 -1      8315 1.64082E-04 7.64750E-06-6.76748E-05
 -1      8316 1.67836E-04 2.58122E-05-3.63476E-05
 -1      8317 1.69602E-04 3.63822E-05-3.64894E-05
 -1      8318 1.70618E-04 3.45332E-05-3.55133E-05
 -1      8319 1.72670E-04 4.38593E-05-3.56395E-05
 -1      8320 1.61530E-04 2.96594E-05-3.57493E-05
 -1      8321 1.49972E-04 4.66025E-06-5.46228E-05
 -1      8322 1.52348E-04 5.40951E-06-5.38698E-05
 -1      8323 1.49718E-04 9.17708E-06-4.65478E-05
 -1      8324 3.57780E-05 2.00190E-04-4.20457E-06
 -1      8325 3.84914E-05 2.43812E-04-3.77024E-06
 -1      8326 1.57070E-04 1.61346E-05-4.83841E-05
 -1      8327 4.35319E-05 3.98415E-04-4.93864E-06
 -1      8328-1.53844E-05 3.68999E-04-2.96592E-06
 -1      8329 1.71019E-04 9.08039E-05-4.08141E-05
 -1      8330 1.71136E-04 9.18843E-05-3.94623E-05
 -1      8331 1.73842E-04 1.04670E-04-3.93012E-05
 -1      8332 1.67776E-04 3.45969E-05-1.98933E-05
 -1      8333 1.66590E-04 2.65495E-05-2.00766E-05
 -1      8334 1.66034E-04 2.50527E-05-1.96763E-05
 -1      8335 1.66812E-04 8.49695E-06-3.74051E-05
 -1      8336 1.66576E-04 1.39370E-05-3.69267E-05
 -1      8337 1.66787E-04 1.39912E-05-3.73422E-05
 -1      8338 1.53654E-04 3.55130E-06-8.12522E-05
 -1      8339 1.52435E-04 3.25718E-06-7.97099E-05
 -1      8340 1.54159E-04 3.68466E-06-7.97088E-05
 -1      8341 1.64268E-04 3.85321E-05-1.46936E-05
 -1      8342 1.58099E-04 2.27578E-06-5.23409E-05
 -1      8343 1.13913E-04 1.01750E-05-6.53253E-05
 -1      8344 1.18987E-04 5.85521E-06-6.25520E-05
 -1      8345 1.28651E-04 6.53820E-05-5.53723E-05
 -1      8346 1.51449E-04 4.26735E-06-2.00855E-05
 -1      8347-1.13957E-06-2.27579E-05 4.79790E-07
 -1      8348 1.66733E-04 5.08186E-06-6.22787E-05
 -1      8349 1.39703E-04 3.26726E-06-7.28441E-05
 -1      8350 1.37176E-04 2.93874E-06-7.17289E-05
 -1      8351 1.33629E-04 7.63053E-06-6.88523E-05
 -1      8352 1.31965E-04 1.14451E-04-4.83378E-05
 -1      8353 1.39018E-04 1.43920E-04-4.46655E-05
 -1      8354 1.72796E-04 4.39063E-05-3.50646E-05
 -1      8355 1.33185E-04 9.27783E-06-2.11082E-05
 -1      8356 1.22794E-04 1.00297E-05-1.97314E-05
 -1      8357 1.26166E-04 1.25506E-05-1.95959E-05
 -1      8358 1.38000E-04 9.32618E-06-1.94108E-05
 -1      8359 1.27148E-04 1.00521E-05-1.81570E-05
 -1      8360 1.33581E-04 7.06838E-06-1.96260E-05
 -1      8361 1.50333E-04 2.77498E-06-1.72963E-05
 -1      8362 1.47012E-04 2.38963E-06-1.71740E-05
 -1      8363 1.48996E-04 2.63313E-06-1.68056E-05
 -1      8364 1.68884E-04 5.75898E-05-5.12313E-05
 -1      8365 1.68403E-04 5.58011E-05-5.05405E-05
 -1      8366 1.78742E-04 2.90466E-04-2.03229E-05
 -1      8367 1.21327E-04 2.70904E-04-2.10374E-05
 -1      8368 1.16800E-04 2.77592E-04-1.65834E-05
 -1      8369-4.46962E-06 1.24007E-04-2.93202E-05
 -1      8370-2.40646E-05 1.03030E-04-2.23959E-05
 -1      8371 1.65608E-04 4.90311E-06-5.53738E-05
 -1      8372 1.65530E-04 4.59981E-06-5.63090E-05
 -1      8373 1.37867E-04 8.87813E-05-2.34559E-05
 -1      8374 1.53051E-04 7.67658E-05-2.31988E-05
 -1      8375 1.67103E-04 1.36656E-05-4.56509E-05
 -1      8376 1.67220E-04 6.61304E-06-4.56974E-05
 -1      8377 1.67169E-04 1.48445E-05-4.52476E-05
 -1      8378 1.19428E-04 1.96565E-05-9.21018E-06
 -1      8379 1.26460E-04 1.41210E-05-7.65851E-06
 -1      8380 1.26368E-04 1.42795E-05-1.07985E-05
 -1      8381 1.23300E-04 1.16924E-05-1.15580E-05
 -1      8382 1.28882E-04 7.36990E-06-9.92973E-06
 -1      8383 1.69855E-04 1.08137E-04-2.08107E-05
 -1      8384 1.68911E-04 1.03298E-04-2.01796E-05
 -1      8385 1.58578E-04 9.25806E-05-2.05973E-05
 -1      8386 8.74416E-05 4.61180E-05-1.77244E-05
 -1      8387 7.99926E-05 6.43721E-05-1.66850E-05
 -1      8388 7.37331E-05 6.53915E-05-2.01560E-05
 -1      8389 1.55331E-04 4.09082E-06-8.01484E-05
 -1      8390 1.63532E-04 3.17666E-06-4.05535E-05
 -1      8391 1.64917E-04 3.69582E-06-4.06486E-05
 -1      8392 1.70835E-04 4.14386E-05-5.39767E-05
 -1      8393 1.72707E-04 5.01371E-05-5.36121E-05
 -1      8394 1.72413E-04 4.91875E-05-5.21768E-05
 -1      8395 1.62231E-04 3.92384E-05-5.31238E-05
 -1      8396 1.70485E-04 4.03322E-05-5.24825E-05
 -1      8397 1.69613E-04 7.44728E-05-8.74292E-06
 -1      8398 1.72899E-04 7.64287E-05-7.03190E-06
 -1      8399 1.58326E-04 6.56658E-05-8.01537E-06
 -1      8400 1.71150E-04 6.72204E-05-7.58783E-06
 -1      8401 4.79427E-06 1.44054E-04-6.03751E-06
 -1      8402 1.65906E-05 1.11440E-04-9.93072E-06
 -1      8403 1.23875E-05 1.31131E-04-1.27755E-05
 -1      8404 1.68505E-04 1.59509E-05-3.99101E-05
 -1      8405 1.66467E-04 4.74377E-05-1.32071E-05
 -1      8406 1.64846E-04 3.99043E-05-1.32543E-05
 -1      8407 1.07688E-04 3.17139E-06-3.15775E-05
 -1      8408 9.00095E-05 2.44945E-06-2.73461E-05
 -1      8409 8.08549E-05 1.89349E-06-2.42030E-05
 -1      8410 8.01225E-05 4.66781E-06-2.69522E-05
 -1      8411 8.13742E-05 1.87895E-06-2.60495E-05
 -1      8412 1.57427E-04 1.79283E-05-4.92459E-05
 -1      8413 1.50511E-04 3.10829E-05-4.28135E-05
 -1      8414 1.55971E-04 2.50824E-06-1.58554E-05
 -1      8415 1.57344E-04 2.80582E-06-1.62833E-05
 -1      8416 1.54666E-04 2.37996E-06-1.63824E-05
 -1      8417 6.23402E-05 1.27061E-04-3.47310E-06
 -1      8418 6.09794E-05 1.54250E-04-8.22979E-06
 -1      8419 4.96978E-05 1.57002E-04-4.83692E-06
 -1      8420 4.68883E-05 1.08626E-04-3.61302E-06
 -1      8421 5.74896E-05 1.03745E-04-7.41063E-06
 -1      8422 1.35408E-04 2.62466E-06-7.21144E-05
 -1      8423 1.34332E-04 2.60175E-06-7.01249E-05
 -1      8424 1.19615E-04 5.99643E-06-6.66780E-05
 -1      8425 1.13626E-04 5.48396E-06-6.21151E-05
 -1      8426 1.68949E-04 8.11200E-05-4.21764E-05
 -1      8427 1.59873E-04 7.22754E-05-4.32934E-05
 -1      8428 1.38572E-04 3.54029E-05-2.00617E-05
 -1      8429 1.42564E-04 3.58575E-05-1.82206E-05
 -1      8430 1.33349E-04 4.44311E-05-1.90422E-05
 -1      8431 1.65821E-04 9.43900E-06-6.50242E-05
 -1      8432 1.65977E-04 6.24401E-06-6.49539E-05
 -1      8433 1.66188E-04 9.99132E-06-6.44395E-05
 -1      8434 9.06669E-05 1.74077E-04-2.33616E-05
 -1      8435 1.04870E-04 1.42863E-04-3.01598E-05
 -1      8436 9.72894E-05 1.83866E-04-2.54432E-05
 -1      8437 7.56290E-05 1.69888E-04-2.63512E-05
 -1      8438 8.94913E-05 1.38984E-04-3.35512E-05
 -1      8439 8.38853E-05 1.29769E-04-3.11913E-05
 -1      8440 1.70644E-04 4.04995E-05-8.55388E-06
 -1      8441 1.62117E-04 4.25294E-06-1.99477E-05
 -1      8442 1.28986E-04 1.25123E-05-2.53228E-05
 -1      8443 1.38684E-04 7.96480E-06-2.70338E-05
 -1      8444 1.29959E-04 1.21937E-05-2.80074E-05
 -1      8445 1.39924E-04 7.49740E-06-2.97710E-05
 -1      8446 9.56696E-06 6.36088E-06-1.40701E-05
 -1      8447 1.01348E-05-4.49424E-06-1.24084E-05
 -1      8448 1.35172E-04 1.29512E-05-4.75774E-05
 -1      8449 1.44089E-04 9.30806E-06-4.89404E-05
 -1      8450 1.35557E-04 1.52084E-05-4.58575E-05
 -1      8451 1.37198E-04 2.09990E-05-4.69274E-05
 -1      8452 1.58531E-04 4.45586E-06-5.10353E-06
 -1      8453 1.60024E-04 5.21435E-06-5.34798E-06
 -1      8454 1.59064E-04 4.63491E-06-5.51099E-06
 -1      8455 1.67452E-04 9.39458E-05-6.17489E-06
 -1      8456 1.59303E-04 4.51928E-06-4.32060E-06
 -1      8457 1.57749E-04 3.87109E-06-4.16779E-06
 -1      8458 1.59331E-04 4.51192E-06-4.12235E-06
 -1      8459 1.68233E-04 7.32965E-06-2.82609E-05
 -1      8460 1.68191E-04 1.32168E-05-2.79866E-05
 -1      8461 1.67695E-04 1.26828E-05-2.83412E-05
 -1      8462 1.29537E-04 3.46483E-06-5.30375E-05
 -1      8463 1.26222E-04 3.13456E-06-5.16103E-05
 -1      8464 1.29285E-04 3.50793E-06-5.09677E-05
 -1      8465 1.51120E-04 3.94225E-05-1.90646E-05
 -1      8466 1.67562E-04 1.57120E-04-4.64214E-05
 -1      8467 1.51736E-04 1.34536E-04-4.98936E-05
 -1      8468 1.66819E-04 1.48159E-04-4.74778E-05
 -1      8469 1.71110E-04 2.02916E-04-6.59808E-06
 -1      8470 1.70131E-04 1.97693E-04-8.15272E-06
 -1      8471 1.67745E-04 1.86311E-04-6.75298E-06
 -1      8472 1.53520E-04 2.89142E-04-2.23777E-05
 -1      8473 1.74459E-04 2.62100E-04-2.24870E-05
 -1      8474 1.17806E-04 2.95835E-05-5.18659E-05
 -1      8475 1.30983E-04 2.29667E-05-5.21083E-05
 -1      8476 1.16973E-04 3.78656E-05-5.14098E-05
 -1      8477 1.46595E-04 8.72336E-05-7.91932E-06
 -1      8478 1.65934E-04 2.23886E-05-5.69283E-05
 -1      8479 1.66790E-04 3.00185E-05-5.71751E-05
 -1      8480 1.65619E-04 2.03358E-05-5.75224E-05
 -1      8481 7.44971E-05 1.71912E-04-2.05298E-05
 -1      8482 8.27164E-05 1.32011E-04-2.43218E-05
 -1      8483 1.54597E-04 2.86198E-06-3.26269E-05
 -1      8484 1.53422E-04 2.68052E-06-3.18985E-05
 -1      8485 1.55624E-04 2.97883E-06-3.20340E-05
 -1      8486 1.57180E-04 2.37870E-05-1.08014E-05
 -1      8487 8.20549E-05 4.27718E-04-1.11994E-05
 -1      8488-4.93579E-05 7.03742E-04-1.03650E-06
 -1      8489-6.51530E-05 6.24717E-04-2.62619E-06
 -1      8490 3.42259E-06 6.50556E-04-3.40303E-06
 -1      8491 1.67935E-04 7.46502E-05-6.51452E-05
 -1      8492 1.69021E-04 7.67045E-05-6.40487E-05
 -1      8493 1.71637E-04 5.78056E-05-6.69423E-05
 -1      8494 1.59729E-04 6.55199E-05-6.62509E-05
 -1      8495 1.70935E-04 5.51129E-05-6.83666E-05
 -1      8496 1.61873E-04 4.92917E-05-7.15851E-05
 -1      8497 1.61246E-04 4.88244E-05-7.23218E-05
 -1      8498 8.11775E-05 8.71041E-06-2.09644E-05
 -1      8499 9.20202E-05 8.33461E-06-2.60204E-05
 -1      8500 1.58844E-04 6.49231E-06-1.08183E-05
 -1      8501 1.57887E-04 5.66338E-06-1.08959E-05
 -1      8502 1.62979E-04 3.38933E-06-1.10400E-05
 -1      8503 1.61432E-04 2.97837E-06-1.11818E-05
 -1      8504 1.54786E-04 1.10008E-05-1.12159E-05
 -1      8505 1.46171E-04 1.35176E-05-4.75403E-05
 -1      8506 1.57113E-04 4.29471E-05-3.04271E-05
 -1      8507 1.68874E-04 4.76362E-05-2.99798E-05
 -1      8508 1.67188E-04 4.73972E-05-3.10094E-05
 -1      8509 1.58596E-04 3.60650E-05-3.11634E-05
 -1      8510 1.71452E-04 4.13356E-05-3.06092E-05
 -1      8511 1.59815E-04 3.58471E-05-2.99830E-05
 -1      8512 1.49429E-04 2.84174E-05-2.81142E-05
 -1      8513 1.50703E-04 3.31352E-05-2.67375E-05
 -1      8514 1.53455E-04 5.02368E-05-2.79005E-05
 -1      8515 1.57572E-04 1.63475E-05-6.52079E-06
 -1      8516 7.61760E-05 7.32426E-06-1.63250E-05
 -1      8517 1.22738E-04 7.55159E-06-3.12508E-05
 -1      8518 1.22638E-04 5.49075E-06-2.78632E-05
 -1      8519 1.69441E-04 5.80664E-05-2.41176E-05
 -1      8520 1.44249E-04 1.59508E-05-2.47545E-05
 -1      8521 1.43581E-04 1.46137E-05-2.60631E-05
 -1      8522 1.35614E-04 8.52770E-06-1.76287E-06
 -1      8523 1.38106E-04 1.14058E-05-1.64642E-06
 -1      8524 1.42649E-04 9.02551E-06-2.57759E-06
 -1      8525 1.39248E-04 7.55679E-06-9.33818E-07
 -1      8526 1.39458E-04 6.45892E-06-2.73420E-06
 -1      8527 1.67218E-04 8.10571E-06-3.70101E-05
 -1      8528 1.39388E-04 3.44579E-06-4.73965E-05
 -1      8529 1.41517E-04 6.05659E-05-7.28556E-06
 -1      8530 1.45159E-04 5.48752E-05-5.84618E-06
 -1      8531 1.47628E-04 5.51520E-05-6.72292E-06
 -1      8532-2.91722E-04 4.85253E-04 4.05410E-07
 -1      8533-2.53574E-04 5.49033E-04-4.03295E-07
 -1      8534 7.43056E-05 1.95373E-05-2.17820E-05
 -1      8535 7.12023E-05 2.70102E-05-1.76154E-05
 -1      8536 8.95745E-05 1.40628E-05-1.45523E-05
 -1      8537 7.01197E-05 1.67965E-05-1.70996E-05
 -1      8538 1.70146E-04 5.73161E-05-3.93956E-05
 -1      8539 1.68611E-04 5.29865E-05-4.05501E-05
 -1      8540 1.67007E-04 7.30562E-05-4.03410E-05
 -1      8541 1.67217E-04 2.68830E-05-6.49555E-05
 -1      8542 1.65969E-04 1.82995E-05-6.48355E-05
 -1      8543 1.34372E-04 6.99627E-05-1.02200E-05
 -1      8544 4.05037E-05 4.67750E-04-8.45371E-06
 -1      8545 1.39714E-04 2.45792E-05-6.02547E-05
 -1      8546 3.40184E-05 1.13643E-05-2.22633E-05
 -1      8547 2.40418E-05 1.59451E-05-2.65232E-05
 -1      8548 3.79889E-05 2.32755E-05-2.97506E-05
 -1      8549 9.31010E-05 2.21307E-06-3.62576E-05
 -1      8550 8.85477E-05 1.79139E-06-3.31239E-05
 -1      8551 9.29441E-05 2.27754E-06-3.39237E-05
 -1      8552 1.66085E-04 4.44930E-06-3.00442E-05
 -1      8553 1.64882E-04 3.72182E-06-2.99673E-05
 -1      8554 1.66018E-04 4.39116E-06-2.97275E-05
 -1      8555 1.55452E-04 1.15654E-05-4.32703E-06
 -1      8556 1.76182E-04 1.15525E-04-1.42682E-05
 -1      8557 1.75648E-04 1.12551E-04-1.52299E-05
 -1      8558 1.67750E-04 1.42718E-04-1.42210E-05
 -1      8559 1.67266E-04 1.40117E-04-1.51117E-05
 -1      8560 1.55727E-04 1.30497E-04-1.45644E-05
 -1      8561 1.45884E-04 3.15094E-04-2.49590E-05
 -1      8562 1.80401E-04 3.24560E-04-2.26851E-05
 -1      8563 1.21784E-04 2.86731E-04-2.37742E-05
 -1      8564 1.74681E-04 1.41249E-04-3.27088E-05
 -1      8565 1.50034E-04 3.42165E-06-5.49550E-06
 -1      8566 1.48056E-04 3.12989E-06-6.18369E-06
 -1      8567 1.70288E-04 5.11267E-05-2.15764E-05
 -1      8568 1.68930E-04 4.45049E-05-2.17684E-05
 -1      8569 1.68563E-04 4.29848E-05-2.16203E-05
 -1      8570 1.46487E-04 1.02282E-05-2.78830E-05
 -1      8571 1.38756E-04 2.41340E-05-2.81710E-05
 -1      8572 6.97786E-05 4.43623E-04-2.75518E-06
 -1      8573 7.15819E-06 1.23895E-04-6.26587E-06
 -1      8574 3.38939E-05 1.02712E-04-3.53447E-06
 -1      8575 1.25591E-04 4.26694E-05-4.93948E-05
 -1      8576 1.54163E-04 1.23877E-05-2.52789E-05
 -1      8577 1.53557E-04 1.06143E-05-2.66828E-05
 -1      8578 1.50923E-04 9.93594E-06-2.51859E-05
 -1      8579 1.49710E-04 9.22206E-06-2.65203E-05
 -1      8580-9.59602E-05 3.17968E-04-1.14040E-05
 -1      8581 1.68841E-04 4.19149E-05-4.54625E-05
 -1      8582 1.68748E-04 4.11640E-05-4.50142E-05
 -1      8583 1.56364E-04 2.73910E-06-3.58636E-05
 -1      8584 1.53634E-04 2.31739E-06-3.63249E-05
 -1      8585 1.50996E-04 9.35186E-06-3.55934E-05
 -1      8586 1.68721E-04 2.44193E-05-4.10749E-05
 -1      8587 1.59333E-04 3.12974E-06-4.51292E-05
 -1      8588 1.59581E-04 2.23985E-06-4.33628E-05
 -1      8589 1.61983E-04 2.59094E-06-4.36066E-05
 -1      8590 1.57373E-04 6.13305E-06-4.43604E-05
 -1      8591 8.49348E-05 5.64544E-05-2.51396E-05
 -1      8592 7.27414E-05 7.28616E-05-2.35141E-05
 -1      8593 9.34318E-05 6.48303E-05-2.56757E-05
 -1      8594 8.86342E-05 7.87096E-05-2.75063E-05
 -1      8595 1.65148E-04 6.17907E-06-1.64191E-05
 -1      8596 1.65341E-04 5.44469E-06-1.65384E-05
 -1      8597 1.64022E-04 4.45111E-06-1.62775E-05
 -1      8598 1.57493E-04 4.29063E-06-3.98964E-05
 -1      8599 1.67781E-04 8.68096E-06-4.03944E-05
 -1      8600 1.67654E-04 1.27131E-05-4.06337E-05
 -1      8601 1.68124E-04 7.50508E-06-4.10085E-05
 -1      8602 1.13659E-04 1.27223E-05-3.10650E-05
 -1      8603 1.64884E-04 8.26356E-06-2.61198E-05
 -1      8604 1.44726E-04 8.59003E-05-2.98736E-05
 -1      8605 1.36031E-04 7.46146E-05-2.82842E-05
 -1      8606-8.49823E-05 5.63937E-04-4.97626E-06
 -1      8607-8.10635E-05 6.09518E-04-3.52158E-06
 -1      8608-6.87867E-05 6.83102E-04-1.51683E-06
 -1      8609-2.08082E-05 5.87563E-04-5.69679E-06
 -1      8610-1.52178E-05 6.34272E-04-3.93250E-06
 -1      8611 1.67725E-04 3.74889E-05-9.30101E-06
 -1      8612 1.67434E-04 3.70017E-05-9.81169E-06
 -1      8613 1.65443E-04 2.69089E-05-9.64739E-06
 -1      8614 1.32872E-04 2.76544E-06-4.68607E-05
 -1      8615 1.72165E-04 4.73102E-05-5.14780E-05
 -1      8616 1.59712E-04 4.81086E-05-5.07158E-05
 -1      8617 1.64297E-04 4.71820E-06-1.39448E-05
 -1      8618 1.61612E-04 1.09392E-05-4.00092E-05
 -1      8619 1.57542E-04 1.09674E-04-5.36654E-05
 -1      8620 1.74169E-04 1.24701E-04-5.09704E-05
 -1      8621 1.54186E-04 1.42454E-04-4.71964E-05
 -1      8622 1.29208E-04 3.02371E-06-6.64984E-06
 -1      8623 1.04250E-04 3.55959E-04-3.54528E-06
 -1      8624 1.11725E-04 3.23782E-04-7.92477E-06
 -1      8625 1.36606E-04 3.43461E-04-6.13382E-06
 -1      8626-1.94216E-05-4.20028E-05 8.64995E-06
 -1      8627-8.96975E-05-5.15254E-05 5.99127E-06
 -1      8628 1.65591E-04 6.57795E-06-6.62893E-05
 -1      8629 1.55387E-04 3.96983E-06-7.86429E-05
 -1      8630 1.56703E-04 4.65253E-06-7.89844E-05
 -1      8631 1.80251E-05-1.38822E-05-3.59224E-07
 -1      8632 1.30317E-04 3.09974E-05-3.93583E-05
 -1      8633 1.23815E-04 2.48252E-06-4.01912E-05
 -1      8634 1.50207E-04 1.22411E-06-8.34653E-05
 -1      8635 1.50751E-04 1.44671E-06-8.27140E-05
 -1      8636 1.47352E-04 2.32767E-06-7.92363E-05
 -1      8637 1.45868E-04 3.36693E-06-8.07597E-05
 -1      8638 1.46711E-04 2.14131E-06-8.00208E-05
 -1      8639 1.63315E-04 1.08179E-05-7.75652E-05
 -1      8640 1.63015E-04 1.54329E-05-7.74808E-05
 -1      8641 1.63106E-04 1.02562E-05-7.87408E-05
 -1      8642 1.17900E-04 3.26500E-06-4.52806E-06
 -1      8643 1.28780E-04 1.57017E-05-2.30360E-05
 -1      8644 1.23232E-04 2.48516E-05-2.01640E-05
 -1      8645 1.21718E-04 1.91740E-05-2.03219E-05
 -1      8646 1.25987E-04 1.21810E-05-2.31529E-05
 -1      8647 1.65139E-04 7.20725E-06-5.03728E-05
 -1      8648 1.65288E-04 6.97029E-06-5.08731E-05
 -1      8649 1.59068E-04 1.88578E-05-5.02072E-05
 -1      8650 1.06255E-04 3.38134E-06-4.37911E-05
 -1      8651 1.18229E-04 1.24330E-05-1.30212E-05
 -1      8652 1.04619E-04 1.57669E-05-1.41540E-05
 -1      8653 1.05166E-04 2.24914E-05-1.36187E-05
 -1      8654 1.10726E-04 2.75855E-05-1.05686E-05
 -1      8655 9.71613E-05 2.89862E-05-1.18566E-05
 -1      8656 1.11226E-04 1.82880E-05-1.13289E-05
 -1      8657 1.69392E-04 4.09774E-06-4.38843E-05
 -1      8658 1.67817E-04 3.22626E-06-4.37943E-05
 -1      8659 1.69137E-04 4.50446E-06-4.34433E-05
 -1      8660 1.65493E-04 4.05201E-06-5.77290E-05
 -1      8661 1.66481E-04 5.45674E-06-5.78678E-05
 -1      8662 1.65467E-04 4.14758E-06-5.82980E-05
 -1      8663 7.63007E-05 1.45907E-06-2.16206E-05
 -1      8664 7.69482E-05 1.44959E-06-2.42440E-05
 -1      8665 1.64610E-04 4.05173E-06-1.11264E-05
 -1      8666 1.64072E-04 4.05387E-06-3.77941E-05
 -1      8667 1.63901E-04 3.97626E-06-3.74205E-05
 -1      8668 1.65133E-04 4.98725E-06-3.75412E-05
 -1      8669 1.66003E-04 8.27515E-06-2.14792E-05
 -1      8670 1.48226E-04 4.24131E-06-2.91228E-05
 -1      8671 1.48377E-04 4.29890E-06-2.98115E-05
 -1      8672 1.52805E-04 3.12489E-06-2.99350E-05
 -1      8673 1.46292E-04 8.30244E-06-2.87822E-05
 -1      8674 1.52466E-04 3.15203E-06-2.92979E-05
 -1      8675-1.93282E-04 2.14072E-04-2.96455E-06
 -1      8676-1.79831E-04 1.95391E-04-2.05411E-06
 -1      8677 1.32646E-04 1.69804E-04-1.57156E-05
 -1      8678 1.11038E-04 1.24551E-04-1.92042E-05
 -1      8679 1.37739E-04 1.42758E-04-1.92268E-05
 -1      8680 1.20883E-04 1.40408E-04-2.08065E-05
 -1      8681 1.44125E-04 1.85184E-04-1.70692E-05
 -1      8682 1.29874E-04 4.63638E-06-3.10720E-05
 -1      8683-6.57749E-05 1.04642E-04-1.73396E-05
 -1      8684-4.04882E-05 9.40074E-05-2.34861E-05
 -1      8685 1.65821E-04 1.00158E-05-1.89809E-05
 -1      8686 4.43984E-05-2.78400E-06-1.63862E-05
 -1      8687 1.74355E-04 1.75234E-04-8.60692E-06
 -1      8688 1.46107E-04 1.72075E-04-7.60158E-06
 -1      8689 1.76609E-04 1.86974E-04-1.00450E-05
 -1      8690 2.69486E-05 1.77297E-04-2.36175E-05
 -1      8691 5.82574E-05 1.47016E-04-3.27894E-05
 -1      8692 1.58759E-04 3.38642E-05-2.18427E-05
 -1      8693 1.11981E-04 8.74661E-07-5.90963E-05
 -1      8694 1.13711E-04 1.27633E-06-6.00066E-05
 -1      8695 1.13706E-04 3.58126E-06-6.11490E-05
 -1      8696 1.10732E-04 1.72764E-06-5.70550E-05
 -1      8697 1.54238E-04 4.17473E-05-3.40865E-05
 -1      8698 1.48023E-04 4.24143E-05-3.48737E-05
 -1      8699 1.52807E-04 6.92206E-05-3.33533E-05
 -1      8700 1.70891E-04 1.13132E-04-1.99972E-05
 -1      8701 1.43657E-04 2.82056E-06-6.60888E-05
 -1      8702 1.40403E-04 4.52004E-06-2.08093E-05
 -1      8703 1.43661E-04 5.34414E-06-2.06251E-05
 -1      8704 1.39542E-04 2.83555E-06-1.92653E-05
 -1      8705 1.43213E-04 3.28007E-06-1.91055E-05
 -1      8706 1.31703E-04 4.70467E-05-6.17360E-06
 -1      8707 1.35167E-04 4.06329E-05-4.73336E-06
 -1      8708 1.04353E-04 7.92056E-06-3.62984E-05
 -1      8709 1.08778E-04 3.80828E-06-4.04892E-05
 -1      8710 1.11837E-04 6.92371E-06-4.08721E-05
 -1      8711 1.74220E-04 1.08724E-04-3.76652E-05
 -1      8712 1.71676E-04 9.63503E-05-3.77842E-05
 -1      8713 1.56359E-04 8.63920E-05-3.89043E-05
 -1      8714 1.46555E-04 3.15917E-05-5.97773E-05
 -1      8715 1.63356E-04 8.37340E-05-5.44678E-05
 -1      8716 1.62732E-04 8.08168E-05-5.39865E-05
 -1      8717 1.52205E-04 6.96686E-05-5.47314E-05
 -1      8718 1.48854E-04 9.99602E-06-5.21359E-05
 -1      8719 1.55601E-04 6.71899E-06-5.06782E-05
 -1      8720 1.16111E-04 1.79333E-05-9.80781E-06
 -1      8721 1.38200E-04 2.93143E-06-7.34690E-05
 -1      8722 1.79976E-04 1.63877E-04-4.17966E-05
 -1      8723 1.79675E-04 1.59736E-04-4.08843E-05
 -1      8724 1.82633E-04 1.79896E-04-3.89153E-05
 -1      8725 1.56399E-04 3.39178E-05-4.86036E-05
 -1      8726 1.55161E-04 2.93826E-05-4.93888E-05
 -1      8727 1.59830E-04 2.60164E-05-5.04137E-05
 -1      8728 1.57940E-04 4.18488E-05-4.88341E-05
 -1      8729 1.61637E-04 3.18625E-05-4.96747E-05
 -1      8730 1.35891E-04 1.15673E-04-3.99355E-05
 -1      8731 1.32466E-04 8.85337E-05-4.05159E-05
 -1      8732 1.45266E-04 1.27791E-04-3.78250E-05
 -1      8733 1.53135E-04 1.38341E-04-3.92479E-05
 -1      8734 1.49472E-04 1.12874E-04-4.02393E-05
 -1      8735 1.50747E-04 3.95579E-05-3.23669E-05
 -1      8736 1.55811E-04 3.59831E-05-3.34888E-05
 -1      8737 1.54072E-04 6.52546E-05-3.27958E-05
 -1      8738 1.66968E-04 6.14547E-05-3.67332E-05
 -1      8739 1.66194E-04 5.78676E-05-3.72836E-05
 -1      8740 7.97942E-05 7.96858E-05-2.95168E-05
 -1      8741 1.67298E-04 1.67791E-05-3.06320E-05
 -1      8742 1.67689E-04 1.00357E-05-3.07828E-05
 -1      8743 1.67812E-04 1.70626E-05-3.05588E-05
 -1      8744 4.28477E-05 1.98066E-04-1.86548E-05
 -1      8745 1.68882E-04 3.53676E-05-4.54258E-06
 -1      8746 1.67960E-04 3.41982E-05-4.82492E-06
 -1      8747 1.66918E-04 2.65273E-05-4.57098E-06
 -1      8748 1.48124E-04 3.18320E-06-5.54359E-05
 -1      8749 1.45725E-04 2.95718E-06-5.62756E-05
 -1      8750 1.64551E-04 2.85897E-05-2.98410E-06
 -1      8751 1.66240E-04 3.76896E-05-2.89886E-06
 -1      8752 1.63648E-04 6.23074E-06-1.25604E-05
 -1      8753 1.53886E-04 1.76697E-05-1.27687E-05
 -1      8754 1.58778E-04 1.60896E-05-1.27148E-05
 -1      8755 1.47632E-04 5.99392E-06-3.18903E-05
 -1      8756 1.48565E-04 6.30227E-06-3.12333E-05
 -1      8757 1.39395E-04 9.60719E-06-3.12428E-05
 -1      8758 1.76196E-04 2.72122E-04-1.90325E-05
 -1      8759 1.50823E-04 3.05551E-04-1.53541E-05
 -1      8760 1.68409E-04 3.27126E-06-4.67631E-05
 -1      8761 1.69624E-04 4.40879E-06-4.68368E-05
 -1      8762 1.68275E-04 3.27713E-06-4.71590E-05
 -1      8763 1.40548E-04 3.21377E-06-1.34265E-05
 -1      8764-2.06241E-04 1.71137E-04-1.09761E-06
 -1      8765-2.10134E-04 2.41103E-04-1.06086E-06
 -1      8766-2.80728E-04 2.46543E-04 8.87576E-07
 -1      8767-2.67515E-04 2.95874E-04 9.31839E-07
 -1      8768-2.62772E-04 2.20402E-04 1.08127E-06
 -1      8769 1.67534E-04 7.83992E-06-2.24121E-05
 -1      8770 1.67497E-04 1.30898E-05-2.26992E-05
 -1      8771 1.67831E-04 7.64066E-06-2.26608E-05
 -1      8772 1.09828E-04 5.77098E-05-5.04314E-05
 -1      8773 1.15855E-04 6.70928E-05-5.29223E-05
 -1      8774 8.35912E-05 5.10686E-05-4.66950E-05
 -1      8775 9.16427E-05 3.78538E-05-5.00174E-05
 -1      8776 8.76479E-05 3.85802E-05-5.25697E-05
 -1      8777 1.35149E-04 1.72176E-06-9.10046E-07
 -1      8778 1.37676E-04 1.88471E-06-7.74681E-07
 -1      8779 1.36325E-04 5.55257E-06-1.79640E-06
 -1      8780 1.38279E-04 3.32505E-06-2.55756E-06
 -1      8781 1.35861E-04 3.02798E-06-2.71313E-06
 -1      8782 5.24894E-05-8.71056E-07-8.40508E-06
 -1      8783 1.51559E-04 9.15729E-06-2.04729E-05
 -1      8784 1.53511E-04 4.62284E-06-1.98823E-05
 -1      8785 1.51949E-04 9.81304E-06-1.97769E-05
 -1      8786 1.69096E-04 2.76812E-05-3.20047E-05
 -1      8787 1.69738E-04 2.92409E-05-3.15903E-05
 -1      8788 1.71170E-04 3.75609E-05-3.16210E-05
 -1      8789 1.66098E-04 3.02759E-05-2.35901E-05
 -1      8790 1.66198E-04 6.45569E-06-4.27675E-05
 -1      8791 1.66424E-04 9.15807E-06-4.24887E-05
 -1      8792 1.66384E-04 9.18685E-06-4.28672E-05
 -1      8793 1.70700E-04 8.12221E-05-2.23232E-05
 -1      8794 9.48559E-05 2.81507E-06-6.65379E-06
 -1      8795 1.67924E-04 2.33922E-05-3.50901E-05
 -1      8796 1.70061E-04 3.39713E-05-3.49879E-05
 -1      8797 1.65645E-04 6.33753E-06-1.54219E-05
 -1      8798 1.64384E-04 4.69168E-06-1.57359E-05
 -1      8799 1.64747E-04 5.19254E-06-1.53877E-05
 -1      8800 1.68495E-04 4.23644E-05-7.01435E-05
 -1      8801 1.69088E-04 4.58281E-05-7.02237E-05
 -1      8802 1.67159E-04 3.65214E-05-7.12341E-05
 -1      8803 1.68430E-04 6.13069E-05-6.05577E-05
 -1      8804 1.68712E-04 2.34206E-05-4.84063E-05
 -1      8805 1.68231E-04 2.30562E-05-4.78556E-05
 -1      8806 1.70236E-04 3.27338E-05-4.80530E-05
 -1      8807 1.55127E-04 3.32755E-06-4.23917E-06
 -1      8808 1.54189E-04 3.33682E-05-5.80215E-05
 -1      8809 1.36398E-04 5.87393E-05-3.70450E-05
 -1      8810 1.36481E-04 8.75650E-05-3.68801E-05
 -1      8811 8.53537E-05-2.32337E-08-3.84577E-05
 -1      8812 7.64656E-05 1.14024E-06-3.53212E-05
 -1      8813 1.07700E-04 2.95843E-04-2.45206E-05
 -1      8814 1.26222E-04 2.84993E-04-2.73964E-05
 -1      8815 1.72266E-04 6.86357E-05-2.57576E-05
 -1      8816 1.72372E-04 6.85982E-05-2.63205E-05
 -1      8817 1.70425E-04 5.96604E-05-2.62176E-05
 -1      8818 1.61067E-04 1.89025E-05-1.75729E-05
 -1      8819 1.61827E-04 2.82842E-05-1.74205E-05
 -1      8820 1.55626E-04 2.23919E-05-1.72111E-05
 -1      8821 1.32092E-04 7.26817E-06-4.82929E-06
 -1      8822 1.47842E-04 5.62168E-04-1.38704E-05
 -1      8823 1.66851E-04 5.24700E-04-1.44762E-05
 -1      8824 1.05349E-04 5.17247E-04-1.28106E-05
 -1      8825 1.25566E-04 4.79206E-04-1.42509E-05
 -1      8826 1.58169E-04 5.04807E-04-1.22758E-05
 -1      8827 1.66750E-04 7.20678E-05-4.21545E-05
 -1      8828 1.69985E-04 7.62138E-05-3.12487E-05
 -1      8829 1.59928E-04 6.35092E-05-3.15300E-05
 -1      8830 1.57111E-04 6.23528E-05-3.07063E-05
 -1      8831-2.26124E-04 1.20282E-03 8.22226E-08
 -1      8832-3.42664E-04 1.32840E-03-4.78129E-07
 -1      8833 1.64673E-04 4.17347E-06-1.18535E-05
 -1      8834 1.65035E-04 5.05084E-06-8.70267E-06
 -1      8835 1.64028E-04 3.98017E-06-8.59461E-06
 -1      8836 1.65222E-04 5.13354E-06-8.40240E-06
 -1      8837 1.41434E-04 6.49273E-05-4.33909E-05
 -1      8838 1.46486E-04 7.27564E-05-4.40928E-05
 -1      8839 1.49311E-04 6.91243E-05-4.26425E-05
 -1      8840 1.52361E-04 8.47266E-05-4.20441E-05
 -1      8841 1.74243E-04 1.90140E-04-2.79668E-05
 -1      8842 1.76811E-04 2.04530E-04-2.58796E-05
 -1      8843 1.77573E-04 2.08629E-04-2.73077E-05
 -1      8844 1.26208E-04 7.20277E-06-1.26929E-05
 -1      8845 1.60980E-04 2.80264E-06-5.16514E-05
 -1      8846 1.67735E-04 2.43323E-05-3.74886E-05
 -1      8847 1.68333E-04 2.79509E-05-3.70380E-05
 -1      8848 1.61529E-04 2.88978E-05-4.17144E-05
 -1      8849 7.52056E-05 3.04192E-06-3.72456E-05
 -1      8850 1.70414E-04 1.00073E-04-4.82014E-05
 -1      8851 1.71581E-04 1.05795E-04-4.68630E-05
 -1      8852 1.59099E-04 9.61344E-05-4.67403E-05
 -1      8853 9.49818E-05 2.30021E-06-4.36137E-05
 -1      8854 9.98676E-05 2.80591E-06-4.67656E-05
 -1      8855 9.70817E-05 2.17641E-06-4.66527E-05
 -1      8856 1.68519E-04 7.98067E-05-4.14270E-05
 -1      8857 1.72098E-04 6.47723E-05-7.03356E-07
 -1      8858 1.71320E-04 6.07090E-05-4.07101E-07
 -1      8859 1.72868E-04 6.89771E-05-4.40698E-07
 -1      8860 1.59155E-04 5.97254E-06-1.53775E-05
 -1      8861 1.58824E-04 5.77907E-06-1.57152E-05
 -1      8862 1.64202E-04 1.14231E-05-9.16134E-06
 -1      8863 1.66885E-04 5.54068E-06-1.31865E-05
 -1      8864 1.59475E-04 3.42263E-05-5.40782E-05
 -1      8865 1.59422E-04 3.32512E-05-5.25682E-05
 -1      8866 1.46821E-04 2.58946E-06-5.99603E-05
 -1      8867 1.49634E-04 2.96959E-06-5.86606E-05
 -1      8868 1.43035E-04 2.71343E-06-5.74213E-05
 -1      8869 1.44810E-04 6.15768E-06-5.69963E-05
 -1      8870 1.38664E-04 1.29035E-04-2.17883E-05
 -1      8871 1.51303E-04 1.50254E-04-2.37317E-05
 -1      8872 1.53373E-04 1.39913E-04-2.27200E-05
 -1      8873 1.43392E-04 2.10450E-06-4.15668E-06
 -1      8874 1.66761E-04 6.71747E-06-3.33506E-05
 -1      8875 1.65905E-04 4.86171E-06-3.36028E-05
 -1      8876 1.65922E-04 5.23465E-06-3.31162E-05
 -1      8877 1.66195E-04 2.33414E-05-6.80892E-05
 -1      8878 1.57681E-04 1.53659E-05-1.96278E-05
 -1      8879-2.52697E-05 6.91970E-06-2.92910E-06
 -1      8880 2.15179E-06 2.90846E-06-8.63942E-06
 -1      8881 1.64205E-04 1.08739E-05-6.83851E-05
 -1      8882 1.64168E-04 7.45996E-06-6.92936E-05
 -1      8883 1.42696E-04 1.94842E-05-4.04716E-06
 -1      8884 1.47065E-04 1.42681E-05-5.06901E-06
 -1      8885 1.43588E-04 1.06475E-05-4.24785E-06
 -1      8886 1.03909E-04 8.39780E-05-5.19492E-05
 -1      8887 9.30730E-05 7.42259E-05-5.25219E-05
 -1      8888 1.50779E-04 3.67734E-06-3.86718E-05
 -1      8889 1.71598E-04 1.06272E-04-4.79906E-05
 -1      8890 1.58251E-04 9.12760E-05-4.94960E-05
 -1      8891 1.52518E-04 7.30123E-05-1.39239E-05
 -1      8892 1.04702E-04 3.32814E-06-3.81571E-05
 -1      8893 1.19308E-04 1.50152E-05-2.15778E-05
 -1      8894 1.20773E-04 7.56642E-06-2.23667E-05
 -1      8895 1.15305E-04 9.88336E-06-2.07714E-05
 -1      8896 1.75680E-04 2.08850E-04-3.30114E-05
 -1      8897 1.72643E-04 1.90157E-04-3.44672E-05
 -1      8898 1.57947E-04 1.79505E-04-3.56418E-05
 -1      8899 1.40883E-04 7.45663E-06-7.54056E-05
 -1      8900 1.45097E-04 1.14652E-05-3.02644E-05
 -1      8901 1.50858E-04 8.37571E-06-2.99310E-05
 -1      8902 1.48667E-04 1.56525E-05-2.88225E-05
 -1      8903 1.66753E-04 5.22251E-06-5.83364E-05
 -1      8904 1.65570E-04 3.89299E-06-5.89309E-05
 -1      8905 1.12993E-04 4.50877E-05-1.73773E-05
 -1      8906 1.19141E-04 4.40179E-05-1.44328E-05
 -1      8907 1.32295E-04 2.20647E-05-1.73982E-05
 -1      8908 1.33815E-04 3.50597E-05-1.78054E-05
 -1      8909 1.38771E-04 2.24443E-05-1.78064E-05
 -1      8910 1.36277E-04 3.14133E-05-2.88952E-05
 -1      8911 1.47734E-04 2.02404E-05-2.79318E-05
 -1      8912 1.50708E-04 1.00220E-05-2.81094E-05
 -1      8913 1.39611E-04 2.02199E-05-2.90652E-05
 -1      8914 1.62918E-04 4.49909E-06-2.12675E-05
 -1      8915 1.61403E-04 3.79903E-06-2.14593E-05
 -1      8916 1.58312E-04 9.69848E-06-2.16825E-05
 -1      8917 1.73924E-04 1.72684E-04-1.42628E-05
 -1      8918 1.75975E-04 1.82645E-04-1.59451E-05
 -1      8919 1.72123E-04 1.62984E-04-1.60837E-05
 -1      8920 1.66188E-04 1.00694E-05-4.79065E-05
 -1      8921 1.65994E-04 1.06446E-05-4.74522E-05
 -1      8922 1.65985E-04 1.87500E-05-4.76594E-05
 -1      8923 1.66707E-04 2.59915E-05-8.93507E-07
 -1      8924 1.65445E-04 1.70157E-05-1.09200E-06
 -1      8925 1.65636E-04 1.63083E-05-7.69282E-07
 -1      8926 1.06995E-04 2.38660E-05-2.33399E-05
 -1      8927 1.01667E-04 3.15250E-05-2.04049E-05
 -1      8928 1.00211E-04 3.46693E-05-2.45112E-05
 -1      8929 1.49240E-04 2.68888E-06-7.23617E-05
 -1      8930 1.49601E-04 2.72016E-06-7.41467E-05
 -1      8931 1.62386E-04 2.70497E-06-5.95867E-05
 -1      8932 1.57774E-04 7.73472E-06-5.99779E-05
 -1      8933 1.62295E-04 2.73946E-06-5.85382E-05
 -1      8934 1.57262E-04 1.24770E-05-7.29843E-05
 -1      8935 1.64809E-04 4.48729E-06-2.17993E-05
 -1      8936 1.59165E-04 9.38025E-06-5.11671E-05
 -1      8937-4.91408E-05 1.13387E-04-1.59955E-05
 -1      8938-5.21969E-05 1.28925E-04-2.15824E-05
 -1      8939 1.44885E-04 2.36518E-05-6.21124E-05
 -1      8940 1.48057E-04 1.77836E-05-6.50234E-05
 -1      8941 1.44575E-04 3.41853E-05-6.27184E-05
 -1      8942 1.34931E-04 2.92403E-05-6.27183E-05
 -1      8943 1.37571E-04 2.43813E-05-6.56137E-05
 -1      8944 1.37490E-04 1.87584E-05-6.43818E-05
 -1      8945 1.70945E-04 4.50275E-05-4.42998E-06
 -1      8946 1.60007E-04 4.14548E-05-3.97390E-06
 -1      8947 1.65570E-04 1.01579E-05-5.03393E-05
 -1      8948 1.65641E-04 9.54018E-06-5.08620E-05
 -1      8949 1.81859E-04 1.90007E-04-2.61721E-05
 -1      8950 1.81356E-04 1.87505E-04-2.47101E-05
 -1      8951 1.84225E-04 2.04401E-04-2.41603E-05
 -1      8952 1.70701E-04 2.01283E-04-4.32264E-06
 -1      8953 1.69318E-04 1.93904E-04-5.44647E-06
 -1      8954 1.67464E-04 1.85218E-04-4.29647E-06
 -1      8955 1.70738E-04 4.44926E-05-5.13688E-06
 -1      8956 1.72722E-04 5.42136E-05-4.95547E-06
 -1      8957 1.71442E-04 4.87476E-05-5.36220E-06
 -1      8958 2.60451E-05 8.61842E-06-1.49250E-05
 -1      8959 1.03685E-04 2.02911E-05-8.36708E-06
 -1      8960 1.40670E-04 2.58382E-05-5.42201E-05
 -1      8961-6.19752E-05 3.48342E-04-1.25554E-05
 -1      8962 9.78251E-05 7.04774E-06-3.02070E-05
 -1      8963 9.80466E-05 3.24862E-06-2.95417E-05
 -1      8964 1.76435E-04 2.94907E-04-2.52147E-05
 -1      8965 1.75103E-04 2.78196E-04-2.53827E-05
 -1      8966 1.79038E-04 3.06225E-04-2.28331E-05
 -1      8967 1.46153E-04 1.55539E-05-5.26533E-05
 -1      8968 1.44458E-04 9.56659E-06-5.24669E-05
 -1      8969 1.37687E-04 2.24434E-05-5.29329E-05
 -1      8970 1.37974E-04 1.75006E-05-5.14670E-05
 -1      8971 1.38024E-04 2.66445E-05-5.14236E-05
 -1      8972 7.28334E-05 3.36579E-04-3.55393E-06
 -1      8973 7.98582E-05 3.85959E-04-3.03466E-06
 -1      8974 1.49070E-04 6.96414E-06-6.30202E-06
 -1      8975 1.40635E-04 3.01847E-06-1.83699E-05
 -1      8976 1.67030E-04 5.00846E-05-1.28064E-05
 -1      8977-1.68314E-04 1.55506E-04-2.32370E-06
 -1      8978-1.21228E-04 1.64479E-04-2.48580E-06
 -1      8979 1.69184E-04 3.36721E-05-4.27803E-05
 -1      8980 1.67606E-04 2.44458E-05-4.31117E-05
 -1      8981 1.69423E-04 1.52984E-04-2.08661E-05
 -1      8982 1.67887E-04 4.55284E-06-5.92699E-05
 -1      8983 1.67909E-04 4.80405E-06-5.98299E-05
 -1      8984 1.66621E-04 3.50825E-06-5.97310E-05
 -1      8985 1.59158E-04 2.79704E-06-3.40098E-05
 -1      8986 1.60948E-04 3.18488E-06-3.44421E-05
 -1      8987 1.58579E-04 2.65583E-06-3.47833E-05
 -1      8988-1.21905E-04 1.35308E-04-1.18009E-05
 -1      8989-9.34768E-05 1.36281E-04-1.13711E-05
 -1      8990-9.70144E-05 1.52259E-04-1.51376E-05
 -1      8991-1.49636E-04-3.09526E-05 2.98571E-06
 -1      8992-1.84950E-04 8.46845E-06 1.14757E-06
 -1      8993-1.53379E-04-2.95020E-05 8.76740E-07
 -1      8994-1.87351E-04 1.15421E-05 1.21515E-07
 -1      8995 1.31322E-04 3.73852E-06-1.52293E-05
 -1      8996 1.28993E-04 3.42039E-06-1.45444E-05
 -1      8997-2.29934E-04 2.86296E-04-5.17479E-07
 -1      8998-3.02564E-04 2.90306E-04 1.32452E-06
 -1      8999 1.33787E-04 4.37407E-05-1.26268E-05
 -1      9000 1.42896E-04 3.57296E-05-1.29774E-05
 -1      9001 1.35972E-04 6.32862E-05-1.21133E-05
 -1      9002 1.45774E-04 5.93281E-05-1.25284E-05
 -1      9003 1.42417E-04 5.77192E-05-1.35688E-05
 -1      9004 1.02034E-04 2.49775E-06-5.08378E-05
 -1      9005 1.00143E-04 1.97741E-06-5.01282E-05
 -1      9006 1.01197E-04 4.94441E-06-5.16374E-05
 -1      9007 1.61065E-04 2.67637E-06-5.06303E-05
 -1      9008 1.57271E-04 1.00873E-05-5.02317E-05
 -1      9009 1.62938E-04 4.00486E-06-1.41716E-05
 -1      9010 1.62535E-04 1.91419E-05-2.04847E-05
 -1      9011 1.56112E-04 1.75486E-05-2.04063E-05
 -1      9012 1.45671E-04 3.84452E-06-2.97152E-05
 -1      9013 2.08374E-06 5.16349E-04-3.64090E-06
 -1      9014 1.42750E-04 2.29691E-05-2.37082E-05
 -1      9015 1.48413E-04 2.76588E-06-4.06033E-05
 -1      9016 1.45809E-04 2.50585E-06-4.03115E-05
 -1      9017 1.46151E-04 6.85453E-06-3.95585E-05
 -1      9018 1.58990E-04 4.39066E-06-3.68177E-06
 -1      9019 1.60697E-04 5.18403E-06-3.96141E-06
 -1      9020 1.51036E-04 7.12890E-05-5.62454E-05
 -1      9021 1.43746E-04 3.33289E-05-3.70592E-06
 -1      9022 1.47825E-04 3.11339E-05-3.03757E-06
 -1      9023 1.48245E-04 2.67118E-05-4.18444E-06
 -1      9024 1.48887E-04 1.75779E-05-4.41188E-06
 -1      9025 1.53441E-04 1.37696E-05-3.84905E-06
 -1      9026 1.48453E-04 2.06988E-05-3.18970E-06
 -1      9027 1.64698E-04 4.47963E-06-2.74664E-05
 -1      9028 1.66188E-04 5.13349E-06-2.77919E-05
 -1      9029 1.64748E-04 4.46617E-06-2.79650E-05
 -1      9030 1.66949E-04 4.78867E-05-6.54670E-06
 -1      9031 1.68169E-04 5.36236E-05-6.65351E-06
 -1      9032 1.66468E-04 4.63085E-05-6.81842E-06
 -1      9033 1.68398E-04 5.50443E-05-1.70273E-05
 -1      9034 1.70262E-04 9.14225E-05-5.69534E-05
 -1      9035 1.69523E-04 8.93560E-05-5.84112E-05
 -1      9036 1.68161E-04 8.17704E-05-5.90986E-05
 -1      9037 2.94002E-05 3.46737E-04-3.49774E-06
 -1      9038 3.34831E-05 3.45066E-04-9.16066E-06
 -1      9039-2.29239E-05 3.16980E-04-6.66798E-06
 -1      9040 1.11899E-04 1.45507E-05-4.96742E-05
 -1      9041 1.17627E-04 1.95443E-05-4.92580E-05
 -1      9042 1.17076E-04 1.45311E-05-4.85152E-05
 -1      9043 9.31984E-05 2.55752E-04-2.07034E-05
 -1      9044 4.23587E-05 2.41931E-04-1.91242E-05
 -1      9045 8.59084E-05 2.16071E-04-2.35835E-05
 -1      9046 1.49707E-04 2.60719E-06-3.24729E-06
 -1      9047 1.49027E-04 6.11256E-06-3.90423E-06
 -1      9048 1.48266E-04 2.46358E-06-3.71095E-06
 -1      9049 1.62653E-04 3.56190E-06-2.73515E-05
 -1      9050 1.63123E-04 3.69917E-06-2.77135E-05
 -1      9051 1.70635E-04 4.42557E-05-4.75831E-06
 -1      9052 1.72410E-04 5.26329E-05-4.57421E-06
 -1      9053 6.60180E-05 6.57849E-05-4.51476E-05
 -1      9054 7.36784E-05 7.58244E-05-4.78732E-05
 -1      9055 2.45952E-05 6.15907E-06-8.72820E-06
 -1      9056 1.63054E-04 2.93658E-06-3.06331E-05
 -1      9057 1.63371E-04 3.05273E-06-3.00358E-05
 -1      9058 1.64810E-04 3.66650E-06-3.03048E-05
 -1      9059 1.66638E-04 4.49076E-05-3.14237E-05
 -1      9060 1.43651E-04 3.49398E-06-3.65529E-05
 -1      9061 1.41092E-04 3.20335E-06-3.71244E-05
 -1      9062 1.41063E-04 3.22853E-06-3.61253E-05
 -1      9063 1.63909E-04 2.06414E-05-9.26679E-06
 -1      9064 1.64400E-04 5.26695E-06-1.86583E-05
 -1      9065 1.33983E-04 6.63829E-05-2.68016E-05
 -1      9066 1.45604E-04 8.65934E-05-2.58629E-05
 -1      9067 1.47139E-04 8.06459E-05-2.76938E-05
 -1      9068 1.03988E-04 9.61668E-06-2.35471E-05
 -1      9069-6.76825E-07 5.12086E-04-8.97827E-06
 -1      9070-3.11443E-05 4.42927E-04-8.25419E-06
 -1      9071 1.65066E-04 1.75023E-05-1.66622E-05
 -1      9072 1.56855E-04 3.61477E-05-1.66596E-05
 -1      9073 1.58769E-04 2.65819E-06-7.54722E-05
 -1      9074 1.57020E-04 2.33698E-06-7.67885E-05
 -1      9075 1.56722E-04 2.25888E-06-7.51318E-05
 -1      9076 1.56457E-04 1.70959E-05-2.27672E-06
 -1      9077 1.47433E-04 1.06586E-05-1.31959E-05
 -1      9078 1.70993E-04 5.19115E-05-9.64668E-06
 -1      9079 6.41949E-05 2.78537E-05-2.24086E-05
 -1      9080 1.56484E-04 1.53658E-05-5.01764E-05
 -1      9081 1.53390E-04 2.76690E-05-4.85179E-05
 -1      9082 6.42463E-05 2.03384E-05-2.56863E-05
 -1      9083 4.41922E-05 2.17303E-05-2.72707E-05
 -1      9084 7.12323E-05 2.52221E-05-3.19728E-05
 -1      9085 3.63076E-05 3.53889E-05-2.69049E-05
 -1      9086 5.76907E-05 3.45513E-05-2.48792E-05
 -1      9087 1.55840E-04 1.03109E-05-3.61155E-05
 -1      9088 1.56405E-04 6.69290E-06-3.55365E-05
 -1      9089 1.56993E-04 1.20664E-05-3.50968E-05
 -1      9090 1.58583E-04 1.18780E-05-3.56445E-05
 -1      9091 1.59764E-04 7.02623E-06-3.49290E-05
 -1      9092 1.57908E-04 6.23326E-06-3.60428E-05
 -1      9093 7.88345E-05 1.93522E-04-3.42727E-05
 -1      9094 1.09290E-04 2.09053E-04-3.16405E-05
 -1      9095 9.70523E-05 1.81604E-04-3.92744E-05
 -1      9096 8.21747E-05 1.63804E-04-3.95068E-05
 -1      9097 1.12669E-04 1.79294E-04-3.65265E-05
 -1      9098 9.22964E-05 1.90862E-04-3.15929E-05
 -1      9099 9.11299E-05 6.85617E-05-6.91837E-06
 -1      9100 7.54684E-05 8.08375E-05-9.82386E-06
 -1      9101 8.57360E-05 6.32228E-05-9.11976E-06
 -1      9102 1.67673E-04 5.57200E-06-2.49273E-05
 -1      9103 1.31443E-04 3.95059E-04-1.17107E-05
 -1      9104 8.40758E-05 3.84655E-04-8.56591E-06
 -1      9105 1.71549E-04 3.83609E-04-1.02689E-05
 -1      9106 1.08500E-04 3.42154E-04-9.85849E-06
 -1      9107 7.12715E-05 3.54159E-04-1.13128E-05
 -1      9108 1.55405E-04 5.26637E-05-3.55553E-05
 -1      9109 1.46188E-04 4.07139E-05-3.59357E-05
 -1      9110 1.41474E-04 6.28210E-05-3.59919E-05
 -1      9111 1.36220E-04 5.51880E-05-3.53027E-05
 -1      9112 1.43389E-04 6.45704E-05-3.48920E-05
 -1      9113 1.59299E-04 4.59482E-06-3.33465E-06
 -1      9114 1.65525E-04 1.29010E-05-5.73548E-05
 -1      9115 1.64265E-04 4.44699E-05-4.33375E-05
 -1      9116 1.64146E-04 4.29982E-05-4.38294E-05
 -1      9117 9.56993E-05 7.77631E-06-1.59296E-05
 -1      9118 1.65042E-04 1.90071E-05-1.53228E-05
 -1      9119 1.47148E-04 3.31431E-05-3.94872E-05
 -1      9120 1.51359E-04 2.22767E-05-4.09931E-05
 -1      9121 1.53529E-04 1.38772E-05-4.01320E-05
 -1      9122 1.41911E-05 5.04181E-05-1.32884E-05
 -1      9123 1.75003E-04 9.33169E-05-1.16086E-05
 -1      9124 1.76282E-04 1.00658E-04-1.17687E-05
 -1      9125 1.56626E-04 8.94775E-05-1.18639E-05
 -1      9126 1.52293E-04 6.96400E-04-1.09605E-05
 -1      9127 6.07542E-05 7.26487E-04-4.78026E-06
 -1      9128 1.62315E-05 7.02328E-04-3.80994E-06
 -1      9129 5.53470E-05 7.45591E-04-4.83355E-06
 -1      9130 1.04073E-04 7.72105E-04-5.78258E-06
 -1      9131 1.43967E-04 2.39190E-06-4.09484E-05
 -1      9132 1.41695E-04 3.24669E-06-3.80327E-05
 -1      9133 1.40401E-04 5.97560E-06-3.92263E-05
 -1      9134 1.39988E-04 3.07667E-06-3.86130E-05
 -1      9135 1.22308E-04 4.05936E-06-1.38858E-05
 -1      9136 1.22542E-04 4.08471E-06-1.52033E-05
 -1      9137 1.18788E-04 3.74341E-06-1.41375E-05
 -1      9138-1.15903E-04 2.33971E-04-1.19559E-05
 -1      9139-1.07863E-04 1.90905E-04-1.35679E-05
 -1      9140-9.22948E-05 2.08703E-04-1.09154E-05
 -1      9141 1.64421E-04 7.24321E-06-1.22271E-05
 -1      9142 1.64397E-04 1.02865E-05-1.21117E-05
 -1      9143 1.64097E-04 9.57478E-06-1.24831E-05
 -1      9144 1.41748E-04 1.14261E-05-2.02056E-05
 -1      9145 1.42299E-04 1.47547E-05-2.11946E-05
 -1      9146 5.14079E-06 2.29214E-04-1.78779E-05
 -1      9147-1.44111E-05 1.62548E-04-1.91048E-05
 -1      9148-2.96462E-04 7.07992E-04-1.26923E-06
 -1      9149 1.31231E-04 6.63169E-06-1.18464E-05
 -1      9150 1.39187E-04 2.26356E-06-1.15156E-05
 -1      9151 1.39387E-04 6.17488E-06-1.20297E-05
 -1      9152 1.31982E-04 5.86222E-06-1.07952E-05
 -1      9153 1.65815E-04 6.00084E-06-2.18503E-05
 -1      9154 1.64844E-04 4.75628E-06-2.20622E-05
 -1      9155 1.10924E-04 2.84169E-05-5.54121E-05
 -1      9156 1.22080E-04 2.01444E-05-6.23496E-05
 -1      9157 1.37178E-04 1.41496E-05-2.29165E-05
 -1      9158 1.36477E-04 2.08959E-05-2.39202E-05
 -1      9159-1.41471E-04 3.18968E-04-5.81029E-06
 -1      9160-1.50067E-04 2.89792E-04-7.17703E-06
 -1      9161-1.59648E-04 2.38675E-04-5.60831E-06
 -1      9162-1.07412E-04 2.62561E-04-9.92016E-06
 -1      9163 1.50521E-04 1.11835E-05-1.41198E-05
 -1      9164 1.44257E-04 9.59563E-06-1.48248E-05
 -1      9165 1.67610E-04 3.66023E-05-9.92569E-06
 -1      9166 1.45525E-04 3.09830E-06-1.55430E-05
 -1      9167 1.52775E-04 3.17895E-06-1.26589E-05
 -1      9168 6.47590E-05 6.03226E-04-8.91791E-06
 -1      9169 1.08365E-04 6.23810E-04-7.89208E-06
 -1      9170 1.68006E-04 6.01802E-05-1.84598E-05
 -1      9171 1.69015E-04 6.49643E-05-1.79007E-05
 -1      9172 1.57054E-04 4.90557E-06-1.58019E-05
 -1      9173 1.59790E-04 2.87717E-06-6.43516E-05
 -1      9174 1.60202E-04 2.99365E-06-6.55846E-05
 -1      9175 1.57464E-04 2.49249E-06-6.52724E-05
 -1      9176 1.62808E-04 1.79384E-05-7.42326E-05
 -1      9177 1.69893E-04 5.71489E-05-2.56996E-05
 -1      9178 1.57462E-04 1.61273E-05-1.13932E-05
 -1      9179 1.65563E-04 9.17699E-06-5.79362E-05
 -1      9180 1.65303E-04 1.34943E-05-5.80288E-05
 -1      9181 1.65647E-04 2.74720E-05-6.88575E-06
 -1      9182 1.57653E-04 4.27119E-05-7.15186E-06
 -1      9183 1.48722E-04 1.91806E-05-6.87097E-05
 -1      9184 1.48623E-04 9.59890E-06-7.05528E-05
 -1      9185 1.48735E-04 1.35064E-05-6.78635E-05
 -1      9186 1.51830E-04 1.57606E-05-6.75071E-05
 -1      9187 1.50965E-04 7.38006E-06-6.92016E-05
 -1      9188 1.52357E-04 1.03019E-05-7.04058E-05
 -1      9189 1.69428E-04 8.25931E-05-6.31709E-05
 -1      9190 1.70762E-04 8.56411E-05-6.18857E-05
 -1      9191 1.54668E-04 2.11486E-05-4.20409E-06
 -1      9192-1.94407E-04 3.14513E-04-3.75818E-06
 -1      9193-1.40146E-04 3.43524E-04-7.67712E-06
 -1      9194 1.87205E-04 4.01988E-04-1.88263E-05
 -1      9195 1.37929E-04 4.45255E-04-1.55521E-05
 -1      9196 1.67911E-04 9.31431E-06-3.20113E-05
 -1      9197 1.67697E-04 1.56015E-05-3.20747E-05
 -1      9198 1.67860E-04 8.97503E-06-3.24015E-05
 -1      9199 1.27050E-04 6.48064E-06-2.29189E-05
 -1      9200 1.57906E-04 3.08033E-04-1.00495E-05
 -1      9201 1.54145E-04 3.26533E-04-1.22107E-05
 -1      9202 1.49243E-04 2.95920E-04-1.31683E-05
 -1      9203 9.78974E-05 2.92434E-04-1.14318E-05
 -1      9204 1.61060E-04 6.62777E-05-3.48528E-05
 -1      9205 1.58210E-04 6.36738E-05-3.60907E-05
 -1      9206 1.45402E-04 7.33948E-05-3.53493E-05
 -1      9207 1.45480E-04 2.16041E-05-4.51207E-05
 -1      9208 1.44049E-04 1.82464E-05-4.59704E-05
 -1      9209 1.19725E-04 7.28815E-06-1.20383E-05
 -1      9210 1.21146E-04 2.51122E-06-1.01680E-05
 -1      9211 1.17154E-04 3.50439E-06-1.16268E-05
 -1      9212 1.17770E-04 6.76068E-06-1.05167E-05
 -1      9213 1.18857E-04 2.27761E-06-8.63078E-06
 -1      9214 1.45646E-04 2.15469E-06-7.83260E-05
 -1      9215 1.22725E-04 6.37166E-05-4.05988E-05
 -1      9216 1.30213E-04 6.16595E-05-4.30784E-05
 -1      9217 1.47391E-04 1.03696E-05-3.60612E-05
 -1      9218 1.50976E-04 7.40014E-06-3.71323E-05
 -1      9219 1.72003E-04 7.85076E-05-1.50145E-05
 -1      9220 6.83210E-05 3.32080E-04-7.54452E-06
 -1      9221 1.67474E-04 2.42728E-05-4.97114E-05
 -1      9222 1.66791E-04 1.42948E-05-4.98137E-05
 -1      9223 1.67192E-04 3.42748E-05-4.53654E-05
 -1      9224 1.69510E-04 3.29646E-05-4.41304E-05
 -1      9225 1.59603E-04 3.09086E-05-4.48089E-05
 -1      9226 1.68094E-04 2.46993E-05-4.45225E-05
 -1      9227 1.52367E-04 5.51821E-05-6.45050E-05
 -1      9228 1.52348E-04 7.61455E-05-6.00524E-05
 -1      9229 1.57199E-04 7.18321E-05-5.98411E-05
 -1      9230 1.70493E-04 3.52347E-05-2.26893E-05
 -1      9231 1.68771E-04 2.62608E-05-2.25573E-05
 -1      9232 1.70820E-04 3.68917E-05-2.24052E-05
 -1      9233 1.22222E-04 5.34674E-05-1.33762E-05
 -1      9234 1.22902E-04 6.24500E-05-1.51936E-05
 -1      9235 1.29193E-04 6.07325E-05-1.30069E-05
 -1      9236 1.34743E-04 5.49508E-05-1.44665E-05
 -1      9237 9.36519E-05 2.14183E-06-3.89059E-05
 -1      9238 9.86832E-05 2.60411E-06-4.15841E-05
 -1      9239 8.91038E-05 4.48402E-06-4.09768E-05
 -1      9240 1.71226E-04 3.49942E-05-3.90530E-05
 -1      9241 1.69484E-04 2.64313E-05-3.88936E-05
 -1      9242 1.59915E-04 3.97553E-05-3.91877E-05
 -1      9243 1.51178E-04 6.66266E-05-4.91924E-05
 -1      9244 1.25005E-04 1.17019E-05-1.50356E-06
 -1      9245 1.30523E-04 6.78391E-06-3.30560E-06
 -1      9246 1.61413E-04 2.50753E-06-2.35863E-05
 -1      9247 1.63111E-04 3.07730E-06-2.38298E-05
 -1      9248 1.58532E-04 1.25254E-05-1.47900E-05
 -1      9249 1.70849E-04 6.48508E-05-3.34543E-05
 -1      9250 1.71635E-04 6.86266E-05-3.41044E-05
 -1      9251 1.69405E-04 5.80564E-05-3.41794E-05
 -1      9252 6.81433E-05 8.74406E-05-4.85234E-05
 -1      9253 7.17610E-05 1.07493E-04-4.38320E-05
 -1      9254 8.73678E-05 8.82412E-05-5.29528E-05
 -1      9255 8.99307E-05 5.50435E-05-5.79951E-05
 -1      9256-7.91442E-05 1.64822E-04-1.44212E-05
 -1      9257-3.18015E-04 3.40942E-04 4.69834E-06
 -1      9258-3.13923E-04 3.72201E-04 2.63304E-06
 -1      9259-3.18435E-04 3.46685E-04 1.44833E-06
 -1      9260 1.66994E-04 3.46698E-05-7.23973E-06
 -1      9261 1.65605E-04 2.58257E-05-7.30596E-06
 -1      9262 1.19111E-04 2.42055E-04-1.12470E-05
 -1      9263 1.74624E-04 2.46074E-04-1.30838E-05
 -1      9264 1.46023E-04 2.11146E-04-1.60865E-05
 -1      9265 1.51443E-04 7.62923E-05-1.20863E-05
 -1      9266 1.68673E-04 3.76039E-05-1.14940E-05
 -1      9267-1.82189E-04 2.64779E-04-4.95744E-06
 -1      9268-1.46874E-04 2.11612E-04-9.14126E-06
 -1      9269 1.71927E-04 1.09307E-04-2.18961E-06
 -1      9270 1.72883E-04 1.14039E-04-2.86778E-06
 -1      9271 1.70991E-04 1.03895E-04-2.83254E-06
 -1      9272 1.66584E-04 9.12822E-06-3.11795E-05
 -1      9273 1.66512E-04 6.02678E-06-3.14552E-05
 -1      9274 1.65991E-04 6.46115E-06-3.09414E-05
 -1      9275 6.35947E-05 1.87944E-04-2.54392E-05
 -1      9276 1.38718E-04 1.02854E-04-5.02540E-06
 -1      9277 1.33949E-04 6.82970E-05-4.18292E-06
 -1      9278 1.29252E-04 8.26233E-05-5.44183E-06
 -1      9279 1.11396E-04 8.00146E-05-4.65450E-06
 -1      9280 1.17818E-04 9.58276E-05-4.18733E-06
 -1      9281 1.64172E-04 3.97611E-06-3.86759E-05
 -1      9282 1.64374E-04 3.88724E-06-3.91114E-05
 -1      9283 1.62627E-04 3.21748E-06-3.89925E-05
 -1      9284 1.29913E-04 1.66503E-04-3.01912E-05
 -1      9285 1.44926E-04 2.12774E-04-2.40485E-05
 -1      9286 1.26186E-04 1.99896E-04-2.60352E-05
 -1      9287 1.31825E-04 1.81165E-04-3.14337E-05
 -1      9288 1.46276E-04 2.26150E-04-2.51512E-05
 -1      9289 1.51412E-04 1.94550E-04-2.92664E-05
 -1      9290 1.28236E-04 5.98933E-05-3.34501E-05
 -1      9291 1.39491E-04 7.66709E-05-3.37364E-05
 -1      9292 1.38885E-04 7.19928E-06-4.86454E-05
 -1      9293 1.55189E-04 5.33426E-05-1.11600E-05
 -1      9294 1.67354E-04 6.82674E-05-1.10055E-05
 -1      9295 1.57517E-04 5.79247E-05-1.04328E-05
 -1      9296-4.85495E-04 7.81801E-04 1.10010E-06
 -1      9297-3.25641E-04 8.74603E-04-3.61599E-08
 -1      9298-3.74730E-04 7.04794E-04 2.98736E-07
 -1      9299 3.99584E-05 7.23918E-04-1.38921E-06
 -1      9300-2.23412E-06 6.82181E-04-1.30378E-06
 -1      9301 6.78605E-05 6.07346E-04-3.32413E-06
 -1      9302 1.69137E-04 7.39756E-05-2.20667E-05
 -1      9303 1.66523E-04 2.65176E-05-6.07545E-05
 -1      9304 1.68366E-04 3.60470E-05-6.05908E-05
 -1      9305 1.64771E-04 1.12431E-05-4.89923E-06
 -1      9306 1.63338E-04 8.04882E-05-4.90440E-05
 -1      9307 1.51156E-04 7.08471E-05-5.03967E-05
 -1      9308 1.58810E-04 2.63375E-06-7.68119E-05
 -1      9309 9.76411E-05 1.10571E-05-3.75836E-06
 -1      9310 1.04068E-04 8.92936E-06-2.02165E-06
 -1      9311 1.59815E-04 5.02310E-05-3.37913E-05
 -1      9312 1.46414E-04 3.99080E-06-2.77533E-05
 -1      9313 1.52208E-04 2.47961E-06-3.25315E-05
 -1      9314 1.53786E-04 1.83743E-04-2.91291E-06
 -1      9315 1.81818E-04 1.85618E-04-1.37597E-06
 -1      9316 1.77247E-04 1.72672E-04-3.53247E-06
 -1      9317 1.62715E-04 1.71180E-04-2.11339E-06
 -1      9318 9.49177E-05 6.57209E-06-4.33833E-05
 -1      9319 9.46199E-05 5.87943E-06-3.87177E-05
 -1      9320 1.65024E-04 5.76700E-06-1.50764E-05
 -1      9321 9.98731E-05 2.19199E-06-2.29195E-06
 -1      9322 9.03468E-05 4.76234E-06-3.15119E-06
 -1      9323 9.80029E-05 3.22141E-06-3.17842E-05
 -1      9324 1.40579E-04 3.46478E-05-1.23950E-06
 -1      9325 1.31463E-04 3.88795E-05-1.18879E-06
 -1      9326 1.30671E-04 2.76527E-05-1.67638E-06
 -1      9327 1.42304E-04 2.17157E-05-2.82549E-06
 -1      9328 1.39465E-04 2.13742E-05-1.64215E-06
 -1      9329 1.64156E-04 9.93106E-06-6.77032E-05
 -1      9330 1.69889E-04 4.83997E-05-6.88539E-05
 -1      9331 1.53627E-04 2.40079E-05-3.47719E-05
 -1      9332 1.47845E-04 2.74880E-05-3.54797E-05
 -1      9333 1.55300E-04 1.62294E-05-3.42400E-05
 -1      9334 1.49400E-04 2.08962E-05-3.48603E-05
 -1      9335 1.65796E-04 6.32780E-06-1.06191E-05
 -1      9336 2.90654E-05 3.82875E-05-2.91360E-05
 -1      9337 6.44095E-05 2.90074E-05-3.53775E-05
 -1      9338 5.53547E-05 4.77153E-05-3.38558E-05
 -1      9339 8.84456E-05 9.43288E-05-7.84288E-06
 -1      9340 7.27059E-05 1.04396E-04-1.06306E-05
 -1      9341 9.02370E-05 1.06660E-04-9.36633E-06
 -1      9342 1.41165E-04 1.22479E-05-7.87276E-05
 -1      9343 1.47777E-04 1.55680E-05-7.63855E-05
 -1      9344 1.43716E-04 1.00016E-05-7.53253E-05
 -1      9345 1.50885E-04 3.81947E-05-9.00127E-06
 -1      9346 1.43674E-04 4.12744E-05-8.05982E-06
 -1      9347 1.54903E-04 5.77922E-05-8.73356E-06
 -1      9348 1.65921E-04 1.00923E-05-1.57535E-05
 -1      9349 1.65426E-04 6.68061E-06-1.56798E-05
 -1      9350 1.65347E-04 9.54858E-06-1.53681E-05
 -1      9351 5.95553E-05 5.19568E-07-6.70106E-06
 -1      9352 5.76123E-05 6.95505E-08-8.40508E-06
 -1      9353 4.67238E-05 3.85398E-06-8.23479E-06
 -1      9354 1.52274E-04 3.24680E-06-5.76783E-05
 -1      9355 1.53072E-04 4.09642E-06-3.81262E-05
 -1      9356 1.49633E-04 8.93842E-06-3.88655E-05
 -1      9357 1.49237E-04 6.07726E-05-4.82765E-05
 -1      9358 1.48384E-04 5.04528E-05-4.63485E-05
 -1      9359 1.07205E-04 4.32937E-05-1.31765E-05
 -1      9360 1.62077E-04 2.77930E-06-6.41134E-05
 -1      9361 1.61703E-04 2.62506E-06-6.29446E-05
 -1      9362 1.63655E-04 3.22579E-06-6.30783E-05
 -1      9363 1.38977E-04 3.42566E-06-2.61774E-05
 -1      9364 1.47161E-04 2.38572E-06-3.18434E-06
 -1      9365 8.98157E-05 2.39425E-06-9.84218E-06
 -1      9366 3.29508E-05 3.07313E-05-3.51703E-06
 -1      9367-7.07195E-07 2.54874E-05-4.98004E-06
 -1      9368 2.86309E-05 1.95553E-05-3.83061E-06
 -1      9369 1.58296E-04 2.35309E-06-5.12808E-05
 -1      9370 1.23403E-04 4.23413E-05-1.69236E-05
 -1      9371 1.19828E-04 3.30416E-05-1.88466E-05
 -1      9372 1.38439E-04 3.29311E-06-4.89945E-05
 -1      9373 1.56024E-04 2.31625E-05-2.70586E-05
 -1      9374 1.60564E-04 2.83008E-06-3.91501E-05
 -1      9375 1.55225E-04 8.39346E-06-3.95317E-05
 -1      9376 1.58959E-04 2.45844E-06-3.86524E-05
 -1      9377 1.65139E-04 4.80992E-06-6.58431E-05
 -1      9378 1.65987E-04 6.31425E-06-6.55543E-05
 -1      9379 1.46008E-04 1.12380E-04-1.21076E-05
 -1      9380 1.51156E-04 1.04434E-04-1.03836E-05
 -1      9381 1.43726E-04 1.36752E-04-1.10818E-05
 -1      9382 1.48655E-04 1.29841E-04-9.40658E-06
 -1      9383 1.54780E-04 1.39111E-04-1.04416E-05
 -1      9384 1.32373E-04 9.21359E-05-3.36387E-05
 -1      9385 1.67245E-04 9.32278E-06-8.20306E-06
 -1      9386 1.66890E-04 1.58114E-05-7.85657E-06
 -1      9387 1.68537E-04 2.60016E-05-5.86711E-05
 -1      9388 1.68545E-04 2.42390E-05-5.82176E-05
 -1      9389 1.70297E-04 3.33517E-05-5.78428E-05
 -1      9390 1.63164E-04 4.16520E-06-1.83886E-05
 -1      9391 1.72030E-04 7.19013E-05-1.74574E-05
 -1      9392 1.57187E-04 5.72440E-05-1.77160E-05
 -1      9393 1.70663E-04 6.50776E-05-1.69118E-05
 -1      9394 2.84484E-05-5.89054E-06-2.60189E-07
 -1      9395 1.02112E-05-2.01268E-05 1.42822E-06
 -1      9396 1.59615E-04 5.06623E-06-2.45457E-06
 -1      9397 1.59291E-04 4.62010E-06-2.01538E-06
 -1      9398 1.61087E-04 6.12851E-06-2.07422E-06
 -1      9399 1.60008E-04 1.08173E-04-1.30205E-05
 -1      9400 1.54063E-04 1.36489E-04-1.29711E-05
 -1      9401 1.84620E-04 2.01695E-04-1.47297E-06
 -1      9402 1.29846E-04 3.20960E-05-4.89848E-05
 -1      9403 1.66729E-04 6.04523E-06-5.58399E-05
 -1      9404 1.19342E-04 9.91709E-05-3.32421E-05
 -1      9405 1.16163E-04 7.13628E-05-3.29837E-05
 -1      9406 1.08661E-04 8.81343E-05-3.03419E-05
 -1      9407 1.64459E-04 5.07538E-06-1.75830E-05
 -1      9408-3.30938E-04 5.72317E-04 5.26510E-07
 -1      9409-2.80272E-04 6.04228E-04-7.50609E-07
 -1      9410-3.20645E-04 5.38267E-04 1.16644E-06
 -1      9411 1.61524E-04 9.77977E-06-3.52510E-05
 -1      9412 1.30797E-04 7.96672E-06-7.67864E-06
 -1      9413 1.25314E-04 6.43956E-05-5.15568E-05
 -1      9414 1.22313E-04 5.70139E-05-5.06671E-05
 -1      9415 1.58966E-04 8.07107E-06-2.55248E-05
 -1      9416 1.63529E-04 2.83058E-06-2.49821E-05
 -1      9417 1.60729E-04 7.84183E-06-2.43690E-05
 -1      9418 1.68148E-04 1.56770E-05-3.93918E-05
 -1      9419 1.26897E-04 2.54145E-04-2.50532E-05
 -1      9420 1.81763E-04 2.45362E-04-2.68464E-05
 -1      9421 3.39208E-05 3.96597E-07-2.09993E-05
 -1      9422 2.70008E-05-1.83939E-06-1.28007E-05
 -1      9423 1.19432E-04 3.87839E-05-2.00388E-05
 -1      9424 1.17251E-04 5.66990E-05-2.14927E-05
 -1      9425 1.25219E-04 6.33575E-05-1.93860E-05
 -1      9426 1.13218E-04 7.37536E-05-2.00358E-05
 -1      9427 1.14448E-04 5.41301E-05-1.87548E-05
 -1      9428 1.38084E-04 1.55686E-04-2.49124E-05
 -1      9429 1.26656E-04 1.35814E-04-2.30494E-05
 -1      9430 1.16074E-04 1.28540E-04-2.48346E-05
 -1      9431 1.41191E-04 1.47725E-05-5.69143E-05
 -1      9432 9.48392E-05 7.01846E-06-3.38733E-05
 -1      9433 1.29160E-04 2.86422E-06-2.62157E-05
 -1      9434 1.30122E-04 6.42025E-06-2.50421E-05
 -1      9435 1.52972E-04 2.43686E-05-5.15552E-05
 -1      9436 1.54774E-04 3.43593E-05-5.09207E-05
 -1      9437 1.67953E-04 7.88668E-05-6.45093E-05
 -1      9438 1.67511E-04 8.11675E-05-6.43295E-05
 -1      9439 1.66257E-04 7.29259E-05-6.63548E-05
 -1      9440 9.38888E-05 2.86360E-06-2.95681E-05
 -1      9441 8.92411E-05 2.28521E-06-2.91472E-05
 -1      9442 1.50109E-04 8.38768E-06-5.46776E-06
 -1      9443 1.20765E-04 5.37646E-05-3.49825E-05
 -1      9444 1.18448E-04 4.49335E-05-3.29009E-05
 -1      9445 1.27680E-04 3.85505E-05-3.28684E-05
 -1      9446 1.20878E-04 3.69762E-05-3.43771E-05
 -1      9447 1.55236E-04 4.08582E-06-2.18802E-06
 -1      9448 1.53121E-04 3.57900E-06-2.16015E-06
 -1      9449 1.50907E-04 8.37024E-06-2.73613E-06
 -1      9450 1.71220E-04 1.04071E-04-4.95264E-05
 -1      9451-5.59731E-05-8.30617E-05 1.61970E-05
 -1      9452-2.70718E-05-5.77936E-05 9.46199E-06
 -1      9453-9.15375E-05-7.45252E-05 6.86806E-06
 -1      9454 1.36407E-04 3.10271E-06-3.79291E-06
 -1      9455 1.69143E-04 3.54093E-06-5.20958E-05
 -1      9456 1.69331E-04 4.24372E-06-5.15187E-05
 -1      9457 1.69280E-04 1.52118E-05-5.16346E-05
 -1      9458 1.61254E-04 2.97751E-06-3.79724E-05
 -1      9459 1.61539E-04 3.06294E-06-3.86471E-05
 -1      9460 1.66539E-04 7.15813E-05-4.12829E-05
 -1      9461 1.68325E-04 5.08820E-05-4.14785E-05
 -1      9462 1.72629E-04 4.82535E-05-4.21148E-05
 -1      9463 1.59130E-04 3.94660E-05-4.18506E-05
 -1      9464 1.58441E-04 6.23076E-05-4.16265E-05
 -1      9465 1.68284E-04 2.43810E-05-3.48437E-05
 -1      9466 1.27941E-04 7.03614E-05-2.43839E-05
 -1      9467 1.65967E-04 1.00038E-05-1.05615E-05
 -1      9468 1.59492E-04 1.10473E-05-1.09993E-05
 -1      9469 1.64739E-04 2.88915E-06-3.62365E-05
 -1      9470 1.64409E-04 2.84081E-06-3.58464E-05
 -1      9471 1.49945E-04 3.40409E-06-8.65248E-06
 -1      9472 1.49044E-04 2.52417E-06-1.79242E-05
 -1      9473 1.51332E-04 2.89596E-06-1.84137E-05
 -1      9474 1.48128E-04 7.99280E-06-1.84233E-05
 -1      9475 1.64346E-04 4.83126E-06-1.70440E-05
 -1      9476 1.63727E-04 4.09859E-06-1.67399E-05
 -1      9477 1.59027E-04 3.06577E-06-1.66998E-05
 -1      9478 1.57466E-04 8.07576E-06-1.66345E-05
 -1      9479 1.59944E-04 3.27949E-06-1.71265E-05
 -1      9480 1.57481E-04 3.94545E-06-5.47782E-06
 -1      9481 8.40617E-05 2.90738E-06-4.31918E-05
 -1      9482 1.10298E-04 1.55236E-05-2.05386E-06
 -1      9483 1.21559E-04 6.99094E-06-5.14423E-06
 -1      9484 1.25044E-04 1.24362E-05-6.11164E-06
 -1      9485 1.24390E-04 5.97048E-06-6.84839E-06
 -1      9486 1.17681E-04 6.17696E-06-5.82451E-06
 -1      9487-4.63903E-04 4.06516E-04 1.27814E-05
 -1      9488-3.99522E-04 4.02510E-04 5.89778E-06
 -1      9489-3.43283E-04 4.55795E-04 4.47289E-06
 -1      9490-3.73852E-04 3.75695E-04 7.86636E-06
 -1      9491-4.25084E-04 3.28316E-04 8.08915E-06
 -1      9492 1.52291E-04 1.43553E-06-8.43757E-05
 -1      9493 1.71417E-04 1.58922E-04-3.70547E-05
 -1      9494 1.71642E-04 1.60460E-04-3.56047E-05
 -1      9495 1.73914E-04 1.72103E-04-3.58288E-05
 -1      9496 1.06770E-04 1.38473E-05-3.14858E-05
 -1      9497 1.76905E-04 1.53467E-04-3.09826E-05
 -1      9498 1.77360E-04 1.55239E-04-3.24527E-05
 -1      9499 1.38790E-04 9.06580E-06-2.19988E-05
 -1      9500 1.55724E-04 4.68236E-06-2.29338E-05
 -1      9501 1.55345E-04 4.53150E-06-2.33642E-05
 -1      9502 1.61007E-04 4.00455E-06-2.26462E-05
 -1      9503 1.60609E-04 3.73735E-06-2.30342E-05
 -1      9504 1.52802E-04 9.78688E-06-2.31472E-05
 -1      9505 1.35743E-04 3.13958E-05-3.46936E-05
 -1      9506 1.63574E-04 5.88517E-06-1.21332E-05
 -1      9507-1.97070E-04 1.28043E-04-1.19556E-06
 -1      9508-2.72843E-05-4.18956E-05 2.40435E-06
 -1      9509-9.54678E-05-5.12056E-05 2.10913E-06
 -1      9510 1.67140E-04 9.35672E-05-4.37249E-05
 -1      9511 1.66949E-04 9.34442E-05-4.21567E-05
 -1      9512 1.69889E-04 1.06373E-04-4.20277E-05
 -1      9513 2.14025E-05 2.55319E-04-4.63476E-06
 -1      9514 2.36931E-05 2.97519E-04-4.07305E-06
 -1      9515 3.46660E-05 2.39746E-04-8.74852E-06
 -1      9516 1.39154E-04 7.45583E-06-4.52896E-05
 -1      9517 1.62567E-04 3.40707E-06-4.74566E-05
 -1      9518 1.50956E-04 1.80934E-04-3.32865E-05
 -1      9519 1.71898E-04 1.61351E-04-3.82392E-05
 -1      9520 1.55979E-04 1.49829E-04-3.95682E-05
 -1      9521 1.71937E-04 5.31701E-05-3.35226E-05
 -1      9522 1.30599E-04 1.74933E-05-2.99195E-05
 -1      9523 1.20688E-04 2.17686E-05-2.80567E-05
 -1      9524 1.24125E-04 2.85204E-05-3.01072E-05
 -1      9525 1.64064E-04 8.03981E-05-3.30604E-05
 -1      9526 1.63253E-04 7.72191E-05-3.24334E-05
 -1      9527-3.44174E-04 4.61052E-04 1.46314E-06
 -1      9528-4.64891E-04 4.12421E-04 4.16551E-06
 -1      9529-3.74573E-04 3.81473E-04 2.53799E-06
 -1      9530 1.52463E-04 1.86159E-05-3.66973E-05
 -1      9531 1.45588E-04 2.70644E-05-3.63532E-05
 -1      9532 1.48856E-04 1.79585E-05-3.58313E-05
 -1      9533 1.52961E-04 1.14407E-05-3.72245E-05
 -1      9534 1.53484E-04 7.00234E-05-6.60027E-06
 -1      9535 1.70917E-04 6.64033E-05-1.62330E-05
 -1      9536 1.72720E-04 7.52587E-05-1.66677E-05
 -1      9537 1.09166E-04 3.24830E-06-1.08416E-05
 -1      9538 1.07650E-04 7.02935E-06-1.27054E-05
 -1      9539 1.09970E-04 5.88495E-06-9.79291E-06
 -1      9540 1.37441E-04 8.18359E-06-4.20896E-05
 -1      9541 1.35784E-04 1.05240E-05-4.01823E-05
 -1      9542 1.41487E-04 1.11005E-05-4.20350E-05
 -1      9543 1.44209E-04 6.74234E-06-4.27733E-05
 -1      9544 1.42456E-04 9.47013E-06-4.08402E-05
 -1      9545 1.37861E-04 7.02366E-06-4.08495E-05
 -1      9546 1.68691E-04 2.81062E-05-7.72575E-06
 -1      9547 1.68287E-04 2.77790E-05-8.14015E-06
 -1      9548 1.49398E-04 3.65017E-06-1.59515E-05
 -1      9549 1.49167E-04 6.66964E-06-1.62231E-05
 -1      9550 9.70411E-05 2.69947E-05-5.36557E-05
 -1      9551 9.02479E-05 2.36098E-05-5.52388E-05
 -1      9552 9.23325E-05 1.97811E-05-5.01182E-05
 -1      9553 1.41848E-04 7.20866E-06-3.73734E-05
 -1      9554 1.71253E-04 7.77466E-05-4.61491E-05
 -1      9555 1.71606E-04 7.94194E-05-4.50477E-05
 -1      9556 1.75073E-04 7.00878E-05-4.60079E-05
 -1      9557 1.61960E-04 7.03325E-05-4.62591E-05
 -1      9558 1.25305E-04 4.17875E-05-4.69611E-05
 -1      9559 1.38639E-04 3.38409E-06-3.27260E-06
 -1      9560 1.23716E-04 1.22044E-04-3.80730E-05
 -1      9561 1.20956E-04 9.73262E-05-3.85684E-05
 -1      9562 1.14395E-04 8.71586E-05-4.06801E-05
 -1      9563 1.65184E-04 9.20072E-05-5.38153E-05
 -1      9564 1.65071E-04 9.08691E-05-5.25824E-05
 -1      9565 1.10510E-04 1.99439E-05-5.24505E-05
 -1      9566 1.19683E-04 8.31387E-05-3.48047E-05
 -1      9567-2.58864E-05 8.29939E-05-1.54948E-05
 -1      9568 1.12991E-05 4.70046E-05-2.14650E-05
 -1      9569-7.14929E-06 4.84123E-05-1.51117E-05
 -1      9570-7.56559E-06 7.32482E-05-1.31770E-05
 -1      9571 1.55965E-04 4.06463E-05-2.70856E-05
 -1      9572 1.35537E-04 2.67286E-06-3.71634E-05
 -1      9573 1.65495E-04 2.50993E-05-1.90370E-05
 -1      9574 1.69189E-04 2.77823E-05-5.97613E-05
 -1      9575 1.68572E-04 2.65915E-05-5.92065E-05
 -1      9576 1.14387E-04 7.02598E-06-5.60476E-05
 -1      9577 1.38217E-04 1.37213E-04-4.02770E-05
 -1      9578 1.40321E-04 1.75968E-04-3.68253E-05
 -1      9579 1.30479E-04 1.62909E-04-4.00603E-05
 -1      9580 1.45030E-04 1.35413E-04-4.31836E-05
 -1      9581 1.46480E-04 1.74392E-04-3.90937E-05
 -1      9582 1.52394E-04 3.26147E-06-6.07769E-05
 -1      9583 1.48076E-04 9.03993E-06-6.15596E-05
 -1      9584 1.51578E-04 7.05205E-06-6.05384E-05
 -1      9585 1.42320E-04 6.63984E-06-5.27285E-05
 -1      9586 1.70797E-04 4.14154E-05-5.50831E-05
 -1      9587 1.70891E-04 4.14424E-05-5.56606E-05
 -1      9588 1.69245E-04 3.48211E-05-5.55056E-05
 -1      9589 4.54968E-05 2.01294E-04-2.25918E-05
 -1      9590 1.45258E-04 3.04322E-05-3.84421E-05
 -1      9591 1.41357E-04 3.83971E-05-3.70512E-05
 -1      9592 1.46421E-04 4.49934E-05-3.78589E-05
 -1      9593 1.50360E-04 3.18205E-05-3.72942E-05
 -1      9594 1.36793E-04 3.32606E-05-3.63525E-05
 -1      9595 1.70137E-04 3.27668E-05-4.01165E-05
 -1      9596 1.70442E-04 3.46064E-05-4.07666E-05
 -1      9597 1.68505E-04 2.41095E-05-4.07272E-05
 -1      9598 6.25748E-05 6.20349E-05-3.68278E-05
 -1      9599 6.52170E-05 5.04872E-05-3.92826E-05
 -1      9600 1.71499E-04 1.74827E-04-3.10704E-05
 -1      9601 1.71700E-04 1.76352E-04-2.97501E-05
 -1      9602 1.77097E-04 1.53673E-04-3.39580E-05
 -1      9603 1.53567E-04 1.59435E-04-3.05506E-05
 -1      9604 8.42955E-05 4.28783E-05-2.66631E-05
 -1      9605 1.02253E-04 2.94223E-05-3.39109E-05
 -1      9606 6.42233E-05 5.27217E-05-2.67447E-05
 -1      9607 8.15933E-05 4.08025E-05-3.40387E-05
 -1      9608 8.27163E-05 3.38216E-05-3.08746E-05
 -1      9609 1.66399E-04 8.55092E-06-2.76645E-06
 -1      9610 1.66157E-04 1.38877E-05-2.43162E-06
 -1      9611 1.66704E-04 1.41462E-05-2.68729E-06
 -1      9612 2.82123E-05 3.69987E-05-3.48505E-05
 -1      9613 4.81175E-05 4.17465E-05-4.12650E-05
 -1      9614 3.85607E-05 2.13798E-05-3.51709E-05
 -1      9615 5.83509E-05 2.36670E-05-4.26107E-05
 -1      9616 5.73301E-05 3.17535E-05-3.86472E-05
 -1      9617 1.23156E-04 9.07037E-06-1.80263E-05
 -1      9618 1.77620E-04 1.09193E-04-9.91872E-06
 -1      9619 1.76176E-04 1.00556E-04-1.03786E-05
 -1      9620 1.75663E-04 9.79731E-05-9.66889E-06
 -1      9621 1.28149E-04 3.20943E-06-6.00802E-05
 -1      9622 1.27716E-04 3.19054E-06-5.78583E-05
 -1      9623 1.28942E-04 7.33758E-06-5.91253E-05
 -1      9624 1.66930E-04 6.77593E-06-3.37199E-05
 -1      9625 1.64111E-04 7.86709E-06-1.24412E-05
 -1      9626 1.14542E-04 8.50918E-05-1.47764E-05
 -1      9627 1.20000E-04 9.72636E-05-1.22678E-05
 -1      9628 1.27809E-04 9.60044E-05-1.54108E-05
 -1      9629 1.25998E-04 7.71845E-05-1.64662E-05
 -1      9630 1.32697E-04 9.15992E-05-1.38752E-05
 -1      9631 1.18761E-04 7.99682E-05-1.32411E-05
 -1      9632 1.18481E-04 2.98525E-06-5.78100E-05
 -1      9633 1.67194E-04 2.65939E-05-5.17634E-06
 -1      9634 1.66460E-04 2.62060E-05-4.80353E-06
 -1      9635 1.68587E-04 3.56303E-05-5.05254E-06
 -1      9636 1.52080E-04 7.65463E-05-4.74709E-05
 -1      9637 1.16354E-04 1.04706E-06-6.24655E-05
 -1      9638 1.72373E-04 1.32705E-04-8.18497E-06
 -1      9639 1.52491E-04 1.20810E-04-8.32458E-06
 -1      9640 1.71780E-04 1.29691E-04-7.35419E-06
 -1      9641 1.54926E-04 1.37903E-05-1.39060E-05
 -1      9642 1.63195E-04 4.17453E-06-1.38553E-05
 -1      9643 1.53149E-04 1.09769E-05-1.03053E-05
 -1      9644 1.42885E-04 1.38548E-04-7.87341E-06
 -1      9645 1.26902E-04 3.29111E-06-3.44464E-05
 -1      9646 1.24921E-04 3.09081E-06-4.82762E-05
 -1      9647 1.62515E-04 4.87644E-06-2.26333E-05
 -1      9648 1.63521E-04 5.93211E-06-2.24201E-05
 -1      9649 1.63507E-04 5.99422E-06-2.27892E-05
 -1      9650 7.63180E-05 2.40805E-06-1.80820E-05
 -1      9651 1.62614E-04 3.52565E-06-7.17071E-05
 -1      9652 1.62100E-04 3.30353E-06-7.27832E-05
 -1      9653 1.60600E-04 2.87480E-06-7.23386E-05
 -1      9654 1.60026E-04 4.41566E-04-8.74801E-06
 -1      9655 1.11926E-04 4.30900E-04-5.86119E-06
 -1      9656 1.20216E-04 4.16549E-04-1.02475E-05
 -1      9657 1.09655E-04 4.73573E-04-8.77278E-06
 -1      9658 1.26575E-04 1.01078E-04-4.36689E-05
 -1      9659 1.42135E-04 1.23292E-04-4.29865E-05
 -1      9660-2.29948E-04 2.80522E-04-1.21118E-06
 -1      9661-2.26168E-04 2.05008E-04-1.22601E-06
 -1      9662-3.02333E-04 2.84441E-04 4.18728E-06
 -1      9663 1.00890E-04 2.68410E-06-4.88471E-05
 -1      9664 9.56216E-05 6.50165E-06-4.82657E-05
 -1      9665 1.28982E-04 2.54403E-06-1.72975E-05
 -1      9666 1.21762E-04 7.11664E-06-1.55963E-05
 -1      9667 1.28679E-04 2.48394E-06-1.59788E-05
 -1      9668 3.99775E-05-2.71103E-06-1.07426E-06
 -1      9669 4.74697E-05-1.86772E-06-5.00980E-06
 -1      9670 1.54897E-04 4.37174E-05-1.96765E-05
 -1      9671 1.53737E-04 3.03218E-05-1.95014E-05
 -1      9672 1.57309E-04 3.46619E-05-2.01202E-05
 -1      9673 1.58314E-04 4.97247E-05-1.93090E-05
 -1      9674 1.09124E-04 1.00581E-04-5.55505E-05
 -1      9675 1.21512E-04 9.31439E-05-5.49452E-05
 -1      9676 1.01557E-04 9.82492E-05-5.12183E-05
 -1      9677 1.62204E-04 4.59785E-06-2.28793E-05
 -1      9678 1.66659E-04 5.39502E-06-1.35398E-05
 -1      9679 1.27948E-04 1.65908E-04-8.20065E-06
 -1      9680 1.24560E-04 1.32276E-04-8.57381E-06
 -1      9681 1.05719E-04 1.25757E-04-7.75273E-06
 -1      9682 1.06819E-04 8.37441E-07-5.53695E-05
 -1      9683 1.08179E-04 3.19372E-06-5.75642E-05
 -1      9684 1.39751E-04 3.45900E-06-4.48232E-05
 -1      9685 1.39503E-04 6.34297E-06-4.39997E-05
 -1      9686 1.44494E-04 2.42376E-06-4.23260E-05
 -1      9687 1.70940E-04 5.16079E-05-4.55114E-05
 -1      9688 1.72229E-04 1.13994E-04-5.31364E-05
 -1      9689 1.72967E-04 1.16277E-04-5.18320E-05
 -1      9690 1.50818E-04 3.27481E-06-2.11187E-05
 -1      9691 1.48040E-04 2.91140E-06-2.09520E-05
 -1      9692 1.47503E-04 8.32765E-06-2.05650E-05
 -1      9693 1.48271E-04 5.08007E-05-4.42851E-05
 -1      9694 1.52812E-04 5.84387E-05-4.54779E-05
 -1      9695 1.46603E-04 1.37194E-05-4.34035E-05
 -1      9696 1.28709E-04 2.25108E-05-3.95458E-05
 -1      9697 1.68339E-05 1.17794E-04-1.84707E-05
 -1      9698 2.63299E-07 1.00206E-04-1.53182E-05
 -1      9699 2.70651E-05 8.54007E-05-2.34462E-05
 -1      9700 7.89465E-06 1.23407E-04-1.90437E-05
 -1      9701-1.91223E-06 1.57855E-04-1.45443E-05
 -1      9702 1.49644E-04 3.34758E-06-9.15791E-06
 -1      9703 1.48194E-04 3.08112E-06-9.67213E-06
 -1      9704 1.67280E-04 7.02364E-05-2.88835E-05
 -1      9705 1.65912E-04 6.50967E-05-2.83062E-05
 -1      9706 1.63991E-04 4.37539E-06-5.28967E-05
 -1      9707 1.62725E-04 3.06855E-06-5.18981E-05
 -1      9708 1.63087E-04 2.89999E-05-2.08132E-05
 -1      9709 1.62926E-04 2.56480E-05-2.10347E-05
 -1      9710 1.10144E-04 3.03987E-06-1.78363E-05
 -1      9711 1.46139E-04 8.71616E-05-1.11478E-05
 -1      9712-6.34962E-05-8.32636E-05 4.95914E-06
 -1      9713 1.73452E-04 6.26675E-05-4.57392E-05
 -1      9714 3.34867E-05 4.65487E-04-1.16775E-05
 -1      9715 7.55105E-05 4.98357E-04-9.87253E-06
 -1      9716-9.57364E-05 1.07912E-05-2.05485E-06
 -1      9717-1.55528E-04 2.38298E-05-7.45865E-07
 -1      9718 3.25106E-05 4.81969E-05-1.97411E-05
 -1      9719 5.29332E-06 4.01670E-05-1.42109E-05
 -1      9720 1.17198E-04 2.50426E-06-4.28797E-05
 -1      9721 1.21301E-04 2.86161E-06-4.48145E-05
 -1      9722 1.23060E-04 2.41835E-06-4.22688E-05
 -1      9723 1.21536E-04 5.71887E-06-4.30872E-05
 -1      9724 1.63411E-04 3.48485E-06-1.21828E-05
 -1      9725 1.61677E-04 2.94287E-06-1.19190E-05
 -1      9726 1.63348E-04 3.41450E-06-1.17928E-05
 -1      9727 1.30461E-04 8.05096E-05-1.20604E-05
 -1      9728 1.41277E-04 9.65837E-05-1.28767E-05
 -1      9729 1.59676E-04 9.04271E-06-8.10591E-05
 -1      9730 1.59032E-04 7.23900E-06-8.22900E-05
 -1      9731 1.66075E-04 6.73198E-06-3.18477E-05
 -1      9732 1.66082E-04 6.61739E-06-3.21157E-05
 -1      9733 1.65044E-04 4.67166E-06-3.18866E-05
 -1      9734-1.21902E-04-1.67946E-05-3.39758E-08
 -1      9735-1.04766E-04 6.75905E-04-1.32593E-06
 -1      9736-1.18625E-04 5.99578E-04-2.99828E-06
 -1      9737 1.50088E-04 3.98156E-05-1.24680E-05
 -1      9738 1.51384E-04 6.54535E-05-1.29765E-05
 -1      9739 1.40902E-04 2.66054E-05-6.90257E-05
 -1      9740 1.43622E-04 1.19317E-05-7.27963E-05
 -1      9741 1.47142E-04 1.91224E-05-7.30021E-05
 -1      9742 1.47745E-04 2.47316E-05-5.15124E-05
 -1      9743-1.17539E-04-1.88522E-05 5.63202E-07
 -1      9744-9.13202E-05 7.36459E-06-5.24411E-06
 -1      9745-1.52647E-04 2.02002E-05-1.81895E-06
 -1      9746 1.72555E-04 9.58313E-05-1.55767E-05
 -1      9747 1.74095E-04 1.03740E-04-1.59895E-05
 -1      9748 1.02211E-04 1.40541E-05-1.62648E-05
 -1      9749-1.89795E-04 3.72035E-04-4.04912E-06
 -1      9750-2.26612E-04 3.34732E-04-1.64862E-06
 -1      9751 1.47633E-04 2.42749E-04-2.85925E-05
 -1      9752 1.11299E-04 8.11644E-06-2.05252E-06
 -1      9753 1.65731E-04 5.07508E-05-4.25518E-05
 -1      9754 1.57215E-04 3.99382E-05-4.30705E-05
 -1      9755 1.48834E-04 3.94666E-05-3.15535E-05
 -1      9756 1.51837E-04 6.42891E-05-3.19556E-05
 -1      9757 1.79716E-04 2.97279E-04-8.52898E-06
 -1      9758 1.84377E-04 3.27923E-04-8.06003E-06
 -1      9759 2.40547E-05-7.65744E-06-8.95806E-06
 -1      9760 1.52497E-04 2.74435E-06-7.90077E-06
 -1      9761 1.68865E-04 2.47183E-05-2.27339E-05
 -1      9762 1.34977E-04 4.42928E-05-3.51818E-06
 -1      9763 1.24131E-04 4.53869E-05-2.29006E-06
 -1      9764 1.62778E-04 3.36092E-06-1.14107E-05
 -1      9765 1.47480E-04 2.50697E-05-4.88751E-05
 -1      9766 1.48896E-04 2.55854E-05-4.97673E-05
 -1      9767 1.56686E-04 4.03550E-05-6.06602E-05
 -1      9768 1.67655E-04 8.46559E-05-1.55994E-05
 -1      9769 1.65886E-04 7.63678E-05-1.60342E-05
 -1      9770 1.25085E-04 1.77890E-04-2.80069E-06
 -1      9771 1.03305E-04 1.38811E-04-2.25612E-06
 -1      9772 1.66631E-04 3.91554E-06-2.47586E-05
 -1      9773 1.67761E-04 5.06531E-06-2.46718E-05
 -1      9774 1.40649E-04 2.46014E-05-2.22477E-05
 -1      9775 1.68700E-04 7.09315E-05-3.06980E-05
 -1      9776 1.56525E-04 4.32102E-05-2.19733E-05
 -1      9777 1.52926E-04 6.46126E-05-2.09486E-05
 -1      9778 1.57442E-04 4.17122E-05-2.11913E-05
 -1      9779 9.62240E-05 1.02242E-04-2.94879E-05
 -1      9780 8.68565E-05 1.00925E-04-3.17050E-05
 -1      9781 1.01902E-04 8.19390E-05-3.27187E-05
 -1      9782 9.24129E-05 8.18761E-05-3.50630E-05
 -1      9783 1.03068E-04 1.12684E-04-3.07425E-05
 -1      9784 1.64760E-04 2.64817E-05-7.58392E-05
 -1      9785 1.65201E-04 2.57119E-05-7.49552E-05
 -1      9786 1.67166E-04 3.67336E-05-7.37184E-05
 -1      9787 7.10240E-05 5.62949E-05-3.33669E-05
 -1      9788-1.15785E-04 5.26786E-04-1.75454E-06
 -1      9789-1.69973E-04 5.71924E-04-1.41007E-06
 -1      9790 1.30840E-04 5.18060E-05-2.74782E-05
 -1      9791 1.41478E-04 6.25411E-05-2.84714E-05
 -1      9792 1.37828E-04 4.53868E-05-2.87867E-05
 -1      9793 1.53570E-04 4.08953E-06-2.32016E-05
 -1      9794 1.43762E-04 3.32679E-06-1.81984E-05
 -1      9795 1.43090E-04 7.82509E-06-1.87524E-05
 -1      9796 1.55452E-04 5.05160E-05-3.78252E-05
 -1      9797 1.47568E-04 6.61096E-05-3.82970E-05
 -1      9798 1.54897E-04 7.23738E-05-3.71690E-05
 -1      9799 1.57827E-04 7.30102E-05-3.81323E-05
 -1      9800 1.20009E-04 3.87334E-06-1.28380E-05
 -1      9801 1.24154E-04 2.73705E-06-1.13606E-05
 -1      9802 1.61608E-04 3.12672E-06-7.11739E-05
 -1      9803 1.47279E-04 1.83874E-05-2.00164E-06
 -1      9804 1.44099E-04 1.82766E-05-7.85366E-07
 -1      9805 1.44636E-04 1.13410E-05-2.51225E-06
 -1      9806 1.51986E-04 1.36104E-04-1.59863E-05
 -1      9807 1.69060E-04 1.47876E-04-1.63921E-05
 -1      9808 1.50239E-04 1.57581E-04-1.75393E-05
 -1      9809 1.31994E-04 8.20130E-06-1.76902E-06
 -1      9810 1.26973E-04 7.38846E-06-1.53556E-06
 -1      9811 1.53774E-04 7.09682E-06-1.77577E-05
 -1      9812 1.54502E-04 4.25790E-06-2.38234E-05
 -1      9813 1.54126E-04 8.30698E-06-2.37173E-05
 -1      9814 1.64041E-04 3.26019E-06-6.37916E-05
 -1      9815 8.82780E-05 1.64115E-05-3.69690E-06
 -1      9816 9.90164E-05 1.52403E-05-3.81598E-06
 -1      9817 7.85563E-05 2.91636E-05-3.61858E-06
 -1      9818 8.88499E-05 2.97102E-05-3.74830E-06
 -1      9819 9.34269E-05 2.43549E-05-7.61203E-06
 -1      9820 1.70436E-04 1.18824E-04-1.67461E-05
 -1      9821 1.78940E-04 1.81711E-04-4.73677E-06
 -1      9822-9.19738E-05 4.19726E-04-6.19176E-06
 -1      9823 1.44115E-04 5.23655E-05-5.31931E-05
 -1      9824 1.51966E-04 4.85347E-05-5.21085E-05
 -1      9825 1.53450E-04 5.02714E-05-5.37379E-05
 -1      9826 1.06215E-04 2.99623E-05-4.87261E-05
 -1      9827 1.59827E-04 1.12196E-05-1.36823E-05
 -1      9828 1.11912E-04 7.21235E-05-1.35735E-05
 -1      9829 1.18575E-04 6.84469E-05-1.68435E-05
 -1      9830 1.49652E-04 9.53074E-05-1.88373E-05
 -1      9831 1.53183E-04 7.16207E-05-2.01237E-05
 -1      9832-5.70113E-05 6.23305E-04-3.39663E-06
 -1      9833 5.43196E-05 8.36305E-05-2.53757E-05
 -1      9834 3.75751E-05 6.95591E-05-2.12889E-05
 -1      9835 3.94311E-05 1.16911E-04-2.03605E-05
 -1      9836 2.24332E-05 9.77870E-05-1.71746E-05
 -1      9837 4.97229E-05 9.74825E-05-1.81514E-05
 -1      9838 1.56066E-04 1.83362E-05-1.43592E-05
 -1      9839 1.69004E-04 4.41617E-06-4.73719E-05
 -1      9840 1.61685E-04 1.50229E-05-4.72456E-05
 -1      9841 1.46661E-04 2.73663E-06-2.18997E-05
 -1      9842 1.43726E-04 6.57620E-06-2.23811E-05
 -1      9843 1.74312E-04 1.44355E-04-5.02567E-05
 -1      9844 1.57518E-04 1.20263E-04-5.48504E-05
 -1      9845 1.54143E-04 1.51744E-04-4.80964E-05
 -1      9846 1.49832E-04 1.05286E-05-7.48215E-05
 -1      9847-1.06081E-04 6.71835E-04-2.16428E-06
 -1      9848 1.79171E-04 2.50020E-04-7.68094E-06
 -1      9849 1.81235E-04 2.62093E-04-9.64903E-06
 -1      9850 1.77293E-04 2.39325E-04-1.00212E-05
 -1      9851 1.69848E-04 5.94960E-05-6.24443E-05
 -1      9852 1.67994E-04 8.03655E-05-5.83658E-05
 -1      9853 1.61566E-04 3.83176E-06-2.17122E-05
 -1      9854 1.61728E-04 3.95080E-06-2.20297E-05
 -1      9855 1.26635E-04 2.88367E-06-1.23841E-05
 -1      9856 1.70988E-04 3.81407E-05-3.10309E-05
 -1      9857 1.59458E-04 2.25928E-06-4.24562E-05
 -1      9858 1.61904E-04 2.55134E-06-4.21522E-05
 -1      9859 1.61992E-04 2.70211E-06-4.28083E-05
 -1      9860 1.14675E-04 3.20617E-05-2.41086E-06
 -1      9861 1.70749E-04 4.12267E-05-5.20496E-05
 -1      9862 1.50979E-04 8.41889E-06-5.84751E-05
 -1      9863 1.52508E-04 3.29816E-06-5.89496E-05
 -1      9864 8.90150E-05 2.62524E-04-1.61785E-05
 -1      9865 4.64190E-05 2.89601E-04-1.59591E-05
 -1      9866 1.74422E-04 1.74951E-04-1.18172E-05
 -1      9867 1.72992E-04 1.68045E-04-1.00862E-05
 -1      9868 1.58553E-04 1.58032E-05-1.59439E-05
 -1      9869 6.70512E-05-9.54318E-08-2.35134E-05
 -1      9870 6.90464E-05-3.27140E-07-2.57915E-05
 -1      9871 6.29849E-05-1.13150E-06-2.10388E-05
 -1      9872 1.28216E-04 1.66992E-05-6.41025E-06
 -1      9873 1.48525E-04 9.50412E-06-4.85827E-05
 -1      9874 1.56279E-04 4.73935E-05-4.51417E-06
 -1      9875 1.58894E-04 3.33798E-05-5.20902E-06
 -1      9876 1.60113E-04 4.92386E-05-5.92512E-06
 -1      9877 1.44711E-04 1.23102E-04-3.27617E-05
 -1      9878 1.45640E-04 1.03317E-04-3.31008E-05
 -1      9879 1.45535E-04 1.11530E-04-3.02347E-05
 -1      9880 1.74221E-04 1.04492E-04-1.50222E-05
 -1      9881 1.49548E-04 4.86099E-06-8.15916E-05
 -1      9882-7.19887E-06 2.71377E-04-4.02579E-06
 -1      9883 2.77835E-06 2.58040E-04-3.47831E-06
 -1      9884-2.55993E-05 2.34508E-04-3.32101E-06
 -1      9885-8.09988E-07 2.54141E-04-7.69064E-06
 -1      9886 6.10207E-05 5.57244E-04-9.61726E-06
 -1      9887 1.17001E-04 5.43353E-04-1.00106E-05
 -1      9888 1.39673E-04 4.43877E-05-7.23581E-05
 -1      9889 1.45369E-04 4.26772E-05-6.91812E-05
 -1      9890 1.43033E-04 5.76574E-05-6.98726E-05
 -1      9891 1.49607E-04 5.65407E-05-6.71987E-05
 -1      9892 1.46873E-04 3.74760E-05-7.24639E-05
 -1      9893 1.58787E-04 6.03394E-06-8.18927E-05
 -1      9894 1.58030E-04 5.16796E-06-8.16998E-05
 -1      9895 1.65877E-04 3.95789E-06-4.52842E-05
 -1      9896 1.67082E-04 4.82493E-06-4.55516E-05
 -1      9897 1.64988E-04 3.49113E-06-4.59075E-05
 -1      9898 1.71464E-04 4.38187E-05-2.53100E-05
 -1      9899 1.70091E-04 3.70824E-05-2.53005E-05
 -1      9900 1.71802E-04 4.50469E-05-2.51872E-05
 -1      9901 1.69760E-04 3.47406E-05-4.35886E-05
 -1      9902 1.56184E-04 3.43552E-05-4.37340E-05
 -1      9903 1.51987E-04 2.98454E-06-7.30766E-05
 -1      9904 1.53224E-04 3.22767E-06-7.40387E-05
 -1      9905 1.51594E-04 2.92017E-06-7.48577E-05
 -1      9906 1.15614E-04 2.03686E-05-3.31579E-05
 -1      9907 1.27379E-04 1.31878E-05-3.34049E-05
 -1      9908 1.27879E-04 1.05156E-05-3.59016E-05
 -1      9909 1.14541E-04 1.43852E-05-3.32342E-05
 -1      9910 1.53280E-04 1.85022E-05-3.14488E-05
 -1      9911 1.52576E-04 1.13510E-05-3.16882E-05
 -1      9912 1.15413E-04 3.36195E-06-1.30216E-05
 -1      9913 1.24684E-04 2.86054E-06-5.85124E-05
 -1      9914 1.34634E-04 7.75455E-06-5.10141E-05
 -1      9915 1.34502E-04 4.02385E-06-5.13256E-05
 -1      9916 1.41528E-04 2.56698E-06-5.31558E-05
 -1      9917 1.33943E-04 6.97743E-06-5.28014E-05
 -1      9918 1.14176E-04 4.38012E-05-2.32587E-06
 -1      9919 1.68958E-04 3.78169E-05-1.21874E-05
 -1      9920 1.68353E-04 4.63895E-05-2.95862E-05
 -1      9921 1.71071E-04 5.80224E-05-2.96042E-05
 -1      9922 1.16621E-04 2.16585E-06-7.27229E-06
 -1      9923 1.64208E-04 4.49864E-06-5.35384E-05
 -1      9924 1.12549E-05 2.82177E-04-1.29975E-05
 -1      9925-3.09491E-05 3.06144E-04-1.05275E-05
 -1      9926-4.79883E-04 5.05277E-04 1.08055E-05
 -1      9927-4.10995E-04 5.01236E-04 4.76196E-06
 -1      9928 1.55534E-04 7.05457E-04-1.76889E-06
 -1      9929 8.53835E-05 7.50465E-04-2.79330E-06
 -1      9930 1.09839E-04 6.29598E-04-5.52529E-06
 -1      9931 1.54786E-04 1.33378E-06-8.52357E-05
 -1      9932 1.56226E-04 1.68877E-06-8.46332E-05
 -1      9933 1.56906E-04 1.55311E-06-8.62336E-05
 -1      9934 1.74278E-04 1.89848E-04-2.95293E-05
 -1      9935 9.81957E-05 1.36416E-04-4.68626E-05
 -1      9936 1.24707E-04 1.62769E-04-4.50869E-05
 -1      9937 1.72598E-04 1.17349E-04-1.03214E-05
 -1      9938 1.75138E-04 1.30513E-04-1.08503E-05
 -1      9939 1.72914E-04 1.18710E-04-1.11218E-05
 -1      9940 1.32804E-04 3.84364E-06-5.23059E-05
 -1      9941 1.62612E-04 1.00329E-05-7.54901E-05
 -1      9942-1.57134E-04 1.66170E-04-6.07733E-06
 -1      9943 1.28852E-04 6.54206E-05-1.77167E-05
 -1      9944 1.34764E-04 7.90970E-05-1.72202E-05
 -1      9945 1.32502E-04 7.74887E-05-1.90936E-05
 -1      9946 1.45292E-04 9.45360E-05-4.08004E-05
 -1      9947 1.70837E-04 2.36825E-05-3.35683E-05
 -1      9948 1.69201E-04 1.01422E-05-3.39511E-05
 -1      9949 1.70069E-04 1.10614E-05-3.35502E-05
 -1      9950-3.60137E-04 1.32912E-03-2.32604E-06
 -1      9951-4.39968E-04 1.33159E-03-2.15500E-06
 -1      9952 1.73910E-04 1.40719E-04-7.58669E-06
 -1      9953 1.57154E-04 4.34521E-05-5.16158E-05
 -1      9954 1.54340E-04 3.34720E-05-5.17733E-05
 -1      9955 1.69910E-04 1.52840E-04-9.88031E-06
 -1      9956 1.69066E-04 1.48481E-04-1.07040E-05
 -1      9957 1.79579E-04 2.33387E-04-3.00173E-05
 -1      9958 1.77750E-04 2.19587E-04-3.00843E-05
 -1      9959 1.72024E-04 3.06686E-05-3.38734E-05
 -1      9960 1.70816E-04 2.26961E-05-3.43046E-05
 -1      9961 1.70156E-04 2.05244E-05-3.38818E-05
 -1      9962 1.61301E-04 3.17314E-06-3.38212E-05
 -1      9963 1.62949E-04 3.63657E-06-3.38153E-05
 -1      9964 1.62729E-04 3.52291E-06-3.41941E-05
 -1      9965 1.61041E-04 2.63103E-06-3.99690E-05
 -1      9966 1.62350E-04 3.02463E-06-4.02447E-05
 -1      9967 1.67005E-04 8.73840E-05-5.98115E-05
 -1      9968 1.67993E-04 9.46244E-05-5.88750E-05
 -1      9969 1.72524E-04 9.55553E-05-1.41534E-05
 -1      9970 1.54747E-04 9.12240E-05-1.37980E-05
 -1      9971 1.70465E-04 6.33587E-05-6.95132E-06
 -1      9972-1.14097E-05 5.15302E-05-4.22335E-06
 -1      9973-2.72631E-04 1.62249E-04 9.38098E-07
 -1      9974-3.30956E-04 2.07962E-04 4.81106E-06
 -1      9975-2.54827E-04 1.39824E-04 1.24499E-06
 -1      9976-2.61613E-04 1.32568E-03-2.25285E-06
 -1      9977-2.12481E-04 1.26788E-03-4.25153E-07
 -1      9978 1.39671E-04 3.46422E-06-4.60998E-05
 -1      9979 1.32786E-04 1.27734E-04-5.16462E-05
 -1      9980 1.39164E-04 1.56636E-04-4.67452E-05
 -1      9981 1.36524E-04 8.18080E-06-7.31641E-05
 -1      9982 1.41046E-04 3.62285E-06-2.56440E-05
 -1      9983 1.42151E-04 3.76648E-06-2.62403E-05
 -1      9984 1.49147E-04 2.86440E-06-2.63442E-05
 -1      9985 1.41452E-04 7.04174E-06-2.56592E-05
 -1      9986 1.65361E-04 5.86500E-05-4.25716E-06
 -1      9987 1.63916E-04 5.18669E-05-4.10285E-06
 -1      9988 1.65648E-04 5.97251E-05-3.81377E-06
 -1      9989-4.81147E-04 5.10615E-04 3.44329E-06
 -1      9990 1.26391E-04 3.75248E-05-6.98722E-05
 -1      9991 1.31035E-04 3.07100E-05-7.36975E-05
 -1      9992-3.40289E-04-1.37921E-04 2.49930E-06
 -1      9993 1.70356E-04 2.22668E-04-1.36677E-05
 -1      9994 1.45585E-04 2.26169E-04-9.99410E-06
 -1      9995 1.58095E-04 5.60758E-06-8.32440E-05
 -1      9996-7.53397E-05 3.45354E-04-7.34220E-06
 -1      9997-1.35219E-04 3.78395E-04-5.97037E-06
 -1      9998 8.15027E-05 4.08968E-05-4.49551E-05
 -1      9999 1.67957E-04 2.51679E-05-4.38451E-05
 -1     10000 1.46992E-04 3.33641E-06-1.60165E-05
 -1     10001 1.45156E-04 3.01440E-06-1.63895E-05
 -1     10002 1.46437E-04 6.80249E-06-1.65690E-05
 -1     10003 1.58425E-04 1.24652E-05-2.72527E-05
 -1     10004 8.83934E-05 5.29250E-06-3.23796E-05
 -1     10005-1.61925E-04 4.72016E-05-2.93354E-06
 -1     10006 2.26844E-05-7.64309E-06 7.35100E-07
 -1     10007 2.02053E-05-1.29526E-05 2.45776E-06
 -1     10008 1.54739E-04 3.93977E-06-1.77974E-06
 -1     10009 1.54352E-04 3.20201E-05-3.14985E-06
 -1     10010 1.49843E-04 3.14144E-06-2.17646E-05
 -1     10011 1.70854E-04 4.84071E-05-3.29652E-05
 -1     10012 1.37399E-04 1.71115E-05-1.63571E-06
 -1     10013 1.55330E-04 1.53305E-05-5.60033E-06
 -1     10014 1.23551E-04 1.04581E-04-1.78205E-05
 -1     10015 1.30701E-04 1.18109E-04-1.51855E-05
 -1     10016 1.15976E-04 1.05794E-04-1.47029E-05
 -1     10017 2.31292E-05 6.38022E-05-3.64472E-05
 -1     10018-7.19932E-06 7.30307E-05-2.92015E-05
 -1     10019-1.09838E-04 1.76935E-04-8.44455E-06
 -1     10020-3.48759E-04 9.65171E-04-4.00324E-07
 -1     10021-5.18755E-04 8.66013E-04 2.85313E-06
 -1     10022 1.54137E-04 3.24716E-06-1.11638E-05
 -1     10023 1.53706E-04 3.17858E-06-1.08378E-05
 -1     10024 1.55087E-04 3.44509E-06-1.08617E-05
 -1     10025 1.52162E-04 3.27172E-06-2.61690E-05
 -1     10026 1.51357E-04 3.07902E-06-2.68447E-05
 -1     10027 1.41639E-04 1.04736E-04-5.76257E-05
 -1     10028 1.39753E-04 1.37964E-04-5.02822E-05
 -1     10029 1.58751E-04 4.07955E-05-3.56016E-05
 -1     10030 1.68319E-04 5.29317E-05-3.53404E-05
 -1     10031 1.60534E-04 4.67685E-05-3.46247E-05
 -1     10032 1.70187E-04 7.08860E-05-5.36153E-05
 -1     10033 1.39193E-04 2.60056E-06-2.29244E-05
 -1     10034 1.36353E-04 3.14902E-06-4.80145E-05
 -1     10035 1.66840E-04 4.47055E-05-4.09779E-05
 -1     10036 9.09314E-05 1.21309E-03-3.98601E-06
 -1     10037 1.23821E-04 1.17830E-03-3.56260E-06
 -1     10038 1.49425E-04 1.25072E-03-1.65462E-06
 -1     10039 6.21001E-05 1.17764E-03-7.82251E-06
 -1     10040 3.46002E-05 1.21267E-03-6.78498E-06
 -1     10041-1.15120E-05 1.05871E-04-2.03847E-05
 -1     10042 5.36422E-05 1.04189E-06-4.56609E-06
 -1     10043 5.54814E-05 9.41775E-05-4.52433E-05
 -1     10044 7.68753E-05 6.34696E-05-5.40452E-05
 -1     10045 1.44679E-04 7.52025E-06-1.28057E-05
 -1     10046 1.45174E-04 3.72333E-06-1.29613E-05
 -1     10047 1.43538E-04 6.72764E-06-1.19706E-05
 -1     10048 1.50977E-04 2.74437E-06-1.18464E-05
 -1     10049 1.50314E-04 7.32727E-06-1.16820E-05
 -1     10050-3.50602E-04 9.67103E-04-3.26629E-07
 -1     10051-5.19865E-04 8.68824E-04 1.17734E-06
 -1     10052 1.73184E-04 4.86486E-05-5.05396E-05
 -1     10053 1.72410E-04 4.47235E-05-5.01004E-05
 -1     10054 1.74484E-04 5.50472E-05-4.99107E-05
 -1     10055 1.55585E-04 4.07067E-06-3.11210E-05
 -1     10056 1.53506E-04 3.58250E-06-3.09546E-05
 -1     10057 1.51878E-04 7.71634E-06-3.18219E-05
 -1     10058 1.61044E-04 6.43248E-06-2.51139E-06
 -1     10059 1.61900E-04 7.82871E-06-2.62488E-06
 -1     10060 1.53149E-04 1.86433E-05-2.74376E-06
 -1     10061 1.21314E-04 2.89785E-05-3.51089E-05
 -1     10062 1.15042E-04 2.78104E-05-3.66540E-05
 -1     10063 1.10009E-04 3.19930E-05-3.42001E-05
 -1     10064 1.24633E-04 2.11592E-05-3.33253E-05
 -1     10065 1.15952E-04 3.37406E-05-3.27750E-05
 -1     10066 1.52533E-04 3.81078E-06-8.51756E-06
 -1     10067 1.51999E-04 3.65908E-06-8.99239E-06
 -1     10068 1.51107E-04 7.59712E-06-9.26283E-06
 -1     10069 1.52513E-04 8.73770E-06-2.24798E-05
 -1     10070 1.06779E-04 2.73672E-06-1.56692E-05
 -1     10071 1.35057E-04 1.17146E-04-3.09795E-06
 -1     10072 1.46660E-04 1.39173E-04-2.22124E-06
 -1     10073 1.21149E-04 8.32899E-06-1.41583E-05
 -1     10074 4.51205E-05 5.14269E-04-1.03657E-05
 -1     10075 8.78764E-05 4.74305E-04-1.35146E-05
 -1     10076 1.57131E-04 2.69412E-06-2.62717E-05
 -1     10077 1.59466E-04 3.33388E-06-2.66854E-05
 -1     10078 9.06368E-05 7.43537E-06-3.21081E-06
 -1     10079 1.03215E-04 1.91669E-04-2.11904E-05
 -1     10080 9.03455E-05 1.70676E-04-2.03792E-05
 -1     10081 8.04981E-05 1.80082E-04-1.70083E-05
 -1     10082 1.36998E-04 1.64706E-04-2.18688E-05
 -1     10083 1.25094E-04 5.39253E-05-1.81801E-05
 -1     10084 1.74029E-04 9.66748E-05-5.35575E-06
 -1     10085 1.72579E-04 8.90656E-05-6.00516E-06
 -1     10086 1.71803E-04 8.49851E-05-5.25794E-06
 -1     10087 1.67606E-04 1.50980E-05-2.23444E-05
 -1     10088 1.68536E-04 2.49774E-05-2.23514E-05
 -1     10089 1.53196E-04 4.92248E-06-6.59001E-05
 -1     10090 1.47382E-04 9.64047E-06-6.64322E-05
 -1     10091 9.93892E-05 2.11415E-05-5.13308E-05
 -1     10092 9.23934E-05 2.87673E-05-4.75945E-05
 -1     10093 1.70844E-04 3.97449E-05-4.21519E-05
 -1     10094 1.64713E-04 5.94850E-05-2.80337E-05
 -1     10095 1.55780E-04 5.70812E-05-2.85705E-05
 -1     10096 1.26467E-04 6.62678E-06-8.35635E-06
 -1     10097 1.61956E-04 7.77949E-06-2.38465E-06
 -1     10098 1.54222E-04 1.32666E-05-6.04771E-05
 -1     10099 1.54117E-04 9.58084E-06-5.94818E-05
 -1     10100 1.45468E-04 1.27150E-05-6.07972E-05
 -1     10101 1.39768E-04 4.54350E-06-9.34675E-07
 -1     10102 1.41473E-04 2.25384E-06-1.70443E-06
 -1     10103 1.38330E-04 5.10061E-06-7.51264E-05
 -1     10104 1.60893E-04 3.06992E-06-2.77064E-05
 -1     10105 1.62595E-04 3.56870E-06-2.80535E-05
 -1     10106 1.60515E-04 2.84945E-06-2.84205E-05
 -1     10107 1.51754E-04 5.41329E-06-8.20583E-05
 -1     10108 1.58540E-04 2.81702E-05-9.90658E-06
 -1     10109 1.52077E-04 7.69354E-05-5.26609E-05
 -1     10110 1.57831E-04 5.77318E-05-5.43586E-05
 -1     10111 1.70433E-04 3.85618E-05-6.32400E-05
 -1     10112 1.60126E-04 2.45458E-05-6.35833E-05
 -1     10113 1.68766E-04 3.10326E-05-6.34642E-05
 -1     10114 1.60374E-04 1.21267E-05-2.80852E-05
 -1     10115 1.30906E-04 3.27257E-06-2.11435E-05
 -1     10116 1.30790E-04 3.26951E-06-2.22271E-05
 -1     10117 1.28150E-04 3.00456E-06-2.17407E-05
 -1     10118 1.16051E-04 1.02887E-05-1.58614E-05
 -1     10119 1.63641E-04 1.16738E-05-3.60090E-05
 -1     10120 1.63342E-04 9.25530E-06-3.61625E-05
 -1     10121 1.57332E-04 2.05418E-05-3.63304E-05
 -1     10122 1.62575E-04 4.97462E-05-7.07181E-05
 -1     10123 1.24910E-04 4.02288E-05-1.22408E-05
 -1     10124 1.30546E-04 3.35580E-05-1.37192E-05
 -1     10125 1.62990E-04 3.54074E-06-4.14517E-05
 -1     10126 1.59656E-04 8.50665E-06-4.08948E-05
 -1     10127 1.59744E-04 6.44305E-06-4.15824E-05
 -1     10128 1.59930E-04 8.00269E-06-4.21821E-05
 -1     10129 1.04914E-04 1.27904E-05-4.35684E-05
 -1     10130 1.14454E-04 1.26156E-05-4.61106E-05
 -1     10131 1.47108E-04 6.19633E-06-2.75221E-06
 -1     10132 1.80148E-04 3.45161E-04-2.35303E-05
 -1     10133 1.76739E-04 3.06260E-04-2.52600E-05
 -1     10134 1.66479E-04 7.08411E-06-4.16257E-05
 -1     10135 1.60384E-04 1.45003E-05-4.11746E-05
 -1     10136 1.35170E-04 4.25031E-06-1.43199E-05
 -1     10137 1.33263E-04 6.59831E-06-1.54227E-05
 -1     10138 1.46640E-04 1.11598E-04-5.17846E-05
 -1     10139 1.42809E-04 1.20446E-04-4.71645E-05
 -1     10140 1.48849E-04 3.83748E-06-4.36576E-05
 -1     10141 1.72116E-04 8.64965E-05-3.94154E-06
 -1     10142 1.54279E-04 9.85326E-06-4.96701E-05
 -1     10143 1.68413E-04 4.92756E-05-3.98294E-05
 -1     10144 1.67972E-04 4.81142E-05-3.92381E-05
 -1     10145 1.59541E-04 3.79480E-05-3.98325E-05
 -1     10146 1.21848E-04 1.39011E-05-3.74109E-05
 -1     10147 1.22383E-04 1.05439E-05-3.95592E-05
 -1     10148 1.31301E-04 1.18313E-05-3.78454E-05
 -1     10149 1.24602E-04 2.29784E-05-3.73457E-05
 -1     10150 1.26983E-04 1.70044E-05-3.96785E-05
 -1     10151 1.17819E-04 1.84075E-05-3.91614E-05
 -1     10152 1.01390E-04 6.04848E-05-3.63815E-05
 -1     10153 1.56918E-04 2.15154E-05-2.12025E-05
 -1     10154 1.15379E-04 3.33245E-06-1.43428E-05
 -1     10155 1.74640E-04 1.26865E-04-6.70158E-06
 -1     10156 1.72320E-04 1.14906E-04-6.43603E-06
 -1     10157 1.73780E-04 1.22442E-04-5.76934E-06
 -1     10158 1.04397E-04 1.87980E-05-1.64381E-05
 -1     10159 9.37389E-05 3.48096E-05-1.39267E-05
 -1     10160 1.68551E-04 6.90527E-05-9.97243E-06
 -1     10161 1.68070E-04 6.74534E-05-9.38851E-06
 -1     10162 1.58602E-04 5.86485E-05-9.38477E-06
 -1     10163 1.37452E-04 4.93100E-05-3.02149E-05
 -1     10164 1.49155E-04 7.02727E-06-8.18452E-06
 -1     10165 1.81808E-04 3.10836E-04-6.61798E-06
 -1     10166 1.49238E-04 1.66111E-04-3.21786E-05
 -1     10167 1.53070E-04 1.44279E-04-3.51102E-05
 -1     10168-5.20240E-04 9.89964E-04 1.39383E-06
 -1     10169 9.74770E-05 2.81447E-06-5.03421E-05
 -1     10170 1.61267E-04 1.95513E-05-1.78876E-05
 -1     10171 1.55686E-04 1.85713E-05-1.79963E-05
 -1     10172 1.44006E-04 8.27075E-06-5.45023E-05
 -1     10173 1.57708E-04 5.07702E-05-2.04168E-05
 -1     10174 1.61747E-04 5.68468E-05-2.00357E-05
 -1     10175 1.72599E-04 8.92150E-05-9.56609E-06
 -1     10176 1.70367E-04 7.78412E-05-9.45121E-06
 -1     10177 1.51242E-04 1.35539E-05-3.89081E-05
 -1     10178 1.40460E-04 2.63263E-05-3.76273E-05
 -1     10179 1.41551E-04 2.12406E-05-3.88515E-05
 -1     10180 1.29597E-04 2.52847E-05-9.58491E-06
 -1     10181 1.24655E-04 4.07952E-05-9.75125E-06
 -1     10182 1.33347E-04 3.07096E-05-1.10042E-05
 -1     10183 1.37413E-04 2.23745E-05-1.02825E-05
 -1     10184 1.31988E-04 4.07116E-05-1.05710E-05
 -1     10185 1.28482E-04 3.24643E-05-9.09030E-06
 -1     10186 1.68296E-04 3.81430E-05-1.61593E-05
 -1     10187 1.70774E-04 5.02034E-05-1.59498E-05
 -1     10188 1.69730E-04 4.47326E-05-1.62029E-05
 -1     10189 1.39627E-04 2.67449E-05-7.59802E-05
 -1     10190 1.25998E-04 2.75444E-06-3.10939E-05
 -1     10191 1.26378E-04 2.79339E-06-2.96173E-05
 -1     10192 1.11354E-04 1.19629E-03-2.86688E-06
 -1     10193 1.56154E-04 7.39625E-05-2.90103E-05
 -1     10194 1.72029E-04 8.65334E-05-2.95129E-05
 -1     10195 1.74012E-04 9.26757E-05-2.75232E-05
 -1     10196 1.60618E-04 8.51964E-05-2.80456E-05
 -1     10197 1.58418E-04 8.08066E-05-2.69917E-05
 -1     10198-5.21128E-04 9.91828E-04 6.59450E-07
 -1     10199 1.51681E-04 1.42536E-05-2.14658E-05
 -1     10200 1.51622E-04 1.59601E-05-2.08165E-05
 -1     10201 1.43658E-04 2.81441E-06-6.20303E-05
 -1     10202 1.68137E-04 6.76181E-05-8.59907E-06
 -1     10203 1.67347E-04 6.39063E-05-8.99662E-06
 -1     10204 1.68761E-04 2.29370E-05-4.03506E-05
 -1     10205 1.41915E-04 2.89423E-06-2.37628E-05
 -1     10206 1.44586E-04 3.10771E-06-2.39326E-05
 -1     10207 1.43357E-04 2.96727E-06-2.44326E-05
 -1     10208 1.68385E-04 4.65394E-05-2.55518E-06
 -1     10209 1.70678E-04 5.72045E-05-2.79065E-06
 -1     10210 1.68618E-04 4.76498E-05-2.86293E-06
 -1     10211 1.10971E-04 9.86620E-06-3.53768E-05
 -1     10212 1.07547E-04 9.70358E-06-3.99506E-05
 -1     10213 1.19237E-04 8.67580E-06-3.96953E-05
 -1     10214 1.36471E-04 3.22698E-05-3.28711E-05
 -1     10215 1.38547E-04 2.13350E-05-3.44458E-05
 -1     10216 1.69594E-04 5.96144E-05-7.38175E-06
 -1     10217 7.83526E-05 1.73369E-04-3.10023E-05
 -1     10218 1.60206E-04 2.65490E-06-1.15028E-05
 -1     10219 1.20790E-04 1.45265E-05-4.17634E-05
 -1     10220 1.57675E-04 3.62808E-06-5.01304E-05
 -1     10221 1.78892E-06 2.16892E-04-3.84742E-06
 -1     10222 1.46646E-05 2.00867E-04-8.09240E-06
 -1     10223 1.55825E-04 2.98125E-06-3.31301E-05
 -1     10224 1.55354E-04 6.69729E-06-3.36009E-05
 -1     10225 1.55237E-04 2.88969E-06-3.38907E-05
 -1     10226 1.55512E-04 3.10109E-06-6.74284E-06
 -1     10227 9.99152E-05 2.24822E-04-3.36358E-05
 -1     10228 7.93977E-05 4.55984E-05-2.23327E-05
 -1     10229 8.64501E-05 5.29272E-05-2.13107E-05
 -1     10230 8.79094E-05 5.04043E-05-2.31024E-05
 -1     10231 1.35226E-04 2.98192E-06-1.82667E-05
 -1     10232 1.34126E-04 2.93321E-06-1.91913E-05
 -1     10233 1.31898E-04 2.78350E-06-1.83677E-05
 -1     10234 1.57369E-04 2.45220E-06-6.68170E-05
 -1     10235 1.52281E-04 9.66246E-06-6.46927E-05
 -1     10236 1.52922E-04 3.57879E-06-2.09385E-05
 -1     10237 1.51979E-04 7.20931E-06-2.15768E-05
 -1     10238 1.52751E-04 3.45321E-06-2.16355E-05
 -1     10239 1.65387E-04 2.88668E-05-6.01528E-06
 -1     10240 1.48502E-04 6.88509E-06-4.08525E-05
 -1     10241 1.39495E-04 1.96426E-04-9.85146E-06
 -1     10242 1.27078E-04 1.79642E-04-1.24187E-05
 -1     10243 1.32571E-04 1.54043E-04-1.01126E-05
 -1     10244 1.44776E-04 1.85630E-04-1.17687E-05
 -1     10245 9.12252E-05 2.92709E-05-5.64532E-05
 -1     10246 1.09479E-04 2.06854E-05-6.33323E-05
 -1     10247 1.06307E-04 2.99401E-05-5.86361E-05
 -1     10248 9.96429E-05 3.24637E-05-6.16193E-05
 -1     10249 1.58938E-04 4.86353E-06-5.80763E-05
 -1     10250 1.64056E-04 1.14889E-05-6.91067E-05
 -1     10251 1.58571E-04 2.46926E-05-6.76971E-05
 -1     10252 1.61780E-04 4.36176E-06-1.05680E-06
 -1     10253 1.61857E-04 4.56071E-06-1.43738E-06
 -1     10254 1.59749E-04 3.46326E-06-1.39995E-06
 -1     10255 1.74444E-04 2.00155E-04-3.23601E-05
 -1     10256 5.94500E-05 3.83889E-07-1.04093E-05
 -1     10257 1.59615E-04 3.22180E-06-4.60718E-05
 -1     10258 1.69008E-04 4.33707E-05-9.83043E-06
 -1     10259 1.68171E-04 4.54293E-05-3.20009E-06
 -1     10260 1.53848E-04 5.32543E-05-2.22678E-05
 -1     10261 1.64963E-04 4.98587E-06-3.71708E-05
 -1     10262 1.64047E-04 4.07742E-06-3.70741E-05
 -1     10263 1.65100E-04 5.01927E-06-3.67805E-05
 -1     10264 1.39491E-04 2.46729E-06-5.63961E-05
 -1     10265 1.39558E-04 2.43479E-06-5.42867E-05
 -1     10266 1.42749E-04 2.73522E-06-5.55323E-05
 -1     10267 1.37941E-04 1.60385E-05-6.69380E-05
 -1     10268 1.34827E-04 8.80275E-05-5.60872E-05
 -1     10269 1.44136E-04 8.45725E-05-5.85709E-05
 -1     10270 1.44413E-04 1.02669E-04-5.52333E-05
 -1     10271 1.29088E-04 8.92523E-05-5.74400E-05
 -1     10272 1.21738E-04 7.65589E-05-5.77099E-05
 -1     10273 1.08870E-04 2.10119E-04-1.68902E-05
 -1     10274 9.70123E-05 2.61351E-06-3.64828E-05
 -1     10275 1.61141E-04 2.51485E-05-3.47788E-05
 -1     10276 1.64168E-04 4.95187E-05-3.65237E-05
 -1     10277-2.05794E-04 1.65092E-04-2.71767E-06
 -1     10278-2.80554E-04 2.40515E-04 2.95867E-06
 -1     10279 1.32639E-04 3.39553E-06-3.99653E-05
 -1     10280 1.33648E-04 3.50890E-06-3.87456E-05
 -1     10281 1.36253E-04 3.85005E-06-3.96168E-05
 -1     10282 1.66060E-04 2.58546E-06-4.36234E-05
 -1     10283 1.67516E-04 3.31693E-06-4.33127E-05
 -1     10284 1.48342E-04 1.18980E-05-2.14879E-05
 -1     10285 1.42060E-04 9.87911E-06-2.12304E-05
 -1     10286 1.57962E-04 2.83789E-06-1.72128E-05
 -1     10287 1.00658E-04 1.87728E-04-3.00554E-05
 -1     10288 1.59562E-04 1.11692E-05-4.73948E-05
 -1     10289 1.61123E-04 1.89070E-04-3.83554E-05
 -1     10290 1.64152E-04 2.04202E-04-3.57150E-05
 -1     10291 9.41942E-05 4.55695E-05-4.59101E-05
 -1     10292 1.52802E-04 1.23592E-05-4.75377E-05
 -1     10293 1.51476E-04 1.09292E-05-4.69377E-05
 -1     10294 1.47410E-04 1.18897E-04-1.31802E-06
 -1     10295 1.46232E-04 1.16262E-04-4.43890E-06
 -1     10296 1.59115E-04 1.39053E-04-3.50072E-06
 -1     10297 1.66266E-04 2.72995E-06-4.40739E-05
 -1     10298 1.64674E-04 3.98852E-05-1.29472E-05
 -1     10299 1.07956E-04 1.02105E-04-1.73250E-05
 -1     10300 1.07102E-04 8.27230E-05-1.74731E-05
 -1     10301 1.00806E-04 8.57824E-05-1.42834E-05
 -1     10302 1.57545E-04 4.62526E-06-3.03484E-05
 -1     10303 1.57377E-04 4.50073E-06-3.09245E-05
 -1     10304 1.55650E-04 9.01399E-06-3.05891E-05
 -1     10305 1.55789E-04 1.22281E-05-2.42616E-05
 -1     10306 1.58203E-04 1.42666E-05-8.65392E-06
 -1     10307 1.38255E-04 7.54841E-05-1.39039E-05
 -1     10308 3.71872E-06-3.14797E-05 8.63716E-06
 -1     10309 1.32873E-05-2.68739E-05 1.14674E-05
 -1     10310 1.89646E-05-2.03879E-05 5.52830E-06
 -1     10311 7.90228E-05 1.70208E-05-3.66140E-05
 -1     10312 6.58378E-05 3.51135E-05-3.91700E-05
 -1     10313 7.31682E-05 3.10090E-05-3.57499E-05
 -1     10314 1.47015E-04 9.45610E-06-5.66967E-05
 -1     10315 1.43057E-04 1.15185E-05-5.96381E-05
 -1     10316 1.40435E-04 1.01744E-05-5.72838E-05
 -1     10317 1.33073E-04 9.01052E-05-5.91837E-05
 -1     10318 1.19145E-04 9.44780E-05-5.78753E-05
 -1     10319 1.57596E-04 4.04077E-06-5.88172E-06
 -1     10320 1.59777E-04 4.94128E-06-5.88830E-06
 -1     10321 1.58828E-04 4.43364E-06-6.38050E-06
 -1     10322 8.41350E-05 7.45730E-04-4.09506E-06
 -1     10323 1.64919E-04 1.05681E-05-2.63627E-05
 -1     10324 1.83585E-04 2.76048E-04-7.52577E-06
 -1     10325 9.17164E-05 2.54226E-06-7.47288E-06
 -1     10326 1.38155E-04 4.15965E-06-9.81423E-06
 -1     10327 2.59677E-05-1.24609E-05 3.60991E-06
 -1     10328 4.00801E-05-7.44014E-06 5.30274E-06
 -1     10329 4.23402E-05-5.66357E-06-4.47968E-06
 -1     10330 3.76944E-05-1.13188E-05-2.98551E-06
 -1     10331 2.11292E-05-1.41629E-05-1.92225E-06
 -1     10332 1.55595E-04 4.07885E-06-3.05539E-05
 -1     10333 1.69688E-04 6.00521E-05-1.75392E-05
 -1     10334 1.15010E-04 2.06546E-06-6.01943E-05
 -1     10335 1.47718E-04 7.92584E-06-4.34127E-05
 -1     10336 1.29837E-04 8.25266E-05-5.10201E-05
 -1     10337 1.56879E-04 2.90858E-05-6.85885E-05
 -1     10338 1.68042E-04 7.50050E-06-2.94910E-05
 -1     10339 1.68250E-04 1.28914E-05-2.92949E-05
 -1     10340 1.67720E-04 1.24514E-05-2.97465E-05
 -1     10341 1.57231E-04 4.16703E-06-1.23659E-05
 -1     10342 1.58550E-04 4.76878E-06-1.25619E-05
 -1     10343 1.55158E-04 8.03368E-06-1.19735E-05
 -1     10344 1.67852E-04 2.10315E-04-1.21855E-05
 -1     10345 1.44185E-04 1.83493E-04-1.40636E-05
 -1     10346 1.76138E-04 1.84811E-04-1.23974E-05
 -1     10347 1.51058E-04 1.58123E-04-1.18982E-05
 -1     10348 1.61919E-04 3.34286E-06-7.47487E-05
 -1     10349 1.70574E-04 3.44824E-05-5.85051E-05
 -1     10350 1.52742E-04 2.48307E-06-3.33689E-05
 -1     10351 1.50065E-04 9.24079E-06-3.36590E-05
 -1     10352 1.17592E-04 6.78119E-05-2.26980E-06
 -1     10353 1.24234E-04 8.43641E-05-1.81745E-06
 -1     10354 1.03061E-04 9.40439E-05-2.40622E-06
 -1     10355 1.72603E-04 1.21604E-04-2.44963E-05
 -1     10356 1.74667E-04 1.32877E-04-2.28620E-05
 -1     10357 1.75899E-04 1.38811E-04-2.41346E-05
 -1     10358 1.72402E-04 1.65698E-04-1.25100E-05
 -1     10359 1.65461E-04 1.09955E-05-3.86876E-05
 -1     10360 1.65462E-04 8.25349E-06-3.90175E-05
 -1     10361 1.63925E-04 3.20624E-06-5.76654E-05
 -1     10362 1.64241E-04 3.28458E-06-5.82473E-05
 -1     10363 1.58615E-04 3.48426E-06-6.23458E-05
 -1     10364 1.56283E-04 7.35746E-06-6.35221E-05
 -1     10365 1.54825E-04 1.30649E-05-1.53599E-05
 -1     10366 1.54621E-04 2.10912E-05-7.23562E-05
 -1     10367 1.12940E-04 3.85934E-05-4.06507E-05
 -1     10368 1.15729E-04 3.62460E-05-3.65925E-05
 -1     10369 1.18893E-04 6.63193E-05-2.63762E-05
 -1     10370 1.40810E-04 1.04890E-05-3.27146E-05
 -1     10371 1.46195E-04 3.60701E-06-3.30792E-05
 -1     10372 1.46156E-04 1.06946E-05-3.20312E-05
 -1     10373 1.46451E-04 6.88726E-06-3.33687E-05
 -1     10374 1.63355E-04 3.10797E-06-2.34594E-05
 -1     10375 9.81744E-05 2.56340E-05-2.58846E-05
 -1     10376 1.05381E-04 1.62984E-05-2.25139E-05
 -1     10377 1.58931E-04 9.78936E-06-6.54967E-05
 -1     10378 1.51921E-04 2.06155E-05-3.88327E-05
 -1     10379 1.52292E-04 3.33552E-05-1.05354E-05
 -1     10380 1.53553E-04 3.79126E-05-9.80446E-06
 -1     10381 1.65506E-04 8.69422E-05-3.22395E-05
 -1     10382 1.67908E-04 9.75369E-05-3.18371E-05
 -1     10383 1.71994E-04 8.59538E-05-3.10964E-05
 -1     10384 1.74115E-04 9.67793E-05-3.07552E-05
 -1     10385 1.53039E-04 7.97833E-05-3.11626E-05
 -1     10386 1.59440E-04 4.26028E-05-2.25711E-05
 -1     10387 1.70397E-04 5.15413E-05-2.23202E-05
 -1     10388 1.61200E-04 4.04145E-05-2.21338E-05
 -1     10389 1.59097E-04 2.63697E-05-2.29997E-05
 -1     10390 1.60797E-04 1.03427E-04-3.69868E-06
 -1     10391 1.65052E-04 4.39711E-05-1.86200E-06
 -1     10392 1.64934E-04 1.17440E-05-2.33673E-05
 -1     10393 1.64866E-04 1.74520E-05-2.33631E-05
 -1     10394 1.46287E-04 5.51997E-06-7.82076E-05
 -1     10395 1.23514E-04 6.46121E-05-9.77123E-06
 -1     10396 1.40044E-04 1.12008E-05-9.27417E-07
 -1     10397 1.56887E-04 4.92941E-05-5.29474E-05
 -1     10398 1.68432E-04 5.09432E-05-2.67296E-05
 -1     10399 1.68471E-04 5.05426E-05-2.72426E-05
 -1     10400 1.08749E-04 1.72451E-05-3.45787E-05
 -1     10401 1.19087E-04 9.74160E-06-3.73530E-05
 -1     10402 1.63920E-04 3.83261E-06-4.74220E-05
 -1     10403 1.65343E-04 9.26156E-06-5.73222E-05
 -1     10404 1.59368E-04 1.90052E-05-5.64730E-05
 -1     10405 1.56258E-04 2.71626E-06-3.66801E-05
 -1     10406 1.45673E-04 1.76364E-05-3.64705E-05
 -1     10407 1.49396E-04 1.19866E-05-3.78074E-05
 -1     10408 1.40297E-04 1.90769E-05-3.76123E-05
 -1     10409 1.11109E-04 1.18227E-04-1.11879E-05
 -1     10410 1.20994E-04 1.37401E-04-1.40229E-05
 -1     10411 1.03143E-04 1.14467E-04-1.37297E-05
 -1     10412 1.52209E-04 9.47039E-05-4.77444E-05
 -1     10413 1.69472E-04 4.40430E-06-5.26398E-05
 -1     10414 1.69168E-04 1.05096E-05-5.22446E-05
 -1     10415 1.61941E-04 2.28281E-05-5.20546E-05
 -1     10416 1.46470E-04 3.63703E-06-3.50297E-05
 -1     10417 1.44404E-04 9.17434E-06-3.42780E-05
 -1     10418 1.44119E-04 7.89964E-06-3.57862E-05
 -1     10419 1.46507E-04 4.14851E-05-4.55952E-05
 -1     10420 1.10197E-04 1.55049E-04-4.15178E-05
 -1     10421 1.39826E-04 1.82028E-04-3.97968E-05
 -1     10422 1.44756E-05 8.48234E-05-2.66128E-05
 -1     10423 1.69884E-04 5.20509E-05-2.90559E-05
 -1     10424 1.65816E-04 3.55811E-05-7.58887E-05
 -1     10425 1.66695E-04 3.63894E-05-7.49353E-05
 -1     10426 1.53599E-04 4.02402E-05-7.29603E-05
 -1     10427 1.50190E-04 1.53941E-05-6.15779E-05
 -1     10428 1.42105E-04 1.44317E-05-6.17411E-05
 -1     10429 1.33087E-04 1.06994E-04-5.57042E-05
 -1     10430 1.10707E-04 7.11396E-06-2.04753E-05
 -1     10431 1.58090E-04 3.24805E-06-7.10577E-05
 -1     10432 1.56608E-04 2.95968E-06-7.02363E-05
 -1     10433 1.51236E-04 6.34294E-06-7.19238E-05
 -1     10434 7.34322E-05 1.53278E-05-2.38829E-05
 -1     10435 8.57967E-05 1.39141E-05-2.72231E-05
 -1     10436 1.48634E-04 9.62078E-05-3.77955E-05
 -1     10437 1.56960E-04 1.00082E-05-7.50046E-05
 -1     10438 1.68766E-04 2.89387E-05-8.84008E-06
 -1     10439 1.68418E-04 2.83357E-05-8.42596E-06
 -1     10440 6.09984E-05 8.99504E-05-3.10804E-05
 -1     10441 1.83023E-04 1.97957E-04-2.25799E-05
 -1     10442 1.10969E-04 2.38895E-05-3.09142E-05
 -1     10443 1.22998E-04 1.66724E-05-3.12108E-05
 -1     10444 1.73866E-04 1.07014E-04-3.63129E-05
 -1     10445 1.51898E-04 5.80419E-06-7.49270E-05
 -1     10446 1.58851E-04 2.55651E-06-7.40894E-05
 -1     10447 1.70384E-04 3.56917E-05-4.95306E-05
 -1     10448 1.72177E-04 4.37529E-05-4.91331E-05
 -1     10449 1.72031E-04 4.27768E-05-4.96212E-05
 -1     10450-4.99286E-05 3.48948E-04-2.74914E-06
 -1     10451 1.64834E-04 3.23686E-06-2.53892E-05
 -1     10452 1.65370E-04 3.54761E-06-2.49662E-05
 -1     10453 4.81388E-05 5.60054E-05-4.24121E-05
 -1     10454 4.94778E-05 8.02992E-05-4.47432E-05
 -1     10455 9.57426E-05 7.36556E-05-5.79128E-05
 -1     10456 1.02129E-04 5.97434E-05-5.76048E-05
 -1     10457 1.60860E-04 3.97130E-06-9.81682E-06
 -1     10458 1.60924E-04 4.10274E-06-9.53236E-06
 -1     10459 1.62403E-04 4.73756E-06-9.67112E-06
 -1     10460 6.87861E-05 1.13281E-04-2.80243E-05
 -1     10461 1.55882E-04 1.60779E-05-7.09678E-05
 -1     10462 1.22780E-04 7.32321E-05-6.24669E-05
 -1     10463 1.21113E-04 6.35253E-05-6.07880E-05
 -1     10464 1.17263E-04 5.73208E-05-2.39692E-05
 -1     10465 1.17574E-04 4.44955E-05-2.67562E-05
 -1     10466 1.01206E-04 2.89587E-05-1.70250E-05
 -1     10467 1.44850E-04 3.15292E-06-2.32747E-05
 -1     10468 1.44529E-04 7.36739E-06-2.33175E-05
 -1     10469-1.35223E-04 6.36636E-04-1.21082E-06
 -1     10470-1.36294E-04 6.32532E-04-3.52080E-06
 -1     10471-1.16745E-04 5.23032E-04-5.10500E-06
 -1     10472 1.35280E-04 2.19243E-05-3.29058E-05
 -1     10473 9.72648E-05 2.55317E-06-3.87867E-05
 -1     10474 8.77459E-05 1.04921E-05-4.40965E-05
 -1     10475 9.19899E-05 1.50399E-05-4.58791E-05
 -1     10476 8.78125E-05 1.03430E-05-3.94653E-05
 -1     10477 1.36777E-04 2.38353E-04-3.08820E-05
 -1     10478 1.04913E-04 2.62590E-04-2.90864E-05
 -1     10479 1.14391E-04 2.47431E-04-2.74372E-05
 -1     10480 1.66756E-04 1.84076E-05-3.46568E-05
 -1     10481 1.66908E-04 9.85727E-06-3.44110E-05
 -1     10482 1.77542E-04 1.73863E-04-6.04368E-06
 -1     10483 1.75663E-04 1.63860E-04-4.88949E-06
 -1     10484 1.79012E-04 1.67963E-04-7.52607E-06
 -1     10485 1.77140E-04 1.57725E-04-6.38012E-06
 -1     10486 1.58531E-04 1.51226E-04-5.78315E-06
 -1     10487 7.40007E-05 1.01429E-04-3.51073E-05
 -1     10488 6.10298E-05 1.16257E-04-3.74433E-05
 -1     10489 1.53006E-04 1.71724E-05-1.97341E-05
 -1     10490 1.17627E-04 1.80554E-04-4.07347E-05
 -1     10491 1.71718E-04 1.64784E-04-1.92727E-05
 -1     10492 1.53650E-04 1.12473E-05-2.98926E-06
 -1     10493 1.04203E-05 2.64468E-05-2.62593E-05
 -1     10494 2.90398E-05 6.30189E-05-2.72263E-05
 -1     10495 3.71062E-05 5.84787E-05-2.45034E-05
 -1     10496 1.66213E-04 6.56628E-06-8.26623E-06
 -1     10497 1.65216E-04 4.96607E-06-8.24012E-06
 -1     10498 1.65031E-04 4.71644E-06-7.87098E-06
 -1     10499 1.65405E-04 6.02027E-06-1.68130E-05
 -1     10500 1.39842E-04 1.05662E-04-1.80750E-06
 -1     10501 1.52183E-04 1.04808E-04-3.13273E-06
 -1     10502 1.41534E-04 2.17157E-06-4.17688E-05
 -1     10503 1.63844E-04 1.85587E-05-1.25390E-05
 -1     10504 7.18236E-05 2.83998E-07-2.73157E-05
 -1     10505 7.43143E-05 2.36248E-07-2.99023E-05
 -1     10506 1.68222E-04 5.28612E-05-3.48218E-05
 -1     10507 1.70288E-04 6.20031E-05-3.47845E-05
 -1     10508 1.65517E-04 5.28636E-06-4.07479E-05
 -1     10509 1.65485E-04 5.29467E-06-4.11570E-05
 -1     10510 1.75916E-04 1.33848E-04-5.98153E-06
 -1     10511 1.75212E-04 1.30319E-04-5.09413E-06
 -1     10512 1.02392E-04 1.84440E-05-3.83514E-06
 -1     10513 9.03900E-05 3.61885E-05-3.80820E-06
 -1     10514 1.67494E-04 5.74958E-05-1.49283E-05
 -1     10515 1.66052E-04 6.56857E-06-4.32124E-05
 -1     10516 7.65324E-05 6.24772E-05-1.08786E-05
 -1     10517 8.69079E-05 4.67896E-05-1.02008E-05
 -1     10518 7.93843E-05 5.69244E-05-6.41276E-06
 -1     10519 1.10090E-04 6.21914E-05-3.14147E-05
 -1     10520 1.02541E-04 7.84624E-05-2.88930E-05
 -1     10521 1.19950E-04 2.39267E-06-6.23385E-06
 -1     10522 1.44009E-04 2.46921E-06-1.91804E-06
 -1     10523 1.41862E-04 2.30129E-06-2.42909E-06
 -1     10524 1.42287E-04 3.26561E-06-2.97994E-05
 -1     10525 1.64499E-04 2.64498E-05-7.68143E-05
 -1     10526 1.35609E-04 3.47153E-05-3.03030E-05
 -1     10527 1.34520E-04 2.35211E-05-3.01695E-05
 -1     10528 1.05160E-04 3.16941E-05-2.90804E-05
 -1     10529 1.62503E-04 3.32029E-06-8.53959E-06
 -1     10530 1.63160E-04 3.47014E-06-8.09672E-06
 -1     10531 1.64197E-04 4.01355E-06-8.36510E-06
 -1     10532 5.75607E-05 1.65667E-04-3.65960E-05
 -1     10533 6.99988E-05 1.62333E-04-3.39356E-05
 -1     10534 1.54992E-04 8.97607E-05-3.31373E-05
 -1     10535 1.54723E-04 9.89206E-05-3.02368E-05
 -1     10536 1.63131E-04 4.16224E-06-1.77381E-05
 -1     10537 1.56848E-04 7.21347E-06-1.73634E-05
 -1     10538 1.13136E-04 6.84350E-05-5.68700E-05
 -1     10539 1.65106E-04 2.55432E-05-2.52243E-05
 -1     10540 1.65352E-04 2.54574E-05-2.48939E-05
 -1     10541 1.66622E-04 3.47275E-05-2.48936E-05
 -1     10542-2.37189E-05 6.61963E-04-3.26186E-06
 -1     10543 2.40831E-05 5.66060E-04-8.02652E-06
 -1     10544 1.46333E-04 3.08819E-06-6.51521E-05
 -1     10545 1.44804E-04 6.83218E-06-6.63232E-05
 -1     10546-6.56129E-05 4.87895E-04-7.11719E-06
 -1     10547 1.37551E-04 4.03053E-05-6.30556E-05
 -1     10548 1.40085E-04 3.42304E-05-6.61330E-05
 -1     10549 1.30981E-04 3.02862E-05-6.56978E-05
 -1     10550 1.00830E-04 1.35588E-04-1.55928E-05
 -1     10551 1.60016E-04 3.47499E-06-2.60668E-05
 -1     10552 1.24913E-04 3.07754E-06-4.64032E-05
 -1     10553 1.25207E-04 3.10276E-06-4.44093E-05
 -1     10554 1.04540E-04 5.28980E-05-1.42610E-05
 -1     10555 1.68229E-04 3.52543E-06-5.29251E-05
 -1     10556 1.68416E-04 3.38610E-06-5.24059E-05
 -1     10557 1.71065E-04 3.64261E-05-3.20779E-05
 -1     10558 1.08241E-04 1.02774E-05-1.05115E-05
 -1     10559 9.77077E-05 1.74391E-05-1.11728E-05
 -1     10560 1.57841E-04 1.07540E-05-1.00334E-05
 -1     10561 1.55508E-04 4.91355E-05-7.51664E-06
 -1     10562 1.59850E-04 3.07903E-05-5.60700E-05
 -1     10563-2.00592E-04 3.44064E-05 5.97239E-07
 -1     10564-2.02413E-04 3.83361E-05 7.79138E-08
 -1     10565 1.37603E-04 7.88030E-06-6.43525E-05
 -1     10566 1.51563E-04 1.05399E-04-7.40455E-06
 -1     10567 1.54268E-04 9.98725E-05-5.96592E-06
 -1     10568 1.65322E-04 8.17166E-05-2.46888E-05
 -1     10569 1.64685E-04 7.91347E-05-2.40389E-05
 -1     10570 1.72347E-04 7.09431E-05-2.47897E-05
 -1     10571 1.71736E-04 6.80874E-05-2.41484E-05
 -1     10572 1.54448E-04 7.13661E-05-2.41709E-05
 -1     10573-1.72117E-04 6.45432E-04-2.82770E-06
 -1     10574 1.12368E-04 2.02199E-05-6.69357E-05
 -1     10575 1.54550E-04 9.54775E-05-1.01872E-05
 -1     10576 8.01858E-05 1.39617E-06-3.35637E-05
 -1     10577 7.80463E-05 1.45224E-06-3.05241E-05
 -1     10578 8.27652E-05 1.99966E-06-3.41553E-05
 -1     10579 1.51174E-04 3.33221E-05-4.47994E-05
 -1     10580 1.44448E-04 3.03242E-05-4.39316E-05
 -1     10581 1.52338E-04 1.93874E-05-4.52899E-05
 -1     10582 1.53128E-04 2.64876E-05-4.40142E-05
 -1     10583 7.80641E-05 2.49578E-05-1.14125E-05
 -1     10584 7.62660E-05 1.52063E-05-1.12428E-05
 -1     10585 1.17268E-04 1.15235E-04-9.69429E-06
 -1     10586 1.08070E-04 9.17248E-05-6.38971E-06
 -1     10587 1.56797E-04 9.68845E-06-5.79064E-05
 -1     10588 1.22910E-04 1.10476E-03-5.42082E-06
 -1     10589 1.23164E-04 1.10321E-03-4.16479E-06
 -1     10590 1.56533E-04 3.55357E-06-4.55069E-06
 -1     10591 1.36883E-04 1.01351E-04-4.63168E-05
 -1     10592 1.63777E-04 4.29151E-06-1.46216E-05
 -1     10593 1.63094E-04 3.97922E-06-1.48737E-05
 -1     10594 8.68473E-05 1.09219E-04-4.99435E-05
 -1     10595 7.39309E-05 9.47873E-05-4.96650E-05
 -1     10596 1.39632E-04 2.21502E-05-3.60391E-05
 -1     10597 6.95029E-05 1.44914E-06-3.00186E-05
 -1     10598 1.60086E-04 3.84661E-06-2.90452E-05
 -1     10599 1.62337E-04 5.21523E-06-2.90948E-05
 -1     10600 1.61390E-04 4.59819E-06-2.94689E-05
 -1     10601 8.33041E-05 8.54339E-05-1.54933E-05
 -1     10602 7.69037E-05 8.52084E-05-1.89017E-05
 -1     10603 6.95103E-05 6.75556E-05-1.51683E-05
 -1     10604 1.63071E-04 4.20000E-06-7.17336E-06
 -1     10605 1.62307E-04 3.79737E-06-7.47919E-06
 -1     10606 1.61375E-04 3.41825E-06-7.06333E-06
 -1     10607 1.67460E-04 2.49649E-05-2.71346E-06
 -1     10608 1.51082E-04 9.92407E-06-6.63434E-05
 -1     10609 1.45047E-04 2.97904E-06-6.30722E-05
 -1     10610 1.53636E-04 1.05437E-05-3.01089E-05
 -1     10611 1.58550E-04 1.07896E-05-2.96786E-05
 -1     10612 1.67150E-04 3.53491E-05-7.48515E-06
 -1     10613 1.22834E-04 6.41169E-05-4.49540E-05
 -1     10614 1.12563E-04 7.54945E-05-4.27814E-05
 -1     10615 1.18604E-04 6.70255E-05-4.83799E-05
 -1     10616 1.20664E-04 7.92837E-05-4.58909E-05
 -1     10617 1.01329E-04 9.62645E-06-2.77128E-05
 -1     10618 7.30295E-05 1.94767E-05-4.04305E-05
 -1     10619 9.72798E-05 5.68497E-05-6.10032E-05
 -1     10620 1.03794E-04 4.47371E-05-6.01076E-05
 -1     10621 1.10767E-04 6.36381E-05-6.00499E-05
 -1     10622 1.29511E-04 7.76284E-05-4.89620E-05
 -1     10623 1.63553E-04 1.58545E-05-7.65920E-05
 -1     10624 1.24272E-04 4.43161E-06-5.44243E-05
 -1     10625 1.68223E-04 3.57546E-04-8.69114E-06
 -1     10626 1.63500E-04 3.20640E-06-4.10170E-05
 -1     10627-3.04201E-04 7.89708E-04-3.58785E-07
 -1     10628 1.58560E-04 9.16859E-06-2.33146E-05
 -1     10629 1.52930E-04 5.67715E-04-1.96754E-06
 -1     10630 1.52829E-04 5.20919E-04-4.77703E-06
 -1     10631 1.69343E-04 8.67114E-05-5.69120E-05
 -1     10632 1.56254E-04 7.34507E-05-5.81709E-05
 -1     10633 1.69426E-04 8.59672E-05-5.61237E-05
 -1     10634 1.29089E-04 1.74791E-05-4.81941E-05
 -1     10635 1.16168E-04 2.00845E-05-4.55430E-05
 -1     10636-3.86510E-04 5.41563E-04 4.97376E-06
 -1     10637-4.59849E-04 5.89190E-04 4.81446E-06
 -1     10638 1.35689E-04 1.21501E-05-6.24791E-05
 -1     10639 1.24173E-04 1.38629E-05-6.22507E-05
 -1     10640 1.33674E-04 8.78499E-06-6.10716E-05
 -1     10641 1.55954E-04 9.29566E-05-2.16091E-05
 -1     10642 1.43395E-04 4.33351E-05-3.05174E-05
 -1     10643 1.35408E-04 3.84877E-05-2.93424E-05
 -1     10644 1.43975E-04 3.87949E-05-2.90731E-05
 -1     10645 1.50916E-04 4.24204E-06-6.54240E-05
 -1     10646 1.67219E-04 1.98923E-05-1.30695E-05
 -1     10647 1.67953E-04 1.61204E-05-3.22458E-05
 -1     10648 7.89489E-05 1.02311E-04-3.85815E-05
 -1     10649 1.72547E-04 1.16968E-04-1.19327E-05
 -1     10650 1.20614E-04 2.74286E-06-3.57345E-05
 -1     10651 1.23733E-04 3.03700E-06-3.44865E-05
 -1     10652 1.26032E-04 3.26208E-06-3.62307E-05
 -1     10653 1.18262E-04 2.25366E-06-3.33261E-05
 -1     10654 1.21337E-04 2.45754E-06-3.21522E-05
 -1     10655 1.22219E-04 6.03832E-06-3.35202E-05
 -1     10656 1.69049E-04 5.25441E-05-5.67868E-05
 -1     10657 1.67490E-04 4.60494E-05-5.72553E-05
 -1     10658 1.03958E-04 4.20480E-05-3.96903E-05
 -1     10659 1.46818E-04 3.10883E-06-6.37000E-05
 -1     10660 1.48864E-04 3.37254E-06-6.30932E-05
 -1     10661 1.45278E-04 8.37408E-06-6.39184E-05
 -1     10662 1.75052E-04 2.27311E-04-8.51173E-06
 -1     10663 1.52626E-04 2.03675E-04-8.01656E-06
 -1     10664 1.47059E-04 2.13969E-04-6.28324E-06
 -1     10665 1.59562E-04 1.02351E-05-3.37848E-05
 -1     10666 1.70940E-04 1.57535E-04-1.11355E-05
 -1     10667 1.67669E-04 7.16891E-06-4.52350E-05
 -1     10668 1.22252E-04 2.07060E-04-3.69974E-05
 -1     10669 1.39031E-04 1.06315E-05-1.19390E-05
 -1     10670 1.41520E-04 9.09221E-06-1.35144E-05
 -1     10671 1.40768E-04 1.45499E-05-1.23351E-05
 -1     10672 1.29805E-04 2.48732E-05-1.20825E-05
 -1     10673 1.32577E-04 2.30866E-05-1.35807E-05
 -1     10674 1.31934E-04 1.76137E-05-1.32044E-05
 -1     10675 8.74367E-05 4.63233E-05-5.77080E-05
 -1     10676 6.47752E-05 1.97276E-04-1.43381E-05
 -1     10677 5.82217E-05 1.58435E-04-1.45837E-05
 -1     10678 5.62000E-05 1.68523E-04-1.72405E-05
 -1     10679 5.12985E-05 1.31587E-04-1.74401E-05
 -1     10680 1.61083E-04 4.98151E-05-1.74963E-05
 -1     10681 1.19620E-04 3.77919E-06-2.63409E-05
 -1     10682 1.22438E-04 2.51770E-06-3.03740E-05
 -1     10683 1.57373E-04 3.45815E-05-3.87276E-05
 -1     10684 1.65308E-04 1.92131E-05-3.83995E-05
 -1     10685 1.59826E-04 2.13533E-05-3.89834E-05
 -1     10686 1.56519E-04 1.56375E-04-4.35446E-05
 -1     10687 1.61729E-04 1.33784E-04-4.61116E-05
 -1     10688-5.65475E-05 5.46392E-04-6.30246E-06
 -1     10689 1.22989E-04 9.48945E-05-3.62920E-05
 -1     10690 1.16362E-04 8.45934E-05-3.82769E-05
 -1     10691 1.54968E-04 6.82820E-05-1.65000E-05
 -1     10692 1.56855E-04 9.44524E-06-2.21663E-05
 -1     10693 1.66401E-04 6.95552E-05-2.29103E-06
 -1     10694 1.68432E-04 7.85056E-05-2.50580E-06
 -1     10695 1.66145E-04 6.77211E-05-2.70290E-06
 -1     10696 1.72486E-04 1.02535E-04-5.47063E-05
 -1     10697 1.58301E-04 1.04996E-04-5.30587E-05
 -1     10698 1.71621E-04 1.00104E-04-5.61845E-05
 -1     10699 5.89601E-05 4.19623E-05-2.15591E-05
 -1     10700 7.04502E-05 3.48661E-05-2.80993E-05
 -1     10701 7.19931E-05 4.34055E-05-2.43477E-05
 -1     10702-7.83256E-06 1.07085E-04-5.88064E-06
 -1     10703 1.89431E-05 8.74854E-05-3.29556E-06
 -1     10704 1.12861E-04 4.60289E-05-4.92978E-05
 -1     10705 1.70057E-04 1.05000E-04-5.65124E-05
 -1     10706 1.43484E-04 3.50303E-06-1.34808E-05
 -1     10707 1.41273E-04 7.26572E-06-1.44414E-05
 -1     10708 1.42337E-04 3.35411E-06-1.41703E-05
 -1     10709 1.66250E-04 8.60986E-05-2.32406E-05
 -1     10710 1.69176E-04 7.37173E-05-2.30478E-05
 -1     10711 5.83042E-05-1.30437E-06-1.93066E-05
 -1     10712 1.47394E-04 1.73448E-05-4.42665E-05
 -1     10713 1.50879E-04 1.52387E-05-4.61579E-05
 -1     10714 1.55898E-04 3.77703E-06-2.82339E-05
 -1     10715 1.52898E-04 3.03351E-06-2.84767E-05
 -1     10716 2.48144E-05 6.62407E-05-1.61326E-05
 -1     10717 1.58876E-04 3.30432E-06-1.00258E-06
 -1     10718 1.64540E-04 5.38212E-06-5.12889E-05
 -1     10719 1.61064E-04 1.21917E-05-5.15817E-05
 -1     10720 1.74730E-04 1.03137E-04-3.42843E-05
 -1     10721 1.76119E-04 1.10258E-04-3.46780E-05
 -1     10722 1.70695E-04 5.30265E-05-2.19284E-05
 -1     10723 1.52814E-04 3.33984E-06-5.98032E-05
 -1     10724 1.54806E-04 3.70832E-06-5.90460E-05
 -1     10725-1.70470E-04 5.67685E-04-3.96648E-06
 -1     10726 1.54590E-04 1.42530E-05-1.07049E-05
 -1     10727 8.31751E-05 1.12196E-05-3.16276E-06
 -1     10728 1.13663E-04 2.51045E-04-3.04395E-06
 -1     10729 1.35952E-04 2.73353E-04-2.99032E-06
 -1     10730 1.52338E-04 2.78776E-04-5.87816E-06
 -1     10731 1.29883E-04 3.12373E-06-1.05101E-05
 -1     10732 1.37590E-04 2.12998E-06-1.06885E-05
 -1     10733 1.58963E-04 1.30482E-04-9.31829E-06
 -1     10734 1.55513E-04 1.52817E-04-8.37835E-06
 -1     10735 1.64582E-04 1.66714E-05-2.47515E-05
 -1     10736 1.64099E-04 1.65539E-05-2.50719E-05
 -1     10737 1.57635E-04 2.74082E-05-1.19865E-05
 -1     10738 1.59197E-04 3.59840E-06-9.61049E-06
 -1     10739 1.56526E-04 2.91015E-06-9.93974E-06
 -1     10740 1.39797E-04 3.96046E-06-5.90006E-05
 -1     10741 1.38107E-04 7.22933E-06-6.04994E-05
 -1     10742 1.61174E-04 4.23375E-06-9.27521E-06
 -1     10743 1.64284E-04 1.79468E-05-6.69828E-05
 -1     10744 1.58132E-04 1.67301E-05-6.65221E-05
 -1     10745 1.58312E-04 1.55469E-05-1.83936E-05
 -1     10746 1.74914E-04 1.42178E-04-3.41213E-05
 -1     10747 1.79609E-04 1.51107E-04-3.61131E-05
 -1     10748 1.77494E-04 1.39525E-04-3.63863E-05
 -1     10749 1.60002E-04 1.34251E-04-3.55067E-05
 -1     10750 1.02968E-04 2.74535E-06-1.27156E-05
 -1     10751 1.00876E-04 2.53590E-06-1.49321E-05
 -1     10752 1.04293E-04 6.29308E-06-1.47287E-05
 -1     10753-2.25964E-04 6.08895E-04-1.09002E-06
 -1     10754-6.77555E-06 3.25639E-04-3.34474E-06
 -1     10755 1.11669E-04 2.62334E-05-4.75948E-05
 -1     10756 1.23889E-04 2.51474E-05-5.04406E-05
 -1     10757 1.10774E-04 3.85657E-05-4.97637E-05
 -1     10758 1.57350E-04 3.12707E-05-1.29025E-05
 -1     10759 1.49074E-04 5.73630E-05-3.08289E-05
 -1     10760 1.45573E-04 6.55941E-05-3.09907E-05
 -1     10761 1.49943E-04 6.31881E-05-2.98316E-05
 -1     10762 1.24239E-04 4.08075E-05-6.44296E-06
 -1     10763 1.28655E-04 3.70085E-05-8.09718E-06
 -1     10764 1.29730E-04 2.33172E-05-7.49394E-06
 -1     10765-3.87739E-04 5.46451E-04 1.64328E-06
 -1     10766 1.62114E-04 2.03992E-04-3.78006E-05
 -1     10767 1.61667E-04 1.96457E-04-3.81996E-05
 -1     10768 1.72090E-04 1.79494E-04-4.21366E-05
 -1     10769 1.72137E-04 1.87430E-04-4.14896E-05
 -1     10770 1.36424E-04 1.14587E-05-1.46699E-05
 -1     10771 1.70987E-04 1.21150E-04-1.89332E-05
 -1     10772 9.36685E-05 5.79522E-06-8.98056E-06
 -1     10773 1.46711E-04 3.68239E-06-3.39817E-05
 -1     10774 8.00756E-05 3.77482E-05-1.55329E-05
 -1     10775 5.96596E-05 3.80516E-05-1.83079E-05
 -1     10776 6.64902E-05 3.63573E-05-1.22797E-05
 -1     10777-2.14328E-05 2.60845E-04-1.00605E-05
 -1     10778 1.21168E-04 2.47793E-06-7.40496E-06
 -1     10779 1.55051E-04 1.38576E-04-3.00259E-05
 -1     10780 1.71009E-04 1.39779E-04-2.81239E-05
 -1     10781 1.56434E-04 1.28104E-04-2.76041E-05
 -1     10782 1.67582E-04 2.49127E-05-2.13473E-06
 -1     10783 1.60916E-04 3.32159E-06-1.65442E-05
 -1     10784 1.59564E-04 3.20628E-06-1.63111E-05
 -1     10785 1.44054E-05 9.36294E-05-1.20854E-05
 -1     10786 1.68594E-05 7.27222E-05-5.44935E-06
 -1     10787 4.09728E-05 7.24695E-05-9.84449E-06
 -1     10788 1.03464E-04 1.50117E-05-1.98031E-05
 -1     10789 1.65114E-04 3.78686E-06-2.34966E-05
 -1     10790 5.13959E-05 2.53933E-04-1.30166E-05
 -1     10791 5.59556E-05 3.01465E-04-1.07432E-05
 -1     10792 1.71328E-04 8.25561E-05-3.04682E-05
 -1     10793 1.74309E-04 9.73970E-05-2.99018E-05
 -1     10794 1.67114E-04 1.40953E-05-4.89073E-05
 -1     10795 1.61657E-04 2.89580E-05-4.83843E-05
 -1     10796 1.33997E-04 6.77196E-05-4.38653E-05
 -1     10797 1.50426E-04 3.30228E-05-1.14718E-05
 -1     10798 1.53375E-04 8.71908E-06-1.60480E-05
 -1     10799 1.69518E-04 7.34776E-05-5.40149E-06
 -1     10800 1.70163E-04 7.73485E-05-4.86904E-06
 -1     10801 5.77307E-05 4.06283E-07-2.37327E-05
 -1     10802 6.25198E-05-1.15043E-06-2.82204E-05
 -1     10803 1.35262E-04 9.68772E-05-1.78413E-05
 -1     10804 1.43898E-04 1.12128E-04-1.51813E-05
 -1     10805 1.66791E-04 6.86851E-05-2.76288E-05
 -1     10806 1.45124E-04 2.43867E-05-1.05934E-06
 -1     10807 1.48344E-04 2.59020E-05-2.29511E-06
 -1     10808 1.51762E-04 1.02566E-05-1.87990E-06
 -1     10809 1.43521E-04 6.44915E-04-1.19748E-05
 -1     10810 7.00029E-05 1.09086E-04-1.78117E-05
 -1     10811 6.54371E-05 9.48425E-05-2.21866E-05
 -1     10812 6.85380E-05 7.48849E-05-1.84261E-05
 -1     10813 7.43480E-05 1.07783E-04-2.25382E-05
 -1     10814 1.50182E-04 2.98944E-06-6.14372E-05
 -1     10815 1.45201E-04 6.46857E-06-6.15404E-05
 -1     10816 1.46659E-04 1.39414E-05-2.72228E-06
 -1     10817-1.96198E-04 1.22242E-04-2.81806E-06
 -1     10818 1.78184E-04 2.20452E-04-2.12561E-05
 -1     10819 1.58821E-04 1.96934E-04-2.12927E-05
 -1     10820 1.76901E-04 2.14226E-04-1.97405E-05
 -1     10821 1.59234E-04 1.31278E-04-6.39062E-06
 -1     10822 9.14804E-05 2.43169E-04-1.40056E-05
 -1     10823 8.91372E-05 2.11677E-04-1.13213E-05
 -1     10824 1.29068E-04 2.07723E-05-3.13166E-05
 -1     10825 1.41082E-04 1.16431E-05-2.99754E-05
 -1     10826 1.29596E-04 1.48814E-05-3.11169E-05
 -1     10827 1.68367E-04 2.28928E-04-3.24926E-05
 -1     10828 1.42155E-04 2.03696E-04-3.31116E-05
 -1     10829 1.18043E-04 5.97553E-05-2.78333E-05
 -1     10830 1.29895E-04 4.45617E-05-2.90048E-05
 -1     10831 1.55124E-04 1.41703E-04-3.73743E-05
 -1     10832 1.66316E-04 4.26563E-05-4.14246E-05
 -1     10833 1.65045E-04 3.65635E-05-4.13882E-05
 -1     10834 1.52265E-04 3.42234E-06-2.22757E-05
 -1     10835 1.03718E-04 1.45282E-05-4.89662E-05
 -1     10836 5.89204E-05 2.82792E-04-8.70168E-06
 -1     10837 1.46380E-04 8.11432E-05-5.06956E-05
 -1     10838 1.25313E-04 2.56887E-06-3.85360E-05
 -1     10839 1.64624E-04 5.25269E-06-1.84110E-05
 -1     10840-4.83959E-05 2.96155E-04-3.30058E-06
 -1     10841-4.16423E-05 2.79186E-04-6.32141E-06
 -1     10842 1.49056E-04 2.92258E-06-2.27452E-06
 -1     10843 1.46564E-04 2.67582E-06-2.19928E-06
 -1     10844 1.43946E-04 5.09687E-06-2.87458E-06
 -1     10845 1.53901E-04 1.54745E-05-7.73501E-05
 -1     10846 1.75421E-04 1.28088E-04-3.79330E-05
 -1     10847 1.73210E-04 1.16387E-04-3.95117E-05
 -1     10848 1.59443E-04 1.08797E-04-3.93880E-05
 -1     10849 1.52070E-04 1.19893E-05-1.29758E-05
 -1     10850 1.59347E-04 4.25838E-05-6.55375E-05
 -1     10851 1.71637E-04 4.69721E-05-6.65396E-05
 -1     10852 1.59108E-04 4.63885E-05-6.64515E-05
 -1     10853 1.70471E-04 5.04049E-05-6.74248E-05
 -1     10854 1.61176E-04 3.95288E-05-6.81180E-05
 -1     10855 1.49306E-04 1.04118E-05-8.29237E-07
 -1     10856 1.51353E-04 1.38707E-05-1.05922E-06
 -1     10857 1.54992E-04 1.27233E-05-1.49993E-06
 -1     10858 1.52602E-04 1.18956E-05-4.40505E-07
 -1     10859 1.52709E-04 8.95472E-06-1.30406E-06
 -1     10860 1.25050E-04 2.57614E-06-2.69986E-05
 -1     10861 1.65548E-04 1.10499E-05-3.83134E-05
 -1     10862 1.61983E-04 1.06726E-04-1.11406E-05
 -1     10863 1.63127E-04 5.71081E-06-6.83033E-07
 -1     10864 1.64112E-04 7.14497E-06-7.81448E-07
 -1     10865 1.63244E-04 5.12013E-06-1.07632E-06
 -1     10866 1.63962E-04 5.02866E-06-7.33497E-06
 -1     10867 1.29016E-04 3.24204E-06-6.19248E-05
 -1     10868 1.28642E-04 7.77554E-06-6.25934E-05
 -1     10869 1.29209E-04 3.19529E-06-6.36951E-05
 -1     10870 1.75409E-04 1.27610E-04-3.92441E-05
 -1     10871 1.56282E-04 1.10858E-04-4.05832E-05
 -1     10872 1.65095E-04 2.16189E-04-3.53891E-05
 -1     10873 1.54797E-04 7.14789E-05-1.56782E-05
 -1     10874 1.70223E-04 6.95915E-05-1.53846E-05
 -1     10875 7.35329E-05 4.80294E-05-1.18371E-05
 -1     10876 7.98590E-05 5.22567E-05-1.46753E-05
 -1     10877 1.56633E-04 1.19682E-05-9.33267E-06
 -1     10878 9.94290E-05 1.83509E-04-3.31092E-06
 -1     10879 1.12966E-04 1.87885E-04-6.12520E-06
 -1     10880 9.28894E-05 1.51303E-04-5.59003E-06
 -1     10881 1.58525E-04 1.19954E-05-1.74145E-05
 -1     10882 7.18938E-05 7.45102E-06-4.07696E-05
 -1     10883 1.69325E-04 4.57605E-06-4.65310E-05
 -1     10884 1.62993E-04 3.42920E-06-3.86356E-05
 -1     10885 1.59036E-04 8.19624E-06-3.80039E-05
 -1     10886 1.64258E-04 3.93278E-06-3.83280E-05
 -1     10887 1.56683E-04 1.62440E-05-4.08070E-05
 -1     10888 1.55665E-04 9.85976E-06-4.07232E-05
 -1     10889 1.57260E-04 1.29879E-05-4.01850E-05
 -1     10890 1.55653E-04 8.32586E-06-4.01887E-05
 -1     10891 1.55009E-04 3.35471E-05-7.85912E-06
 -1     10892 1.59266E-04 2.60087E-05-7.93318E-06
 -1     10893 1.33271E-04 3.77367E-05-1.18134E-05
 -1     10894 1.30031E-04 2.95886E-05-1.29524E-05
 -1     10895 1.39501E-04 3.02426E-05-1.34035E-05
 -1     10896 1.64995E-04 1.06487E-05-2.54584E-05
 -1     10897 1.64539E-04 1.55649E-05-2.53199E-05
 -1     10898 1.59517E-04 1.56360E-05-2.49571E-05
 -1     10899 1.26932E-04 6.64923E-06-4.58762E-06
 -1     10900 1.55711E-04 3.81631E-05-3.68095E-05
 -1     10901 6.58463E-05 5.86284E-05-1.94252E-05
 -1     10902 1.64196E-04 4.20432E-06-3.42737E-05
 -1     10903 1.64186E-04 4.21828E-06-3.46194E-05
 -1     10904 1.62860E-04 3.50636E-06-3.46720E-05
 -1     10905 5.67341E-05 2.02303E-05-3.89849E-06
 -1     10906 4.99873E-05 1.24265E-05-4.17143E-06
 -1     10907 1.61256E-04 6.22632E-06-3.23189E-05
 -1     10908 1.61460E-04 6.50966E-06-3.27666E-05
 -1     10909 1.60421E-04 5.47783E-06-3.28743E-05
 -1     10910 1.31072E-04 1.23162E-05-2.41740E-05
 -1     10911 1.39544E-04 1.02064E-05-2.40680E-05
 -1     10912 8.45406E-05 1.98041E-06-3.65469E-05
 -1     10913 1.66351E-04 1.11960E-03-3.90665E-06
 -1     10914 7.03082E-05 1.10946E-03-9.15004E-06
 -1     10915 1.65194E-04 1.19169E-03-2.63951E-06
 -1     10916 1.58584E-04 7.84653E-06-4.57443E-05
 -1     10917 1.63060E-04 3.65794E-06-7.08540E-05
 -1     10918 1.46606E-04 2.34881E-06-4.24947E-06
 -1     10919 1.59345E-04 5.06335E-05-1.60642E-05
 -1     10920 1.66580E-04 7.03213E-06-3.28453E-05
 -1     10921 1.46413E-04 2.61111E-06-4.29692E-05
 -1     10922 1.46714E-04 2.64436E-06-4.21497E-05
 -1     10923 1.67209E-04 6.54608E-06-3.48303E-05
 -1     10924 1.76485E-04 1.01937E-04-1.11450E-05
 -1     10925 1.36017E-04 6.26432E-05-5.65925E-06
 -1     10926 1.27423E-04 6.20025E-05-8.17212E-06
 -1     10927 1.23117E-04 6.44681E-05-6.52209E-06
 -1     10928 1.32303E-04 7.75804E-05-7.43932E-06
 -1     10929 1.60155E-04 3.79976E-06-6.90282E-05
 -1     10930 1.61671E-04 4.34958E-06-6.83013E-05
 -1     10931 1.56641E-04 1.04736E-05-6.87270E-05
 -1     10932 1.48046E-04 1.31501E-05-4.50007E-05
 -1     10933 1.55355E-04 9.18876E-06-4.51542E-05
 -1     10934 7.17477E-05 1.67195E-07-3.31149E-05
 -1     10935 1.68595E-04 2.41374E-05-2.83942E-05
 -1     10936 1.69521E-04 2.81519E-05-2.87177E-05
 -1     10937 1.09158E-04 2.25092E-05-3.82351E-05
 -1     10938 1.09840E-04 3.40366E-05-3.81273E-05
 -1     10939 1.67031E-04 1.59260E-05-5.87562E-05
 -1     10940 1.50486E-04 6.84536E-05-5.34139E-06
 -1     10941 1.66931E-04 1.58653E-05-5.97147E-05
 -1     10942 1.32932E-04 1.64883E-05-4.22956E-05
 -1     10943 1.03863E-04 2.87286E-05-4.15855E-05
 -1     10944 1.10186E-04 1.66526E-05-4.23973E-05
 -1     10945 9.66262E-05 2.07665E-05-3.95937E-05
 -1     10946 1.00492E-04 1.66977E-05-3.63354E-05
 -1     10947 9.49867E-05 2.64944E-05-3.57964E-05
 -1     10948 1.64995E-04 1.50170E-05-6.12439E-05
 -1     10949 1.65525E-04 9.52081E-06-6.14125E-05
 -1     10950 1.65485E-04 1.51877E-05-6.08767E-05
 -1     10951 1.70478E-04 4.58119E-05-1.16293E-05
 -1     10952 1.72349E-04 2.66764E-04-2.80126E-05
 -1     10953 1.22196E-04 1.34625E-04-2.74283E-05
 -1     10954 1.14488E-04 1.20838E-04-2.99143E-05
 -1     10955 1.03535E-04 1.09492E-04-2.73303E-05
 -1     10956 1.27051E-04 2.84197E-06-3.21806E-05
 -1     10957 1.24447E-04 2.65426E-06-3.21596E-05
 -1     10958 6.34012E-05 1.65363E-04-1.12207E-05
 -1     10959 7.31000E-05 1.39118E-04-1.72944E-05
 -1     10960 2.70576E-05-1.30911E-05-6.70583E-06
 -1     10961 1.43758E-04 3.36657E-06-3.46201E-05
 -1     10962 1.15927E-04 5.63593E-05-9.81903E-06
 -1     10963 1.13073E-04 4.76394E-05-1.08645E-05
 -1     10964 1.12640E-04 4.83011E-05-8.38967E-06
 -1     10965 1.21693E-04 3.37612E-05-1.08399E-05
 -1     10966 1.44539E-04 3.30305E-06-5.21851E-05
 -1     10967 1.71004E-04 1.09254E-04-1.20922E-05
 -1     10968 1.66182E-04 9.13222E-06-2.20765E-05
 -1     10969 1.71824E-04 5.76478E-05-2.12073E-05
 -1     10970 1.69416E-04 4.60584E-05-2.12384E-05
 -1     10971 1.33230E-04 5.93722E-05-2.25256E-06
 -1     10972 1.41513E-04 5.51442E-05-1.25146E-06
 -1     10973 1.61010E-04 1.07266E-05-5.70084E-05
 -1     10974 1.58211E-04 5.32849E-05-8.64125E-07
 -1     10975 1.56807E-04 1.80171E-04-2.61440E-05
 -1     10976 2.13418E-04 4.87816E-04-5.37645E-06
 -1     10977 1.42983E-04 1.14067E-05-2.53713E-05
 -1     10978 1.53317E-04 7.23089E-06-7.65719E-05
 -1     10979 1.44065E-04 6.49525E-06-2.44703E-05
 -1     10980 1.54843E-04 3.69395E-06-1.24769E-05
 -1     10981-5.20987E-04 1.32712E-03-1.42779E-06
 -1     10982 1.62135E-04 7.67309E-06-3.25574E-05
 -1     10983 1.68022E-04 7.14517E-05-3.62219E-06
 -1     10984 1.52958E-04 6.22925E-05-3.08016E-06
 -1     10985 1.56120E-04 2.42519E-05-1.48484E-05
 -1     10986 1.69781E-04 4.70688E-05-9.21209E-06
 -1     10987 1.60247E-04 3.43901E-05-8.97484E-06
 -1     10988 1.26131E-04 1.29169E-04-3.54678E-05
 -1     10989 1.36958E-04 1.05198E-04-3.52215E-05
 -1     10990 1.22335E-04 1.32615E-04-3.26169E-05
 -1     10991 1.32770E-04 1.44740E-04-3.30522E-05
 -1     10992 1.49491E-04 1.19713E-04-3.57443E-05
 -1     10993 8.02624E-05 4.03169E-05-1.87929E-05
 -1     10994 9.06670E-05 8.42400E-05-3.72537E-05
 -1     10995 8.71088E-05 1.13075E-04-3.64874E-05
 -1     10996 1.06411E-04 9.42365E-05-3.64546E-05
 -1     10997 8.90642E-05 1.11179E-04-3.45560E-05
 -1     10998 1.28161E-05 2.40150E-04-1.21954E-05
 -1     10999 1.57131E-04 4.21476E-06-4.05305E-05
 -1     11000 1.14193E-04 4.03501E-05-6.49814E-06
 -1     11001 1.23907E-04 2.63690E-06-2.77003E-06
 -1     11002 1.27331E-04 2.94358E-06-3.00472E-06
 -1     11003 1.25802E-04 2.75266E-06-4.00279E-06
 -1     11004 1.78447E-04 2.24900E-04-3.64381E-05
 -1     11005 1.44130E-04 2.07318E-04-3.76358E-05
 -1     11006 1.49606E-04 2.46513E-04-3.22950E-05
 -1     11007 1.69414E-04 2.54741E-04-3.04427E-05
 -1     11008 1.25596E-04 2.58049E-04-8.05662E-06
 -1     11009 1.60206E-04 8.12946E-06-3.63716E-05
 -1     11010 1.53709E-04 3.40853E-06-4.08264E-05
 -1     11011 1.48488E-04 2.77165E-06-4.15167E-05
 -1     11012 1.48362E-04 6.32599E-06-4.22042E-05
 -1     11013 7.98059E-05 9.57694E-06-4.26938E-05
 -1     11014 7.31987E-05 3.65886E-06-2.92754E-05
 -1     11015 1.48692E-04 2.78204E-06-4.23992E-05
 -1     11016 1.66652E-04 4.62056E-05-6.44411E-05
 -1     11017 1.67831E-04 5.03812E-05-6.30842E-05
 -1     11018 1.68357E-04 5.34491E-05-6.38335E-05
 -1     11019 1.23888E-04 2.66132E-06-1.79248E-05
 -1     11020 1.19974E-04 2.40832E-06-1.68257E-05
 -1     11021 1.17264E-04 6.72060E-06-1.62088E-05
 -1     11022 8.09861E-05-4.21898E-07-3.44847E-05
 -1     11023 7.36404E-05-2.56005E-07-2.95702E-05
 -1     11024 7.79179E-05 2.88840E-07-3.30350E-05
 -1     11025 7.25231E-05-8.48183E-07-3.08690E-05
 -1     11026 1.56086E-04 6.37804E-06-1.75627E-05
 -1     11027 1.52846E-04 1.28683E-05-1.77718E-05
 -1     11028 1.49026E-04 9.58368E-06-1.73290E-05
 -1     11029 1.13596E-04 8.28686E-05-1.00291E-05
 -1     11030 1.02640E-04 9.61375E-05-8.05349E-06
 -1     11031 1.53563E-04 6.34669E-06-8.38950E-05
 -1     11032 1.41630E-04 1.80225E-05-1.32698E-05
 -1     11033 1.47807E-04 3.71076E-05-3.00058E-05
 -1     11034 1.37525E-04 5.41333E-05-2.92684E-05
 -1     11035 1.48176E-04 5.85458E-05-2.87487E-05
 -1     11036 1.69671E-04 5.54102E-05-3.86884E-05
 -1     11037 1.40856E-04 2.42786E-06-1.06969E-05
 -1     11038 1.75543E-04 1.84246E-04-1.90149E-05
 -1     11039 1.72780E-04 1.69085E-04-2.05790E-05
 -1     11040 1.54430E-04 1.07551E-05-1.24107E-05
 -1     11041 1.58151E-04 1.18893E-05-1.18186E-05
 -1     11042 1.13968E-04 2.83216E-05-4.07180E-05
 -1     11043 1.64961E-04 1.54414E-05-7.34366E-06
 -1     11044 1.65137E-04 9.57878E-06-7.43297E-06
 -1     11045 1.55686E-04 1.06997E-05-6.34558E-06
 -1     11046 1.38252E-04 2.95706E-06-3.79965E-05
 -1     11047 1.34033E-04 7.33758E-06-3.85091E-05
 -1     11048 1.50092E-04 2.10353E-05-2.88992E-05
 -1     11049 1.54445E-04 1.74376E-05-2.97286E-05
 -1     11050 1.59626E-04 2.36559E-05-4.28490E-05
 -1     11051 1.60137E-04 1.81357E-05-4.18334E-05
 -1     11052 1.01099E-04 8.04136E-06-5.51389E-05
 -1     11053 1.07712E-04 5.77071E-06-5.89702E-05
 -1     11054 1.67254E-04 9.03883E-05-2.40615E-05
 -1     11055 1.68522E-04 1.01309E-04-2.16808E-05
 -1     11056 1.69365E-04 1.05011E-04-2.24335E-05
 -1     11057 1.52962E-04 9.74744E-05-2.25251E-05
 -1     11058 1.70405E-04 3.24289E-05-4.85234E-05
 -1     11059 1.72123E-04 4.09213E-05-4.81508E-05
 -1     11060 1.61222E-04 3.74713E-06-2.63773E-05
 -1     11061 1.57758E-04 8.16361E-06-2.69588E-05
 -1     11062 1.20929E-04 2.53391E-05-7.25154E-06
 -1     11063 1.28995E-04 1.86562E-05-8.80804E-06
 -1     11064 1.20853E-04 2.54487E-05-1.03592E-05
 -1     11065 1.28012E-04 2.46102E-04-3.17805E-05
 -1     11066 1.70750E-04 2.39274E-04-2.34501E-05
 -1     11067 1.78203E-04 2.21977E-04-2.82548E-05
 -1     11068 1.29367E-04 3.42308E-06-4.89538E-05
 -1     11069 1.32616E-04 3.82320E-06-5.02518E-05
 -1     11070 1.71989E-04 7.15882E-05-6.22959E-06
 -1     11071 1.72758E-04 1.30833E-04-3.55568E-05
 -1     11072 1.57569E-04 1.15541E-04-3.52664E-05
 -1     11073 1.72329E-04 1.29363E-04-3.43296E-05
 -1     11074 1.56043E-04 9.54665E-05-5.67563E-05
 -1     11075 1.41710E-04 3.19578E-06-3.20002E-05
 -1     11076 1.69305E-04 3.00867E-05-3.07594E-05
 -1     11077 1.60126E-04 1.76587E-05-2.21905E-05
 -1     11078 5.40880E-05-6.13525E-07-2.03664E-06
 -1     11079 4.79721E-05-1.31415E-06-1.64206E-06
 -1     11080 4.66341E-05-1.02037E-06-3.80609E-06
 -1     11081 5.35262E-05-6.17955E-07-6.13106E-06
 -1     11082 9.29242E-05 1.37575E-05-4.10395E-05
 -1     11083 1.62319E-04 8.62696E-05-1.00099E-05
 -1     11084 1.59015E-04 1.07995E-05-3.85854E-05
 -1     11085 1.77593E-04 1.39231E-04-3.77509E-05
 -1     11086 1.72939E-04 1.22669E-04-4.26624E-05
 -1     11087 1.70927E-04 1.12329E-04-4.42839E-05
 -1     11088 1.58811E-04 1.03029E-04-4.41538E-05
 -1     11089 1.58209E-04 5.85286E-05-1.15758E-05
 -1     11090 1.63129E-04 3.84079E-06-2.84750E-05
 -1     11091 1.69147E-04 4.40136E-05-9.47528E-06
 -1     11092 1.58700E-04 3.47410E-05-7.24190E-05
 -1     11093 1.66762E-04 3.28662E-05-4.57357E-05
 -1     11094 1.59355E-04 2.49949E-05-4.56607E-05
 -1     11095 1.55829E-04 2.33298E-05-2.96107E-06
 -1     11096 1.23864E-04 6.14608E-06-3.81559E-05
 -1     11097 1.35781E-04 1.92528E-06-1.57878E-05
 -1     11098 1.37718E-04 2.00949E-06-1.65407E-05
 -1     11099 1.36066E-04 1.16174E-05-1.00385E-05
 -1     11100 1.28217E-04 1.81821E-05-1.16108E-05
 -1     11101 1.32087E-04 1.51684E-05-6.49942E-05
 -1     11102 1.72136E-04 4.47827E-05-1.82255E-05
 -1     11103 1.73879E-04 5.32410E-05-1.82770E-05
 -1     11104-2.53026E-04 5.44419E-04-1.48494E-06
 -1     11105-2.91150E-04 4.80369E-04 1.20824E-06
 -1     11106-3.29915E-04 5.67791E-04 1.56269E-06
 -1     11107 1.51654E-04 1.16829E-04-3.81925E-05
 -1     11108 1.31131E-04 3.53394E-06-6.13698E-05
 -1     11109 1.24429E-04 8.88207E-05-2.03803E-05
 -1     11110 1.05448E-04 2.02081E-05-2.00053E-05
 -1     11111 1.12901E-04 9.02108E-06-1.80726E-05
 -1     11112 1.73358E-04 1.15006E-04-4.76826E-05
 -1     11113 1.55356E-04 3.62588E-05-3.51787E-05
 -1     11114 1.58345E-04 2.53389E-05-3.52533E-05
 -1     11115 1.66325E-04 4.48735E-06-4.61640E-05
 -1     11116 1.70212E-04 4.44733E-05-1.20721E-05
 -1     11117 1.71180E-04 4.86334E-05-1.22786E-05
 -1     11118 1.61176E-04 1.04106E-05-4.06268E-05
 -1     11119 1.61455E-04 2.40461E-05-4.01012E-05
 -1     11120 1.20321E-04 7.82913E-06-5.65563E-05
 -1     11121 1.61899E-04 2.70983E-05-3.13818E-05
 -1     11122 1.67670E-04 2.42924E-05-4.88897E-05
 -1     11123 1.67587E-04 2.42385E-05-4.93325E-05
 -1     11124 1.79417E-04 1.49492E-04-3.76641E-05
 -1     11125 1.77506E-04 1.38675E-04-3.91307E-05
 -1     11126 1.18890E-04 2.17794E-04-6.56160E-06
 -1     11127 1.52070E-04 1.77317E-05-5.10756E-05
 -1     11128 1.50625E-04 1.77171E-05-5.01591E-05
 -1     11129 6.14492E-05 5.30003E-08-2.42626E-06
 -1     11130 5.91806E-05 5.18354E-05-1.00841E-05
 -1     11131 6.27173E-05 5.68948E-05-3.51769E-06
 -1     11132 4.18930E-05 6.40029E-05-6.17881E-06
 -1     11133 4.42879E-05 7.91833E-05-3.74679E-06
 -1     11134 6.18042E-05 6.61181E-05-7.48267E-06
 -1     11135 1.70999E-04 3.77466E-05-1.87062E-05
 -1     11136 1.56064E-04 1.06491E-05-3.35107E-05
 -1     11137 1.43528E-04 6.44723E-06-1.77215E-05
 -1     11138 1.70781E-04 6.12408E-05-2.68708E-05
 -1     11139 2.16642E-05 1.60729E-04-1.59725E-05
 -1     11140 1.50658E-04 6.26122E-05-7.33809E-06
 -1     11141 1.65154E-04 3.95725E-05-6.52022E-05
 -1     11142 1.57540E-04 3.37806E-05-6.47104E-05
 -1     11143 1.38901E-04 1.21668E-05-1.60437E-05
 -1     11144 1.37433E-04 9.67297E-06-1.61655E-05
 -1     11145 1.41646E-04 5.78043E-06-1.59028E-05
 -1     11146 1.38772E-04 5.74303E-06-1.45397E-05
 -1     11147 1.42354E-04 1.55439E-05-2.23050E-05
 -1     11148 1.64685E-04 3.91736E-05-1.27188E-05
 -1     11149 1.72616E-04 5.57834E-05-1.19306E-05
 -1     11150 1.58417E-04 4.41580E-05-1.23630E-05
 -1     11151 1.48022E-04 8.78399E-06-1.56436E-05
 -1     11152 1.70054E-04 5.99263E-05-2.47182E-05
 -1     11153 1.59190E-04 5.61776E-05-2.53525E-05
 -1     11154 1.50550E-04 9.33569E-05-2.05194E-05
 -1     11155 1.36177E-04 9.52140E-05-1.94430E-05
 -1     11156 1.29876E-04 2.21254E-05-7.35162E-05
 -1     11157 1.60061E-04 1.12697E-04-3.77433E-05
 -1     11158 1.15541E-04 7.60704E-06-3.40153E-05
 -1     11159 1.36928E-04 1.21609E-05-5.15887E-05
 -1     11160 1.30630E-04 2.26209E-05-4.94216E-05
 -1     11161 7.53915E-05 9.80902E-05-6.40893E-06
 -1     11162 1.54896E-04 3.57506E-06-2.96270E-05
 -1     11163 1.76124E-04 1.31228E-04-3.63618E-06
 -1     11164 1.74886E-04 1.24508E-04-2.86936E-06
 -1     11165 1.77477E-04 1.38792E-04-2.77434E-06
 -1     11166 1.67914E-04 6.72455E-05-3.03244E-05
 -1     11167 1.58254E-04 6.26454E-05-2.96849E-05
 -1     11168 4.54320E-05-2.85702E-06-1.99849E-05
 -1     11169 5.55185E-05-3.82471E-06-2.18825E-05
 -1     11170 1.43101E-04 1.16186E-05-3.88494E-05
 -1     11171 1.38455E-04 9.51143E-06-3.85489E-05
 -1     11172 1.43069E-04 1.67631E-05-7.85809E-05
 -1     11173 1.43120E-04 8.11491E-05-3.62434E-05
 -1     11174 1.33515E-04 5.90990E-05-1.60380E-05
 -1     11175 1.42199E-04 8.10193E-05-1.89964E-06
 -1     11176 1.42676E-04 6.55346E-05-3.05819E-06
 -1     11177 1.64706E-04 2.85536E-06-6.09292E-05
 -1     11178 1.63201E-04 2.39832E-06-6.04409E-05
 -1     11179 1.65232E-04 3.14518E-06-6.02335E-05
 -1     11180 1.74303E-04 2.23767E-04-5.99024E-06
 -1     11181 1.75574E-04 2.30711E-04-4.90724E-06
 -1     11182 9.53092E-05 3.39007E-05-4.39475E-05
 -1     11183 8.69522E-05 3.11452E-05-3.79722E-05
 -1     11184 9.23015E-05 4.32665E-05-3.94954E-05
 -1     11185 7.64563E-05 9.88939E-06-4.42556E-05
 -1     11186 8.93741E-05 4.14982E-06-4.71862E-05
 -1     11187 1.02023E-04 1.71901E-04-8.41218E-06
 -1     11188 1.11981E-04 2.00736E-04-1.00136E-05
 -1     11189 1.37391E-04 1.05837E-04-4.80618E-05
 -1     11190 1.42131E-04 1.17248E-04-4.53942E-05
 -1     11191 1.52810E-04 9.96767E-05-4.96536E-05
 -1     11192 1.71248E-04 4.32471E-05-5.43868E-05
 -1     11193 1.70185E-04 5.50513E-05-3.18335E-06
 -1     11194 1.47343E-04 1.05451E-04-1.36861E-05
 -1     11195 1.51343E-04 1.42876E-05-3.51904E-05
 -1     11196 1.59156E-04 3.31388E-05-1.93938E-05
 -1     11197 1.58157E-04 1.99163E-05-2.00501E-05
 -1     11198 1.13304E-04 2.31035E-04-2.41395E-05
 -1     11199 1.18669E-04 2.13399E-04-2.88700E-05
 -1     11200 1.29035E-04 1.35151E-05-1.27654E-05
 -1     11201 1.30291E-04 1.23841E-05-1.17102E-05
 -1     11202 1.40272E-04 9.43694E-06-1.08900E-05
 -1     11203-6.02902E-05 2.58658E-04-2.63553E-06
 -1     11204 1.52235E-04 4.39860E-06-1.87679E-05
 -1     11205 8.29005E-05 4.92264E-04-2.43653E-06
 -1     11206 1.55828E-04 6.96860E-06-4.28315E-05
 -1     11207 1.66408E-04 4.38006E-05-3.17696E-05
 -1     11208 1.74002E-04 9.95754E-05-3.36044E-05
 -1     11209 1.73080E-04 9.54598E-05-3.30669E-05
 -1     11210 1.22275E-04 2.58216E-05-4.65931E-05
 -1     11211 9.61370E-05 2.24602E-06-1.27530E-05
 -1     11212 9.81841E-05 2.38854E-06-1.02804E-05
 -1     11213 1.58343E-04 1.17295E-05-2.08973E-05
 -1     11214 1.69674E-04 7.53201E-05-2.99441E-05
 -1     11215 1.72811E-04 4.68011E-05-1.87350E-05
 -1     11216 1.72327E-04 4.48893E-05-1.85309E-05
 -1     11217 1.64942E-04 8.41436E-05-4.36025E-05
 -1     11218 1.74076E-04 6.97673E-05-2.12650E-05
 -1     11219 1.73550E-04 6.66342E-05-2.17852E-05
 -1     11220 1.72363E-04 6.03926E-05-2.16942E-05
 -1     11221 1.73899E-04 9.24195E-05-2.66177E-05
 -1     11222 1.75686E-04 1.01451E-04-2.70906E-05
 -1     11223 3.21671E-06-2.39021E-06-4.47160E-06
 -1     11224 3.12861E-07 1.03310E-05-4.05342E-06
 -1     11225 1.19686E-04 2.40244E-06-1.83686E-05
 -1     11226 1.70904E-04 1.20892E-04-1.74962E-05
 -1     11227 1.73106E-04 1.31860E-04-1.67164E-05
 -1     11228 1.47590E-04 4.55010E-05-6.01312E-05
 -1     11229 1.39313E-04 1.92028E-04-2.06466E-05
 -1     11230 1.15731E-04 2.11890E-04-1.92024E-05
 -1     11231 1.44403E-04 1.56548E-05-3.89933E-05
 -1     11232 5.15784E-05 6.15397E-05-1.72011E-05
 -1     11233 3.65622E-05 9.02775E-05-1.34000E-05
 -1     11234 1.34290E-04 6.87124E-06-2.22038E-05
 -1     11235 1.65135E-04 1.58237E-05-6.19108E-05
 -1     11236 1.59796E-04 1.38071E-05-6.18015E-05
 -1     11237 1.53242E-04 9.97828E-06-4.82672E-06
 -1     11238 1.49740E-04 7.72328E-06-4.56546E-06
 -1     11239 1.37894E-04 5.01635E-05-4.49341E-06
 -1     11240 1.48282E-04 3.15824E-06-4.91418E-06
 -1     11241 1.63301E-04 4.26610E-06-6.79300E-06
 -1     11242 1.67409E-04 2.46587E-05-3.67249E-05
 -1     11243 1.64465E-04 1.78861E-05-2.37797E-05
 -1     11244 1.59560E-04 1.42103E-05-2.38235E-05
 -1     11245 1.50200E-04 2.44371E-05-8.39015E-06
 -1     11246 1.48873E-04 2.37641E-05-9.33524E-06
 -1     11247 1.52468E-04 1.68643E-05-8.84882E-06
 -1     11248 1.52465E-04 2.82615E-05-9.54290E-06
 -1     11249 1.54138E-04 3.01201E-05-8.65522E-06
 -1     11250 1.57522E-04 1.82203E-05-9.75822E-06
 -1     11251 1.25323E-04 1.30307E-04-1.17841E-05
 -1     11252 1.60015E-04 2.37372E-05-5.83017E-05
 -1     11253 1.31970E-04 1.51635E-04-1.25233E-05
 -1     11254 1.37820E-04 1.40682E-04-1.59947E-05
 -1     11255 1.77763E-04 1.51496E-04-4.45463E-05
 -1     11256 1.78489E-04 1.53290E-04-4.27528E-05
 -1     11257 1.51528E-04 3.30560E-05-1.51679E-05
 -1     11258 1.52352E-04 4.86270E-05-1.54946E-05
 -1     11259 1.14238E-04 4.99734E-05-6.02167E-05
 -1     11260 2.78627E-05 1.85749E-04-1.35456E-05
 -1     11261-1.50807E-05 1.46208E-04-5.54280E-06
 -1     11262 1.55836E-04 5.78825E-05-2.49784E-06
 -1     11263 1.11500E-04 1.42525E-04-3.99975E-05
 -1     11264 9.41224E-05 1.36547E-04-4.13972E-05
 -1     11265 1.00228E-04 1.29946E-04-3.80142E-05
 -1     11266 1.44386E-04 3.84004E-05-1.74920E-05
 -1     11267 1.54083E-04 4.38325E-05-1.83084E-05
 -1     11268 1.55115E-04 4.33604E-05-1.72725E-05
 -1     11269 1.45820E-04 4.88618E-05-1.70963E-05
 -1     11270 5.38965E-05 6.91601E-05-2.92884E-05
 -1     11271 1.38855E-04 5.54240E-05-1.53694E-05
 -1     11272 1.42270E-04 6.70646E-05-1.49425E-05
 -1     11273 1.69620E-04 2.82567E-05-3.26885E-05
 -1     11274 1.69297E-04 2.73186E-05-3.23462E-05
 -1     11275-3.36863E-04 2.41407E-04 2.40470E-06
 -1     11276-3.25574E-04 1.59121E-04 2.41552E-06
 -1     11277-1.92930E-04 1.28109E-03-8.22670E-07
 -1     11278 9.08855E-05 3.96102E-05-8.16667E-06
 -1     11279 9.35961E-05 4.39038E-05-6.10022E-06
 -1     11280 2.45522E-05 1.28890E-06-3.52769E-06
 -1     11281 1.59672E-04 2.01959E-05-4.84273E-05
 -1     11282 1.42402E-04 1.16885E-05-9.87161E-06
 -1     11283 1.34063E-04 2.03747E-05-8.61733E-06
 -1     11284 1.61912E-04 3.92698E-06-2.61629E-05
 -1     11285 1.61817E-04 3.78997E-06-2.58733E-05
 -1     11286 1.63266E-04 4.53177E-06-2.59832E-05
 -1     11287 1.62753E-05-1.04250E-05 1.94367E-06
 -1     11288 4.20434E-06-2.68712E-05 3.26853E-06
 -1     11289 1.55749E-04 4.08516E-05-8.87007E-06
 -1     11290 1.27776E-04 7.53259E-06-3.79337E-05
 -1     11291 1.60150E-04 3.31676E-05-1.84589E-05
 -1     11292 1.70931E-04 3.79527E-05-5.06895E-05
 -1     11293 1.68046E-04 2.59911E-05-5.04345E-05
 -1     11294 1.62726E-04 2.38392E-05-5.08886E-05
 -1     11295 1.65141E-04 3.47364E-06-2.46723E-05
 -1     11296 1.69613E-04 1.14740E-04-1.83840E-05
 -1     11297-1.86186E-05 1.06734E-04-2.71522E-05
 -1     11298 8.29557E-05 9.70880E-06-3.03553E-05
 -1     11299 1.26863E-04 4.07008E-05-3.02291E-05
 -1     11300 1.69901E-04 7.59062E-05-4.50588E-06
 -1     11301 1.71500E-04 8.35513E-05-4.48192E-06
 -1     11302 1.04745E-04 3.30514E-06-4.07300E-05
 -1     11303 1.72802E-04 2.51313E-04-2.15043E-05
 -1     11304 1.50524E-04 1.02856E-04-2.79024E-05
 -1     11305 1.39701E-04 1.30929E-03-4.93754E-07
 -1     11306 3.06009E-05 1.27133E-03-3.14207E-06
 -1     11307 8.20307E-05 1.30648E-03-1.69052E-06
 -1     11308 1.01409E-04 1.14994E-04-3.28119E-05
 -1     11309 1.07839E-04 1.25365E-04-3.55711E-05
 -1     11310 1.09742E-04 1.23468E-04-3.35327E-05
 -1     11311 1.63457E-04 6.64776E-06-2.92048E-05
 -1     11312 1.62598E-04 5.49142E-06-2.93593E-05
 -1     11313 1.72626E-04 1.49007E-04-2.51436E-05
 -1     11314 1.73582E-04 1.52897E-04-2.64685E-05
 -1     11315 1.70581E-04 1.38375E-04-2.66435E-05
 -1     11316 1.12530E-04 5.86721E-05-6.55031E-06
 -1     11317 1.01389E-04 7.38122E-05-4.69197E-06
 -1     11318 1.66828E-04 8.06809E-06-2.45946E-06
 -1     11319 1.15360E-04 7.87524E-05-2.24171E-05
 -1     11320 1.21763E-04 6.35198E-05-2.30852E-05
 -1     11321 1.65719E-04 1.99102E-04-1.39691E-05
 -1     11322 1.34538E-04 3.58689E-06-2.09669E-05
 -1     11323 1.71913E-04 1.71783E-04-4.25131E-05
 -1     11324 1.69779E-04 6.55504E-06-4.70366E-05
 -1     11325 1.70347E-04 1.81955E-05-4.71273E-05
 -1     11326 1.73847E-04 1.27567E-04-2.55634E-05
 -1     11327 1.62869E-04 1.55286E-05-7.85045E-05
 -1     11328 1.70931E-04 9.28544E-05-3.68705E-05
 -1     11329 1.72311E-04 9.97349E-05-3.59252E-05
 -1     11330 1.73454E-04 9.63456E-05-3.52145E-05
 -1     11331 1.59469E-04 9.45226E-05-3.55949E-05
 -1     11332 1.56661E-04 1.47462E-05-3.28759E-05
 -1     11333 1.58166E-04 2.24316E-05-8.46910E-06
 -1     11334 9.21037E-05 1.77829E-06-4.25361E-05
 -1     11335 7.68046E-05 4.04648E-05-3.64607E-06
 -1     11336 1.66579E-04 4.23608E-05-2.67387E-05
 -1     11337 1.68294E-04 7.01798E-06-2.99172E-05
 -1     11338 1.01047E-04 1.61218E-04-4.14076E-05
 -1     11339 1.64409E-04 6.32405E-06-1.06272E-06
 -1     11340 1.33492E-04 1.11793E-05-4.93949E-05
 -1     11341 1.47614E-04 1.22884E-05-1.83941E-05
 -1     11342 1.40438E-04 1.60856E-05-1.78432E-05
 -1     11343 4.75112E-05 1.25622E-03-2.40202E-06
 -1     11344 1.50893E-04 2.69563E-05-1.85407E-05
 -1     11345 1.28947E-04 6.46636E-06-1.94830E-05
 -1     11346 1.17687E-04 4.01941E-05-4.43705E-05
 -1     11347 1.43864E-04 3.37585E-06-3.34911E-05
 -1     11348 1.17526E-04 7.05482E-05-1.14885E-05
 -1     11349 1.14047E-04 5.94192E-05-1.24826E-05
 -1     11350 1.72684E-04 5.01915E-05-5.47245E-05
 -1     11351 1.48838E-04 3.33752E-06-6.43651E-05
 -1     11352 1.72819E-04 8.66548E-05-2.56456E-05
 -1     11353 1.61118E-04 7.44542E-05-2.62691E-05
 -1     11354 1.61487E-04 7.67152E-05-2.52704E-05
 -1     11355 1.46273E-04 2.61502E-06-4.11516E-05
 -1     11356 1.49449E-04 7.23408E-06-2.73809E-05
 -1     11357 1.46365E-04 1.29888E-04-6.79516E-06
 -1     11358 1.67883E-04 3.09414E-06-4.42222E-05
 -1     11359 1.67209E-04 3.10831E-06-4.48089E-05
 -1     11360-3.00932E-04 6.33024E-04-9.31315E-08
 -1     11361-2.44700E-04 4.60735E-04-8.97667E-07
 -1     11362-2.07772E-04 5.24110E-04-2.90002E-06
 -1     11363 9.14075E-05 3.57898E-06-1.14834E-05
 -1     11364 9.23819E-05 7.29683E-06-1.30620E-05
 -1     11365 1.69289E-04 2.66287E-05-3.93664E-05
 -1     11366 1.66757E-04 2.89087E-06-5.28948E-05
 -1     11367 1.66567E-04 2.83489E-06-5.23156E-05
 -1     11368 1.71443E-04 1.36150E-04-5.23433E-05
 -1     11369 1.69464E-04 3.52197E-05-5.44487E-05
 -1     11370 1.56196E-04 8.66817E-05-2.51337E-05
 -1     11371 1.36690E-04 7.16311E-06-1.01023E-05
 -1     11372 1.58974E-04 2.06214E-05-3.77434E-05
 -1     11373 1.52622E-04 7.82653E-06-3.82411E-05
 -1     11374 1.65170E-04 1.59831E-05-2.54739E-05
 -1     11375 1.59822E-04 3.32594E-05-2.53777E-05
 -1     11376 1.70712E-04 4.94495E-05-1.54825E-05
 -1     11377 1.72838E-04 6.07872E-05-1.56531E-05
 -1     11378 3.15007E-05-8.83337E-06 8.92311E-06
 -1     11379 1.96158E-05-1.48849E-05 5.61100E-06
 -1     11380 1.69466E-04 3.01807E-05-3.04812E-05
 -1     11381 1.71309E-04 3.95316E-05-3.01510E-05
 -1     11382 1.46315E-04 1.17173E-05-3.56447E-06
 -1     11383 1.52844E-04 4.06116E-06-3.72467E-05
 -1     11384 1.04220E-04 6.53028E-05-4.55970E-05
 -1     11385 1.75099E-04 6.23121E-05-4.89702E-05
 -1     11386 1.74526E-04 5.91204E-05-4.84768E-05
 -1     11387 1.76326E-04 6.88912E-05-4.83436E-05
 -1     11388 7.67883E-05 1.96456E-05-2.92324E-05
 -1     11389 1.39614E-04 1.40725E-05-1.78256E-05
 -1     11390 1.40767E-04 1.17799E-05-1.67913E-05
 -1     11391 1.71837E-04 5.10903E-05-2.02977E-05
 -1     11392 1.61390E-04 4.78355E-05-2.07206E-05
 -1     11393 1.69055E-04 3.77404E-05-2.04639E-05
 -1     11394 1.66855E-04 2.84431E-05-7.90201E-07
 -1     11395 1.68361E-04 3.56856E-05-9.80928E-07
 -1     11396 1.73815E-04 5.47675E-05-2.59148E-05
 -1     11397 1.73235E-04 5.20761E-05-2.53534E-05
 -1     11398 1.60800E-04 4.80385E-05-2.59617E-05
 -1     11399 1.55545E-04 7.86154E-05-3.38202E-05
 -1     11400 1.74077E-04 7.83459E-05-3.45553E-05
 -1     11401 1.51777E-04 1.81837E-05-4.32713E-05
 -1     11402 1.52390E-04 1.59548E-05-5.21615E-05
 -1     11403 1.22648E-04 2.56541E-06-2.05418E-05
 -1     11404 1.21688E-04 2.53183E-06-1.96791E-05
 -1     11405 1.25271E-04 2.76414E-06-1.99844E-05
 -1     11406 9.04354E-05 1.16771E-04-4.04422E-05
 -1     11407 1.45118E-04 7.99800E-06-2.71748E-05
 -1     11408-2.04253E-04 7.78065E-05-4.11690E-07
 -1     11409 1.71250E-04 4.16355E-05-4.28325E-05
 -1     11410 1.70753E-04 4.00744E-05-4.25073E-05
 -1     11411 1.75886E-04 2.32227E-04-7.03832E-06
 -1     11412 1.41487E-04 1.40732E-05-8.29594E-07
 -1     11413 1.26127E-04 2.88626E-06-1.01344E-05
 -1     11414 1.67948E-04 5.30336E-05-6.92362E-06
 -1     11415 1.36711E-04 2.34168E-04-3.34511E-06
 -1     11416 1.04356E-04 2.09377E-04-3.10349E-06
 -1     11417 1.59141E-04 6.92801E-06-3.95610E-05
 -1     11418 1.73807E-04 5.13669E-05-4.94562E-05
 -1     11419 1.69206E-04 1.59678E-04-4.51413E-05
 -1     11420 1.60482E-04 3.91748E-06-7.17877E-07
 -1     11421 1.69205E-04 7.70262E-05-1.05015E-05
 -1     11422 1.69791E-04 7.93649E-05-1.11491E-05
 -1     11423 1.53371E-04 1.80122E-05-6.95879E-06
 -1     11424 1.55214E-04 7.65419E-06-7.18029E-06
 -1     11425 1.04961E-04 7.12154E-05-1.62761E-05
 -1     11426 5.06435E-05 9.00730E-05-1.52591E-05
 -1     11427 5.26410E-05 5.59580E-05-1.41017E-05
 -1     11428 1.43368E-04 1.98001E-06-7.72577E-05
 -1     11429 1.51354E-04 3.59270E-06-9.57613E-06
 -1     11430 1.04850E-05-2.64939E-05 2.17761E-05
 -1     11431 6.60820E-06-4.11427E-05 2.44816E-05
 -1     11432 2.66252E-05-1.34598E-05 2.25721E-05
 -1     11433 1.85881E-05-1.72700E-05 1.01576E-05
 -1     11434-3.26931E-06-4.06778E-05 1.14027E-05
 -1     11435 1.59504E-04 1.07005E-05-3.93450E-05
 -1     11436 1.73643E-04 3.97320E-04-6.68766E-06
 -1     11437 1.61964E-04 4.55092E-04-5.88978E-06
 -1     11438 1.67107E-04 6.70105E-06-3.43991E-05
 -1     11439 1.59730E-04 1.00122E-05-3.45614E-05
 -1     11440 1.60533E-04 4.93565E-05-4.98990E-05
 -1     11441 1.58909E-04 6.34141E-05-2.19641E-05
 -1     11442 9.58190E-05 4.16141E-06-1.39516E-05
 -1     11443 1.54639E-04 3.49562E-05-3.75142E-05
 -1     11444 1.69976E-04 8.52479E-05-1.83362E-06
 -1     11445 1.57674E-04 9.66735E-05-2.23582E-06
 -1     11446 1.49079E-04 4.82669E-05-2.38442E-05
 -1     11447 1.52085E-04 4.69175E-05-2.50763E-05
 -1     11448 1.12897E-04 3.52070E-05-2.92193E-05
 -1     11449 1.66180E-04 9.80075E-06-4.34105E-05
 -1     11450 1.61589E-04 1.04535E-05-4.34713E-05
 -1     11451 1.69165E-04 4.06468E-05-5.36080E-07
 -1     11452 9.03747E-05 1.72992E-06-3.81719E-05
 -1     11453 1.50573E-04 3.29910E-05-7.59251E-06
 -1     11454 1.45496E-04 4.77126E-05-7.43792E-06
 -1     11455 1.72794E-04 1.21774E-04-4.39317E-05
 -1     11456 1.75817E-04 1.27871E-04-4.48783E-05
 -1     11457 1.75106E-04 1.23998E-04-4.62556E-05
 -1     11458 1.73519E-04 1.15592E-04-4.64292E-05
 -1     11459 1.38020E-04 7.77175E-05-4.18052E-05
 -1     11460 1.60175E-04 1.88403E-05-5.28841E-05
 -1     11461 9.60049E-05 1.46606E-04-1.22333E-05
 -1     11462 7.61172E-05 1.14822E-06-2.63960E-05
 -1     11463 6.77551E-05 1.37732E-06-2.65551E-05
 -1     11464 1.70876E-04 1.12456E-04-4.30527E-05
 -1     11465 1.69455E-04 5.73659E-06-3.40163E-05
 -1     11466 1.69674E-04 9.85072E-06-3.39662E-05
 -1     11467 1.69380E-04 5.63727E-06-3.43341E-05
 -1     11468 1.23919E-04 5.42597E-06-1.83703E-05
 -1     11469-5.74815E-05 1.64191E-04-4.06831E-06
 -1     11470-5.23739E-05 1.49627E-04-8.64906E-06
 -1     11471-1.96630E-05 1.88961E-04-3.73105E-06
 -1     11472-1.52641E-05 1.72762E-04-9.25907E-06
 -1     11473 1.28942E-04 3.03985E-06-9.67867E-06
 -1     11474 1.72126E-04 5.29911E-04-2.18406E-06
 -1     11475 1.21212E-04 4.96810E-04-2.63875E-06
 -1     11476 1.20814E-04 1.15612E-05-6.01886E-05
 -1     11477 1.18119E-04 5.96144E-06-5.95489E-05
 -1     11478 1.80167E-04 2.32442E-04-1.95233E-05
 -1     11479 8.01349E-05 1.40050E-04-4.44909E-05
 -1     11480 7.00964E-05 1.15568E-04-4.64519E-05
 -1     11481 5.10841E-05 1.12282E-04-4.29177E-05
 -1     11482 5.92617E-05 1.33440E-04-4.20459E-05
 -1     11483-1.60036E-04 4.79713E-04-4.72222E-06
 -1     11484 1.60112E-04 1.30115E-05-5.80626E-05
 -1     11485 1.68704E-04 5.39513E-05-2.45367E-05
 -1     11486 1.56154E-04 6.16789E-05-4.71289E-05
 -1     11487 1.50969E-04 6.70113E-05-4.56550E-05
 -1     11488 1.61653E-04 1.28651E-05-3.00764E-05
 -1     11489 1.69516E-04 3.33333E-05-4.32355E-05
 -1     11490 1.67231E-04 5.45465E-06-3.02798E-05
 -1     11491 1.66165E-04 4.48640E-06-3.05375E-05
 -1     11492 1.61278E-04 1.48895E-05-3.03222E-05
 -1     11493 1.58182E-04 1.18276E-04-4.42719E-05
 -1     11494-2.22860E-05 1.36421E-04-1.62799E-05
 -1     11495-3.41777E-05 1.81698E-04-1.18091E-05
 -1     11496-6.47534E-05 1.54111E-04-1.21167E-05
 -1     11497 1.48696E-04 2.65609E-05-2.30172E-05
 -1     11498 1.54528E-04 2.05145E-05-2.25272E-05
 -1     11499 1.51491E-04 1.66130E-05-2.20605E-05
 -1     11500 1.17077E-04 4.00480E-05-2.82178E-05
 -1     11501 1.57607E-04 1.77641E-05-3.52535E-05
 -1     11502 1.07621E-04 3.10752E-06-1.21617E-05
 -1     11503 1.24023E-04 6.13633E-06-2.01292E-05
 -1     11504 1.61587E-04 9.87864E-06-5.27924E-05
 -1     11505 1.58316E-04 2.77800E-05-4.81705E-06
 -1     11506 1.55601E-04 2.94541E-05-4.36644E-06
 -1     11507 1.68397E-04 1.00279E-04-5.83261E-05
 -1     11508 1.58017E-04 1.51220E-05-7.17046E-06
 -1     11509-1.07548E-04 4.49898E-04-6.50731E-06
 -1     11510-1.00654E-04 3.78767E-04-9.30667E-06
 -1     11511 9.68319E-05 4.84831E-06-5.18061E-05
 -1     11512 1.64366E-04 4.32552E-06-4.15544E-05
 -1     11513 1.17242E-04 8.95355E-06-4.21348E-05
 -1     11514 1.66154E-04 2.80612E-05-2.33961E-05
 -1     11515 1.51751E-04 1.02120E-05-1.69719E-05
 -1     11516 1.69735E-04 1.51896E-04-1.50808E-05
 -1     11517-1.23643E-04-8.24502E-05 9.49569E-06
 -1     11518 1.47447E-04 3.05590E-05-6.16765E-05
 -1     11519 1.51052E-04 1.40698E-05-6.36622E-05
 -1     11520 1.50726E-04 2.33335E-05-6.45454E-05
 -1     11521 9.96084E-05 1.56138E-05-2.71826E-05
 -1     11522 1.64964E-04 3.04762E-06-5.96476E-05
 -1     11523 1.33604E-04 1.78174E-05-6.85674E-05
 -1     11524 1.22173E-04 4.30591E-05-6.49995E-05
 -1     11525 1.25288E-04 2.80810E-05-6.84025E-05
 -1     11526 1.20522E-04 3.51482E-05-6.42884E-05
 -1     11527 1.35448E-04 1.32703E-05-4.43279E-05
 -1     11528 1.43152E-04 1.27655E-05-4.40742E-05
 -1     11529 1.60403E-04 1.43022E-05-6.03955E-05
 -1     11530-2.51779E-05 2.11255E-04-1.40188E-05
 -1     11531 1.58866E-04 3.06777E-06-3.68869E-05
 -1     11532 1.56657E-04 6.55948E-06-3.76890E-05
 -1     11533 1.56601E-04 2.69120E-06-3.75708E-05
 -1     11534 1.64858E-04 3.68724E-06-3.07023E-05
 -1     11535 1.09785E-04 2.27225E-04-2.01916E-05
 -1     11536 1.13724E-04 1.95926E-04-2.35073E-05
 -1     11537 1.14578E-04 3.37090E-06-1.77863E-05
 -1     11538 1.11466E-04 3.09621E-06-1.64540E-05
 -1     11539 1.14761E-04 3.39498E-06-1.62749E-05
 -1     11540-1.21173E-06 7.27740E-05-2.20142E-05
 -1     11541 1.70021E-04 2.35411E-04-2.22411E-05
 -1     11542 1.53793E-04 9.10837E-06-3.26030E-05
 -1     11543 1.70969E-04 9.40424E-05-5.53691E-05
 -1     11544 1.71274E-04 1.10505E-04-1.14783E-05
 -1     11545 1.65237E-04 2.89390E-05-5.68168E-06
 -1     11546 1.67539E-04 4.18026E-05-5.86636E-06
 -1     11547 7.34054E-05 4.51829E-05-3.58408E-05
 -1     11548 1.60076E-04 1.39399E-05-3.70681E-05
 -1     11549 1.57572E-04 2.66363E-05-6.60128E-06
 -1     11550 1.19639E-04 5.34834E-05-8.43552E-06
 -1     11551 1.47044E-04 3.17635E-06-6.22907E-05
 -1     11552 1.37582E-04 1.49396E-05-5.32574E-05
 -1     11553 1.36708E-04 1.08246E-05-5.35177E-05
 -1     11554 1.34023E-04 5.81876E-04-1.10715E-05
 -1     11555 1.59004E-04 3.47559E-06-6.99830E-05
 -1     11556 1.57048E-04 7.72208E-06-7.02365E-05
 -1     11557 1.35527E-04 1.19362E-05-3.48366E-05
 -1     11558 1.33880E-04 1.09381E-05-3.62908E-05
 -1     11559-1.54217E-06 4.52923E-05-2.78055E-05
 -1     11560 1.79084E-05 5.23121E-05-3.35689E-05
 -1     11561 1.74790E-04 1.44844E-04-8.75266E-06
 -1     11562 1.69720E-04 2.63958E-05-2.99918E-05
 -1     11563 1.68968E-04 2.43416E-05-2.96301E-05
 -1     11564 1.71506E-04 3.63804E-05-2.97339E-05
 -1     11565 1.52376E-04 2.02519E-05-4.76977E-05
 -1     11566 1.51254E-04 3.31474E-05-4.70220E-05
 -1     11567 1.55739E-04 3.08505E-05-4.78176E-05
 -1     11568 1.54496E-04 2.15900E-05-4.68678E-05
 -1     11569 1.70367E-04 3.84933E-05-6.19608E-05
 -1     11570 1.71270E-04 4.17166E-05-6.11825E-05
 -1     11571 1.71556E-04 4.37210E-05-6.21073E-05
 -1     11572 1.16763E-04 3.53520E-06-2.23482E-05
 -1     11573 1.06210E-04 1.27907E-05-2.03473E-06
 -1     11574 1.40194E-04 1.02638E-04-2.17972E-05
 -1     11575 1.64100E-04 3.25449E-06-5.88016E-05
 -1     11576 1.57754E-04 8.72310E-06-8.94889E-06
 -1     11577 5.58582E-05 1.37512E-04-1.38904E-05
 -1     11578-1.78842E-05 3.09175E-04-1.72850E-05
 -1     11579-1.42952E-04 1.21504E-03 3.05920E-06
 -1     11580-1.04500E-04 1.22705E-03 8.12484E-07
 -1     11581 1.30449E-04 2.62443E-06-1.93600E-05
 -1     11582 1.28361E-04 2.49030E-06-1.83588E-05
 -1     11583 1.13811E-04 3.32546E-06-1.95457E-05
 -1     11584 1.68409E-04 6.26327E-05-5.35136E-05
 -1     11585 1.69416E-04 5.36884E-05-5.56469E-05
 -1     11586 1.84897E-04 4.96490E-04-2.53479E-06
 -1     11587 1.33722E-04 4.63060E-04-2.94996E-06
 -1     11588 1.43212E-04 2.74641E-06-5.40801E-05
 -1     11589-1.90494E-04 6.75018E-04-1.17797E-06
 -1     11590 1.70422E-04 3.62831E-05-4.99421E-05
 -1     11591 1.11478E-04 6.83732E-05-8.43294E-06
 -1     11592 1.00530E-04 8.26786E-05-6.57369E-06
 -1     11593 9.22046E-05 1.21163E-05-5.27436E-05
 -1     11594 8.93220E-05 7.56906E-06-4.98602E-05
 -1     11595 1.72020E-04 8.95998E-05-3.38757E-05
 -1     11596 1.56361E-04 5.10990E-05-6.20681E-05
 -1     11597 1.53913E-04 3.56107E-06-7.84290E-05
 -1     11598 1.21020E-04 2.87445E-06-6.27271E-05
 -1     11599 1.17424E-04 2.52206E-06-6.07276E-05
 -1     11600 1.19823E-04 2.97393E-06-6.04401E-05
 -1     11601 1.15547E-04 1.74525E-06-1.42898E-06
 -1     11602 1.19790E-04 1.97330E-06-1.25123E-06
 -1     11603 1.16863E-04 5.50346E-06-2.07268E-06
 -1     11604 1.19048E-04 3.31811E-06-3.33400E-06
 -1     11605 1.71092E-04 1.13552E-04-2.15448E-05
 -1     11606 1.31984E-04 7.35580E-06-2.33258E-05
 -1     11607 1.37056E-04 3.15628E-06-2.41002E-05
 -1     11608 1.33722E-04 3.49785E-06-2.19901E-05
 -1     11609 1.37627E-04 6.77564E-06-2.42933E-05
 -1     11610 1.43046E-04 1.34179E-04-1.36213E-05
 -1     11611 1.48461E-04 4.30626E-06-2.82970E-05
 -1     11612 1.29826E-04 1.02954E-06-7.15559E-05
 -1     11613 1.32704E-04 1.16906E-06-7.34628E-05
 -1     11614 1.29874E-04 2.88325E-06-6.98011E-05
 -1     11615 1.28759E-04 4.18344E-06-7.09681E-05
 -1     11616 1.27018E-04 2.51554E-06-6.81692E-05
 -1     11617 1.65730E-04 6.33562E-06-2.21756E-05
 -1     11618 1.70342E-04 1.55133E-04-1.36101E-05
 -1     11619 1.56388E-04 7.15236E-06-6.72421E-05
 -1     11620 1.55409E-04 3.60128E-05-3.94628E-05
 -1     11621 1.55954E-04 2.06300E-05-3.92137E-05
 -1     11622 1.48733E-04 3.16701E-05-3.87661E-05
 -1     11623 8.17198E-05 7.17799E-06-3.05657E-06
 -1     11624 6.29974E-05 9.51288E-06-4.51784E-06
 -1     11625 1.59301E-04 1.26235E-05-4.21674E-05
 -1     11626 1.40631E-04 3.24370E-05-1.09054E-05
 -1     11627 1.42013E-04 3.23019E-05-9.98605E-06
 -1     11628 1.07205E-04 6.24069E-05-2.70378E-05
 -1     11629 1.49506E-04 2.57910E-06-4.24134E-06
 -1     11630 1.69199E-04 5.76549E-05-6.36731E-06
 -1     11631 1.45669E-04 8.80958E-06-7.97638E-07
 -1     11632 1.46361E-04 6.42775E-06-1.76712E-06
 -1     11633 1.43118E-04 7.09299E-06-9.41331E-07
 -1     11634-2.47684E-04 7.28652E-04-6.92074E-06
 -1     11635-2.22769E-04 6.86273E-04-6.31416E-06
 -1     11636-3.00093E-04 6.29055E-04-1.05472E-06
 -1     11637-2.78110E-04 6.87440E-04-2.52680E-06
 -1     11638 5.39034E-05 1.10356E-04-1.42388E-05
 -1     11639 5.77374E-05 8.81033E-05-1.05966E-05
 -1     11640 5.50524E-05 7.07695E-05-1.15442E-05
 -1     11641 1.57463E-04 1.04687E-05-2.85255E-05
 -1     11642 1.68929E-04 6.44792E-05-1.91479E-05
 -1     11643 1.72261E-04 7.09253E-05-1.98349E-05
 -1     11644 1.75051E-04 1.24368E-04-4.71431E-05
 -1     11645 1.69129E-04 3.37288E-05-4.88512E-05
 -1     11646 1.54903E-04 4.91583E-05-3.64020E-06
 -1     11647-1.50566E-04 4.07702E-04-5.99452E-06
 -1     11648 1.59664E-04 5.38633E-05-5.20373E-05
 -1     11649 8.09438E-05 2.26973E-05-5.14395E-05
 -1     11650-1.28629E-04-8.27829E-05 3.10753E-06
 -1     11651 1.73146E-04 1.23932E-04-4.13218E-05
 -1     11652 1.68188E-04 5.35571E-05-7.26207E-06
 -1     11653 1.61837E-04 5.70590E-05-4.88904E-05
 -1     11654 1.50593E-04 1.21999E-05-2.40805E-05
 -1     11655 1.76434E-04 1.37275E-04-4.83630E-05
 -1     11656 8.34300E-05 1.88683E-05-8.14607E-06
 -1     11657 8.50567E-05 1.45727E-05-1.01075E-05
 -1     11658 9.89110E-05 1.29841E-05-1.33306E-05
 -1     11659 7.45603E-05 1.15223E-04-1.39970E-05
 -1     11660 9.28685E-05 1.19240E-04-1.28350E-05
 -1     11661 8.59124E-05 1.16540E-04-1.52410E-05
 -1     11662 1.60332E-04 3.91563E-06-6.97610E-05
 -1     11663 6.05957E-05 1.80424E-04-4.67030E-06
 -1     11664 7.29738E-05 1.50690E-04-3.44927E-06
 -1     11665 9.01429E-05 1.46207E-04-3.56244E-06
 -1     11666 8.52065E-05 1.13850E-04-5.95799E-06
 -1     11667 8.00644E-05 1.58162E-04-6.76643E-06
 -1     11668 1.25128E-04 7.54680E-05-5.38599E-05
 -1     11669 9.30205E-05 2.66972E-06-5.25350E-06
 -1     11670 1.52393E-04 1.00861E-05-3.44974E-05
 -1     11671 1.69609E-04 3.65358E-05-5.15193E-05
 -1     11672 1.67281E-04 2.48586E-05-5.18351E-05
 -1     11673 1.49112E-04 2.94695E-06-2.25367E-05
 -1     11674 1.48293E-04 8.02588E-06-2.25401E-05
 -1     11675 1.64168E-04 4.18478E-06-7.09731E-05
 -1     11676 1.64308E-04 4.21656E-06-4.10982E-05
 -1     11677 1.22988E-04 2.54661E-06-6.26000E-06
 -1     11678 1.26124E-04 2.75235E-06-6.56044E-06
 -1     11679 1.24562E-04 2.67213E-06-7.38100E-06
 -1     11680 1.60798E-04 3.07345E-06-3.51469E-05
 -1     11681 1.56169E-04 7.55175E-05-4.47274E-05
 -1     11682 1.57584E-04 2.98075E-05-3.23749E-05
 -1     11683 1.53991E-04 2.47155E-05-3.19966E-05
 -1     11684 1.58459E-04 3.52842E-05-3.17851E-05
 -1     11685 1.57367E-04 1.72886E-05-3.22761E-05
 -1     11686 1.60712E-04 2.09290E-05-3.26001E-05
 -1     11687 1.48003E-04 1.76749E-04-2.08085E-06
 -1     11688 1.27804E-04 2.87162E-06-6.73155E-05
 -1     11689 1.26670E-04 2.90492E-06-6.47855E-05
 -1     11690 1.63372E-04 5.65055E-06-2.30894E-05
 -1     11691-3.36595E-04 2.35335E-04 7.44282E-06
 -1     11692 1.57903E-04 6.51238E-05-2.32842E-05
 -1     11693 1.54106E-04 1.43387E-05-2.36734E-05
 -1     11694 1.44869E-04 2.05666E-05-2.28535E-05
 -1     11695 1.11903E-04 1.10653E-04-2.16424E-05
 -1     11696 1.00989E-04 9.64375E-05-2.14047E-05
 -1     11697 1.09259E-04 1.05161E-04-1.94509E-05
 -1     11698 1.52550E-04 3.78016E-06-5.62568E-06
 -1     11699 1.63788E-04 2.98609E-06-4.26485E-05
 -1     11700 1.65117E-04 3.42179E-06-4.27940E-05
 -1     11701 1.66872E-04 1.49286E-05-4.35062E-05
 -1     11702 1.66630E-04 1.43742E-05-4.39936E-05
 -1     11703 1.59629E-04 1.86543E-05-4.34379E-05
 -1     11704 1.44736E-04 2.51357E-06-2.63249E-06
 -1     11705 1.24367E-04 4.72730E-05-6.12134E-05
 -1     11706 1.72636E-04 9.63153E-05-1.48292E-05
 -1     11707 1.60231E-04 8.42775E-05-1.48363E-05
 -1     11708 1.46675E-04 9.91754E-06-1.65205E-05
 -1     11709 1.74426E-04 9.05253E-05-1.02647E-05
 -1     11710 7.90944E-05 1.30328E-05-7.41997E-06
 -1     11711 7.17444E-05 1.54859E-05-4.17273E-06
 -1     11712 1.36511E-04 1.45507E-05-1.82232E-05
 -1     11713 1.75319E-04 1.27360E-04-4.87437E-05
 -1     11714 1.76568E-04 1.42135E-04-4.47042E-05
 -1     11715 1.72077E-04 2.47171E-04-2.04889E-05
 -1     11716 1.13585E-04 6.03024E-06-1.83819E-05
 -1     11717 1.54849E-04 3.67493E-06-2.59537E-05
 -1     11718 1.67062E-04 5.52648E-06-4.57532E-05
 -1     11719 1.62862E-04 1.24670E-05-4.61777E-05
 -1     11720 1.51884E-04 2.02367E-05-2.59765E-05
 -1     11721 1.73825E-04 4.98639E-05-3.43708E-05
 -1     11722 1.72020E-04 4.09131E-05-3.45806E-05
 -1     11723 1.71869E-04 4.02123E-05-3.43373E-05
 -1     11724 1.51813E-04 8.83638E-05-5.44202E-05
 -1     11725 6.22407E-05 9.35209E-05-2.59914E-05
 -1     11726 1.70029E-04 4.65350E-05-1.51191E-05
 -1     11727 1.67897E-04 3.67907E-05-1.52194E-05
 -1     11728 1.56625E-04 3.69604E-05-1.49300E-05
 -1     11729 1.53256E-04 1.06659E-05-7.68050E-05
 -1     11730 9.72785E-05 6.21389E-05-4.30166E-05
 -1     11731 1.13836E-04 4.92867E-05-4.47876E-05
 -1     11732 1.02019E-04 5.57268E-05-4.61816E-05
 -1     11733 1.18945E-04 4.21225E-05-4.80674E-05
 -1     11734 1.11717E-04 4.09920E-05-4.52475E-05
 -1     11735 1.68364E-04 6.26032E-05-5.24746E-05
 -1     11736 1.74541E-04 1.24497E-04-5.01590E-05
 -1     11737 1.30657E-04 3.20537E-06-3.54854E-06
 -1     11738 1.32779E-04 3.37530E-06-3.01307E-06
 -1     11739 1.41623E-04 1.46837E-04-3.01134E-05
 -1     11740 1.51217E-04 1.61153E-04-2.75757E-05
 -1     11741 1.21750E-04 1.55345E-04-2.80324E-05
 -1     11742-1.97037E-04 4.37498E-04-3.34045E-06
 -1     11743 1.66720E-04 9.26116E-06-3.32103E-05
 -1     11744-2.14063E-06-4.85955E-05 2.06638E-05
 -1     11745 1.24995E-04 9.24279E-05-5.15050E-05
 -1     11746 1.41138E-04 9.62441E-05-5.31424E-05
 -1     11747 1.18955E-04 2.33205E-06-2.01747E-05
 -1     11748 1.30135E-04 3.13848E-06-2.44201E-06
 -1     11749 1.53648E-04 9.21747E-06-2.90760E-05
 -1     11750 1.37752E-04 7.04759E-06-5.61389E-05
 -1     11751 9.56725E-05 1.31692E-05-3.71183E-05
 -1     11752 1.57071E-04 2.91851E-05-9.46516E-06
 -1     11753 7.25126E-05 3.88488E-05-2.08256E-05
 -1     11754 1.38269E-04 1.93678E-05-6.81686E-05
 -1     11755 1.53975E-04 1.31455E-05-8.53680E-06
 -1     11756 1.57397E-04 6.69785E-06-8.72033E-06
 -1     11757 1.57149E-04 3.50509E-06-8.13368E-06
 -1     11758 1.55919E-04 7.55094E-06-7.89461E-06
 -1     11759 1.77737E-04 2.42489E-04-5.76219E-06
 -1     11760 1.67115E-04 3.59829E-05-7.05660E-05
 -1     11761 1.55917E-04 3.32810E-05-6.97716E-05
 -1     11762 1.67176E-04 3.49847E-05-6.99528E-05
 -1     11763-4.06874E-05 1.30626E-04-4.88980E-06
 -1     11764-8.30538E-05 1.47707E-04-3.47489E-06
 -1     11765 1.45463E-04 2.87361E-05-7.64460E-05
 -1     11766 1.48157E-04 4.21900E-05-7.40943E-05
 -1     11767 1.40945E-04 3.65861E-05-7.46218E-05
 -1     11768 1.77646E-04 1.46842E-04-4.14278E-05
 -1     11769 1.79431E-04 1.57259E-04-3.97978E-05
 -1     11770 1.67030E-04 3.99174E-05-2.91683E-05
 -1     11771 1.35764E-04 3.07773E-06-2.52670E-05
 -1     11772 1.39680E-04 3.50884E-06-2.49531E-05
 -1     11773 1.70149E-04 1.78590E-05-4.67085E-05
 -1     11774 1.42274E-04 1.76930E-05-2.32182E-05
 -1     11775 1.32493E-04 3.34353E-06-5.08124E-06
 -1     11776 1.57344E-04 3.43118E-05-1.80757E-05
 -1     11777 1.54632E-04 6.85636E-05-6.63006E-05
 -1     11778 1.37877E-04 4.00908E-06-4.02574E-05
 -1     11779 1.35717E-04 3.71792E-06-4.10418E-05
 -1     11780 1.71058E-04 3.50687E-05-3.96071E-05
 -1     11781 1.69390E-04 2.53714E-05-3.95159E-05
 -1     11782 1.70462E-04 7.91213E-05-2.92273E-05
 -1     11783 1.05011E-05-1.32599E-05 3.22630E-06
 -1     11784 1.45869E-05-1.69451E-05 5.56069E-06
 -1     11785 1.38682E-04 2.00786E-05-1.17458E-05
 -1     11786 1.69911E-04 1.08883E-04-2.44559E-05
 -1     11787 1.53688E-04 1.01518E-04-2.44920E-05
 -1     11788 1.56201E-04 1.14776E-04-2.28693E-05
 -1     11789 1.72066E-04 4.55488E-05-2.58167E-05
 -1     11790 1.72088E-04 4.51139E-05-2.63235E-05
 -1     11791 1.59527E-04 4.22582E-05-6.30775E-05
 -1     11792 1.55297E-04 1.32485E-05-5.22440E-06
 -1     11793 1.70632E-04 9.73242E-05-6.02452E-05
 -1     11794 1.70866E-04 9.17433E-05-6.11010E-05
 -1     11795 1.76085E-04 1.51888E-04-7.70447E-06
 -1     11796 1.63538E-04 2.94780E-06-4.22666E-05
 -1     11797 1.69027E-04 9.65980E-05-5.75798E-05
 -1     11798 1.61329E-04 7.62268E-06-5.91947E-05
 -1     11799 1.29361E-04 3.46524E-06-3.66080E-05
 -1     11800 1.28394E-04 3.37773E-06-3.77560E-05
 -1     11801 1.69237E-04 3.63425E-05-2.22246E-06
 -1     11802 1.67510E-04 2.59755E-05-2.47602E-06
 -1     11803 1.07501E-04 7.56365E-05-2.43429E-05
 -1     11804 1.29172E-04 1.51975E-04-3.46470E-05
 -1     11805 1.73902E-04 1.19253E-04-3.59034E-06
 -1     11806 1.72749E-04 8.66227E-05-2.62275E-05
 -1     11807 1.66826E-04 2.24742E-05-6.34430E-05
 -1     11808 1.66571E-04 2.11281E-05-6.28918E-05
 -1     11809 1.68500E-04 3.15136E-05-6.26149E-05
 -1     11810 8.07702E-05 1.74747E-06-2.75308E-05
 -1     11811 1.52808E-04 1.59134E-05-6.58546E-05
 -1     11812 1.54208E-04 1.85566E-05-7.83441E-05
 -1     11813 1.75166E-04 2.13044E-04-3.86666E-05
 -1     11814 1.52727E-04 1.90942E-04-4.13006E-05
 -1     11815-2.02224E-04 1.31668E-03-5.04998E-07
 -1     11816-1.05910E-04 1.22626E-03-6.73452E-07
 -1     11817-1.48185E-04 1.29028E-03-1.12423E-06
 -1     11818-9.81233E-05 1.28591E-03-8.23825E-07
 -1     11819 1.58535E-04 3.01827E-06-3.62470E-05
 -1     11820 1.56900E-04 3.57792E-05-2.63568E-05
 -1     11821 3.22601E-05-6.21913E-06-1.55323E-05
 -1     11822 1.65706E-04 6.01904E-05-4.61002E-06
 -1     11823 1.58841E-04 1.93839E-06-3.34429E-07
 -1     11824 1.57121E-04 1.75129E-06-5.30759E-07
 -1     11825 1.57253E-04 6.31454E-06-4.96395E-07
 -1     11826 1.54883E-04 1.26466E-05-1.59849E-05
 -1     11827 1.55992E-04 2.33362E-05-1.15944E-05
 -1     11828 1.16113E-04 4.04014E-05-6.77682E-05
 -1     11829 1.50900E-04 4.86064E-05-4.53507E-05
 -1     11830 1.48602E-04 1.91731E-05-1.83321E-05
 -1     11831 1.62806E-04 3.10742E-06-5.13920E-05
 -1     11832 1.42137E-04 2.90546E-05-1.22875E-05
 -1     11833 1.62569E-04 9.31189E-06-4.46746E-05
 -1     11834 1.43363E-04 2.40179E-06-1.61167E-05
 -1     11835 1.41518E-04 2.27731E-06-1.64813E-05
 -1     11836 1.54633E-04 1.57149E-05-4.66649E-05
 -1     11837 1.44294E-04 1.27124E-05-1.16646E-05
 -1     11838 1.43817E-04 1.10760E-05-1.08789E-05
 -1     11839 1.55731E-04 4.80568E-05-6.96160E-05
 -1     11840 8.87596E-05 1.71773E-06-3.55644E-05
 -1     11841 8.11372E-05 4.46378E-06-3.51122E-05
 -1     11842 1.30604E-04 1.61294E-05-3.25710E-05
 -1     11843 1.49697E-04 5.73078E-05-1.61261E-05
 -1     11844 1.03185E-04 1.05214E-04-2.35206E-05
 -1     11845 1.67272E-04 2.27184E-05-6.21604E-05
 -1     11846 1.68740E-04 3.12221E-05-6.21530E-05
 -1     11847 1.52942E-04 2.57562E-05-7.19847E-06
 -1     11848 1.53950E-04 1.86393E-05-7.60967E-06
 -1     11849 1.55386E-04 2.38801E-05-8.17588E-06
 -1     11850 1.58747E-04 1.60853E-05-7.87293E-06
 -1     11851 1.27639E-04 1.67137E-05-7.27037E-05
 -1     11852 1.29448E-04 1.51604E-05-7.01356E-05
 -1     11853 1.22002E-04 2.41268E-05-7.06252E-05
 -1     11854 1.42967E-04 2.55591E-06-9.93491E-06
 -1     11855 1.43495E-04 6.08064E-06-9.94398E-06
 -1     11856 1.44169E-04 2.67291E-06-1.06905E-05
 -1     11857 1.57556E-04 1.13962E-05-2.62142E-05
 -1     11858 1.17309E-04 3.20471E-05-4.33927E-05
 -1     11859 1.51578E-04 2.12699E-04-2.24993E-05
 -1     11860 1.67820E-04 7.54198E-05-1.83849E-06
 -1     11861 1.69374E-04 1.48455E-04-3.85563E-05
 -1     11862 1.54133E-04 8.29003E-05-4.48477E-05
 -1     11863 1.51272E-04 3.64812E-05-6.50320E-05
 -1     11864 1.50559E-04 3.87827E-05-6.29929E-05
 -1     11865 1.40505E-04 5.03966E-05-6.24589E-05
 -1     11866 1.44050E-04 6.16032E-05-5.97495E-05
 -1     11867 1.44696E-04 5.96946E-05-6.15847E-05
 -1     11868 1.30730E-04 5.21032E-06-1.51663E-06
 -1     11869 1.09792E-04 1.12581E-03-2.61792E-06
 -1     11870 1.63244E-04 6.33360E-06-2.88809E-05
 -1     11871 1.68164E-04 6.84036E-06-2.85220E-05
 -1     11872 1.67875E-04 7.98956E-06-2.88207E-05
 -1     11873 1.58631E-04 1.50239E-05-2.88039E-05
 -1     11874 1.37069E-04 2.62308E-06-7.41609E-05
 -1     11875 1.34213E-04 2.26768E-06-7.27930E-05
 -1     11876-2.63479E-04 1.32586E-03-5.77337E-07
 -1     11877 1.50374E-04 3.08400E-06-6.00754E-05
 -1     11878 1.73409E-04 1.16957E-04-5.07173E-05
 -1     11879 1.73794E-04 1.18228E-04-4.94965E-05
 -1     11880 1.24693E-04 6.66270E-06-6.36095E-05
 -1     11881 1.53709E-04 3.51344E-05-6.18035E-05
 -1     11882 1.56433E-04 3.59655E-05-6.25741E-05
 -1     11883 1.56609E-04 1.74282E-05-6.41965E-05
 -1     11884 1.57290E-04 2.43797E-05-6.26708E-05
 -1     11885 1.58397E-04 4.46189E-05-6.10982E-05
 -1     11886 1.40470E-04 1.31314E-03-5.36933E-07
 -1     11887 1.12416E-04 1.20064E-03-1.72863E-06
 -1     11888 1.55990E-04 3.82537E-06-1.19927E-05
 -1     11889 1.11523E-04 7.47122E-06-1.56171E-05
 -1     11890 1.59038E-04 1.46037E-05-2.27804E-05
 -1     11891 1.68191E-04 3.90476E-05-1.52938E-05
 -1     11892 1.72429E-04 6.09640E-05-2.22113E-05
 -1     11893-3.71674E-05 1.08997E-04-1.23699E-05
 -1     11894 1.24944E-04 3.96111E-06-6.87734E-05
 -1     11895 1.18440E-04 3.77656E-06-6.39948E-05
 -1     11896 1.71639E-04 3.98079E-05-3.25180E-05
 -1     11897 1.66133E-04 6.75448E-06-8.40634E-06
 -1     11898 1.60310E-04 1.55362E-05-8.33400E-06
 -1     11899 1.03214E-04 4.64532E-05-8.75068E-06
 -1     11900 1.11650E-04 3.42920E-05-1.10722E-05
 -1     11901 1.11298E-04 3.48199E-05-8.67217E-06
 -1     11902 1.57972E-04 4.32550E-05-2.47299E-05
 -1     11903 1.49132E-04 3.42951E-05-2.42553E-05
 -1     11904 1.48998E-04 3.58430E-05-2.34713E-05
 -1     11905 1.57657E-04 2.75970E-05-2.43117E-05
 -1     11906 1.52773E-04 1.27919E-05-5.12442E-05
 -1     11907 4.08451E-05 4.93075E-05-6.09055E-06
 -1     11908 8.87038E-06 5.81546E-05-4.96619E-06
 -1     11909-1.54944E-05 7.92648E-05-4.46287E-06
 -1     11910 1.41868E-04 9.64139E-05-6.04219E-05
 -1     11911-1.63552E-04 1.20030E-03-1.21301E-07
 -1     11912 1.25878E-04 2.87343E-06-6.13570E-05
 -1     11913 1.67888E-04 2.53396E-05-4.35795E-05
 -1     11914 1.55956E-04 2.33669E-05-3.43079E-05
 -1     11915 1.15429E-04 4.61516E-05-2.94009E-05
 -1     11916 1.60547E-04 2.70838E-05-5.51111E-05
 -1     11917 1.69434E-04 3.52918E-05-5.49782E-05
 -1     11918 1.57327E-04 1.36323E-05-3.65136E-05
 -1     11919 1.54313E-04 1.44841E-05-3.74732E-05
 -1     11920 1.57173E-04 7.38603E-06-3.68622E-05
 -1     11921 8.09086E-05 1.09594E-04-1.92332E-05
 -1     11922 1.51852E-04 2.97356E-06-7.64673E-05
 -1     11923 1.56777E-04 3.24820E-05-2.09212E-06
 -1     11924 9.23089E-05 6.27562E-05-3.86265E-05
 -1     11925 1.61356E-04 2.94988E-05-4.31604E-05
 -1     11926 1.67620E-04 2.08156E-04-1.54826E-05
 -1     11927 1.41883E-04 2.30695E-06-1.56255E-05
 -1     11928 1.68911E-04 8.13625E-05-4.04927E-05
 -1     11929 1.51307E-04 1.03387E-05-7.92755E-05
 -1     11930 1.56205E-04 5.41564E-06-7.26926E-05
 -1     11931 1.49104E-04 8.32735E-06-7.33865E-05
 -1     11932 5.48640E-05 2.04678E-04-2.82906E-06
 -1     11933 1.07211E-04 3.14104E-05-4.44553E-05
 -1     11934 1.52226E-04 1.87315E-04-1.96952E-05
 -1     11935-2.02903E-04 7.29586E-05-7.81762E-07
 -1     11936 9.17478E-05 1.52268E-05-2.86624E-05
 -1     11937 9.85559E-05 1.36882E-05-3.31125E-05
 -1     11938 8.99246E-05 1.14281E-05-3.10964E-05
 -1     11939 1.68640E-04 7.92547E-05-1.38221E-06
 -1     11940-4.81624E-05 1.00552E-04-3.59922E-06
 -1     11941-6.00100E-05 1.17135E-04-7.41315E-06
 -1     11942-1.82776E-05 9.87447E-05-1.00067E-05
 -1     11943 5.40875E-05 3.26249E-05-4.01989E-06
 -1     11944 1.40763E-04 1.68216E-06-7.64470E-05
 -1     11945 1.42585E-04 1.75375E-06-7.80645E-05
 -1     11946 1.50285E-04 3.36576E-05-2.90554E-05
 -1     11947 1.58057E-04 1.25957E-05-6.97452E-05
 -1     11948 1.59269E-04 1.78153E-05-6.93087E-05
 -1     11949 1.62340E-04 3.22487E-06-4.67206E-05
 -1     11950 1.69625E-04 3.81328E-05-6.80953E-05
 -1     11951 1.69386E-04 5.26492E-06-3.37374E-05
 -1     11952 1.46236E-04 2.24258E-05-4.66396E-07
 -1     11953 1.53492E-04 1.73421E-05-1.86957E-05
 -1     11954 1.71523E-04 1.17112E-04-2.34826E-05
 -1     11955 1.59780E-04 5.46230E-05-5.34947E-05
 -1     11956 1.39517E-04 4.00837E-06-5.70838E-05
 -1     11957 1.42367E-04 3.42340E-06-1.25765E-05
 -1     11958 1.42852E-04 2.59153E-06-1.15230E-05
 -1     11959 1.45755E-04 2.82094E-06-1.19041E-05
 -1     11960 1.55382E-04 3.07588E-06-7.76893E-06
 -1     11961 1.53851E-04 7.42921E-06-8.53504E-06
 -1     11962 1.44576E-04 5.62297E-06-1.09161E-05
 -1     11963 1.59795E-04 9.80280E-05-2.91597E-05
 -1     11964 1.20714E-04 8.96051E-07-6.54634E-05
 -1     11965 1.22702E-04 1.21846E-06-6.63250E-05
 -1     11966 1.32169E-04 9.33288E-04-3.09487E-06
 -1     11967 1.36166E-04 1.04375E-03-3.06807E-06
 -1     11968 1.69334E-04 1.11657E-03-1.20424E-06
 -1     11969 8.14509E-05 1.04731E-03-1.71587E-06
 -1     11970 1.69433E-04 1.01782E-03-8.91753E-07
 -1     11971 1.61163E-04 5.10746E-05-2.50678E-05
 -1     11972 1.38860E-04 5.55356E-06-1.69769E-05
 -1     11973 1.37163E-04 1.05097E-05-2.52346E-05
 -1     11974 1.64486E-04 6.08472E-05-2.05302E-06
 -1     11975 1.65797E-04 6.66634E-05-1.80715E-06
 -1     11976 1.53216E-04 3.44198E-05-3.63781E-05
 -1     11977 1.54701E-04 1.97529E-05-3.72939E-05
 -1     11978 1.62773E-04 2.24205E-05-8.02136E-05
 -1     11979 1.64069E-04 2.43245E-05-7.88629E-05
 -1     11980 1.64652E-04 3.36845E-05-7.75812E-05
 -1     11981 1.58702E-04 3.41385E-05-2.75879E-06
 -1     11982 1.78853E-04 1.45603E-04-8.02815E-07
 -1     11983 1.80196E-04 1.53312E-04-1.48461E-06
 -1     11984 1.64595E-04 1.34774E-04-1.26575E-06
 -1     11985 1.75984E-04 1.30479E-04-2.11832E-06
 -1     11986 1.74687E-04 1.75682E-04-4.45991E-05
 -1     11987 1.77242E-04 1.92154E-04-4.18908E-05
 -1     11988 1.53778E-04 1.68903E-04-4.49782E-05
 -1     11989 1.69552E-04 1.70865E-04-4.41636E-05
 -1     11990 1.54694E-04 7.78013E-06-3.11537E-05
 -1     11991 1.59980E-04 7.13786E-06-3.08527E-05
 -1     11992 1.60896E-04 2.64129E-06-3.12629E-05
 -1     11993 1.70513E-04 3.24384E-05-4.71558E-05
 -1     11994 1.72292E-04 4.12516E-05-4.71423E-05
 -1     11995 1.70536E-04 3.31301E-05-4.74981E-05
 -1     11996 1.67818E-04 1.23594E-05-2.85063E-05
 -1     11997 1.61541E-04 2.19398E-05-2.91396E-05
 -1     11998 1.23738E-04 2.63297E-06-8.60878E-06
 -1     11999 8.09175E-05 1.63019E-06-2.97141E-05
 -1     12000 8.01234E-05 3.82589E-06-3.05981E-05
 -1     12001 1.71608E-04 1.11633E-04-5.66646E-06
 -1     12002 1.55987E-04 1.34299E-05-2.47158E-05
 -1     12003 1.58388E-04 2.77368E-05-1.58788E-05
 -1     12004 1.20123E-04 1.55338E-04-3.68911E-05
 -1     12005 1.73907E-04 1.23564E-04-4.31215E-06
 -1     12006 1.72930E-04 1.18297E-04-5.00310E-06
 -1     12007 1.27603E-04 2.87031E-06-5.55099E-06
 -1     12008 1.30803E-04 3.23757E-06-5.83527E-06
 -1     12009 1.29022E-04 3.06709E-06-4.29354E-06
 -1     12010 1.67969E-04 3.97913E-05-1.57467E-05
 -1     12011 1.56726E-04 9.32887E-05-6.15378E-05
 -1     12012 1.42829E-04 6.65734E-05-2.95453E-05
 -1     12013 1.59077E-04 7.16426E-06-6.41135E-05
 -1     12014 1.55301E-04 2.95819E-05-4.33488E-05
 -1     12015 1.56890E-04 2.86294E-05-4.20922E-05
 -1     12016 1.64602E-04 1.71443E-05-5.44577E-06
 -1     12017 8.31821E-05 1.70178E-04-9.79693E-06
 -1     12018 1.75598E-04 8.59220E-05-3.59518E-05
 -1     12019 1.57498E-04 1.67513E-05-4.41836E-05
 -1     12020 1.57894E-04 1.32331E-05-4.50034E-05
 -1     12021 1.56139E-04 2.87174E-05-4.44286E-05
 -1     12022 1.60749E-04 1.73242E-05-4.46535E-05
 -1     12023 1.49354E-04 3.33625E-05-6.04970E-05
 -1     12024 1.55107E-04 2.25097E-05-6.01751E-05
 -1     12025 1.53870E-04 1.67519E-05-4.18329E-05
 -1     12026-2.62043E-04 1.21249E-04 8.58420E-07
 -1     12027 1.31119E-04 2.69908E-06-1.66503E-05
 -1     12028 1.32943E-04 2.85237E-06-1.74221E-05
 -1     12029 1.33722E-04 5.14681E-06-1.68637E-05
 -1     12030 1.41189E-04 9.88929E-05-6.30664E-06
 -1     12031 1.46610E-04 8.52736E-05-5.03790E-06
 -1     12032 3.23947E-05-1.01365E-05 1.50997E-05
 -1     12033 1.61808E-04 1.28800E-05-8.23763E-05
 -1     12034 1.61399E-04 8.55515E-06-8.38976E-05
 -1     12035 1.62185E-04 8.16817E-06-8.27185E-05
 -1     12036 1.65578E-04 7.95970E-06-1.66925E-05
 -1     12037 1.27109E-04 2.64836E-06-4.17761E-05
 -1     12038 1.63164E-04 2.38078E-05-4.71873E-05
 -1     12039 1.66829E-04 1.97590E-05-3.32712E-05
 -1     12040 1.57772E-04 9.75506E-06-6.71619E-05
 -1     12041 1.07603E-04 6.25282E-05-2.28393E-06
 -1     12042 9.34961E-05 6.64623E-05-1.49551E-05
 -1     12043 1.62848E-04 3.37672E-06-3.82445E-05
 -1     12044 1.53372E-04 2.44824E-05-1.84847E-06
 -1     12045 1.25949E-04 2.65492E-06-2.49647E-05
 -1     12046 1.55491E-04 2.83141E-05-1.82540E-05
 -1     12047 1.50630E-04 2.76449E-06-1.01380E-05
 -1     12048 1.49209E-04 2.53570E-06-1.06431E-05
 -1     12049 1.47859E-04 6.94813E-06-9.89283E-06
 -1     12050 5.97069E-05-2.32354E-06-1.51089E-05
 -1     12051 6.31741E-05-1.61106E-06-1.98208E-05
 -1     12052 1.56961E-04 3.98101E-06-2.94251E-05
 -1     12053 1.69346E-04 3.64941E-04-5.90653E-06
 -1     12054 1.40110E-04 3.67024E-04-3.63485E-06
 -1     12055 1.88652E-04 3.58837E-04-2.24947E-06
 -1     12056 1.85440E-04 3.35348E-04-4.91297E-06
 -1     12057 1.55235E-04 3.37415E-04-2.38619E-06
 -1     12058 1.40097E-04 1.89132E-04-2.86537E-06
 -1     12059 1.53541E-04 2.05201E-04-2.83058E-06
 -1     12060 1.57130E-04 2.94833E-05-7.19141E-05
 -1     12061 1.17458E-06 1.89195E-04-4.09448E-06
 -1     12062 1.65249E-04 5.04001E-06-4.31040E-05
 -1     12063 1.23285E-04 3.34135E-05-5.01223E-05
 -1     12064 1.52649E-04 1.80668E-05-1.49397E-05
 -1     12065 1.53115E-04 2.63830E-05-1.56009E-05
 -1     12066 1.82899E-04 2.22196E-04-1.38148E-06
 -1     12067 1.63768E-04 3.15513E-06-6.22529E-05
 -1     12068 1.70758E-04 4.60920E-05-1.99435E-05
 -1     12069 1.55096E-04 2.13707E-05-6.91009E-05
 -1     12070 1.52029E-04 2.29187E-05-6.68958E-05
 -1     12071 1.50437E-04 2.62119E-05-6.79650E-05
 -1     12072 1.53424E-04 2.92428E-05-6.65092E-05
 -1     12073 1.56756E-04 1.63251E-05-2.78330E-05
 -1     12074 1.48309E-04 1.40535E-05-2.24653E-05
 -1     12075 1.40725E-04 7.54437E-06-5.86073E-05
 -1     12076 1.50399E-04 1.97441E-05-1.75140E-05
 -1     12077 1.68820E-04 5.68734E-05-1.65332E-05
 -1     12078 1.52325E-04 1.21588E-05-9.16570E-06
 -1     12079 1.61791E-04 3.09729E-06-3.94520E-05
 -1     12080 1.66743E-04 7.08119E-05-1.36721E-06
 -1     12081 1.04967E-04 7.01728E-05-4.06445E-05
 -1     12082 1.72157E-04 8.19831E-05-4.65778E-05
 -1     12083 1.43951E-04 1.51166E-05-1.08793E-05
 -1     12084 1.46006E-04 1.28969E-05-1.02401E-05
 -1     12085 1.50594E-04 8.90917E-06-1.09205E-05
 -1     12086 1.52463E-04 7.00006E-06-1.02335E-05
 -1     12087 1.49612E-04 1.64646E-04-6.50530E-06
 -1     12088 7.01467E-05-1.47787E-06-2.45450E-05
 -1     12089 6.92769E-05-8.15072E-07-2.58883E-05
 -1     12090 6.61854E-05-2.23208E-06-2.52950E-05
 -1     12091 1.45459E-04 7.41505E-06-8.02373E-05
 -1     12092 1.42765E-04 5.16143E-06-7.96669E-05
 -1     12093 7.28794E-05 3.21666E-05-7.96558E-06
 -1     12094 8.67088E-05 3.30112E-05-1.09223E-05
 -1     12095 1.45288E-04 2.76321E-05-1.37704E-05
 -1     12096 1.48458E-04 2.68573E-05-1.26360E-05
 -1     12097 1.52869E-04 2.95086E-05-1.31403E-05
 -1     12098 1.59618E-04 5.01243E-05-1.85189E-05
 -1     12099 1.67073E-04 5.11416E-06-4.50815E-05
 -1     12100 1.69359E-04 4.19831E-06-4.43553E-05
 -1     12101-4.83282E-06-3.91970E-05 4.52832E-06
 -1     12102 4.11899E-06-2.34773E-05 8.96099E-06
 -1     12103-3.78978E-06-3.88262E-05 8.27923E-06
 -1     12104 1.48851E-04 6.71539E-06-7.62021E-05
 -1     12105 1.51689E-04 5.97128E-06-1.70044E-05
 -1     12106 9.55422E-05 1.93278E-06-2.10418E-06
 -1     12107 9.06853E-05 1.10870E-04-2.29866E-06
 -1     12108 8.52403E-05 1.43192E-04-2.15038E-06
 -1     12109 1.07485E-04 3.10562E-06-1.34685E-05
 -1     12110 1.36717E-04 1.40153E-05-6.45195E-05
 -1     12111 1.56714E-04 2.28544E-05-5.14762E-06
 -1     12112 1.11765E-04 8.73391E-04-5.14955E-06
 -1     12113 1.05659E-04 7.77953E-04-3.98766E-06
 -1     12114 1.53806E-04 1.82265E-05-3.81126E-05
 -1     12115 1.26444E-04 2.80947E-06-8.15443E-06
 -1     12116 1.57726E-04 3.35758E-06-3.29968E-05
 -1     12117 4.79595E-05 1.42792E-04-3.79638E-05
 -1     12118 1.04420E-04 4.70381E-05-2.34745E-06
 -1     12119 9.21053E-05 5.21325E-05-2.27944E-06
 -1     12120 1.65462E-04 2.64677E-05-1.88732E-05
 -1     12121 1.59317E-04 2.51573E-05-5.13617E-05
 -1     12122 1.62812E-04 3.95328E-05-5.07840E-05
 -1     12123 1.12513E-04 7.51364E-05-3.87404E-05
 -1     12124 1.14784E-04 5.87687E-05-4.26954E-05
 -1     12125 1.48035E-04 2.81864E-06-1.36722E-06
 -1     12126 1.48509E-04 2.85343E-06-1.83325E-06
 -1     12127 1.46101E-04 2.62564E-06-1.49835E-06
 -1     12128 4.82329E-05-4.24472E-06-9.85459E-06
 -1     12129 1.61662E-04 6.87760E-06-5.16851E-05
 -1     12130 1.42416E-04 1.10184E-05-2.21865E-05
 -1     12131 3.82483E-05 1.10857E-05-3.76829E-06
 -1     12132 7.57565E-05 1.34661E-04-1.04540E-05
 -1     12133 5.41051E-05 1.27421E-04-1.08432E-05
 -1     12134 1.44592E-04 1.94345E-06-7.90599E-05
 -1     12135 1.12471E-05-2.26794E-05 1.53030E-05
 -1     12136 1.64053E-04 3.85394E-06-4.69401E-05
 -1     12137 1.60374E-04 9.68347E-06-4.63050E-05
 -1     12138 1.42894E-04 1.28675E-05-2.41767E-05
 -1     12139 1.52020E-04 3.19380E-05-2.55169E-05
 -1     12140 1.73923E-04 1.14294E-04-2.90077E-05
 -1     12141 1.56801E-04 4.23113E-05-7.48111E-05
 -1     12142 1.64521E-04 5.17351E-05-7.31783E-05
 -1     12143 1.55239E-04 4.06783E-05-7.62707E-05
 -1     12144 1.56500E-04 2.40584E-05-7.82315E-05
 -1     12145 1.70414E-04 3.92361E-05-6.58295E-05
 -1     12146 1.58173E-04 1.22822E-05-2.23216E-05
 -1     12147 1.53528E-04 5.26495E-05-6.68717E-05
 -1     12148 1.60285E-04 8.38544E-05-3.63270E-05
 -1     12149 1.76907E-04 2.53853E-04-3.25990E-05
 -1     12150 1.48840E-04 2.74608E-04-2.90238E-05
 -1     12151 1.34269E-04 1.04592E-03-6.42852E-06
 -1     12152 1.60067E-04 7.32205E-05-5.77116E-06
 -1     12153-2.72286E-04 1.56508E-04 3.20937E-06
 -1     12154-2.61476E-04 1.15836E-04 2.89699E-06
 -1     12155 1.64727E-04 8.19147E-05-6.05144E-06
 -1     12156 1.58300E-04 2.88326E-05-1.55961E-05
 -1     12157 1.48773E-04 2.55966E-05-7.21363E-05
 -1     12158 1.49804E-04 2.18852E-05-7.43121E-05
 -1     12159 1.50783E-04 3.20004E-05-7.17112E-05
 -1     12160 1.77930E-04 1.10620E-04-1.08093E-05
 -1     12161 1.53878E-04 1.10391E-05-7.16514E-05
 -1     12162 1.53131E-04 9.68620E-06-7.32785E-05
 -1     12163 1.58047E-04 6.96310E-06-7.31319E-05
 -1     12164 1.54650E-04 3.21817E-05-4.06065E-05
 -1     12165 1.25592E-04 3.04445E-05-3.82638E-05
 -1     12166 1.67722E-04 1.19431E-03-7.83733E-07
 -1     12167 6.19101E-05 1.12984E-03-1.11236E-06
 -1     12168 1.39911E-04 9.35525E-06-7.71945E-05
 -1     12169-1.67653E-04 1.49494E-04-6.19782E-06
 -1     12170-1.35706E-04 1.68296E-04-1.04797E-05
 -1     12171 1.23364E-04 2.63257E-06-1.89897E-05
 -1     12172 1.05968E-04 5.34716E-05-6.59938E-06
 -1     12173 1.90953E-04 4.35482E-04-1.70118E-05
 -1     12174 1.69354E-04 4.49278E-04-1.41671E-05
 -1     12175 1.37229E-04 1.60269E-05-3.42344E-05
 -1     12176 1.50891E-04 9.06916E-05-2.68186E-05
 -1     12177 1.65883E-04 2.91097E-05-1.55030E-05
 -1     12178 1.66633E-04 8.77084E-06-3.16226E-05
 -1     12179 1.62416E-04 3.29767E-06-3.71926E-05
 -1     12180-9.72497E-05 1.28614E-03-1.97128E-06
 -1     12181 1.56390E-04 1.41763E-05-3.20011E-05
 -1     12182 6.12377E-05 4.21416E-05-3.45346E-06
 -1     12183 1.62580E-04 1.53648E-04-2.18855E-06
 -1     12184 1.52067E-04 3.91647E-05-8.03867E-07
 -1     12185 1.48278E-04 3.82493E-05-2.03547E-06
 -1     12186 1.46646E-04 3.77320E-05-1.28764E-06
 -1     12187 1.53109E-04 2.23041E-05-4.37685E-07
 -1     12188 1.49536E-04 2.37562E-05-1.66860E-06
 -1     12189 1.54688E-04 2.18296E-05-1.42196E-06
 -1     12190 1.47965E-04 1.41772E-05-1.36015E-05
 -1     12191 1.66580E-04 1.63076E-05-5.92305E-05
 -1     12192 1.61893E-04 1.31869E-05-5.95235E-05
 -1     12193 1.70714E-04 1.58407E-04-2.20942E-05
 -1     12194 1.65267E-04 3.87744E-06-6.22593E-05
 -1     12195 4.70679E-05-4.63760E-06-2.27454E-06
 -1     12196 5.29607E-05-3.73871E-06-8.44943E-06
 -1     12197 4.60213E-05-7.38160E-06-1.04882E-05
 -1     12198 1.60446E-04 2.48372E-05-4.76701E-05
 -1     12199 1.71227E-04 1.74681E-04-2.84362E-05
 -1     12200 1.74101E-04 1.55204E-04-2.78791E-05
 -1     12201 1.68004E-04 6.89029E-05-2.24765E-05
 -1     12202 1.56451E-04 5.29356E-05-2.28186E-05
 -1     12203 1.53187E-04 9.89958E-05-1.21789E-05
 -1     12204 1.22834E-04 5.70654E-06-5.30048E-06
 -1     12205 1.61229E-04 8.55327E-05-1.10670E-05
 -1     12206 1.60075E-04 1.53852E-05-3.23704E-05
 -1     12207 1.60445E-04 1.93808E-05-3.17414E-05
 -1     12208 7.90930E-05 4.96749E-05-3.68781E-06
 -1     12209 1.39169E-04 1.85701E-05-3.59755E-05
 -1     12210 1.39497E-04 1.18239E-04-1.92700E-05
 -1     12211 1.38632E-04 1.19771E-04-1.76692E-05
 -1     12212 1.79124E-04 1.74568E-04-2.65040E-05
 -1     12213 1.10682E-04 1.50623E-04-2.52354E-05
 -1     12214 1.61936E-04 1.69155E-05-3.43323E-05
 -1     12215 5.18924E-05-3.08129E-06-1.37434E-05
 -1     12216 1.58139E-04 3.32502E-05-4.09743E-05
 -1     12217 1.55229E-04 3.14389E-05-2.28495E-05
 -1     12218 1.56933E-04 1.77191E-05-2.31466E-05
 -1     12219 1.18081E-04 1.43317E-06-6.34078E-05
 -1     12220 1.56804E-04 3.16156E-05-3.42753E-05
 -1     12221 9.76023E-05 4.33435E-05-1.09737E-05
 -1     12222 1.72611E-04 1.89288E-04-3.22830E-05
 -1     12223 1.75158E-04 2.03796E-04-3.05929E-05
 -1     12224 1.56843E-04 3.36185E-06-7.24763E-06
 -1     12225 1.52011E-04 7.27971E-06-6.74815E-05
 -1     12226 1.31023E-04 9.41433E-04-4.16675E-06
 -1     12227 1.25935E-04 8.40669E-04-3.45333E-06
 -1     12228 1.95821E-04 4.29799E-04-3.12337E-06
 -1     12229 1.82204E-04 2.68135E-04-5.50088E-06
 -1     12230 1.28426E-04 2.83586E-06-2.38681E-05
 -1     12231 1.25797E-04 2.58779E-06-2.33710E-05
 -1     12232 1.11444E-04 3.56094E-05-6.07776E-05
 -1     12233 1.66328E-04 3.79314E-05-2.74638E-06
 -1     12234 1.32302E-04 3.42387E-06-2.01353E-05
 -1     12235 1.31263E-04 3.06242E-06-2.36468E-05
 -1     12236 1.30154E-04 2.94930E-06-2.47927E-05
 -1     12237 1.56562E-04 7.14920E-05-4.50482E-06
 -1     12238 1.61342E-04 6.64561E-05-4.82754E-06
 -1     12239 1.56486E-04 3.39390E-05-1.11805E-06
 -1     12240 1.69153E-04 8.46394E-05-3.78376E-05
 -1     12241 7.93030E-05 9.93772E-06-3.86895E-05
 -1     12242 6.10684E-05 1.25611E-03-1.62005E-06
 -1     12243 1.55796E-04 1.31323E-03-2.62260E-07
 -1     12244 5.37456E-05 1.19430E-03-1.41449E-06
 -1     12245 1.52576E-04 1.25341E-03-3.69439E-07
 -1     12246 1.16093E-05 1.55880E-05-4.93781E-06
 -1     12247 1.52533E-04 3.48232E-06-1.73070E-06
 -1     12248-1.22286E-05-4.71154E-05 3.90403E-06
 -1     12249-3.70235E-05-6.74637E-05 5.40164E-06
 -1     12250-4.85852E-06-3.12677E-05 2.37000E-06
 -1     12251 9.87317E-05 1.30598E-03-2.78119E-07
 -1     12252 1.58205E-04 1.38112E-04-4.91115E-06
 -1     12253 1.45404E-04 1.15362E-04-5.86246E-06
 -1     12254 1.59757E-04 1.17689E-04-4.04959E-06
 -1     12255 1.53686E-04 1.89589E-05-4.25478E-05
 -1     12256 1.56892E-04 1.42036E-05-4.36112E-05
 -1     12257 2.65081E-05 7.50784E-06-3.19039E-06
 -1     12258 1.65783E-04 1.07466E-05-4.77648E-07
 -1     12259 1.65839E-04 1.58930E-05-6.81123E-07
 -1     12260 1.66163E-04 1.00603E-05-6.68869E-07
 -1     12261 1.53787E-04 9.95483E-06-4.36171E-05
 -1     12262 1.57518E-04 9.71307E-06-4.36691E-05
 -1     12263 1.20198E-04 1.38653E-04-3.78437E-05
 -1     12264 1.56261E-04 2.77751E-06-6.85325E-05
 -1     12265 1.58663E-04 3.39358E-06-6.87127E-05
 -1     12266 1.59921E-04 2.98996E-06-6.69362E-05
 -1     12267 1.31733E-04 1.91561E-04-3.95743E-05
 -1     12268 1.39553E-04 1.74385E-04-4.36498E-05
 -1     12269-3.98517E-04 1.93268E-04 4.19826E-06
 -1     12270-4.07392E-04 2.45131E-04 8.44203E-06
 -1     12271-4.16603E-04 2.87571E-04 4.16238E-06
 -1     12272 6.32198E-05 4.36541E-05-4.19745E-05
 -1     12273 1.22146E-04 5.50173E-06-2.17371E-05
 -1     12274 6.97639E-05 2.26815E-05-4.24934E-06
 -1     12275-3.62748E-04 3.09269E-04 8.29167E-06
 -1     12276-4.16154E-04 2.81326E-04 1.27174E-05
 -1     12277-3.63213E-04 3.15246E-04 2.67700E-06
 -1     12278 1.71661E-04 8.06989E-05-2.67809E-05
 -1     12279 1.36308E-04 3.66671E-05-8.84780E-06
 -1     12280 1.26749E-04 5.57600E-05-9.20556E-06
 -1     12281 1.33080E-04 2.08067E-04-2.18618E-05
 -1     12282 1.37072E-04 1.75140E-04-2.54236E-05
 -1     12283 1.61663E-04 9.29486E-06-3.41927E-05
 -1     12284 1.47166E-04 4.51126E-05-3.37415E-06
 -1     12285 1.65486E-04 3.69168E-06-2.42933E-05
 -1     12286 1.64132E-04 3.26419E-06-2.41965E-05
 -1     12287 1.48284E-04 2.30178E-05-1.14070E-05
 -1     12288 1.49837E-04 2.23125E-05-1.03863E-05
 -1     12289 1.53030E-04 1.87515E-05-1.09185E-05
 -1     12290 1.75102E-04 1.33709E-04-4.25214E-05
 -1     12291 1.59025E-04 2.34463E-04-3.43611E-06
 -1     12292-3.98402E-04 1.87191E-04 1.30148E-05
 -1     12293 1.72028E-04 1.04900E-04-2.86773E-05
 -1     12294 1.61751E-04 1.03616E-04-2.72488E-05
 -1     12295 1.35328E-04 1.35769E-06-7.50469E-05
 -1     12296 1.33241E-04 3.65831E-06-7.40710E-05
 -1     12297 1.11982E-04 3.89881E-04-3.22714E-06
 -1     12298 1.01988E-04 4.47534E-04-2.89640E-06
 -1     12299 1.56884E-04 1.30984E-05-3.92720E-05
 -1     12300 1.54415E-04 1.26427E-05-3.82195E-05
 -1     12301 1.42882E-04 2.28191E-05-1.03943E-05
 -1     12302 1.58921E-04 9.96602E-06-7.65935E-06
 -1     12303 1.57709E-04 3.61417E-06-7.68523E-06
 -1     12304 1.20814E-04 3.46406E-06-4.55452E-06
 -1     12305 1.61239E-04 8.11164E-05-1.01787E-06
 -1     12306 1.77364E-04 9.53962E-05-8.51917E-07
 -1     12307 1.64329E-04 1.05905E-04-1.30227E-06
 -1     12308-5.52235E-06 2.03234E-04-1.17456E-05
 -1     12309 8.50876E-06 1.76001E-04-1.01892E-05
 -1     12310 1.13643E-04 8.25391E-05-5.27326E-05
 -1     12311 1.63309E-04 2.78998E-05-7.95803E-05
 -1     12312 1.61837E-04 8.84147E-06-4.69857E-05
 -1     12313 1.67702E-04 4.19398E-05-7.59465E-05
 -1     12314 1.57207E-04 2.92564E-05-7.95723E-05
 -1     12315 1.43005E-04 1.54601E-05-4.55427E-05
 -1     12316 1.61977E-04 3.38038E-06-6.52166E-05
 -1     12317 1.63243E-04 3.89906E-06-6.52085E-05
 -1     12318 1.61130E-04 2.68504E-06-3.23999E-05
 -1     12319 1.59844E-04 2.49229E-06-3.18538E-05
 -1     12320 1.62548E-04 2.94835E-06-3.17729E-05
 -1     12321 1.52563E-04 1.74890E-05-2.74533E-05
 -1     12322 1.52437E-04 3.77674E-06-5.21106E-06
 -1     12323 1.22512E-04 3.38183E-05-3.13546E-05
 -1     12324 1.54258E-04 2.00054E-05-2.48108E-05
 -1     12325 1.54116E-04 2.11456E-05-2.39852E-05
 -1     12326 1.43498E-04 8.73727E-06-3.57506E-06
 -1     12327 1.59934E-04 3.03088E-05-3.32169E-05
 -1     12328 1.61546E-04 3.62186E-05-3.26755E-05
 -1     12329 1.59234E-04 1.73432E-05-2.40829E-05
 -1     12330 6.55092E-05 1.06804E-04-3.57940E-06
 -1     12331 5.08672E-05 9.11551E-05-3.80073E-06
 -1     12332 1.57756E-04 7.65239E-06-6.21783E-05
 -1     12333 6.05289E-05 8.25471E-05-6.54667E-06
 -1     12334 1.54731E-04 8.32954E-05-5.60535E-06
 -1     12335 1.72729E-04 9.30568E-05-3.44975E-05
 -1     12336 1.52721E-04 2.35257E-05-1.39190E-05
 -1     12337 1.55596E-04 3.67709E-06-2.89431E-05
 -1     12338 1.45241E-04 1.99261E-05-9.76671E-06
 -1     12339-2.05808E-04 6.60221E-04-3.67750E-06
 -1     12340-2.25246E-04 6.04521E-04-3.38832E-06
 -1     12341 1.30894E-04 2.04887E-04-2.76366E-06
 -1     12342 1.45357E-04 1.71768E-05-7.87309E-05
 -1     12343 1.48293E-04 9.22214E-06-8.08531E-05
 -1     12344 1.75736E-04 6.55225E-05-4.78230E-05
 -1     12345 1.66023E-04 6.85031E-06-8.29839E-06
 -1     12346 1.38065E-04 1.30666E-05-3.66884E-05
 -1     12347 1.34142E-04 1.57564E-05-3.77912E-05
 -1     12348 1.31657E-04 2.24174E-05-3.66402E-05
 -1     12349 1.61835E-04 1.68401E-05-3.35937E-05
 -1     12350 9.52836E-05 1.04085E-04-1.88417E-05
 -1     12351 1.51620E-04 1.47867E-05-1.44092E-05
 -1     12352 1.29916E-04 3.23894E-06-6.73553E-05
 -1     12353 1.31028E-04 3.22238E-06-6.92208E-05
 -1     12354 1.29714E-04 6.24899E-06-6.98237E-05
 -1     12355 1.19109E-04 5.83842E-05-6.50347E-05
 -1     12356 1.09021E-04 5.86207E-05-6.35598E-05
 -1     12357 1.69604E-04 1.33353E-04-2.76203E-05
 -1     12358 1.61441E-04 1.14388E-05-2.33780E-05
 -1     12359 1.08618E-04 3.09640E-05-6.19455E-05
 -1     12360 1.63615E-04 2.94718E-06-4.30674E-05
 -1     12361 8.22470E-05 1.28188E-04-2.09751E-05
 -1     12362 1.66515E-04 4.59726E-05-6.52245E-05
 -1     12363 1.79214E-04 1.70870E-04-1.43482E-06
 -1     12364 1.74361E-04 1.57265E-04-3.64730E-06
 -1     12365 1.49394E-04 4.58271E-05-3.04852E-05
 -1     12366 1.59556E-04 3.27457E-05-2.94375E-05
 -1     12367 1.58986E-04 1.47520E-05-2.95506E-05
 -1     12368 1.56232E-04 2.37853E-05-2.92774E-05
 -1     12369 1.56847E-04 1.59024E-05-3.03534E-05
 -1     12370 1.60148E-04 4.45933E-05-5.56319E-05
 -1     12371 1.54844E-04 3.17727E-05-2.99230E-05
 -1     12372 1.53925E-04 3.21920E-05-3.09679E-05
 -1     12373 1.56684E-04 2.47719E-05-3.05431E-05
 -1     12374 8.98188E-05 5.46655E-05-7.14786E-06
 -1     12375 1.60125E-04 2.94167E-05-6.15035E-05
 -1     12376 9.27327E-05 1.33723E-04-8.96997E-06
 -1     12377 1.48074E-04 2.04661E-05-7.67590E-05
 -1     12378 1.48822E-04 1.15068E-05-8.20586E-05
 -1     12379 1.37834E-04 1.49138E-05-3.51630E-05
 -1     12380 1.49044E-04 8.47160E-05-2.87486E-05
 -1     12381 1.59050E-04 5.45855E-05-1.52961E-05
 -1     12382 6.68322E-05 1.05321E-04-4.64521E-05
 -1     12383 1.59892E-04 2.50321E-05-6.62134E-05
 -1     12384 1.54557E-04 7.98336E-06-2.84496E-05
 -1     12385 1.56231E-04 1.17862E-05-6.44388E-05
 -1     12386 1.50858E-04 2.69141E-05-1.20061E-05
 -1     12387 1.52141E-04 2.09017E-05-1.17206E-05
 -1     12388 1.66420E-04 5.23523E-05-6.11150E-05
 -1     12389 1.42336E-04 3.33253E-05-6.83024E-05
 -1     12390 1.51384E-04 1.70632E-05-7.12002E-05
 -1     12391 1.57358E-04 2.17556E-05-2.57814E-05
 -1     12392 1.59497E-04 1.32595E-05-2.56118E-05
 -1     12393 1.47114E-04 4.39788E-05-6.56351E-05
 -1     12394 7.87205E-05 1.20300E-04-3.62892E-06
 -1     12395 4.21847E-05 1.62481E-06-4.18872E-06
 -1     12396 4.61219E-05 6.39484E-06-3.71733E-06
 -1     12397-3.90562E-04 1.63144E-04 8.28342E-06
 -1     12398 1.52102E-04 3.39294E-06-1.27943E-06
 -1     12399 1.54080E-04 3.71617E-06-1.40185E-06
 -1     12400 1.59168E-04 1.15345E-04-4.86703E-05
 -1     12401 1.50874E-04 3.23901E-05-1.68433E-05
 -1     12402 1.52695E-04 4.47966E-05-1.63599E-05
 -1     12403 1.55907E-04 8.57440E-06-4.20978E-05
 -1     12404 8.30261E-05 1.42030E-05-4.49049E-05
 -1     12405 1.53065E-04 3.03698E-06-1.72242E-05
 -1     12406 1.62197E-04 6.29165E-05-2.09187E-05
 -1     12407 8.47520E-05 2.07762E-05-3.74877E-05
 -1     12408 9.34753E-05 2.13984E-05-4.37501E-05
 -1     12409 8.37856E-05 3.15607E-05-4.19131E-05
 -1     12410 8.22294E-05 1.43147E-04-3.56019E-05
 -1     12411 1.56232E-04 2.09657E-05-7.55505E-05
 -1     12412 1.71722E-04 1.07592E-04-5.15390E-05
 -1     12413 1.53542E-04 1.03256E-04-5.17053E-05
 -1     12414 1.37497E-04 2.83537E-05-1.12013E-05
 -1     12415 1.60215E-04 2.81275E-06-7.45334E-05
 -1     12416-3.25418E-04 1.53423E-04 7.53729E-06
 -1     12417 1.68839E-04 4.24398E-05-4.61917E-05
 -1     12418-2.00325E-04 1.31659E-03-2.14441E-06
 -1     12419 7.37467E-05 1.57983E-05-4.58976E-05
 -1     12420 1.75175E-04 1.47162E-04-6.86326E-06
 -1     12421 1.73136E-04 1.36571E-04-6.69633E-06
 -1     12422 1.60209E-04 1.27935E-04-3.98182E-05
 -1     12423 1.54093E-04 6.62431E-06-1.12322E-05
 -1     12424 1.53074E-04 2.50824E-05-1.62018E-05
 -1     12425 1.52968E-04 1.44888E-05-1.70202E-05
 -1     12426 1.56629E-04 3.09819E-06-3.25155E-05
 -1     12427 1.53011E-04 3.07558E-06-1.16694E-05
 -1     12428 1.68009E-04 3.41779E-05-4.00815E-07
 -1     12429 1.41291E-04 3.68032E-06-3.50061E-06
 -1     12430 8.15744E-05 1.66549E-05-3.32145E-05
 -1     12431 8.25332E-05 2.37484E-05-2.94771E-05
 -1     12432 1.69818E-04 2.80973E-05-2.94044E-05
 -1     12433 1.70055E-04 1.09321E-04-2.52166E-05
 -1     12434 1.74375E-04 9.50003E-05-2.50390E-05
 -1     12435 1.59606E-04 1.05547E-04-2.54684E-05
 -1     12436 1.74562E-04 9.55296E-05-2.58330E-05
 -1     12437 1.70075E-04 3.91837E-05-6.66748E-05
 -1     12438 1.53193E-04 1.34350E-05-7.82434E-06
 -1     12439 1.57402E-04 7.83527E-05-3.37767E-06
 -1     12440 1.45465E-04 1.24392E-06-8.11270E-05
 -1     12441 1.47552E-04 1.35355E-06-8.22847E-05
 -1     12442 1.43409E-04 3.20867E-06-7.97183E-05
 -1     12443 1.48207E-04 2.36181E-05-1.42374E-05
 -1     12444 1.29552E-04 3.18373E-05-3.16011E-05
 -1     12445 1.24854E-04 2.70000E-05-3.26951E-05
 -1     12446 1.51183E-04 3.51687E-06-4.89338E-06
 -1     12447 9.66668E-05 4.20584E-07-4.73392E-05
 -1     12448 9.60598E-05 1.51480E-06-4.70893E-05
 -1     12449 7.23412E-05 2.45228E-05-4.39750E-05
 -1     12450 1.56481E-04 2.21971E-05-5.91988E-05
 -1     12451 1.51691E-04 1.79950E-06-4.41475E-07
 -1     12452 1.49542E-04 1.65309E-06-5.65575E-07
 -1     12453 1.46827E-04 4.64667E-06-9.34691E-07
 -1     12454 1.52463E-04 2.98923E-06-1.05881E-05
 -1     12455 1.03881E-04 1.57063E-04-3.45703E-05
 -1     12456 1.22431E-04 1.83914E-04-3.33180E-05
 -1     12457 1.44238E-04 4.05680E-04-3.24354E-06
 -1     12458 1.62296E-04 1.32189E-05-8.11727E-05
 -1     12459 1.55209E-04 1.85314E-05-2.84463E-05
 -1     12460 1.52207E-04 2.55089E-05-2.85341E-05
 -1     12461 1.65842E-04 5.92768E-05-7.09444E-05
 -1     12462 1.53588E-04 5.41372E-05-7.13341E-05
 -1     12463-1.72662E-04 6.43264E-04-4.09116E-06
 -1     12464 9.54560E-05 6.20017E-05-2.33128E-06
 -1     12465 1.20528E-04 3.85191E-06-2.43502E-05
 -1     12466 1.20301E-04 3.82251E-06-2.27924E-05
 -1     12467 1.59016E-04 1.28384E-05-3.78748E-05
 -1     12468 1.32413E-04 9.34094E-04-1.15357E-06
 -1     12469 1.56501E-04 9.80448E-06-3.19218E-05
 -1     12470 1.27011E-04 1.11088E-04-2.00286E-05
 -1     12471 1.73597E-04 1.12871E-04-2.81881E-05
 -1     12472 1.55161E-04 1.94393E-05-4.59182E-05
 -1     12473 1.55493E-04 6.11076E-06-3.21240E-05
 -1     12474 1.58832E-04 2.30860E-06-3.14262E-05
 -1     12475 1.37016E-04 9.08258E-06-7.62251E-05
 -1     12476 1.39710E-04 5.37384E-06-7.83700E-05
 -1     12477 9.51267E-05 2.14120E-05-3.23245E-05
 -1     12478 1.70726E-04 7.53017E-05-4.70288E-05
 -1     12479 1.62690E-04 6.85286E-05-4.71623E-05
 -1     12480 1.68444E-04 3.57091E-05-1.94409E-05
 -1     12481 8.81476E-05 1.01751E-04-2.23234E-05
 -1     12482 9.02533E-05 8.89412E-05-2.30261E-06
 -1     12483 1.74557E-04 1.43887E-04-6.00151E-06
 -1     12484 1.75993E-04 2.10203E-04-1.79933E-05
 -1     12485 1.53090E-04 2.02854E-05-6.12396E-05
 -1     12486 1.08308E-04 7.85323E-05-5.94394E-05
 -1     12487 1.49974E-04 4.41528E-05-6.75569E-05
 -1     12488 1.54703E-04 3.66463E-05-6.70575E-05
 -1     12489 1.30529E-04 2.19203E-05-3.49836E-05
 -1     12490 4.22737E-05-7.29127E-06-1.38504E-05
 -1     12491 1.67003E-04 5.02318E-04-7.41847E-06
 -1     12492 1.75110E-04 4.88024E-04-1.11087E-05
 -1     12493 7.85219E-05 3.25775E-05-5.21839E-05
 -1     12494 8.63608E-05 3.57825E-05-5.71040E-05
 -1     12495 1.24925E-04 2.07942E-05-6.63010E-05
 -1     12496 1.38715E-04 1.27048E-06-7.68992E-05
 -1     12497 1.36458E-04 3.97365E-06-7.58046E-05
 -1     12498 6.91482E-05 3.05383E-05-4.29075E-06
 -1     12499 1.69140E-04 8.67878E-05-6.26738E-05
 -1     12500 1.71515E-04 6.47672E-05-3.59066E-05
 -1     12501 1.72966E-04 7.24810E-05-3.53200E-05
 -1     12502 1.17460E-04 2.94209E-05-6.60565E-05
 -1     12503-3.30900E-04 1.02598E-03 4.86189E-07
 -1     12504 1.52620E-04 1.88789E-05-9.82116E-06
 -1     12505 6.41701E-05 4.68259E-05-4.84876E-05
 -1     12506 1.45571E-04 3.25944E-06-2.25141E-05
 -1     12507 1.52227E-04 3.71685E-05-1.18624E-05
 -1     12508 1.44887E-04 2.21823E-05-1.30001E-05
 -1     12509 1.46919E-04 2.17150E-05-1.24461E-05
 -1     12510 1.78591E-04 1.72450E-04-2.51679E-05
 -1     12511 1.58622E-04 1.60995E-04-2.55738E-05
 -1     12512 1.77838E-04 1.68878E-04-2.39414E-05
 -1     12513 5.22208E-05-3.09784E-06-1.81340E-05
 -1     12514 7.61833E-05 3.06571E-05-3.22523E-05
 -1     12515 1.59954E-04 2.79831E-05-1.24540E-05
 -1     12516 1.75913E-04 1.03046E-04-2.61859E-05
 -1     12517 1.67486E-04 4.56276E-05-5.67386E-05
 -1     12518 1.65660E-04 2.84265E-05-1.57640E-05
 -1     12519 1.51447E-04 2.87135E-06-1.11707E-05
 -1     12520 1.18644E-04 1.00861E-03-5.37124E-06
 -1     12521 1.30471E-04 9.41135E-04-6.42255E-06
 -1     12522 1.66565E-04 1.43842E-05-4.43351E-05
 -1     12523 1.62875E-04 8.76365E-05-3.46733E-05
 -1     12524 1.40086E-04 2.03841E-06-9.85495E-07
 -1     12525 1.73967E-04 1.98223E-04-2.08038E-05
 -1     12526 1.73427E-04 1.96122E-04-1.95327E-05
 -1     12527-4.48363E-04 3.38751E-04 1.36726E-05
 -1     12528 1.46822E-04 7.05805E-05-1.01379E-06
 -1     12529 1.47345E-04 5.29069E-05-2.19487E-06
 -1     12530 1.48401E-04 8.05317E-05-2.87386E-06
 -1     12531 1.70434E-04 3.40073E-05-3.46450E-05
 -1     12532 1.63379E-04 2.77097E-05-3.43731E-05
 -1     12533 1.66981E-04 3.38916E-05-4.61175E-05
 -1     12534 1.60938E-04 2.63221E-05-4.62658E-05
 -1     12535 1.57102E-04 2.22458E-05-3.00931E-05
 -1     12536 1.51301E-04 1.03805E-04-4.63614E-06
 -1     12537 1.92811E-04 3.91416E-04-3.49476E-06
 -1     12538 1.68856E-04 8.05127E-05-6.52419E-05
 -1     12539 1.67747E-04 7.21538E-05-6.74370E-05
 -1     12540 1.59343E-04 8.18160E-05-6.43216E-05
 -1     12541 1.26064E-04 1.13723E-06-6.92187E-05
 -1     12542 1.71284E-04 1.59692E-04-8.81598E-06
 -1     12543 1.73016E-04 1.50356E-04-4.50829E-06
 -1     12544 1.23073E-04 2.14410E-06-1.48059E-06
 -1     12545 1.21852E-04 5.04525E-06-1.51755E-06
 -1     12546 1.67766E-04 3.35513E-06-4.97039E-07
 -1     12547 1.66491E-04 2.54914E-06-2.07489E-07
 -1     12548 1.68437E-04 3.30386E-06-1.31952E-07
 -1     12549-4.49061E-04 3.44932E-04 4.39867E-06
 -1     12550-4.63732E-04 6.42784E-04 6.17031E-06
 -1     12551-3.69548E-04 6.14387E-04 2.27177E-06
 -1     12552-3.70910E-04 6.18747E-04 8.26098E-07
 -1     12553-4.65251E-04 6.47282E-04 2.03167E-06
 -1     12554 1.45184E-04 1.65260E-05-1.25550E-05
 -1     12555 1.38243E-04 2.75083E-06-1.75548E-05
 -1     12556 1.41983E-04 3.12703E-06-1.74665E-05
 -1     12557 1.70716E-04 4.62340E-05-1.95148E-05
 -1     12558 1.73012E-04 5.75430E-05-1.96818E-05
 -1     12559 8.96506E-05 2.55625E-05-2.80102E-05
 -1     12560 1.55787E-04 3.60747E-05-5.50232E-05
 -1     12561 1.47648E-04 7.39872E-05-3.97177E-06
 -1     12562 1.62442E-04 2.92682E-06-8.61267E-05
 -1     12563 1.62372E-04 2.58261E-06-8.75376E-05
 -1     12564 1.61032E-04 2.00362E-06-8.70319E-05
 -1     12565 8.18070E-05 1.20360E-04-4.01800E-05
 -1     12566 1.53028E-04 2.21058E-05-6.56135E-05
 -1     12567 1.43992E-04 1.77890E-06-9.86559E-07
 -1     12568 1.43616E-04 4.55749E-06-9.42818E-07
 -1     12569 1.58736E-04 1.30837E-05-5.21487E-05
 -1     12570 6.83578E-05 8.42040E-05-2.65032E-06
 -1     12571 1.66063E-04 2.45328E-05-6.13708E-05
 -1     12572 1.51886E-04 2.85583E-05-2.62048E-05
 -1     12573 1.53983E-04 1.42674E-05-2.69115E-05
 -1     12574 1.44446E-04 1.98839E-05-1.17765E-05
 -1     12575 1.30552E-04 2.89971E-06-4.13213E-05
 -1     12576 1.27651E-04 2.70313E-06-4.01527E-05
 -1     12577 9.41431E-05 1.68237E-05-2.88631E-05
 -1     12578 5.32918E-05-4.74263E-06-1.68641E-05
 -1     12579 1.34571E-04 1.58460E-05-3.35353E-05
 -1     12580 1.54377E-04 1.10054E-05-2.74944E-05
 -1     12581 1.73347E-04 1.71397E-04-2.19939E-05
 -1     12582 9.45841E-05 8.29742E-05-2.52510E-05
 -1     12583 8.84857E-05 1.05724E-04-2.60226E-05
 -1     12584 1.74952E-04 8.22484E-05-3.51969E-05
 -1     12585 1.74612E-04 5.01124E-05-4.12961E-07
 -1     12586 1.62319E-04 3.55821E-05-2.69882E-07
 -1     12587 1.60599E-04 4.84949E-05-3.34998E-07
 -1     12588 9.49610E-05 9.53938E-05-5.44862E-05
 -1     12589 7.79792E-05 6.54289E-05-2.74550E-06
 -1     12590 9.23308E-05 6.12516E-05-5.09172E-06
 -1     12591 1.55764E-04 2.33263E-05-3.35402E-05
 -1     12592 1.84963E-04 2.34169E-04-2.39950E-06
 -1     12593 8.06181E-05 1.85526E-04-3.12506E-06
 -1     12594 1.65035E-04 2.68004E-05-5.52257E-06
 -1     12595 1.72869E-04 2.78696E-04-2.79081E-05
 -1     12596 1.62381E-04 2.31498E-06-3.56932E-05
 -1     12597 8.12242E-05 7.56494E-05-2.75318E-06
 -1     12598 8.95845E-05 6.19771E-05-2.81811E-06
 -1     12599 1.56480E-04 1.27472E-05-3.10042E-05
 -1     12600 1.56224E-04 2.61130E-06-1.68102E-05
 -1     12601 1.75153E-04 1.20518E-04-2.83094E-05
 -1     12602 1.76106E-04 1.25876E-04-2.73120E-05
 -1     12603-2.21631E-04 6.80712E-04-2.52265E-06
 -1     12604-2.39264E-04 7.12057E-04-8.17473E-07
 -1     12605 1.73849E-04 1.14343E-04-2.72843E-05
 -1     12606 1.72158E-04 3.97516E-05-4.76736E-05
 -1     12607 1.71682E-04 5.38412E-05-4.68641E-05
 -1     12608 1.64122E-04 5.00583E-05-4.68712E-05
 -1     12609 1.71984E-04 5.51290E-05-4.63616E-05
 -1     12610 1.53546E-04 2.69656E-05-1.00689E-05
 -1     12611 1.74752E-04 9.25050E-05-1.09207E-05
 -1     12612 1.28966E-04 7.87700E-06-6.62638E-05
 -1     12613 1.55117E-04 1.20230E-05-6.24855E-05
 -1     12614 1.80358E-04 2.77895E-04-2.98854E-05
 -1     12615 1.84342E-04 3.05634E-04-2.70796E-05
 -1     12616 1.60570E-04 1.66477E-05-6.25115E-05
 -1     12617 1.43741E-04 1.00067E-04-3.46974E-05
 -1     12618 1.44993E-04 8.45785E-05-3.45973E-05
 -1     12619 1.45342E-04 2.24038E-06-3.63133E-06
 -1     12620 1.69978E-04 4.42622E-05-3.34502E-05
 -1     12621 1.62403E-04 4.08930E-05-3.40021E-05
 -1     12622 1.40603E-04 1.06537E-05-6.18094E-05
 -1     12623 7.15424E-05 1.29638E-04-3.91448E-05
 -1     12624 1.56870E-04 1.09243E-05-4.57678E-05
 -1     12625 1.56793E-04 2.84003E-05-2.24320E-05
 -1     12626 1.22902E-04 3.29328E-05-4.76139E-05
 -1     12627 1.30854E-04 1.96334E-06-9.25114E-07
 -1     12628 1.26771E-04 5.05179E-06-1.52280E-06
 -1     12629 1.32814E-04 5.79825E-06-7.43951E-05
 -1     12630 1.28352E-04 6.18777E-06-7.12903E-05
 -1     12631 1.26725E-04 1.10397E-05-7.18326E-05
 -1     12632 1.28569E-04 1.12913E-05-7.03269E-05
 -1     12633 1.71153E-04 4.33334E-05-5.09706E-05
 -1     12634 1.44515E-04 7.90881E-05-5.76357E-05
 -1     12635 1.72936E-04 1.62050E-04-4.68938E-05
 -1     12636 1.41325E-04 7.10334E-06-1.68932E-05
 -1     12637 1.16363E-04 6.46844E-06-2.11262E-05
 -1     12638 1.75345E-04 1.35168E-04-4.11175E-05
 -1     12639 1.60960E-04 1.36633E-04-4.22609E-05
 -1     12640 1.71728E-04 1.08564E-04-5.25172E-05
 -1     12641 8.33235E-05 8.34256E-06-3.46542E-05
 -1     12642-5.41212E-05 1.28252E-03-1.89917E-06
 -1     12643-2.32083E-05 1.27168E-03-2.88216E-06
 -1     12644-8.89662E-06 1.25670E-03-2.09075E-06
 -1     12645 1.61126E-04 3.69708E-05-4.66468E-05
 -1     12646 1.53048E-04 2.49798E-05-1.90577E-05
 -1     12647 1.56418E-04 4.28122E-05-1.88592E-05
 -1     12648 1.78424E-04 2.24591E-04-1.60780E-05
 -1     12649 1.51580E-04 3.87854E-05-3.89400E-06
 -1     12650 1.02555E-04 6.33758E-07-5.19196E-05
 -1     12651 1.50057E-04 7.96764E-05-1.45854E-05
 -1     12652 1.51008E-04 1.57382E-05-4.86265E-05
 -1     12653 1.66680E-04 5.43285E-05-1.89615E-05
 -1     12654 1.55324E-04 2.19131E-05-5.20727E-05
 -1     12655 1.68682E-04 4.23360E-05-6.90904E-05
 -1     12656 1.69528E-04 8.61151E-05-3.87860E-05
 -1     12657 9.50130E-05 4.78233E-05-4.20491E-05
 -1     12658 1.05949E-04 4.49662E-05-4.63851E-05
 -1     12659 9.96322E-05 4.22246E-05-4.50807E-05
 -1     12660 1.53791E-04 1.98171E-06-5.92626E-07
 -1     12661 1.50203E-04 5.75287E-06-8.30461E-07
 -1     12662 1.49349E-04 1.80177E-05-1.22127E-05
 -1     12663 1.69420E-04 3.29436E-05-6.12592E-05
 -1     12664 1.67417E-04 1.79499E-05-3.10158E-05
 -1     12665 9.01837E-05 1.57141E-06-2.32348E-06
 -1     12666 1.67654E-04 1.60855E-05-3.19705E-05
 -1     12667 1.60146E-04 1.09831E-05-6.39628E-05
 -1     12668 1.57390E-04 2.22713E-05-4.03623E-05
 -1     12669 1.54608E-04 2.12931E-05-4.14363E-05
 -1     12670-4.67078E-04 5.75308E-04 8.16648E-06
 -1     12671 1.73229E-04 6.09554E-05-4.67070E-05
 -1     12672 1.58918E-04 2.62792E-04-3.18742E-06
 -1     12673 1.64531E-04 4.39098E-06-2.82456E-05
 -1     12674 1.24688E-04 2.95935E-05-3.66147E-05
 -1     12675 1.58291E-04 6.05716E-05-1.58635E-05
 -1     12676 1.51558E-04 2.86226E-06-1.67749E-05
 -1     12677 1.74439E-04 7.76533E-05-4.57814E-07
 -1     12678 1.58094E-04 6.78360E-05-9.74206E-07
 -1     12679 1.57574E-04 1.53835E-05-9.06919E-07
 -1     12680 1.57108E-04 2.80302E-05-3.15479E-05
 -1     12681 1.68759E-04 3.67238E-05-1.92143E-05
 -1     12682 1.62362E-04 4.09624E-05-1.90084E-05
 -1     12683 1.47428E-04 6.54041E-04-1.88088E-06
 -1     12684 1.27999E-04 1.81810E-06-1.49172E-06
 -1     12685 1.73880E-04 1.06815E-04-8.62950E-07
 -1     12686 1.62168E-04 1.16358E-04-1.29773E-06
 -1     12687 1.52214E-04 3.74811E-06-7.03091E-05
 -1     12688 1.57213E-04 1.69986E-04-2.25611E-05
 -1     12689 1.80140E-04 1.81380E-04-2.37635E-05
 -1     12690 1.54557E-04 1.35292E-05-4.24962E-05
 -1     12691 1.56213E-04 1.49333E-05-2.11549E-05
 -1     12692 1.66896E-04 3.82298E-05-2.98464E-05
 -1     12693 1.54511E-04 2.86293E-05-5.64261E-05
 -1     12694 1.55131E-04 2.16727E-05-5.83445E-05
 -1     12695 1.57801E-04 3.61148E-05-5.72125E-05
 -1     12696 1.60085E-04 9.19302E-06-4.29585E-05
 -1     12697 1.61074E-04 8.79695E-05-3.36962E-06
 -1     12698 1.51536E-04 8.78685E-05-4.27257E-06
 -1     12699 1.68011E-04 5.97180E-05-1.52681E-05
 -1     12700 1.53829E-04 5.62360E-05-1.79665E-06
 -1     12701-1.73568E-04 1.85387E-04-6.40583E-06
 -1     12702-4.68471E-04 5.80188E-04 2.56538E-06
 -1     12703 8.11112E-05 2.71474E-05-4.46591E-05
 -1     12704 1.76545E-04 8.98898E-05-4.58104E-07
 -1     12705 1.58180E-04 2.98090E-04-2.73497E-06
 -1     12706 1.73946E-04 1.19706E-04-2.10678E-06
 -1     12707 1.35607E-04 1.04431E-03-4.53815E-06
 -1     12708 1.68872E-04 3.93750E-05-3.31751E-05
 -1     12709 1.68772E-04 3.81238E-05-3.28919E-05
 -1     12710 1.55974E-04 4.08113E-05-4.67479E-05
 -1     12711 1.53761E-04 2.99052E-05-4.59776E-05
 -1     12712 1.58658E-04 2.76343E-05-4.66920E-05
 -1     12713 8.04702E-05 9.43455E-05-2.67796E-06
 -1     12714-3.81711E-04 1.33090E-04 3.89998E-06
 -1     12715 1.66158E-04 3.45482E-06-3.51100E-05
 -1     12716-3.81748E-04 1.27615E-04 1.21358E-05
 -1     12717 1.50019E-04 2.43984E-05-4.85053E-06
 -1     12718 1.51104E-04 3.16484E-05-4.93840E-06
 -1     12719 1.57233E-04 1.31002E-05-6.30225E-05
 -1     12720 1.62166E-04 1.26318E-05-6.33121E-05
 -1     12721 1.61826E-04 6.22884E-06-4.34209E-05
 -1     12722 1.56238E-04 1.44694E-05-6.09619E-05
 -1     12723 1.77319E-04 1.45414E-04-4.27088E-05
 -1     12724 7.93245E-06 1.19816E-03-9.82926E-07
 -1     12725 4.94146E-05 1.30700E-03-5.78508E-07
 -1     12726 1.56423E-04 2.78147E-05-1.97870E-05
 -1     12727 1.22221E-04 1.66872E-05-7.06303E-05
 -1     12728 1.46295E-04 2.85050E-06-1.12195E-05
 -1     12729 6.14633E-05 7.16125E-05-2.62589E-06
 -1     12730 8.86354E-05 1.10939E-05-3.63168E-05
 -1     12731 8.70054E-05 8.71574E-05-5.10125E-06
 -1     12732 1.57190E-04 7.05393E-05-6.71396E-05
 -1     12733 1.60355E-04 1.36294E-05-5.87361E-05
 -1     12734 1.53047E-04 1.28313E-05-2.81231E-05
 -1     12735 1.60121E-04 1.98844E-05-3.11649E-05
 -1     12736 1.40625E-04 1.22853E-06-7.85206E-05
 -1     12737 1.38715E-04 2.72326E-06-7.56700E-05
 -1     12738 1.45214E-04 5.23665E-04-9.86460E-06
 -1     12739 1.64502E-04 2.89002E-06-3.52177E-05
 -1     12740-8.73152E-06 1.21624E-03-6.83084E-06
 -1     12741-3.69379E-05 1.22878E-03-4.22253E-06
 -1     12742 9.90043E-05 4.23939E-05-6.13791E-05
 -1     12743 1.06723E-04 4.26736E-05-6.49408E-05
 -1     12744 1.61256E-04 7.68352E-06-6.13671E-05
 -1     12745 9.34109E-05 1.48279E-04-2.21615E-05
 -1     12746 9.80455E-05 1.28775E-04-2.41934E-05
 -1     12747 1.73666E-04 1.53532E-04-5.39084E-06
 -1     12748 1.65360E-04 4.82705E-06-3.12801E-05
 -1     12749 1.64034E-04 3.45421E-06-3.14566E-05
 -1     12750 1.62766E-04 3.06839E-06-3.13009E-05
 -1     12751 1.59676E-04 8.81862E-06-3.15734E-05
 -1     12752 1.55997E-04 1.44118E-05-5.74931E-05
 -1     12753 1.55634E-04 2.39998E-05-2.19914E-05
 -1     12754 1.60205E-04 1.65665E-05-3.40082E-05
 -1     12755 1.18770E-04 8.37944E-06-1.86457E-05
 -1     12756 1.57832E-04 2.38391E-05-3.97674E-05
 -1     12757 1.66121E-04 3.67638E-05-7.76829E-05
 -1     12758 1.54288E-04 1.76644E-05-2.55113E-05
 -1     12759 1.35622E-04 6.19524E-06-7.58512E-05
 -1     12760 1.60329E-04 3.36246E-06-3.63894E-05
 -1     12761 1.46943E-04 7.68975E-04-8.70161E-06
 -1     12762 4.33867E-05 8.23350E-04-3.64154E-06
 -1     12763 1.80596E-04 3.03200E-04-4.81899E-06
 -1     12764 1.50124E-04 4.55322E-05-2.94206E-05
 -1     12765 1.62287E-04 1.27991E-05-4.39519E-05
 -1     12766 1.57690E-04 1.31190E-05-2.55343E-05
 -1     12767 1.61710E-04 2.48831E-05-3.02956E-05
 -1     12768 1.59857E-04 1.02376E-04-5.17772E-06
 -1     12769 1.61236E-04 1.30887E-04-4.45626E-05
 -1     12770 1.58405E-04 7.68271E-06-6.08122E-05
 -1     12771 1.55437E-04 3.08936E-05-1.25991E-05
 -1     12772 9.08126E-05 8.36197E-04-2.48525E-06
 -1     12773 1.67819E-04 1.25313E-05-2.97444E-05
 -1     12774 1.12401E-04 2.79622E-05-6.73417E-05
 -1     12775-2.40432E-05-6.60176E-05 1.94867E-05
 -1     12776-5.43068E-05 1.28279E-03-2.84636E-06
 -1     12777-1.79793E-05 1.30655E-03-1.13822E-06
 -1     12778 1.52795E-04 3.57312E-05-7.26401E-05
 -1     12779 1.77706E-04 1.28313E-04-8.26673E-07
 -1     12780 1.75757E-04 1.17355E-04-8.11071E-07
 -1     12781 1.40508E-04 3.08703E-06-7.83381E-05
 -1     12782 8.00749E-05 4.07036E-05-5.34529E-05
 -1     12783 1.51092E-04 1.08448E-05-1.17117E-05
 -1     12784 1.71743E-04 6.79592E-05-2.09270E-05
 -1     12785 1.71244E-04 6.56460E-05-2.04472E-05
 -1     12786-1.85643E-05 1.30698E-03-3.03441E-06
 -1     12787 1.62203E-04 3.28181E-05-3.35131E-05
 -1     12788 1.43725E-04 1.74898E-04-2.35890E-05
 -1     12789 1.52565E-04 1.81119E-05-2.15890E-05
 -1     12790 1.53238E-04 1.42486E-05-7.00279E-05
 -1     12791 1.51344E-04 1.91207E-05-2.82685E-05
 -1     12792 1.46078E-04 1.90941E-06-5.65356E-07
 -1     12793 1.71536E-04 1.16144E-04-2.55515E-05
 -1     12794 1.53550E-04 1.69085E-05-8.05391E-05
 -1     12795 1.56052E-04 1.92364E-05-3.09901E-05
 -1     12796 1.50445E-04 2.76988E-05-3.15853E-05
 -1     12797 3.48964E-05 1.30727E-03-2.79329E-06
 -1     12798 1.49838E-04 7.77701E-04-1.55848E-06
 -1     12799 2.77161E-05 7.96856E-04-1.25267E-06
 -1     12800 1.58126E-04 8.65197E-04-9.31213E-07
 -1     12801 1.73798E-04 4.85424E-05-4.75099E-05
 -1     12802 1.67197E-04 9.71735E-05-6.09150E-05
 -1     12803 1.76617E-04 1.41825E-04-4.39590E-05
 -1     12804 1.52664E-04 1.41429E-05-7.33422E-05
 -1     12805 1.55606E-04 1.30222E-05-7.27412E-05
 -1     12806 1.57812E-04 3.92334E-05-4.77865E-05
 -1     12807 1.53692E-04 3.81490E-05-2.57292E-05
 -1     12808 1.73591E-04 4.44773E-05-2.20695E-07
 -1     12809 1.69277E-04 3.73865E-05-5.35585E-06
 -1     12810 5.37059E-06-2.57933E-05 1.31818E-05
 -1     12811 1.83833E-04 2.62486E-04-2.22016E-06
 -1     12812 1.58794E-04 1.16569E-04-2.65230E-05
 -1     12813 1.56410E-04 8.71122E-04-7.00722E-06
 -1     12814 1.52875E-04 6.17328E-06-8.47617E-07
 -1     12815 1.68556E-04 5.11997E-05-2.61555E-05
 -1     12816 1.60491E-04 3.93311E-06-6.17222E-05
 -1     12817 1.74561E-04 6.74584E-05-4.68679E-05
 -1     12818 1.74473E-04 5.88496E-05-4.76510E-05
 -1     12819 1.65568E-04 5.98082E-05-4.69993E-05
 -1     12820 6.38545E-05 3.34057E-05-4.71166E-05
 -1     12821 1.59176E-04 9.39020E-05-9.60621E-07
 -1     12822 1.42623E-04 2.10803E-05-7.89934E-05
 -1     12823 1.27492E-04 1.37177E-05-6.64216E-05
 -1     12824 1.73346E-04 5.28878E-05-4.82145E-05
 -1     12825 1.64963E-04 4.75173E-05-4.77898E-05
 -1     12826 1.72929E-04 5.15113E-05-4.78496E-05
 -1     12827 6.44369E-05 8.92814E-04-1.71189E-06
 -1     12828 1.57470E-04 2.40331E-05-3.39408E-05
 -1     12829 1.56021E-04 4.18021E-05-2.27566E-06
 -1     12830-3.44926E-04-1.33862E-04 1.25795E-06
 -1     12831 1.62856E-04 8.81213E-06-8.56166E-05
 -1     12832 1.68985E-04 1.11250E-05-3.13403E-07
 -1     12833 1.58900E-04 4.99179E-05-4.79086E-05
 -1     12834 1.56453E-04 1.96659E-05-4.64944E-05
 -1     12835 1.60269E-04 1.14046E-05-3.08427E-05
 -1     12836 1.62209E-04 4.68424E-06-7.18471E-07
 -1     12837 7.64661E-05-8.04657E-07-3.03563E-05
 -1     12838 1.72975E-04 5.16829E-05-4.86882E-05
 -1     12839 1.65135E-04 4.98733E-05-4.89032E-05
 -1     12840 1.53750E-04 3.77004E-05-1.56886E-05
 -1     12841 1.29826E-04 9.97384E-06-7.38333E-05
 -1     12842 1.61005E-04 2.18347E-06-2.51261E-07
 -1     12843 1.56377E-04 1.43172E-05-5.90011E-05
 -1     12844 1.70296E-04 6.13495E-05-2.01469E-05
 -1     12845 1.56174E-04 2.11251E-05-6.19856E-05
 -1     12846-3.59499E-05 1.22746E-03-1.03865E-06
 -1     12847 1.87900E-04 2.87540E-04-2.16056E-06
 -1     12848 1.42129E-04 7.13885E-05-2.85566E-05
 -1     12849 1.55250E-04 1.04741E-05-8.33215E-05
 -1     12850 1.50877E-04 1.53365E-05-7.47508E-05
 -1     12851 1.17507E-04 2.83145E-05-6.91016E-05
 -1     12852 1.43521E-04 1.12029E-06-8.00184E-05
 -1     12853-5.42448E-05 1.28232E-03-1.00336E-06
 -1     12854 1.49797E-04 3.90466E-05-2.63620E-06
 -1     12855 1.50609E-04 9.65486E-05-1.28454E-06
 -1     12856 1.62947E-04 3.74139E-06-8.64864E-05
 -1     12857 1.58263E-04 5.23108E-05-4.69520E-05
 -1     12858 1.54307E-04 3.29978E-05-4.54100E-07
 -1     12859 1.79345E-04 4.91563E-04-1.49976E-05
 -1     12860 1.48612E-04 2.23902E-05-7.97467E-05
 -1     12861 1.53432E-04 1.01496E-05-6.33675E-05
 -1     12862 1.53527E-04 3.72362E-05-4.43202E-06
 -1     12863 1.68778E-04 4.59267E-06-1.65683E-07
 -1     12864 1.82686E-04 3.16841E-04-2.67125E-06
 -1     12865 1.53247E-04 3.86943E-05-7.44238E-05
 -1     12866 1.66673E-04 2.57057E-05-5.60047E-07
 -1     12867 1.56864E-04 1.46427E-05-5.97418E-05
 -1     12868 1.50157E-04 2.53127E-05-7.51849E-05
 -1     12869 1.58904E-04 1.05595E-05-4.41913E-05
 -1     12870 1.62203E-04 2.08018E-05-8.13585E-05
 -1     12871 1.70816E-04 8.60871E-05-6.35962E-05
 -1     12872 1.46875E-04 5.77329E-05-8.62641E-07
 -1     12873 1.45093E-04 9.77423E-05-5.46081E-05
 -1     12874 1.61613E-04 1.64649E-05-2.30374E-07
 -1     12875 1.60307E-04 9.12452E-06-5.39655E-07
 -1     12876 1.57127E-04 1.31062E-05-8.39207E-05
 -1     12877 1.62903E-04 4.17519E-05-4.86715E-05
 -1     12878 1.50834E-04 3.12663E-05-2.40025E-06
 -1     12879 1.49949E-04 2.72546E-05-7.95154E-05
 -1     12880 1.64839E-04 3.05191E-05-7.98482E-05
 -1     12881 1.72125E-04 3.75040E-05-2.83010E-08
 -1     12882 1.68686E-04 2.77197E-05-1.80410E-05
 -1     12883-7.69982E-05 1.12656E-04-3.54151E-06
 -1     12884 6.31991E-05 2.87294E-04-4.00180E-06
 -1     12885-7.93629E-05 2.70829E-04-3.02580E-06
 -1     12886-1.93144E-04 2.28459E-04-4.53599E-06
 -1     12887 1.50751E-04 2.86722E-05-3.24356E-05
 -1     12888 7.00165E-05 5.53234E-05-5.06072E-05
 -1     12889 1.67819E-04 7.82520E-05-3.86393E-05
 -1     12890 1.14341E-04 1.09773E-04-2.30822E-06
 -1     12891 6.72698E-05 1.20076E-06-2.45196E-05
 -1     12892 1.55237E-04 3.39747E-06-4.15425E-05
 -1     12893 1.60543E-04 3.47930E-06-3.67557E-05
 -1     12894 1.37842E-04 5.99821E-05-9.60706E-06
 -1     12895 1.25322E-04 2.07017E-05-1.87078E-05
 -1     12896 1.20261E-04 2.61175E-06-6.34119E-05
 -1     12897 1.28927E-04 1.22243E-05-7.29074E-05
 -1     12898 1.21439E-04 5.21812E-05-4.26722E-05
 -1     12899 1.70063E-04 7.66438E-05-4.12546E-06
 -1     12900 1.67167E-04 4.68098E-05-3.21837E-05
 -1     12901 1.50344E-04 3.23267E-05-7.50247E-05
 -3
    1PSTEP                         2           1           1          
  100CL  101 1.000000000       12899                     0    1           1
 -4  STRESS      6    1
 -5  SXX         1    4    1    1
 -5  SYY         1    4    2    2
 -5  SZZ         1    4    3    3
 -5  SXY         1    4    1    2
 -5  SYZ         1    4    2    3
 -5  SZX         1    4    3    1
 -1         1-2.50053E-02-3.35463E+00-2.57382E-01 2.80162E-02 6.09430E-04 8.22808E-03
 -1         2 4.04132E+01 5.97877E+01 2.84841E+01 1.97621E+00 2.11809E+00-4.70116E-01
 -1         3 6.38134E-02 3.19782E-02-4.15085E-01 8.87104E-02 6.58121E-03-1.13394E-02
 -1         4 1.95299E+00 2.91910E-01 3.53835E-01 4.62887E-01-2.75271E-02 1.39121E-02
 -1         5-6.45892E-02-5.42910E-02-2.88283E-02-5.20765E-02-5.27576E-03 1.38440E-02
 -1         6-2.06351E-02-1.82714E-02-6.63867E-02 3.35744E-02-1.21007E-03-2.77484E-03
 -1         7 5.11614E-02 5.60392E-02 1.19090E-01 6.11991E-02 1.83445E-03 8.70956E-05
 -1         9-5.14823E-01 9.09911E-02-2.05173E-01 4.84776E-01 3.12442E-02 1.54252E-02
 -1        10 1.31937E+00-9.32909E-01 5.98319E-02 3.17522E-01-2.62386E-03-1.13869E-02
 -1        11-6.17111E-01 5.44443E-01-1.25416E-01 2.76317E-01 9.33859E-03 2.33386E-04
 -1        12 1.34952E+00 5.86104E-02 2.79041E-01 4.61024E-01 1.55142E-02 9.29988E-03
 -1        13-1.62319E-02-3.24372E+00 8.02222E-03 2.35775E-02-6.79200E-03-9.90033E-04
 -1        14 2.27660E+01 3.62018E+01 3.62211E+00 1.32710E+00 1.53807E+00 4.74050E-01
 -1        15 1.41047E-01 2.02989E-02-8.12930E-02 9.70734E-02-5.77529E-02-3.18932E-02
 -1        16 2.01084E+00 2.48276E-01 1.21483E-01 4.38677E-01-1.11893E-02-1.55877E-01
 -1        17-5.57316E-02-7.13651E-02 5.45747E-02-6.58135E-02 2.56035E-02-3.54847E-02
 -1        18-3.04672E-02-1.28819E-02-2.67600E-02 1.77308E-02 9.32853E-03 1.80150E-02
 -1        19 5.94723E-02 6.36577E-02-1.05869E-02 7.18403E-02 5.58367E-03-4.57852E-03
 -1        20-4.76515E-01 6.46368E-02-1.12199E-01 5.67984E-01 2.45748E-01-2.93860E-02
 -1        22 1.29173E+00 1.15182E-01 6.05758E-02 6.93001E-01-3.76511E-02-2.51423E-01
 -1        23-4.62517E-01 6.64282E-01-1.61827E-02 4.76738E-01-2.04679E-01-3.49524E-02
 -1        24 1.20851E+00-9.68602E-01-2.05103E-02 4.33240E-01 2.53868E-02 2.18516E-01
 -1        25 2.68700E-01-1.63501E+00-9.03023E-02-2.10034E-03-1.73865E-04-4.66718E-03
 -1        26 7.95421E-01-6.95910E-01-6.25688E-02-2.13346E-04-1.46566E-04-9.82553E-04
 -1        27 1.37918E+00-4.49575E-03-3.38337E-02-2.17627E-03 1.89681E-04 2.50571E-03
 -1        28 1.96578E+00 6.15026E-01 6.19378E-02-4.80732E-03-1.83594E-04 4.05203E-03
 -1        29 2.57514E+00 1.22058E+00 2.31764E-01-1.12001E-02 1.03451E-03 3.65666E-03
 -1        30 3.20467E+00 1.83792E+00 4.79671E-01-1.24338E-02 3.52478E-04 5.79987E-03
 -1        31 3.86703E+00 2.49039E+00 8.04123E-01-7.67447E-03 9.02319E-04-7.49234E-04
 -1        32 4.58677E+00 3.22543E+00 1.18881E+00-1.51232E-02 3.88748E-04 7.63195E-03
 -1        33 5.39297E+00 4.04913E+00 1.65727E+00-3.07663E-03 1.31853E-03-9.27902E-04
 -1        34 6.35809E+00 4.97184E+00 2.23841E+00-4.66110E-03 3.93493E-04 3.02160E-03
 -1        35 7.48207E+00 6.14868E+00 2.90203E+00-6.96933E-03 1.34863E-03 1.75020E-03
 -1        36 8.96690E+00 7.57452E+00 3.76387E+00-1.83465E-02 1.46329E-03 1.35644E-02
 -1        37 1.09148E+01 9.50795E+00 4.95148E+00 4.02249E-03 2.58728E-03 1.16537E-03
 -1        38 1.43066E+01 1.11376E+01 6.72681E+00 1.83290E-01 1.48861E-01 7.03821E-02
 -1        39 1.78479E+01 1.86396E+01 1.13426E+01-3.07586E-01-1.01150E-01 8.94099E-02
 -1        40 8.01967E-02-2.45530E+00-1.72451E-01 8.97195E-03-4.98573E-08 6.06630E-03
 -1        41 5.17536E-01-1.16812E+00-8.07204E-02-1.02482E-03-6.00552E-09-1.87068E-03
 -1        42 1.07011E+00-3.58402E-01-5.42008E-02-2.62126E-03-1.60902E-08 3.18551E-03
 -1        43 1.65086E+00 2.96215E-01 3.06273E-03-4.81971E-03-1.82083E-08 3.89144E-03
 -1        44 2.24639E+00 9.02797E-01 1.36654E-01-1.30955E-02 1.82197E-08 1.81633E-03
 -1        45 2.86071E+00 1.51574E+00 3.40189E-01-1.73946E-02-1.70399E-08 1.20499E-03
 -1        46 3.49623E+00 2.15120E+00 6.25216E-01-1.30356E-02-1.23586E-08-1.63707E-04
 -1        47 4.19370E+00 2.83658E+00 9.75813E-01-1.52165E-02-9.02883E-09 4.04273E-03
 -1        48 4.93678E+00 3.61986E+00 1.40164E+00-1.10628E-02 5.66713E-09 4.41926E-04
 -1        49 5.82485E+00 4.48642E+00 1.91872E+00-9.41621E-03-2.31646E-08 1.02274E-02
 -1        50 6.84983E+00 5.53435E+00 2.53480E+00-1.52590E-02 4.80459E-08-6.00201E-03
 -1        51 8.13736E+00 6.81938E+00 3.29672E+00-2.52840E-02-4.03058E-08 1.42875E-02
 -1        52 9.79549E+00 8.48707E+00 4.24796E+00-3.19031E-02 1.84737E-07-5.53698E-03
 -1        53 1.20194E+01 1.08676E+01 5.82516E+00-4.84416E-02 2.28233E-07 1.39596E-01
 -1        54 1.55322E+01 1.27005E+01 7.74270E+00 4.22529E-01 1.13133E-06 5.79335E-02
 -1        55 3.33168E+01 2.51298E+01 1.78930E+01-6.34238E+00-2.35088E-06-1.05298E+00
 -1        56 4.83875E+00-8.17776E+00-1.54823E+00 1.31735E+00 5.81296E-01 9.11045E-02
 -1        57 1.10043E+00-6.83544E-02-1.17521E+00-3.99239E-01-2.00975E-02 1.10717E-01
 -1        58 1.37271E+00-1.41873E-01-8.86684E-01-2.03898E-01-9.82464E-03-4.36908E-03
 -1        59 1.23915E+00 5.37797E-02-7.34411E-01-5.54029E-02-1.91241E-02-3.42219E-03
 -1        60 1.24920E+00-3.68678E-02-7.31285E-01-4.72129E-02 1.64762E-03-4.23449E-04
 -1        61 1.21635E+00-9.20986E-05-7.05728E-01-2.49994E-02-9.04525E-03 1.85405E-03
 -1        62 1.15513E+00-9.68993E-03-6.52254E-01-1.82268E-02 1.12643E-03 2.14985E-03
 -1        63 1.07538E+00 2.72650E-03-5.78539E-01-1.22998E-02-3.56408E-03 2.46477E-03
 -1        64 9.68421E-01-9.13973E-03-4.68162E-01-2.12850E-02-1.63355E-03-3.75483E-03
 -1        65 7.53170E-01-4.73452E-03-3.68011E-01-1.50498E-03 3.93551E-05 1.79852E-04
 -1        66 1.83402E+01 2.80064E+01 1.21520E+01 7.33437E+00 5.04390E+00-2.09321E-01
 -1        67 2.51315E-01-2.50408E-01-1.26924E+00-9.45135E-01-2.03206E-01-5.32861E-01
 -1        68 1.21215E+00-2.27461E-01-1.00885E+00-3.46439E-01-3.83198E-02 3.89767E-02
 -1        69 1.26509E+00 2.71480E-02-8.07613E-01-1.35935E-01-1.27824E-03-3.04801E-02
 -1        70 1.22908E+00-5.59561E-02-7.67078E-01-7.92354E-02-8.20738E-03 6.32048E-03
 -1        71 1.22174E+00-1.40190E-02-7.24437E-01-3.95349E-02 1.23820E-03-3.45094E-03
 -1        72 1.17956E+00-7.68918E-03-6.80491E-01-2.62006E-02-4.75765E-03 2.93230E-03
 -1        73 1.11169E+00-4.60184E-03-6.22519E-01-1.91736E-02-1.10634E-03-1.11004E-03
 -1        74 1.02301E+00-2.22385E-03-5.21875E-01-2.17404E-02-1.33881E-03 8.50525E-04
 -1        75 8.61843E-01-3.72859E-03-4.12484E-01-1.51202E-02 1.64000E-03 2.45934E-05
 -1        76 4.19864E-01 5.96691E-03-3.92543E-01 4.51281E-02-1.97389E-03 1.75827E-03
 -1        77 7.41963E-01 2.42619E-01-8.78428E-02 4.09169E-01-3.56484E-02 1.89442E-02
 -1        78 1.64097E+00-2.36542E-02 2.55914E-01 3.47773E-03-1.38245E-02-9.18622E-03
 -1        79-2.82985E-01 3.41507E-02-2.49637E-01 2.02441E-01 4.72070E-02 2.73430E-03
 -1        80-7.95253E-01-2.02239E-02-3.10565E-01-1.00830E-01 1.42514E-02 2.13423E-03
 -1        81 1.96037E+00 6.21149E-02 3.45558E-01 8.99185E-02 6.77527E-03 2.57494E-02
 -1        82 7.09337E-01 8.06851E-02 2.78565E-02 1.25043E-01 4.87434E-02-2.99460E-02
 -1        83-8.75013E-01-1.25000E-01-4.34664E-01 1.33904E-02-8.98517E-03-3.81209E-04
 -1        84-2.84455E-01-2.15367E-02-1.20765E-01-7.71173E-02 2.39460E-03 5.34239E-03
 -1        85 5.66921E-02-3.64703E-01-1.48834E-01 2.96971E-02 1.14096E-02-1.82123E-02
 -1        86-9.73547E-02 1.29731E+00 3.00193E-01 1.41407E-01-3.13962E-02 1.05059E-02
 -1        87 9.01730E-03 6.23262E-01 1.00553E-01-6.14195E-02-4.34005E-03 5.00225E-03
 -1        88-5.83844E-02-3.08746E-01-1.25756E-01-5.88454E-02-3.28449E-02-9.39575E-03
 -1        89-1.03864E-01 5.08523E-01 7.97742E-02 1.14473E-01 1.72765E-02 2.56329E-02
 -1        90-3.23211E-02 1.14963E+00 2.56299E-01-4.70913E-03-2.96759E-02 1.24915E-03
 -1        91 4.60807E-03 1.80142E-01-4.51855E-03-1.26250E-02-1.42915E-03-9.28012E-03
 -1        92 3.35151E-01-2.81889E-03 1.11740E-01-5.63805E-02-1.14295E-02-4.23304E-03
 -1        93-3.21514E-01-1.04312E-03 2.54984E-02 5.89991E-02-7.09170E-03-1.06652E-02
 -1        94-1.23809E+00-1.50423E-02-9.75156E-02 9.36218E-04-1.47779E-03 1.78380E-03
 -1        95-1.71003E+00-3.49347E-03-7.69087E-02 5.45621E-03-3.90208E-04 3.08873E-04
 -1        96-1.94591E+00-2.53642E-02-9.27486E-02 4.45194E-03-8.04941E-04-6.99608E-04
 -1        97-1.77246E+00-2.49418E-02-9.09471E-02-2.62879E-02 2.07136E-03 7.81658E-03
 -1        98-1.07920E+00 7.33507E-03-2.89532E-02-4.02179E-02 5.45713E-03 1.71047E-03
 -1        99-2.12402E-01-8.88887E-03 8.51948E-02-6.62726E-03-2.04989E-03 8.03529E-03
 -1       100 1.47161E-01 2.11779E-02 1.74185E-02-1.34462E-02-5.02941E-03-1.51000E-02
 -1       101 1.56370E-01 8.88879E-03 1.18444E-01-6.31694E-03-1.24797E-02 1.96038E-03
 -1       102-8.55625E-01-3.89839E-02-7.19432E-02 3.02406E-02-7.11956E-03-3.87300E-03
 -1       103-1.50369E+00-8.00341E-03-9.97379E-02 5.85317E-03 1.85975E-03-1.43406E-03
 -1       104-1.87245E+00-1.95972E-02-1.02559E-01 5.87758E-03-6.92518E-04-4.53842E-05
 -1       105-1.95224E+00-4.52040E-02-1.27491E-01-9.20961E-03-5.08678E-03 3.13678E-03
 -1       106-1.49713E+00-2.90236E-02-8.22788E-02-3.45329E-02-1.21256E-03 4.91388E-04
 -1       107-6.21222E-01 2.57736E-03 3.63755E-02-3.40045E-02 4.74229E-03 2.63322E-04
 -1       108-9.58124E-03 2.85714E-02 1.16057E-01 3.02483E-02-5.51964E-03-2.27629E-03
 -1       109 3.98171E-03-2.33718E-01 1.09487E-01 6.82173E-03-1.17447E-02-4.84563E-04
 -1       110 9.70929E-03-1.55508E+00-2.31631E-02-9.54386E-02-3.31257E-02 1.86443E-03
 -1       111-8.99210E-03-2.91578E+00-1.90219E-01-1.48520E-02-4.47845E-03-3.39005E-03
 -1       112 4.21411E-02 1.06732E-03 1.31794E-01 3.92184E-02 7.02217E-03 1.06372E-02
 -1       113 2.06502E-02-8.48681E-01 6.42976E-02-4.72092E-02-5.32783E-03 1.49116E-03
 -1       114-9.90561E-03-2.25202E+00-1.09421E-01-5.21660E-02 6.48660E-04-7.93105E-03
 -1       115-8.40213E-03-3.23165E+00-2.42339E-01 5.68808E-03 3.85228E-03 6.08542E-03
 -1       116-8.79973E-01-1.20626E+00-5.98230E-01-1.16967E-01 7.79146E-04-1.30710E-03
 -1       117-1.03533E+00-9.69397E-01-6.50987E-01 1.94871E-01 3.18924E-03 1.20906E-02
 -1       118 2.80231E-02-9.48506E-01-2.80673E-01-8.38333E-02 1.59227E-03-9.12345E-03
 -1       119 1.29482E+00 1.11280E+00 6.20384E-01 1.96240E+00-1.16959E-02 1.75009E-02
 -1       120 2.02349E+00 9.23836E-02 5.41462E-01 1.39976E+00-1.87586E-02 2.12335E-02
 -1       121 7.41296E-02 1.48174E+00 3.60678E-01 1.35871E+00-2.63412E-02 1.82342E-02
 -1       122-9.44442E-01-9.50076E-01-6.14935E-01 7.46128E-01-7.68524E-03-6.47290E-03
 -1       123-4.33043E-01-7.79327E-01-4.16010E-01 5.42730E-01 1.53241E-02 1.01755E-02
 -1       124-2.04037E-01-3.60771E-01-2.71926E-01 4.89864E-01 8.91376E-03-7.74543E-03
 -1       125 1.40623E+00 1.28137E+00 6.16856E-01 1.17572E+00 8.04370E-03-4.24695E-03
 -1       126 1.98329E+00 6.33264E-01 6.37747E-01 1.01569E+00 6.30042E-03 2.33299E-03
 -1       127 4.76811E-01 1.04025E+00 3.46723E-01 8.16360E-01 1.04028E-02-5.01218E-03
 -1       128 2.52223E-01-1.59665E+00 4.28203E-03-6.44862E-03 6.67538E-03-6.74201E-04
 -1       129 6.97793E-01-8.23238E-01-2.17234E-04-8.31570E-03 3.38407E-03-4.66418E-03
 -1       130 1.11890E+00-3.31483E-01 6.52429E-03-8.60670E-03 5.08572E-03-1.11652E-02
 -1       131 1.52261E+00 6.83611E-02 2.54440E-03-6.37743E-03 3.88723E-03-5.87688E-03
 -1       132 1.88729E+00 4.19418E-01 1.72918E-03-1.22490E-02-5.46725E-04-1.03624E-02
 -1       133 2.24224E+00 7.58055E-01-3.72615E-03-1.18927E-02 1.72872E-03-8.61058E-03
 -1       134 2.59611E+00 1.09469E+00-2.48449E-03-1.96410E-02 6.00246E-03-1.19460E-02
 -1       135 2.94820E+00 1.48896E+00 1.13113E-03-2.55772E-02 1.23655E-02-2.05043E-02
 -1       136 3.38403E+00 1.87576E+00 6.99311E-03-1.90618E-02 9.72702E-03-1.83747E-02
 -1       137 3.82655E+00 2.36108E+00-1.81413E-02-1.19836E-02-8.05016E-03-2.23933E-02
 -1       138 4.37796E+00 2.86811E+00 5.65100E-03-2.88295E-02 1.64848E-02-1.82467E-02
 -1       139 5.10641E+00 3.56562E+00 1.04863E-03-3.54516E-02-1.04496E-02-1.77089E-02
 -1       140 6.04334E+00 4.44086E+00-1.51394E-02-8.07767E-02-4.25359E-02-4.83621E-02
 -1       141 7.49965E+00 4.18868E+00-2.68086E-01-1.89569E-02-1.95217E-01-1.62035E-01
 -1       142 7.93551E+00 8.20385E+00 6.30867E-01-4.23348E-01 3.13885E-01-4.10490E-01
 -1       143 8.96322E-02-2.33110E+00 7.83759E-04 1.59798E-03-7.90845E-03-1.18893E-02
 -1       144 4.66124E-01-1.21539E+00-3.77735E-03-7.30896E-03 2.98288E-03 2.13535E-04
 -1       145 9.04172E-01-5.82000E-01-1.43398E-03-1.06946E-02 3.66976E-03-7.64346E-03
 -1       146 1.31782E+00-1.28427E-01 1.57791E-03-1.16900E-02 4.05458E-03-1.23238E-03
 -1       147 1.69093E+00 2.43641E-01-2.08631E-03-1.02269E-02 3.14132E-03-6.87107E-03
 -1       148 2.05897E+00 5.87613E-01 5.40945E-04-1.34342E-02-1.69793E-03-3.29276E-03
 -1       149 2.40176E+00 9.16511E-01-3.38125E-03-2.05311E-02 3.30714E-03-9.43028E-03
 -1       150 2.74851E+00 1.27544E+00-1.38731E-02-3.16278E-02 9.89969E-03-8.77580E-03
 -1       151 3.15596E+00 1.68300E+00-4.50820E-03-3.00317E-02 9.19881E-03-1.13937E-02
 -1       152 3.57555E+00 2.13218E+00-1.86274E-02-1.98587E-02 5.81896E-03-1.45229E-02
 -1       153 4.08207E+00 2.58894E+00-1.28186E-02-2.72164E-02 6.67844E-04-1.06000E-02
 -1       154 4.65578E+00 3.22422E+00-1.30775E-02-3.67392E-02 1.20463E-02-2.31689E-02
 -1       155 5.45554E+00 3.96758E+00-4.81675E-02-2.89659E-02-5.59510E-03-3.52709E-02
 -1       156 6.37311E+00 4.86603E+00-1.05013E-01-7.62265E-02 6.59421E-03-1.61798E-01
 -1       157 7.35243E+00 4.03671E+00-7.95186E-01 1.39752E-01-1.83115E-01-1.94941E-01
 -1       158 1.75561E+01 1.17067E+01 1.63473E+00-5.22960E+00 6.96351E-01-3.16134E-01
 -1       159 4.35719E+00-4.05179E+00-1.03508E+00 2.18795E+00-8.35655E-01 4.34695E-01
 -1       160 1.77820E+00-1.64439E-01 7.70866E-02-2.45381E-01-1.01116E-01-1.90544E-01
 -1       161 1.75321E+00-1.26709E-01 1.83475E-02-1.52680E-01-2.93926E-03-5.24890E-02
 -1       162 1.55727E+00 6.89876E-04 3.98984E-02-5.39647E-02 6.93345E-03-2.89552E-02
 -1       163 1.50452E+00-1.01102E-02 5.70446E-03-5.08052E-02 1.58119E-02-2.05809E-02
 -1       164 1.42198E+00 5.90514E-03 2.08433E-02-9.23308E-03 6.23686E-03-9.30618E-03
 -1       165 1.35595E+00-1.13478E-03 3.98753E-03-2.23510E-02 4.83001E-03-1.10702E-02
 -1       166 1.26128E+00 4.01747E-03 1.49900E-02-4.19209E-03 3.20503E-03-6.23257E-04
 -1       167 1.15752E+00 3.92449E-04 2.19607E-03-1.17454E-02 4.18535E-03-6.98411E-03
 -1       168 9.46039E-01-4.24799E-03 1.33992E-02 7.03319E-03 3.43762E-03 1.58275E-02
 -1       169 1.04697E+01 1.96072E+01 1.70108E+00 5.91862E+00-1.82155E+00 2.11674E+00
 -1       170 1.60135E+00-8.24728E-02-1.53130E-01-4.23514E-01 1.22135E-01 1.53018E-01
 -1       171 1.77871E+00-2.21098E-01-3.89271E-02-2.61998E-01-4.22046E-02-8.24473E-02
 -1       172 1.57501E+00-4.09639E-02-2.31273E-03-1.24532E-01 3.54135E-02-2.70492E-02
 -1       173 1.51966E+00-1.96987E-02 2.01931E-02-7.12570E-02 1.89958E-02-2.54845E-02
 -1       174 1.45254E+00 1.91601E-03 9.79651E-03-3.49462E-02 3.14247E-03-2.35394E-02
 -1       175 1.38165E+00-2.35007E-03 6.86164E-03-2.60039E-02 8.92299E-03-1.38222E-02
 -1       176 1.31073E+00 3.67840E-03 1.03716E-02-1.98455E-02 1.38766E-03-1.02197E-02
 -1       177 1.20811E+00-4.49413E-03 2.55118E-03-1.33407E-02 7.01362E-03-5.26673E-03
 -1       178 1.06084E+00 4.01343E-03 6.22995E-03-7.01020E-03 1.46077E-03-1.35374E-03
 -1       179 5.60492E-01 1.40206E-02-1.93006E-02 5.81083E-02-4.43273E-03-1.43935E-02
 -1       180 7.95287E-01 2.08427E-01 2.50336E-02 3.95491E-01-5.82849E-02-1.42590E-01
 -1       181 1.70633E+00-4.70576E-02 3.22296E-02 2.44845E-02 2.02985E-02 7.39980E-02
 -1       182-3.55172E-01 6.61989E-02-3.46287E-02 2.99540E-01-3.22806E-02 8.30621E-02
 -1       183-7.98338E-01-1.45001E-02-7.53949E-03-1.56534E-01-1.20918E-02-6.53925E-02
 -1       184 1.98880E+00 1.75502E-02 4.24088E-02 7.83289E-02 3.49145E-03-2.25228E-02
 -1       185 7.45973E-01 5.76613E-02-1.70064E-03 2.26096E-01-2.83505E-02 1.31612E-01
 -1       186-8.45487E-01 1.03092E-02 5.58158E-03 1.89673E-02-1.97797E-02-3.05503E-02
 -1       187-2.35726E-01-2.12758E-02 3.88764E-02-1.10992E-01 1.20591E-02-5.16290E-02
 -1       188 4.23235E-02-4.83190E-01-6.64152E-02 5.43338E-02-5.48980E-02 2.73404E-02
 -1       189-9.80143E-02 1.29625E+00 1.57085E-01 1.80463E-01-5.50895E-02-5.35705E-02
 -1       190 1.80773E-02 5.85229E-01-1.35206E-02-1.05515E-01 5.10468E-02-5.05730E-03
 -1       191-7.30115E-02-3.78986E-01-1.06220E-02-7.07454E-02 1.39887E-02-1.94610E-03
 -1       192-1.07057E-01 4.26939E-01 5.33910E-02 1.95352E-01-1.20673E-01-5.09310E-02
 -1       193-4.53282E-02 1.14302E+00 2.84290E-02-2.46614E-02 3.57208E-02-2.20809E-02
 -1       194-7.80230E-03 1.73683E-01-1.63645E-02-5.05923E-02 2.67840E-02 2.39102E-03
 -1       195 3.17880E-01-8.13617E-03 2.52524E-03-5.00314E-02 4.76102E-03 3.39787E-03
 -1       196-3.69329E-01 6.97062E-03 7.55985E-03 1.13815E-01-3.89105E-03-5.56016E-02
 -1       197-1.22156E+00-1.31110E-02-1.47616E-02 2.62897E-02 6.17814E-03-2.97238E-02
 -1       198-1.62238E+00-3.96320E-03 8.02354E-03 1.66616E-02-2.64138E-03-1.67506E-02
 -1       199-1.85493E+00-2.28660E-02-5.02794E-03 5.72496E-03 3.87933E-03 4.46622E-04
 -1       200-1.71209E+00-2.14336E-02-6.72896E-03-6.07772E-02 1.93571E-03 2.60396E-02
 -1       201-1.07179E+00 4.67090E-03-5.60784E-04-9.69564E-02-7.43092E-04 5.64022E-02
 -1       202-2.34449E-01-3.26080E-03 9.08061E-03-5.09660E-02-3.44701E-03 3.48318E-02
 -1       203 1.32956E-01 1.81623E-02-1.42965E-02-2.33707E-02 5.49655E-03 3.32929E-02
 -1       204 1.12618E-01-3.16883E-03 4.56532E-03 2.32596E-02-1.89747E-03-4.20203E-02
 -1       205-8.84861E-01-2.60326E-02-2.58707E-03 8.20136E-02 4.78501E-03-5.35993E-02
 -1       206-1.44043E+00-6.43148E-03-6.92264E-03 1.66023E-02-1.70852E-03-1.89140E-02
 -1       207-1.77349E+00-1.44648E-02-6.98679E-03 1.37940E-02 5.60844E-03-1.21788E-02
 -1       208-1.86463E+00-4.09061E-02-1.76366E-02-2.59240E-02 1.24160E-02 1.50212E-02
 -1       209-1.45862E+00-3.06321E-02-9.12022E-03-8.03036E-02 6.93924E-03 5.21932E-02
 -1       210-6.39069E-01 7.03616E-03 7.84611E-03-9.00647E-02-8.29935E-03 5.60446E-02
 -1       211-1.37718E-02 2.64598E-02 3.62385E-03 1.60940E-02 2.63235E-03 1.77597E-02
 -1       212 5.34308E-03-2.58250E-01 1.02433E-02-3.10611E-02-2.75185E-02 1.03054E-03
 -1       213 9.18317E-03-1.53784E+00-4.12445E-04-1.92555E-01-5.44716E-02 4.84455E-03
 -1       214-7.20077E-03-2.81488E+00-1.19518E-02-6.37984E-02-5.31677E-02-5.90497E-04
 -1       215 3.87934E-02-1.58945E-02 8.26363E-03 2.97804E-02-1.68427E-02-1.09648E-02
 -1       216 1.53447E-02-8.73102E-01 1.92681E-03-1.19239E-01-6.92449E-02-2.47427E-04
 -1       217 4.69036E-03-2.18914E+00 1.68169E-02-1.26194E-01-8.49049E-02 2.11131E-02
 -1       218 1.29162E-02-3.09664E+00-2.96629E-03-1.75503E-02-2.29035E-02-1.23893E-02
 -1       219 1.28317E+00 1.07440E+00 3.33810E-02 1.03987E+00 5.57522E-02 5.82366E-02
 -1       220 5.85247E-01 8.61514E-01 5.49035E-02 8.07840E-01 1.70111E-01 1.42600E-01
 -1       221 1.72348E+00 5.02583E-01 4.61244E-02 9.52026E-01-5.01608E-02-1.54126E-01
 -1       222-8.23557E-01-8.29234E-01-9.96178E-02 6.31379E-01 4.00364E-02 1.27572E-02
 -1       223-2.50913E-01-4.07696E-01-4.53723E-02 4.67618E-01 9.12629E-02-3.10700E-01
 -1       224-3.69777E-01-4.73166E-01-2.44208E-02 5.35478E-01-1.42151E-01 5.19454E-02
 -1       225 1.22235E+00 1.04752E+00 9.29731E-02 1.92244E+00-4.89724E-02-4.27109E-02
 -1       226 1.60504E-01 1.24242E+00 7.95376E-02 1.40871E+00-2.07561E-01 1.42970E-02
 -1       227 1.76041E+00-3.96875E-02 1.30876E-01 1.34759E+00 7.52029E-02 8.84121E-02
 -1       228-6.70387E-01-1.12303E+00-3.96247E-02-2.69335E-01-7.06129E-02 4.45827E-02
 -1       229 1.79492E-01-9.89060E-01-3.79057E-03-1.17212E-01-3.40247E-02 1.63101E-01
 -1       230-9.68776E-01-7.26870E-01-9.02093E-02 1.82323E-01 1.31538E-01-8.31131E-02
 -1       231-6.44434E-03-3.38746E+00-1.61495E-01 9.64856E-03-5.84062E-04-7.76684E-03
 -1       232-1.36064E-02-3.41058E+00-2.36121E-01 9.17470E-03 3.19137E-03-5.80577E-03
 -1       233-1.47439E-02-3.37055E+00-7.47617E-02 5.33452E-06-1.10373E-02 9.40146E-03
 -1       234 3.47058E+01 5.40432E+01 2.57121E+01 3.84621E+00-1.09007E-02-1.72065E+00
 -1       235 2.89835E+01 3.76287E+01 1.81901E+01 7.40689E+00-9.89606E-01 1.10884E+00
 -1       236 2.30831E+01 3.42463E+01 1.67264E+01 6.56974E+00 7.01209E-01-5.68522E-01
 -1       237 3.59178E+01 4.86995E+01 2.39887E+01 8.59903E+00-2.46813E-01 5.33089E-01
 -1       238 3.64558E+01 4.89243E+01 2.40426E+01 7.98119E+00 2.51626E-01-6.53309E-01
 -1       239 2.56023E+01 3.68424E+01 1.78884E+01 8.08254E+00-4.08422E-01 3.76906E-02
 -1       240 2.77245E+01 4.45177E+01 2.05908E+01 6.45049E+00 9.43482E-02-2.19843E-02
 -1       241 2.94168E+01 3.83439E+01 1.83605E+01 8.06345E+00-1.02898E+00 3.04601E-01
 -1       242 2.70755E+01 3.42888E+01 1.77396E+01 7.65735E+00 2.85099E-02-2.46974E-01
 -1       243 3.07671E+01 3.91526E+01 1.94429E+01 1.08321E+01 9.46667E-01 9.39364E-01
 -1       244 3.22181E+01 4.44849E+01 2.10743E+01 7.83094E+00 1.89921E-01-2.78153E-01
 -1       245 2.42907E+01 3.84971E+01 1.88563E+01 6.74764E+00 1.49833E-02 7.67782E-01
 -1       246 2.85681E+01 4.02485E+01 1.88629E+01 6.80208E+00 4.69717E-01-9.28947E-01
 -1       247 2.71574E+01 3.90457E+01 1.99544E+01 7.48080E+00 1.44482E+00-4.74915E-01
 -1       248 3.20056E+01 4.20596E+01 2.09459E+01 6.28864E+00-9.61927E-02 1.56853E-01
 -1       249 2.70562E+01 3.95345E+01 1.94493E+01 5.44051E+00-1.70683E+00 7.65249E-01
 -1       250 2.59870E+01 3.97500E+01 1.87383E+01 6.24312E+00 8.34059E-02 4.94921E-01
 -1       251 3.41978E+01 5.21751E+01 2.39180E+01 6.16409E+00 1.86292E-01 2.76344E-01
 -1       252 3.02440E+01 4.60142E+01 2.12254E+01 9.15446E+00-1.51834E+00-2.97341E-01
 -1       253 2.60446E+01 3.66635E+01 1.77260E+01 4.88596E+00 2.20009E-01-1.62816E-02
 -1       254 2.43744E+01 3.13397E+01 1.61549E+01 5.89266E+00-4.29548E-01-2.04955E-01
 -1       255 2.75860E+01 3.96233E+01 1.91339E+01 5.83616E+00 6.11336E-01-5.20445E-01
 -1       256 3.52012E+01 5.50873E+01 2.44197E+01 5.32562E+00-2.92366E-01 6.12909E-01
 -1       257 3.46178E+01 5.33546E+01 2.46046E+01 5.34741E+00 3.48683E-01-4.24024E-01
 -1       258 2.52608E+01 3.88088E+01 1.85572E+01 5.38185E+00-1.49366E-01 4.39415E-01
 -1       259 2.57755E+01 3.88957E+01 1.84811E+01 5.77648E+00 3.92209E-01-1.71989E-01
 -1       260 3.37028E+01 5.26884E+01 2.37794E+01 6.16353E+00-1.49281E-01 5.90578E-01
 -1       261 2.86052E+01 3.60436E+01 1.83805E+01 5.80033E+00-1.19139E+00-1.00087E+00
 -1       262 2.58781E+01 3.69893E+01 1.79995E+01 5.03763E+00 4.16203E-01 5.44851E-02
 -1       263 3.22808E+01 5.22595E+01 2.27156E+01 5.97312E+00-1.82913E-01-2.39871E-01
 -1       264 2.38884E+01 3.40304E+01 1.68139E+01 5.43638E+00-4.81709E-01 1.08819E-01
 -1       265 2.44185E+01 3.07118E+01 1.59237E+01 6.18701E+00 2.40492E-01-4.66535E-01
 -1       266 3.02931E+01 3.61878E+01 1.82737E+01 8.58083E+00 2.99127E-01-6.95733E-03
 -1       267 3.39191E+01 4.64190E+01 2.20084E+01 8.20772E+00 5.24055E-01-2.71448E-01
 -1       268 2.41744E+01 3.31524E+01 1.68331E+01 5.68295E+00-9.72306E-01 3.88079E-01
 -1       269 2.47571E+01 3.14449E+01 1.59632E+01 6.49807E+00 5.80715E-01-2.90702E-01
 -1       270 2.79839E+01 4.43825E+01 2.05203E+01 6.33391E+00 2.20371E-01 7.45968E-01
 -1       271 3.13641E+01 5.36536E+01 2.36404E+01 9.74984E+00-1.36122E+00-6.24593E-01
 -1       272 3.42344E+01 4.65510E+01 2.26706E+01 5.21126E+00 9.71914E-02-9.92409E-01
 -1       273 3.69438E+01 5.02593E+01 2.33221E+01 8.86787E+00 4.95314E-01-5.75429E-01
 -1       274 2.85229E+01 4.00743E+01 1.90032E+01 7.01688E+00-1.13995E+00 5.76774E-01
 -1       275 2.49873E+01 3.62581E+01 1.77579E+01 5.65244E+00 2.12568E-01 1.35952E-01
 -1       276 2.90262E+01 4.07317E+01 1.91611E+01 6.73086E+00-3.50635E-01 1.58044E-01
 -1       277 2.77044E+01 3.50632E+01 1.74576E+01 6.12150E+00-4.18613E-01-6.31412E-01
 -1       278 2.55222E+01 3.67529E+01 1.77223E+01 6.79841E+00 5.26490E-01 5.77584E-01
 -1       279 3.19850E+01 5.04284E+01 2.23062E+01 7.34953E+00 2.09736E-01-4.43467E-01
 -1       280 2.40693E+01 4.04280E+01 1.86009E+01 6.33239E+00 6.71645E-01-3.66725E-01
 -1       281 3.59177E+01 4.85199E+01 2.32948E+01 8.90197E+00-1.31104E-01 4.96563E-01
 -1       282 3.11357E+01 4.72582E+01 2.25449E+01 8.21860E+00-3.23565E-01-1.18826E-01
 -1       283 3.57877E+01 4.92174E+01 2.36396E+01 6.94583E+00 2.57335E-01 6.15694E-01
 -1       284 2.86323E+01 4.28935E+01 2.00410E+01 7.44478E+00-7.82080E-01-3.32481E-01
 -1       285 3.02907E+01 4.15280E+01 1.98277E+01 6.01369E+00-2.35162E-01 1.23469E+00
 -1       286 2.74506E+01 3.99659E+01 1.90466E+01 8.21948E+00 7.92379E-01-7.59951E-02
 -1       287 3.78088E+01 4.80449E+01 2.41436E+01 8.76087E+00 3.12374E-01-2.51710E-01
 -1       288 3.00249E+01 4.73216E+01 2.19065E+01 8.13894E+00 2.67682E-01-3.74326E-02
 -1       289 3.84608E+01 5.32194E+01 2.57790E+01 7.87210E+00 9.96870E-02 5.36661E-01
 -1       290 3.50560E+01 5.12940E+01 2.43946E+01 7.52413E+00-1.62419E-01 7.90588E-01
 -1       291 2.99128E+01 3.89631E+01 1.87761E+01 7.16360E+00-9.67415E-01-7.88224E-01
 -1       292 2.33241E+01 3.51340E+01 1.67815E+01 4.80164E+00 1.99368E-01 1.64002E-01
 -1       293 3.40917E+01 4.74731E+01 2.23583E+01 8.59159E+00-5.89146E-02 3.81431E-01
 -1       294 3.34805E+01 4.67093E+01 2.19090E+01 7.86379E+00-1.24493E-01-1.24454E-01
 -1       295 2.72112E+01 4.45664E+01 2.05604E+01 6.90656E+00 1.88626E-01 1.63152E-01
 -1       296 2.89370E+01 4.41444E+01 2.05960E+01 7.88471E+00 5.28678E-03-1.91343E-01
 -1       297 3.74232E+01 4.80845E+01 2.32992E+01 9.20162E+00 3.09820E-01-6.56592E-02
 -1       298 3.25047E+01 4.70832E+01 2.23135E+01 1.02147E+01 1.86673E-01 1.11944E+00
 -1       299 3.51500E+01 4.74887E+01 2.25077E+01 8.36725E+00 8.06019E-02-2.90040E-01
 -1       300 2.41000E+01 3.47692E+01 1.66358E+01 6.11981E+00-6.22440E-01 1.15340E+00
 -1       301 2.58940E+01 3.52340E+01 1.65140E+01 4.93884E+00-3.28142E-01 7.69096E-01
 -1       302 2.60569E+01 3.74411E+01 1.72532E+01 7.59886E+00 9.23127E-01 7.03118E-01
 -1       303 2.80484E+01 4.26988E+01 1.91781E+01 4.87117E+00-5.38273E-01-1.01104E-01
 -1       304 3.19696E+01 5.54919E+01 2.44387E+01 5.25706E+00 3.96862E-02-3.42464E-01
 -1       305 3.77469E+01 5.82543E+01 2.61442E+01 5.34824E+00-2.94072E-01 1.01635E+00
 -1       306 3.27824E+01 5.09686E+01 2.34119E+01 6.17825E+00-1.84152E-01 4.57850E-01
 -1       307 2.56071E+01 3.76609E+01 1.71758E+01 7.47313E+00-6.19087E-01-3.22199E-01
 -1       308 3.08030E+01 3.94434E+01 1.88460E+01 1.01794E+01 1.07023E+00 9.37173E-01
 -1       309 3.04582E+01 4.20311E+01 1.94408E+01 5.13357E+00-1.12020E-01 8.93004E-01
 -1       310 2.40284E+01 3.67023E+01 1.65420E+01 5.33358E+00-9.36544E-02 4.63558E-01
 -1       311 3.12703E+01 4.15628E+01 1.95151E+01 3.78317E+00 1.26314E-01 6.00856E-01
 -1       312 2.50818E+01 3.52350E+01 1.66437E+01 5.12582E+00-4.83911E-01-8.02083E-01
 -1       313 2.65776E+01 3.80068E+01 1.72489E+01 3.03668E+00-2.41309E-01 5.21732E-01
 -1       314 2.95566E+01 4.39873E+01 1.91806E+01 8.41051E+00 1.47268E+00 8.28046E-01
 -1       315 3.21668E+01 4.94886E+01 2.11527E+01 5.73237E+00 3.48646E-01-1.42763E-01
 -1       316 2.57619E+01 4.11144E+01 1.83050E+01 4.68801E+00 7.16333E-01-3.01261E-01
 -1       317 2.44193E+01 3.59442E+01 1.61087E+01 5.50667E+00-8.53493E-01 1.26738E+00
 -1       318 2.87809E+01 3.65625E+01 1.65715E+01 6.68974E+00-6.41164E-02 4.27873E-01
 -1       319 2.50836E+01 3.62626E+01 1.61455E+01 6.83948E+00-1.10970E-01-1.95466E-02
 -1       320 2.53204E+01 3.33152E+01 1.46069E+01 7.46733E+00-1.21333E+00 3.71420E-01
 -1       321 2.22021E+01 3.21593E+01 1.41564E+01 4.24455E+00-7.71908E-02 2.08025E-01
 -1       322 2.70451E+01 3.58302E+01 1.60145E+01 7.42589E+00 3.48777E-01 6.20415E-01
 -1       323 3.07144E+01 4.80336E+01 1.90605E+01 6.76311E+00 1.62052E-01-4.07251E-01
 -1       324 2.46335E+01 3.62453E+01 1.56980E+01 6.45508E+00-3.08161E-01 9.49586E-01
 -1       325 2.66270E+01 2.99612E+01 1.33653E+01 6.23254E+00 1.73698E-01 1.60215E-01
 -1       326 2.14383E+01 3.08215E+01 1.29136E+01 5.15393E+00 3.32068E-01 1.09447E+00
 -1       327 2.19298E+01 3.48005E+01 1.34915E+01 4.94565E+00-1.95192E-01 3.28329E-01
 -1       328 2.77267E+01 4.28824E+01 1.61240E+01 6.26177E+00-2.74206E-01 7.62880E-01
 -1       329 2.48946E+01 3.72349E+01 1.45511E+01 6.33795E+00 1.15642E-01 2.97249E-01
 -1       330 2.96207E+01 3.92276E+01 1.51356E+01 6.34830E+00 1.39588E-01 7.46922E-01
 -1       331 2.18578E+01 3.23956E+01 1.02055E+01 6.04043E+00 6.71595E-01 1.13508E+00
 -1       332 2.74381E+01 4.25311E+01 1.28322E+01 2.75609E+00 3.55249E-01 2.48537E+00
 -1       333 4.10785E+01 6.84200E+01 3.19749E+01 1.75387E+00-9.11193E-02-3.05209E+00
 -1       334 3.58309E+01 4.70237E+01 2.26801E+01 8.35686E+00-1.83486E-02 5.77969E-01
 -1       335 2.57946E+01 3.72070E+01 1.81747E+01 7.04843E+00 6.35272E-01-9.80243E-01
 -1       336 3.61853E+01 5.10807E+01 2.56618E+01 7.74692E+00-1.70009E-01 6.18818E-01
 -1       337 3.65061E+01 4.89696E+01 2.42419E+01 8.48369E+00 5.87589E-02-5.03398E-02
 -1       338 3.66949E+01 5.10835E+01 2.53074E+01 7.35170E+00 4.57319E-01-9.31622E-01
 -1       339 3.02002E+01 4.40194E+01 2.10089E+01 7.98845E+00-1.11705E-01 6.91864E-01
 -1       340 3.00685E+01 4.87895E+01 2.12420E+01 6.22966E+00 4.89445E-01 5.02405E-01
 -1       341 3.00870E+01 3.40107E+01 1.93770E+01 8.29382E+00-1.77538E-01-9.12282E-01
 -1       342 2.68277E+01 3.58866E+01 1.82833E+01 9.58847E+00-2.95172E-01 7.60191E-01
 -1       343 3.30567E+01 4.45665E+01 2.08728E+01 8.06163E+00-6.06248E-02 4.97672E-03
 -1       344 3.00690E+01 4.56824E+01 2.15604E+01 7.23920E+00 4.78194E-01 3.53891E-01
 -1       345 2.68921E+01 3.94191E+01 2.03455E+01 6.76198E+00-6.74491E-01 4.12126E-01
 -1       346 3.12045E+01 4.65081E+01 1.99475E+01 8.85611E+00 2.06187E-01-1.26528E+00
 -1       347 3.86931E+01 4.70149E+01 2.55447E+01 8.53312E+00 5.35196E-01-2.06618E-01
 -1       348 3.77713E+01 4.74143E+01 2.52564E+01 8.14122E+00-1.82577E-01 3.96241E-01
 -1       349 3.15823E+01 4.75382E+01 2.15108E+01 7.28490E+00-1.39734E-01 2.87167E-01
 -1       350 3.46051E+01 5.31474E+01 2.54730E+01 4.98857E+00-1.14174E-01 2.05867E+00
 -1       351 3.44037E+01 5.17123E+01 2.34637E+01 7.17541E+00 4.27029E-01-4.60843E-01
 -1       352 2.70526E+01 4.08750E+01 1.97925E+01 5.54790E+00 5.63493E-01-5.71276E-01
 -1       353 2.66091E+01 3.61811E+01 1.82475E+01 6.12473E+00 1.73333E-01-4.52830E-01
 -1       354 2.83838E+01 3.20391E+01 1.81251E+01 6.23656E+00-4.47840E-01 4.49476E-01
 -1       355 3.37793E+01 5.61355E+01 2.48072E+01 4.09351E+00-5.15846E-01 1.13717E+00
 -1       356 3.54201E+01 5.46208E+01 2.48937E+01 5.61138E+00 8.62941E-02-1.07782E-01
 -1       357 3.34183E+01 5.38238E+01 2.47251E+01 4.43989E+00 6.49466E-01-1.18760E+00
 -1       358 2.60433E+01 3.61879E+01 1.88135E+01 6.19818E+00-9.91538E-02 1.09835E-01
 -1       359 3.37396E+01 5.35459E+01 2.44055E+01 5.97796E+00-1.98548E-01 1.23285E+00
 -1       360 3.45342E+01 5.16093E+01 2.39037E+01 5.75535E+00 4.24827E-01-1.15001E+00
 -1       361 2.70525E+01 3.36562E+01 1.87325E+01 5.25326E+00 6.35559E-01-3.53025E-01
 -1       362 3.20821E+01 5.12613E+01 2.25213E+01 6.22800E+00-5.98637E-01 1.50656E+00
 -1       363 3.20892E+01 5.25341E+01 2.30038E+01 4.66996E+00 2.42555E-01-1.59749E+00
 -1       364 2.46528E+01 3.04348E+01 1.69557E+01 6.81126E+00-3.05416E-01-3.36358E-01
 -1       365 2.87894E+01 3.41836E+01 1.82308E+01 8.07962E+00-6.50085E-01-4.01088E-01
 -1       366 3.42935E+01 4.68628E+01 2.18524E+01 7.85976E+00-1.11007E-01 1.26760E-01
 -1       367 3.41204E+01 4.81042E+01 2.28205E+01 7.41624E+00 6.96991E-01-3.91798E-01
 -1       368 2.42339E+01 2.97089E+01 1.69586E+01 6.02197E+00-3.42558E-01 5.24852E-01
 -1       369 2.87823E+01 4.28494E+01 1.91827E+01 6.98628E+00-5.43039E-01 2.47777E-01
 -1       370 3.31913E+01 5.54479E+01 2.42952E+01 7.15378E+00 2.31590E-01 1.53166E+00
 -1       371 2.99841E+01 4.44833E+01 2.28652E+01 7.22264E+00-5.04830E-01-2.17766E+00
 -1       372 3.69842E+01 4.90911E+01 2.33850E+01 8.90633E+00-5.00837E-01 9.54990E-02
 -1       373 3.49609E+01 5.19237E+01 2.33752E+01 9.08464E+00 4.30903E-01-5.21820E-01
 -1       374 2.84437E+01 3.57499E+01 1.90467E+01 6.35973E+00 5.05162E-01 7.12386E-01
 -1       375 2.65293E+01 4.14174E+01 1.98447E+01 5.41903E+00-4.22449E-01 1.11773E+00
 -1       376 2.87222E+01 4.13831E+01 1.97678E+01 5.29540E+00-1.72288E-01-1.05787E+00
 -1       377 2.74645E+01 3.42093E+01 1.74870E+01 7.03966E+00-4.91694E-02-5.96246E-02
 -1       378 3.25127E+01 4.95324E+01 2.22353E+01 7.43205E+00-2.38310E-01 1.54190E+00
 -1       379 3.10986E+01 5.08200E+01 2.29603E+01 6.50821E+00 3.47685E-01-1.08523E+00
 -1       380 3.45171E+01 5.10016E+01 2.47465E+01 8.54525E+00-1.95186E-01-1.01678E-01
 -1       381 3.67699E+01 4.81611E+01 2.39110E+01 9.51823E+00 7.47007E-02-5.59407E-01
 -1       382 3.28905E+01 5.16332E+01 2.43275E+01 6.40232E+00-5.17368E-01 1.00404E+00
 -1       383 3.77896E+01 5.04745E+01 2.48739E+01 8.73364E+00-7.81168E-02-1.21952E-01
 -1       384 3.38552E+01 4.94944E+01 2.17590E+01 7.45902E+00 6.77046E-01-7.56465E-02
 -1       385 2.74176E+01 3.96482E+01 2.09592E+01 7.62554E+00 3.73461E-01 7.71585E-01
 -1       386 3.80128E+01 4.98088E+01 2.42598E+01 8.47684E+00-1.24609E-01-6.62212E-01
 -1       387 3.74810E+01 4.98710E+01 2.43762E+01 8.90564E+00 5.90780E-01 4.49123E-01
 -1       388 3.66350E+01 5.86583E+01 2.75458E+01 7.13518E+00-5.17368E-01 5.88796E-01
 -1       389 4.09229E+01 5.33046E+01 2.63351E+01 1.03169E+01 1.89313E-01-3.73565E-01
 -1       390 3.46425E+01 5.43382E+01 2.47136E+01 7.21496E+00 5.63900E-01 4.69535E-01
 -1       391 2.89064E+01 3.62121E+01 1.93098E+01 6.46889E+00 7.66633E-01-5.81735E-01
 -1       392 3.33537E+01 4.91163E+01 2.28932E+01 7.67852E+00-4.28922E-01 6.01270E-01
 -1       393 3.47913E+01 4.75331E+01 2.25245E+01 9.02311E+00 7.83667E-02 1.36243E-01
 -1       394 3.20499E+01 4.75934E+01 2.24789E+01 7.19018E+00 5.95618E-01-2.78879E-02
 -1       395 3.00697E+01 4.95889E+01 2.29364E+01 7.65715E+00-1.04562E-01 2.93856E-02
 -1       396 3.70203E+01 4.96836E+01 2.37722E+01 8.98320E+00-4.12888E-01-2.67183E-01
 -1       397 3.48586E+01 5.00655E+01 2.34529E+01 9.74240E+00 2.79713E-01 2.96786E-01
 -1       398 3.59773E+01 4.73349E+01 2.34052E+01 9.40410E+00 2.06837E-01 9.15453E-01
 -1       399 3.43563E+01 4.90033E+01 2.36176E+01 7.75055E+00 2.24359E-01-6.59497E-02
 -1       400 2.65562E+01 3.41369E+01 1.62094E+01 7.44796E+00 6.55997E-03 1.09433E+00
 -1       401 2.27455E+01 3.63485E+01 1.69927E+01 5.16528E+00-2.32518E-01 4.99668E-01
 -1       402 2.83349E+01 4.03819E+01 1.89200E+01 6.05731E+00-5.03985E-01 2.76407E-01
 -1       403 3.39422E+01 5.45057E+01 2.37708E+01 5.77376E+00-4.61491E-01 1.38125E+00
 -1       404 3.56013E+01 6.06740E+01 2.70600E+01 5.01371E+00-1.61241E-01 3.13294E-01
 -1       405 3.85729E+01 5.66384E+01 2.59901E+01 6.42783E+00 1.80528E-01-4.86897E-01
 -1       406 3.21396E+01 4.98784E+01 2.29813E+01 6.39224E+00 3.11734E-01-9.21250E-01
 -1       407 2.65833E+01 3.66831E+01 1.79657E+01 8.73153E+00-2.18157E-01 7.48108E-01
 -1       408 3.36415E+01 4.38100E+01 1.95912E+01 8.45425E+00 4.19693E-01-2.61578E-01
 -1       409 2.58987E+01 4.02117E+01 1.98335E+01 6.24929E+00 8.04596E-01 1.31376E+00
 -1       410 3.67206E+01 4.95982E+01 2.21075E+01 2.46939E+00 4.60804E-01 1.60076E+00
 -1       411 3.92387E+01 5.35810E+01 2.62653E+01 3.97599E+00 8.39114E-02-1.52509E+00
 -1       412 2.51203E+01 3.49110E+01 1.67391E+01 5.66620E+00-1.80753E-01-1.16392E-01
 -1       413 2.69999E+01 3.91272E+01 1.80572E+01 4.53777E+00-5.88106E-01 1.21406E+00
 -1       414 3.31004E+01 4.92979E+01 2.10693E+01 6.49940E+00-2.29016E-01 9.89313E-01
 -1       415 3.01302E+01 5.00395E+01 2.14041E+01 4.85389E+00 3.81349E-01-1.52074E+00
 -1       416 3.10002E+01 4.35250E+01 2.09473E+01 9.20240E+00 8.81536E-02 6.78311E-01
 -1       417 2.76817E+01 3.78737E+01 1.71299E+01 6.07963E+00-2.11001E-01 1.56400E+00
 -1       418 2.78251E+01 3.81195E+01 1.76552E+01 5.90124E+00 2.88595E-01-6.04873E-01
 -1       419 2.92298E+01 4.25586E+01 1.72962E+01 6.98965E+00 2.33838E-01 8.07636E-01
 -1       420 2.31267E+01 3.09154E+01 1.47127E+01 5.88094E+00 6.91846E-01-5.11989E-01
 -1       421 2.64613E+01 3.26673E+01 1.60738E+01 5.74707E+00-6.33753E-01 8.96910E-01
 -1       422 3.12076E+01 4.77931E+01 1.91654E+01 7.03936E+00-2.88125E-01 1.08134E+00
 -1       423 2.87764E+01 4.84461E+01 1.92985E+01 5.35644E+00 5.27118E-01-6.74651E-01
 -1       424 2.60287E+01 3.06725E+01 1.47534E+01 7.26571E+00 1.74486E-01 4.67859E-01
 -1       425 2.47167E+01 3.14966E+01 1.35901E+01 5.70113E+00 6.68169E-01 8.09272E-01
 -1       426 2.29048E+01 3.33332E+01 1.43989E+01 5.71968E+00-1.16974E-01 7.95166E-01
 -1       427 2.66253E+01 4.31826E+01 1.64568E+01 5.41407E+00-4.04983E-01 1.14037E+00
 -1       428 2.76548E+01 4.26474E+01 1.66036E+01 6.27590E+00-2.47421E-02-2.74222E-01
 -1       429 2.94218E+01 4.03124E+01 1.59894E+01 6.70101E+00-5.98832E-02 3.97160E-01
 -1       430 2.79896E+01 3.99114E+01 1.50797E+01 6.10439E+00 4.78093E-01 1.01516E+00
 -1       431 2.93498E+01 3.79715E+01 1.30696E+01 6.80625E+00 4.88818E-01 1.16840E+00
 -1       432 2.87097E+01 4.87604E+01 1.12941E+01 1.48121E+00 1.89426E+00 2.95531E+00
 -1       433 2.53503E-01 1.24316E-02-2.80562E-01 1.30305E-01-1.43990E-02 5.21418E-03
 -1       434 1.56922E-01 2.39154E-03-3.57909E-01 5.47061E-02 2.09741E-02 1.66951E-02
 -1       435 1.64936E-01-1.44669E-02-1.95638E-01 2.33253E-02-2.38913E-02-5.22758E-02
 -1       436 1.87068E+00 2.45745E-01 3.06039E-01 3.95388E-01-3.05040E-02-3.72896E-02
 -1       437 2.40905E+00 3.96672E-01 5.16650E-01 5.83361E-01-1.40325E-03-1.05363E-02
 -1       438 2.41586E+00 3.55718E-01 3.88161E-01 5.66667E-01-5.44418E-02-8.25329E-02
 -1       439-7.76509E-03-4.51392E-03 6.75770E-02-3.54932E-03-4.66007E-03 9.07515E-04
 -1       440 1.21818E-03-5.94328E-03 4.02686E-02-2.09929E-02 1.55089E-03 2.80029E-03
 -1       441-5.05346E-03-2.14643E-02 8.35501E-02-2.82622E-02-1.56670E-03-1.04927E-02
 -1       442-8.25004E-03-2.08693E-02-7.25072E-02 1.82449E-02 6.15534E-03-3.51975E-03
 -1       443-2.39499E-02-3.49423E-02-8.13819E-02 3.20497E-02 5.92223E-03-2.51810E-03
 -1       444-3.00190E-02-2.21405E-02-5.19862E-02 1.46272E-02 7.54241E-04-3.75936E-04
 -1       445 3.75285E-02 4.61114E-02 6.17342E-02 6.86698E-02-1.49777E-02 6.52593E-03
 -1       446 3.12854E-02 3.62833E-02 9.45685E-02 6.27913E-02-9.50980E-03 5.05867E-03
 -1       447 4.40119E-02 6.04047E-02 6.46164E-03 5.49461E-02 5.64801E-03-4.58065E-03
 -1       448-6.36084E-01-2.31856E-02-1.98096E-01 5.83766E-01 1.06144E-01-1.79488E-02
 -1       449-4.91844E-01 8.19606E-02-1.83467E-01 5.49979E-01 3.54194E-02 1.88311E-03
 -1       450-5.17152E-01 4.59787E-02-1.34037E-01 5.82597E-01 2.19931E-01-9.07171E-03
 -1       451 1.18618E+00 5.65886E-02 1.77868E-01 6.57077E-01-9.51070E-03-6.32557E-02
 -1       452 1.25782E+00 5.32288E-03 2.34582E-01 4.83123E-01 1.16831E-02-3.02809E-02
 -1       453 1.45326E+00 9.96765E-02 1.44215E-01 5.84570E-01-8.17149E-03-1.97351E-01
 -1       454-5.17763E-01 3.66644E-01-8.80390E-02 5.74837E-01-1.20710E-01 8.20294E-03
 -1       455-5.88984E-01 4.48982E-01-1.28071E-01 3.71868E-01 5.50984E-03-3.96469E-03
 -1       456-4.92720E-01 3.12446E-01-1.14996E-01 4.04075E-01-2.14283E-01-1.11147E-02
 -1       457 1.18769E+00-5.50680E-01 1.00927E-01 6.61897E-01 1.59397E-02 9.20210E-02
 -1       458 1.14619E+00-8.90629E-01 3.17642E-02 3.56833E-01-1.50261E-02-2.27453E-02
 -1       459 1.32203E+00-8.28559E-01 7.48368E-02 5.13160E-01 2.67813E-02 2.54448E-01
 -1       460 9.06244E+00 8.68779E+00 4.13310E+00-1.34148E+00 1.81538E-02-1.59598E-02
 -1       461 4.72769E+00 3.67728E+00 1.37133E+00-5.96210E-01 4.63325E-04-2.09139E-04
 -1       462 2.66046E+00 1.51085E+00 3.05865E-01-4.69167E-01 2.94998E-03-3.60882E-03
 -1       463 2.09566E+00 2.97117E-02-3.68142E-01 2.17629E-01-3.84774E-03-5.61344E-03
 -1       464 3.97259E+00 1.42111E-02 7.77235E-02 6.49052E-01-5.88217E-02-6.37427E-03
 -1       465 9.40079E+00 2.72192E+01 9.80810E+00-8.83148E-01-9.59615E-03-5.22775E-02
 -1       466 1.12309E+00-9.32766E-03-2.69766E-01 1.65467E-01-1.20524E-03 3.04430E-03
 -1       467 1.55356E+00 3.27476E-01 3.32208E-03-3.82162E-01 1.30201E-03 3.04231E-04
 -1       468 6.45885E+00 5.63219E+00 2.46593E+00-8.04419E-01-1.96224E-03-4.14347E-03
 -1       469-9.64998E-01 1.82949E-01-2.61672E-02-7.05229E-02 1.53528E-03-1.16233E-03
 -1       470 9.55524E+00 6.96401E-01 2.43605E+00 4.76013E+00 1.46091E-01 1.31209E-01
 -1       471 5.23725E+00 1.03805E+01 3.39860E+00 5.56587E+00 2.32578E-02 1.37691E-01
 -1       472 2.60672E-01 2.51198E-01 7.36434E-02 8.57370E-01-6.52939E-03 9.89775E-03
 -1       473 3.81090E-03 3.68922E-01-1.13570E-02 8.41245E-01-1.25238E-02-2.50942E-03
 -1       474-1.32814E-02 2.51691E-01-6.30008E-03 6.91080E-01 2.90494E-03 1.31355E-04
 -1       475 2.00105E-01 4.07321E-01-2.85993E-02 6.67323E-01 3.21320E-04 6.13168E-04
 -1       476 6.98385E-02-1.15835E+00-4.89313E-02-6.04638E-01 1.14205E-02 4.07923E-03
 -1       477-4.72624E-01-3.51886E-02-1.62151E-03-5.57091E-01-4.35572E-03 3.25710E-03
 -1       478-1.20787E-01 4.24876E-01-2.10834E-02 5.42500E-01-5.84333E-04-1.75578E-04
 -1       479 2.24639E-01 6.99715E-01-3.74370E-02 6.15006E-01-5.17373E-03 2.70652E-03
 -1       480 6.21924E-01 4.57272E-01-4.52816E-02 6.42739E-01 1.52926E-03-8.73034E-05
 -1       481 6.49719E-01 9.67890E-01-4.57505E-02 7.56978E-01-1.98420E-03-4.13497E-04
 -1       482 1.54426E-01 1.16473E+00-2.62510E-02 4.61385E-01 1.35792E-02 3.30716E-03
 -1       483 5.19465E-01 1.77827E+00 1.52174E-02 6.23619E-01 4.58279E-03 4.93908E-03
 -1       484 7.01507E-02 1.54376E+00-2.51251E-02 8.25844E-02-2.62488E-03-1.11743E-03
 -1       485 4.32082E-01 2.34147E+00 7.40980E-02-7.00380E-02-1.08668E-03 1.56991E-03
 -1       486 9.80428E-02 1.48204E+00-3.48194E-02-4.62084E-01 9.26161E-03-2.13014E-03
 -1       487 8.17992E-01 2.61523E+00 1.70696E-01 6.31909E-01 1.00744E-02-1.08296E-03
 -1       488 6.63762E-01 1.73806E+00 2.24474E-02-7.97724E-01 6.00180E-03-1.15846E-03
 -1       489 2.30312E-01 8.75287E-01-4.70622E-02-8.53046E-01-2.04441E-03-7.66851E-05
 -1       490-1.85725E-01 7.95459E-01-4.48209E-02-6.30544E-01 3.64516E-03-2.82214E-03
 -1       491-2.33624E-01 9.61410E-01-3.13924E-02 4.98092E-02 2.65206E-03 2.19436E-03
 -1       492 1.13290E+00 4.78613E-01-7.88721E-02 7.35851E-01 1.76847E-03 2.92136E-03
 -1       493 9.24653E-01 1.75230E-01-8.47916E-02 4.50842E-01-2.64214E-03-2.05799E-03
 -1       494-5.51117E-02 2.63199E-01-4.27395E-02-8.55495E-01 2.89062E-03 6.44866E-05
 -1       495-4.24159E-01 1.68121E-01-1.05406E-02 4.23710E-01-1.55250E-03-1.46345E-03
 -1       496 1.45054E+00 1.26066E-02-3.52205E-01 1.44564E-01-1.57149E-03 1.68247E-03
 -1       497 1.13034E+00 1.21455E+00-5.55882E-03 9.72880E-01 1.14292E-03 3.70163E-03
 -1       498 7.89030E-01 6.49411E-01-3.82479E-02-8.99124E-01 2.74157E-03-1.94567E-03
 -1       499 4.72360E-01-1.09170E+00-7.20330E-02-3.28673E-01 1.76429E-04-9.78990E-04
 -1       500 9.20366E-01-8.33980E-02-2.25070E-01 1.87712E-01-2.11700E-03 3.69548E-03
 -1       501 1.64424E+00 4.26615E-01-1.07878E-01 7.77863E-01-6.53439E-03-3.62230E-04
 -1       502 1.85229E+00 1.35177E+00 7.58162E-02 1.26449E+00-3.10354E-04 5.34699E-03
 -1       503 2.08532E+00 2.69808E-01-1.68584E-01 6.60880E-01 3.97128E-03 8.37559E-03
 -1       504 1.10350E+00 2.84035E+00 2.53764E-01-6.28542E-01-1.75549E-03 7.40935E-04
 -1       505 1.45707E+00 4.44696E+00 7.07068E-01 2.16711E-01 1.44213E-03 8.99208E-04
 -1       506 1.58217E+00 1.87637E+00 1.81159E-01-9.25718E-01 2.44554E-03-1.06501E-03
 -1       507 2.49158E+00 1.17983E-02-3.10767E-01 2.60196E-01-2.43149E-04 6.06296E-03
 -1       508 2.86145E+00 5.10814E-01-2.23552E-02 9.86696E-01-1.87932E-02-4.65127E-03
 -1       509 3.71342E+00 1.20233E+00 4.00982E-01 1.75957E+00 1.19968E-02 1.61972E-02
 -1       510 3.02444E+00 1.75543E+00 4.14742E-01 1.82645E+00 3.38932E-03-1.14422E-02
 -1       511 2.53409E+00 4.43927E+00 9.94448E-01 2.25021E+00-4.42140E-03-1.45047E-02
 -1       512 1.99070E+00 2.90929E+00 4.54651E-01 1.65427E+00-8.00041E-03 6.93175E-03
 -1       513-6.72611E-02 2.14631E-01 5.66425E-02 5.44673E-01-5.07338E-03 3.30695E-03
 -1       514 2.13207E+00 2.95951E+00 4.93265E-01-9.76576E-01-2.49077E-03 4.57987E-03
 -1       515 3.65272E-01 2.94010E-01-4.48260E-02 4.39987E-01-2.94320E-03-1.28005E-03
 -1       516 7.94625E-01 1.06729E-01-4.62831E-02 1.81057E-01-1.55501E-03 6.81102E-04
 -1       517 2.59704E-01 2.80052E-01-4.73207E-02 1.47391E-01 3.49183E-03 1.24730E-03
 -1       518-4.12160E-01 2.74323E-01-2.76801E-02-6.86532E-01 9.20969E-04-1.27860E-03
 -1       519 3.28495E+00 2.17695E+00 5.86009E-01-5.27177E-01 3.83279E-03-1.00021E-03
 -1       520 3.16959E-01-5.93287E-01-8.13392E-02 6.60634E-03-1.35397E-02-5.67464E-03
 -1       521 6.08509E+00 1.25097E+01 4.44459E+00-1.50634E+00 5.65077E-02 4.55174E-02
 -1       522 3.12866E+00 1.01955E+01 2.87002E+00 1.87742E+00 2.62742E-02 4.12226E-02
 -1       523 4.05220E+00 8.99847E+00 2.76203E+00-8.44354E-01 7.00627E-03 9.67070E-04
 -1       524 1.77441E+00 2.51878E-02-3.84466E-01 1.63882E-01 5.02368E-04 2.88122E-03
 -1       525-1.05191E-01-5.39275E-01-1.84740E-03-6.36508E-01 1.11650E-02-9.52203E-03
 -1       526-4.85024E-01 5.94339E-01-3.43458E-02-3.29360E-01-1.07967E-03 2.02675E-03
 -1       527 2.36534E+00 7.65015E+00 1.87248E+00 1.00027E+00-1.63148E-02 4.32205E-02
 -1       528 3.56701E+00 6.60651E+00 1.90748E+00-1.05128E+00 4.59061E-03-8.51017E-03
 -1       529 1.93989E+00 5.78172E+00 1.19363E+00 4.59950E-01-2.65366E-03 4.00008E-03
 -1       530 2.47091E+00 5.13886E+00 1.16074E+00-7.72736E-01 7.81076E-03 1.56603E-03
 -1       531-8.42137E-01 1.26827E-01-1.51156E-02-4.03431E-01 2.90163E-03-3.71588E-05
 -1       532-3.19687E-01 1.01228E-01 2.03567E-02 3.88528E-01 1.49353E-03-4.76905E-03
 -1       533 9.94914E-01-3.20805E-01-5.46091E-02-3.64627E-01-1.84006E-03-2.91535E-03
 -1       534 5.10435E-01-4.46792E-01-5.73168E-02-7.20108E-01 3.93335E-03-5.66796E-03
 -1       535 5.55937E+00 4.56518E+00 1.87933E+00-6.74119E-01 3.17531E-03-3.40983E-03
 -1       536 4.23704E+00 4.55098E+00 1.48572E+00-1.11825E+00 8.32450E-03-1.09865E-02
 -1       537 3.77613E+00 3.56034E+00 1.07014E+00-9.31545E-01-4.74131E-04-6.31281E-03
 -1       538 2.08490E+00 9.31252E-01 1.10014E-01-4.48846E-01-1.71844E-03-1.26890E-03
 -1       539 7.62772E+00 6.94392E+00 3.21187E+00-1.02978E+00 2.57625E-03-3.27875E-03
 -1       540 4.98188E+00 3.59112E+00 1.41399E+00 3.57253E+00-2.62266E-03-1.89014E-03
 -1       541 5.67754E+00 6.79880E+00 2.59350E+00-1.42909E+00 5.43178E-03-1.90734E-02
 -1       542 1.26794E+00 1.50256E-01-1.47813E-01 4.66259E-01-2.14284E-03-2.87042E-03
 -1       543-5.14588E-01 3.41778E-01-2.28987E-02 2.51914E-01 1.58126E-04-1.66672E-03
 -1       544 3.44603E+00 7.79732E-02-3.97374E-02 5.44361E-01 1.82789E-02-1.95596E-02
 -1       545 1.48573E+00 9.01889E-01 4.35810E-02-7.85956E-01 3.19380E-03-3.08899E-03
 -1       546 6.75231E+00 5.12072E-01 1.09865E+00 2.36495E+00-8.45442E-02-8.61457E-02
 -1       547-1.03111E+00 6.93031E-02-2.89983E-02 1.66855E-01 7.96054E-05-1.63588E-03
 -1       548 2.53597E+00 9.00789E-01 7.50015E-02 1.27298E+00-1.21587E-02 3.59354E-03
 -1       549 1.30702E+00 2.55063E+00 2.40248E-01 1.15656E+00-2.14613E-03 6.21120E-04
 -1       550 3.93703E+00 2.91673E+00 9.40955E-01-5.77919E-01-3.97394E-03-1.44028E-03
 -1       551-1.66620E-01 6.96006E-01-3.07210E-02 3.66420E-01-8.13036E-04-5.55209E-04
 -1       552 8.39199E-01 7.60167E-02 6.34296E-02 2.45774E-02 1.31675E-02-3.42588E-03
 -1       553 5.13529E+00 5.52040E+00 2.03278E+00-1.13949E+00 5.90951E-04-8.50343E-03
 -1       554 2.43463E+00 2.04066E+00 3.53078E-01-8.41405E-01-4.14258E-03 2.25389E-03
 -1       555 2.81118E-01 2.04021E-01-5.44118E-02-8.98202E-01 1.58011E-03-2.83062E-05
 -1       556 1.07116E-01-2.02161E+00-1.01936E-01-2.07344E-01 2.12042E-03 6.06518E-04
 -1       557 1.06228E+00 1.99411E-01-3.25401E-02-6.67596E-01 1.64604E-03-5.91490E-03
 -1       558 2.12688E-02-1.04226E-01-4.02535E-02-4.41742E-01 1.34723E-02-6.79087E-03
 -1       559 1.06065E+01 1.12168E+01 5.35949E+00-2.02919E+00 2.81303E-02-8.26389E-02
 -1       560 9.67860E-01 1.98403E+00 8.61380E-02 9.45401E-01 2.07553E-03 3.54565E-03
 -1       561 1.65550E+00 3.86242E+00 6.10058E-01-5.61011E-01 4.83075E-03-4.53311E-04
 -1       562-4.82409E-01 5.63228E-01-2.85576E-02 5.11984E-02 3.57844E-03 3.54198E-04
 -1       563-1.59661E-01-1.67162E-01 4.12033E-02-2.80043E-01 2.10187E-03 6.80122E-03
 -1       564-8.37299E-01 2.93784E-02-1.88906E-02 2.48683E-01 1.71719E-03-5.80972E-04
 -1       565-2.43880E-01 2.63272E-01-1.24765E-01 4.48499E-01 1.25558E-03-1.10460E-02
 -1       566 2.38022E+00 2.60167E-01-1.70537E-01 6.23325E-01-6.99899E-03-1.85293E-03
 -1       567 6.42542E+00 8.38077E+00 3.31160E+00-1.57461E+00 4.81437E-02-4.27287E-02
 -1       568 1.06218E+00 1.01178E-02-1.39130E-01 3.11666E-01-8.56175E-04-8.37466E-04
 -1       569 1.04194E+00-8.58631E-02-7.93972E-02 1.59598E-01 1.22947E-02 2.78500E-02
 -1       570 4.14901E-01 3.40835E-01 1.00309E-01 2.00140E-01 5.61331E-03-6.02845E-03
 -1       571 2.94147E-01 7.30601E-02 1.73473E-02-1.34506E-01-1.01871E-02-6.11549E-04
 -1       572 4.33253E-01 1.83997E-01 8.35834E-02 4.52301E-01-1.22746E-02-2.90197E-02
 -1       573-1.84517E-01 1.09906E+00-3.98596E-02-2.80077E-01 5.97267E-03 1.45307E-04
 -1       574 1.47631E+00 1.22324E-01-2.10383E-01 3.91414E-01-7.48001E-03-7.50478E-03
 -1       575 1.38697E-01-2.09936E-02 1.01524E-02-2.41941E-01 4.10220E-03-3.44035E-03
 -1       576 1.29066E-01-9.40018E-02 2.93437E-02 5.09253E-01 7.57205E-03 9.32104E-03
 -1       577-6.56573E-01-6.46562E-02-2.54368E-01-1.89283E-01-3.67883E-04 1.79493E-02
 -1       578 3.06089E+00 2.85805E+00 6.95171E-01-8.89990E-01 7.04460E-03-5.74497E-03
 -1       579 1.63496E+00 4.42363E+00 7.49256E-01 1.07244E+00 1.34196E-02-3.42050E-03
 -1       580 2.76084E+00 3.96743E+00 9.12572E-01-1.00983E+00-8.54659E-03 8.84209E-03
 -1       581 4.13117E-02-2.92766E-01-3.44901E-02-8.63968E-01-5.99731E-04-5.21120E-04
 -1       582-1.67301E-01 1.05335E-01 1.54663E-02 5.37790E-01 1.24133E-03 2.56359E-03
 -1       583 2.06375E+00 1.43192E+00 1.83037E-01-7.39450E-01 6.90802E-03-7.47396E-03
 -1       584-2.02954E-01-7.82920E-02-4.16596E-02-7.94411E-01-2.84289E-03-1.06124E-02
 -1       585 1.19046E+00 3.48162E+00 4.13438E-01 8.11432E-01 8.19636E-03 3.06857E-03
 -1       586 9.53903E-01 3.35958E+00 3.26067E-01 6.10205E-02 3.20843E-04 1.32298E-03
 -1       587 8.51824E-01 2.24642E-01 5.34132E-02-4.86715E-02 2.63338E-03 5.19972E-03
 -1       588 5.73639E-01-2.86870E-01-6.83250E-02 4.63756E-01-4.27770E-02-2.36858E-04
 -1       589 1.69868E-01-1.40272E+00-6.26427E-02-4.83697E-01 6.20239E-04-5.33259E-03
 -1       590 1.11864E+00 1.29342E+00 3.08961E-02-8.72830E-01 1.25309E-03-3.82813E-03
 -1       591 1.88799E-01-1.84708E+00-9.53308E-02-1.11794E-01-2.17280E-03-6.81769E-03
 -1       592 4.58092E-02-2.65677E+00-1.65695E-01-7.80145E-02 4.43098E-03 4.41249E-03
 -1       593 3.86732E-02-2.47420E+00-1.50090E-01-1.16864E-01-5.30232E-03-1.10242E-02
 -1       594 2.26963E+01 4.59278E+01 1.91554E+01 4.83271E-01 1.69291E+00-6.71194E-02
 -1       595 1.41591E+01 2.21769E+01 1.07782E+01-2.75993E+00 5.77984E-02-1.58214E-01
 -1       596 1.14421E+01 1.46506E+01 5.68607E+00 4.94657E+00-1.79794E+00 6.86024E-01
 -1       597 1.23877E+00 7.20179E-02 4.86811E-02 3.23722E-01-4.72014E-02-1.30234E-02
 -1       598 5.18097E-01-6.12445E-02-2.60276E-01 1.62197E-01 7.39592E-03 1.69026E-02
 -1       599 5.66052E-01-1.55151E-02-2.95930E-01 1.47148E-01-7.75805E-03-1.58110E-02
 -1       600 8.44216E-01-3.36385E-02-2.97779E-01 1.03458E-01-3.36242E-04-2.89709E-04
 -1       601 9.63189E-01-1.07480E-01-1.59544E-01 1.87994E-01-2.52462E-03 2.09493E-02
 -1       602 1.18955E+00-6.58845E-02 1.19201E-01 1.85586E-02-4.04033E-03-3.81742E-03
 -1       603 1.38246E+00 1.51734E-01 2.03979E-01 1.53169E-01 3.32291E-02 4.46694E-02
 -1       604 8.76357E-01 1.94678E-01 8.69172E-02 2.13589E-02 1.73356E-02-2.63302E-02
 -1       605 1.39048E+00 2.53198E-01 1.99505E-01 1.75628E-01-1.38381E-03 1.99180E-03
 -1       606 1.05671E+00 1.16572E-01 2.95446E-02 4.99568E-02 2.36025E-02 3.31509E-02
 -1       607 5.67852E-02 2.43401E-02-1.03703E-02-9.37076E-02 2.27025E-03 1.23099E-02
 -1       608-2.09698E-01 5.29932E-02-1.05579E-01-1.44769E-01 1.49658E-02-1.41566E-02
 -1       609 2.31984E-01-9.11629E-02-2.17743E-02-3.50137E-02 5.79786E-03-1.94510E-02
 -1       610 4.10494E-02 1.07003E-02-1.56197E-02-9.83526E-02-2.60937E-03 1.93995E-03
 -1       611 3.21689E-02 2.87787E-01 3.89407E-02-1.70739E-01 1.54931E-02 1.35194E-02
 -1       612 1.93498E-01-6.03598E-02 3.82596E-02-1.17276E-01-5.20796E-04-4.97642E-04
 -1       613-7.44553E-02-7.69539E-02 6.64870E-02-9.22665E-02 1.33838E-03 4.62456E-03
 -1       614-1.99739E-01-5.96930E-02 5.51241E-02-1.40409E-01-7.79906E-03 1.22160E-02
 -1       615-5.45936E-02-2.23863E-01 5.65468E-02-1.54463E-01-1.59011E-02 1.02286E-02
 -1       616-3.45550E-01 5.33168E-01-1.39364E-02 3.98666E-01-3.76748E-03 2.09017E-02
 -1       617 7.37203E-02 2.82333E-01 2.32964E-02 4.84108E-01 2.05815E-02-2.52696E-02
 -1       618 5.51071E-02 5.27940E-01 1.03262E-01 3.92269E-01 1.01549E-02 1.05117E-02
 -1       619-2.64440E-01 6.57651E-01 6.94695E-02-3.41799E-02-3.16091E-03-7.50402E-03
 -1       620-7.63920E-01-1.81578E-01-3.58420E-01 1.54149E-01 4.92916E-03 1.77698E-02
 -1       621-8.51247E-01-7.36813E-01-4.97929E-01-1.51608E-01-1.62133E-02 2.10220E-03
 -1       622 7.79691E-01 8.09772E-01 3.65740E-01 7.09245E-01-4.43412E-02-1.65321E-02
 -1       623-1.91517E-01-8.31628E-01-2.96274E-01-1.29848E-01-8.75530E-03-3.19611E-02
 -1       624 6.37087E-01-7.33985E-01-3.68588E-02 3.61794E-02 2.40042E-03-2.10571E-02
 -1       625 6.33843E-01-3.81328E-01 6.05502E-02 5.41435E-01 1.37711E-02 2.85212E-02
 -1       626 5.13110E-01 4.57394E-01 2.51937E-01 1.10452E+00-2.73781E-02-1.30197E-02
 -1       627 6.11067E-01-4.48568E-01 1.68622E-02 5.00761E-01 1.32767E-02 5.19509E-02
 -1       628 3.64480E-02 9.54031E-02 4.71486E-02 6.14203E-01 1.09087E-02 1.80347E-02
 -1       629 3.18050E-01-3.18315E-01 1.83990E-02 3.03815E-01 1.34400E-02 3.14669E-02
 -1       630 5.83601E-01 6.29922E-01 2.75569E-01 1.30786E+00 3.18021E-02 3.52707E-02
 -1       631-3.74405E-01 5.54432E-01-5.19395E-02 6.60077E-01-1.07218E-02 5.95663E-03
 -1       632-2.60426E-01 1.11308E-01-1.61220E-01 2.85475E-01 2.09191E-02-6.02675E-03
 -1       633-4.98853E-01-4.17838E-01-3.68734E-01 5.81928E-01 4.03111E-02-1.00416E-02
 -1       634 8.97100E-02 2.65747E-01-5.49560E-04 9.23469E-01-2.33184E-02-5.92176E-03
 -1       635-1.83637E-01 5.18189E-01-1.49864E-02 6.77519E-01-4.53020E-02-1.74604E-02
 -1       636-7.67513E-02 4.40097E-01-1.59413E-02 6.95889E-01-2.31219E-02-1.01945E-02
 -1       637 5.79621E-01 1.17771E-01 2.78162E-02 4.89315E-01 5.26126E-02 8.21740E-02
 -1       638-7.40307E-02 9.75183E-02-1.46684E-01 2.15903E-01-2.93692E-02-1.79655E-02
 -1       639 1.13375E+00 2.64296E-01 2.94399E-01 4.37225E-01 1.48157E-02 4.38624E-02
 -1       640 6.93921E-01-1.43402E-01 1.62320E-02 3.90300E-01-2.75313E-02-3.94746E-02
 -1       641 4.54261E-01-1.96320E-04-1.00101E-02 4.11644E-01 1.88337E-02-2.37400E-02
 -1       642-3.34709E-01-5.89802E-01-3.94349E-01 5.76595E-01-1.14577E-02 2.62869E-02
 -1       643 1.06251E+00 6.96373E-01 4.02623E-01 6.41797E-01 2.44369E-02 3.73267E-02
 -1       644 6.43450E-01-8.92520E-01-6.20539E-02-1.70856E-01-1.06726E-03-3.80060E-03
 -1       645 3.85004E-01-1.35881E+00-7.69209E-02-1.57410E-01 3.67301E-04 8.87844E-04
 -1       646 2.76545E-01-1.56728E+00-9.21506E-02-2.67852E-01-1.68327E-03 2.87916E-03
 -1       647 1.19514E+00-1.59930E-01-3.18420E-02-1.87668E-01-8.46636E-04-3.11093E-03
 -1       648 9.07795E-01-5.08048E-01-5.03159E-02-1.73210E-01-2.28550E-03 1.24508E-03
 -1       649 7.04339E-01-7.10586E-01-6.34559E-02-3.51738E-01 9.76025E-05-2.53821E-03
 -1       650 1.77864E+00 4.80904E-01 4.08828E-02-2.03094E-01-1.37790E-04-1.99844E-03
 -1       651 1.47848E+00 1.63833E-01-1.34446E-02-1.85322E-01-1.35588E-03 4.81599E-03
 -1       652 1.23566E+00-1.26449E-02-3.99143E-02-3.65918E-01 1.26791E-04 3.41390E-03
 -1       653 2.35335E+00 1.08271E+00 1.81867E-01-2.38934E-01-2.59010E-03-2.52222E-03
 -1       654 2.04554E+00 7.76307E-01 9.50755E-02-2.19596E-01-3.22634E-03 3.34046E-03
 -1       655 1.78459E+00 6.13149E-01 4.63367E-02-4.13780E-01 2.37457E-03-4.58822E-03
 -1       656 2.94896E+00 1.67932E+00 4.01655E-01-2.53225E-01 1.67980E-03-1.17713E-03
 -1       657 2.64833E+00 1.37033E+00 2.74224E-01-2.33821E-01-3.90155E-05 1.48455E-03
 -1       658 2.33584E+00 1.20344E+00 1.90666E-01-4.46492E-01 6.51593E-04-1.29693E-03
 -1       659 3.60148E+00 2.34196E+00 7.05713E-01-2.82865E-01 1.73654E-03-6.72052E-03
 -1       660 3.27470E+00 2.01014E+00 5.38966E-01-2.57345E-01 1.12160E-03 4.11877E-03
 -1       661 2.90011E+00 1.81644E+00 4.16677E-01-4.94632E-01 3.19292E-03-6.72032E-03
 -1       662 4.30424E+00 3.07919E+00 1.08751E+00-3.12636E-01-1.25029E-03-2.36195E-03
 -1       663 3.95342E+00 2.70621E+00 8.95389E-01-2.77279E-01-5.64287E-03 5.57133E-03
 -1       664 3.53742E+00 2.52482E+00 7.40395E-01-5.50665E-01-1.83779E-03 9.01068E-05
 -1       665 5.09301E+00 3.87498E+00 1.53312E+00-3.20096E-01-1.57036E-03-8.42394E-03
 -1       666 4.69447E+00 3.45718E+00 1.29420E+00-2.91092E-01-2.90539E-03 8.95603E-03
 -1       667 4.26462E+00 3.26799E+00 1.12732E+00-5.77108E-01-1.64875E-03-8.63687E-04
 -1       668 5.99777E+00 4.78288E+00 2.07319E+00-3.57915E-01 2.76872E-03-9.92089E-03
 -1       669 5.52357E+00 4.31112E+00 1.78444E+00-3.14805E-01 5.00984E-04-3.98010E-04
 -1       670 5.05838E+00 4.08132E+00 1.59230E+00-6.33134E-01-2.41959E-03 3.82031E-03
 -1       671 7.03540E+00 5.91587E+00 2.71321E+00-4.43939E-01-3.37672E-03-8.47525E-03
 -1       672 6.46830E+00 5.30444E+00 2.37856E+00-3.84796E-01-9.61439E-03 8.23816E-03
 -1       673 5.89359E+00 5.06226E+00 2.13665E+00-7.26628E-01-2.99279E-03-4.56638E-03
 -1       674 8.37134E+00 7.28470E+00 3.53018E+00-5.61487E-01 1.24917E-03-1.15510E-02
 -1       675 7.63948E+00 6.55347E+00 3.09137E+00-4.84430E-01-2.62140E-03 5.72098E-03
 -1       676 6.90890E+00 6.22618E+00 2.78497E+00-9.14354E-01 1.16454E-03 8.15442E-03
 -1       677 1.01436E+01 9.16754E+00 4.57161E+00-7.53045E-01-1.91649E-03-4.07405E-02
 -1       678 9.13461E+00 8.17171E+00 3.99306E+00-6.37195E-01-1.29888E-02 5.89276E-03
 -1       679 8.10657E+00 7.72803E+00 3.59615E+00-1.12988E+00 1.58416E-03-6.73623E-03
 -1       680 1.26395E+01 1.17303E+01 6.20703E+00-1.16593E+00 1.74378E-01-1.23341E-01
 -1       681 1.09942E+01 1.04428E+01 5.34044E+00-8.19450E-01-2.68913E-02-5.33688E-03
 -1       682 9.59319E+00 9.80235E+00 4.66539E+00-1.56453E+00 2.83739E-02-1.67187E-02
 -1       683 1.50950E+01 1.70158E+01 8.66341E+00-1.84928E+00-1.31785E-01-1.35442E-01
 -1       684 1.12891E+01 1.55310E+01 6.68180E+00-2.50375E+00 2.45300E-02-2.59780E-02
 -1       685 6.11885E+00 7.10643E-01 9.25120E-01 1.42821E+00-3.15030E-01-7.80339E-02
 -1       686 7.15416E+00-1.58141E+00 1.14518E+00 2.82671E+00 5.84326E-01-9.22547E-03
 -1       687 9.82168E+00 1.68755E+01 6.81406E+00 6.65062E+00-8.65075E-01 2.02141E-02
 -1       688 3.94856E+00 2.12753E-01 7.88234E-02 7.65474E-01-6.23518E-02-1.49298E-01
 -1       689 4.60677E+00 6.36675E-01 4.18986E-01 8.93663E-01-6.73991E-02-7.19673E-02
 -1       690 7.35433E+00 4.07005E-01 1.51725E+00 3.05488E+00-4.51874E-01-2.79762E-01
 -1       691 2.67223E+00 1.26990E-01-2.51394E-01 3.25860E-01-4.53948E-02-3.57721E-02
 -1       692 2.91595E+00 1.22148E-01-2.43257E-01 2.68422E-01 4.24790E-03 1.44091E-02
 -1       693 4.72612E+00 2.98926E-01 3.90738E-01 1.25374E+00-6.33638E-02-4.10454E-02
 -1       694 2.31914E+00 4.34089E-03-4.03876E-01 2.12840E-01-2.72745E-03-3.03311E-02
 -1       695 2.42935E+00 7.61532E-02-3.55325E-01 2.36377E-01-1.04036E-02-2.55013E-02
 -1       696 3.65525E+00 7.47053E-02 1.40789E-02 6.07146E-01 1.72148E-03-5.18921E-03
 -1       697 1.87819E+00 2.72055E-02-4.96501E-01 1.14351E-01-8.58490E-03-1.52771E-03
 -1       698 1.92188E+00 3.48627E-02-4.85753E-01 1.17216E-01 5.72458E-03 5.46711E-03
 -1       699 2.83942E+00 2.20102E-02-2.18386E-01 3.91732E-01-4.20721E-03-2.73622E-03
 -1       700 1.61349E+00 4.49298E-03-5.26086E-01 9.03810E-02-4.77942E-03-1.27172E-02
 -1       701 1.69747E+00 3.37341E-02-5.15937E-01 9.64600E-02-5.04083E-03-1.14285E-02
 -1       702 2.24583E+00 3.09885E-03-3.58969E-01 2.44401E-01-8.98474E-04-4.89982E-03
 -1       703 1.42980E+00 1.15557E-02-4.78739E-01 7.37099E-02-4.64051E-03-2.61544E-03
 -1       704 1.49019E+00 1.54962E-02-5.00530E-01 7.13511E-02 9.69542E-04-2.49281E-04
 -1       705 1.90902E+00 2.28947E-02-3.89686E-01 1.82162E-01-3.90910E-03-2.33936E-03
 -1       706 1.19421E+00-1.56725E-03-4.16335E-01 5.93224E-02-8.23672E-04-3.50472E-04
 -1       707 1.27929E+00 1.58593E-02-4.54020E-01 6.39636E-02-1.86380E-03-2.74317E-03
 -1       708 1.59440E+00 4.88856E-03-3.76316E-01 1.52276E-01-9.44463E-04-1.39753E-03
 -1       709 9.34748E-01-2.64293E-03-3.19968E-01 7.83738E-02 2.24095E-04 2.90908E-03
 -1       710 1.05615E+00 1.79642E-03-3.60974E-01 7.35001E-02-1.16430E-03-6.14547E-04
 -1       711 1.26580E+00 1.91322E-03-3.15297E-01 1.48537E-01-2.14178E-03 2.04851E-03
 -1       712 9.85751E-01-4.12095E-02-2.61766E-01 1.78246E-01 1.79716E-03-8.20019E-04
 -1       713 1.17059E+00-1.04921E-01 1.33615E-01 2.80150E-01-2.61065E-02 1.17777E-02
 -1       714 7.33337E-01-1.16980E-01-8.86556E-03 1.94362E-01-8.08024E-03 2.10253E-02
 -1       715-2.08440E-01 1.20239E-01-1.45391E-01 1.67648E-02-8.92386E-03-2.82393E-02
 -1       716 4.38857E-01 1.83186E-01 8.04429E-02-4.92534E-02-6.20098E-03-9.91453E-03
 -1       717 1.91874E-01-1.06571E-01-7.83989E-02 2.80709E-01 3.78579E-03 5.01463E-03
 -1       718 4.01818E-01 1.60409E-01 6.76996E-02 1.36891E-01-3.40131E-02-2.21929E-03
 -1       719 1.93305E-02 2.90568E-01 4.58087E-02-2.58195E-01 2.53821E-02-9.67613E-03
 -1       720-8.85424E-02 6.44264E-01 1.29008E-01-1.65555E-01 5.58742E-04-3.58728E-03
 -1       721-2.84238E-01-7.36870E-02-1.25400E-01-3.66948E-01-8.39446E-03 2.02379E-02
 -1       722 7.73047E-02-6.80009E-02-2.95196E-02-3.54594E-01 2.13500E-02-2.35574E-02
 -1       723-1.10502E-01-2.35499E-02 3.63438E-02 2.64908E-01-1.32034E-02-2.37491E-02
 -1       724 1.69431E-01-1.00822E-01 5.72574E-02 1.61448E-01-6.25343E-03 4.28928E-03
 -1       725 2.97663E-01-1.98697E-01 3.80103E-02-1.80037E-03-2.30551E-02 3.19435E-04
 -1       726 2.40144E-01-3.05926E-01-3.11005E-02-1.48425E-01-2.68664E-03-1.05627E-02
 -1       727-5.97752E-01 8.23644E-02-1.69730E-02 2.95019E-01-1.17246E-02-3.53210E-03
 -1       728-1.86313E-01 4.83160E-02 1.77252E-02 3.42836E-01 1.31853E-03-1.09661E-02
 -1       729-1.26563E+00 1.21958E-02-4.59180E-02 1.21395E-01 3.64268E-03 1.91021E-03
 -1       730-1.04395E+00 1.10093E-02-5.75910E-02 1.28823E-01 4.11417E-03-1.80434E-03
 -1       731-7.60035E-01 5.45794E-02-2.75294E-02 2.01215E-01 3.88734E-03 2.83296E-03
 -1       732-1.85048E-01 1.53781E-01 3.42821E-02 4.68945E-01-2.25342E-03-6.48020E-03
 -1       733-5.90091E-01 6.26896E-02-3.10681E-03 3.22126E-01 3.17233E-04-4.14037E-03
 -1       734-1.46226E+00 3.47407E-02-4.83597E-02 8.23441E-02 1.76624E-03-2.55135E-03
 -1       735-1.35716E+00 3.12048E-02-4.76041E-02 9.35374E-02 1.31310E-03-3.16415E-03
 -1       736-9.57157E-01 3.91571E-02-3.08825E-02 2.13571E-01 2.19541E-03-3.54284E-03
 -1       737-1.33696E+00 8.35083E-02-4.79276E-02-6.36388E-02 2.36353E-03 2.77033E-03
 -1       738-1.41267E+00 7.82794E-02-4.47081E-02-2.22559E-02-8.06152E-04-1.18106E-03
 -1       739-1.04308E+00 1.10937E-01-4.30605E-02 6.10444E-02 3.47550E-03 3.40645E-04
 -1       740-9.61747E-01 4.88632E-02-1.46618E-02-2.28674E-01 9.22623E-03 1.10926E-02
 -1       741-1.25880E+00 6.98469E-02-3.54733E-02-2.00182E-01 1.63182E-03 6.04965E-03
 -1       742-9.49101E-01 1.37786E-01-4.25373E-02-2.44472E-01 2.95134E-03-1.93886E-03
 -1       743-3.85251E-01-5.45886E-02 2.70327E-02-2.91211E-01 5.70365E-03 1.50584E-02
 -1       744-7.45463E-01 4.28666E-04-2.68199E-03-3.13049E-01-4.26239E-03 1.38853E-02
 -1       745-6.43959E-01 4.27883E-02 1.07157E-02-5.00644E-01 3.29567E-03 5.80984E-03
 -1       746-3.19194E-01-8.44366E-02 2.42964E-02-4.31978E-01-3.22204E-03 4.65881E-03
 -1       747-3.05799E-02-1.02409E+00-3.00301E-05-3.70041E-01-1.21570E-02 4.51933E-03
 -1       748-7.26548E-02-4.27213E-01 5.75874E-02-3.00979E-01 7.76673E-03-1.25010E-02
 -1       749-1.16658E-01-3.38360E-01 3.69901E-02-4.68348E-01 1.38324E-02-1.98092E-03
 -1       750 6.08140E-02-2.00024E+00-1.03861E-01-3.00015E-01 3.15326E-03 4.32798E-03
 -1       751 2.01920E-02-1.38892E+00-5.48963E-02-3.44508E-01-1.88012E-02-1.79092E-03
 -1       752-4.28858E-03-8.19893E-01-2.81646E-02-6.51488E-01 2.00502E-03 7.60199E-03
 -1       753 6.43952E-02-2.11974E+00-1.09852E-01-2.61385E-01-1.34111E-02-9.79538E-03
 -1       754 1.01640E-01-1.30698E+00-5.90657E-02-5.42762E-01 9.09848E-03-7.60758E-03
 -1       755 1.33911E-01-1.71028E+00-9.04644E-02-3.40217E-01-2.66729E-03 1.83895E-04
 -1       756-2.75334E-01-6.06403E-01-2.64165E-01-3.04995E-01-3.08098E-02 2.08708E-02
 -1       757 1.10818E-01-4.72591E-01-1.25150E-01-2.43186E-01-2.79688E-02-2.16284E-02
 -1       758 3.42987E-01 4.01525E-01 1.93395E-01 6.55673E-01-3.10857E-03 6.21337E-03
 -1       759-2.26599E-01-2.45565E-01-2.64117E-01 3.24096E-01 2.63829E-02-3.88775E-03
 -1       760 5.17980E-01 1.48240E-01-8.69536E-03 8.91369E-02 1.22233E-02 7.41578E-03
 -1       761 4.81312E-02-2.95798E-01-2.05949E-01 2.60160E-01-9.22947E-03 1.50126E-02
 -1       762 7.46003E-03 2.86706E-01-8.01617E-02 2.79951E-01 1.01655E-02 1.75407E-03
 -1       763 8.36924E-01 5.76133E-01 2.66427E-01 4.31161E-01-8.12871E-03 1.21684E-02
 -1       764 7.91090E+00 1.05848E+01 4.38380E+00-1.57053E+00 3.03723E-02-1.72352E-02
 -1       765 8.45616E+00 1.23745E+01 5.05641E+00-1.96094E+00-2.00969E-02 8.80890E-02
 -1       766 6.40141E+00 1.01499E+01 3.84711E+00-1.56050E+00 4.71431E-02-7.35539E-04
 -1       767 7.72962E+00 8.59519E+00 3.75810E+00-1.53195E+00 4.09695E-02-1.20848E-02
 -1       768 7.08592E+00 7.62212E+00 3.24316E+00-1.30059E+00-8.97398E-03-2.19978E-03
 -1       769 4.89440E+00 4.59657E+00 1.68535E+00-9.34345E-01 1.10121E-02-3.26136E-04
 -1       770 4.49643E+00 4.10802E+00 1.42920E+00-8.36638E-01 7.09322E-03-6.11443E-03
 -1       771 3.97812E+00 4.03559E+00 1.26735E+00-1.00359E+00-1.33504E-04-6.63786E-03
 -1       772 4.26943E+00 3.64276E+00 1.23169E+00-7.87326E-01 1.32813E-03-3.53734E-03
 -1       773 3.89303E+00 3.23638E+00 1.00982E+00-7.53333E-01 2.90371E-03-8.19329E-03
 -1       774 2.84872E+00 2.12910E+00 4.74358E-01-7.02991E-01 4.76850E-04-2.92998E-03
 -1       775 2.54965E+00 1.77954E+00 3.31713E-01-6.54577E-01 2.40803E-03-8.21210E-03
 -1       776 2.36809E+00 1.49181E+00 2.48922E-01-6.22118E-01 8.49679E-03-1.45232E-02
 -1       777 2.09130E+00 1.17740E+00 1.46066E-01-5.93405E-01 5.38745E-03-8.18420E-03
 -1       778 2.23618E+00 1.73628E+00 2.63731E-01-7.85387E-01 1.30382E-03 6.10145E-04
 -1       779 2.55790E+00 2.55237E-01-1.78860E-01 5.91997E-01-1.68552E-02 8.57658E-03
 -1       780 2.78368E+00 2.95763E-01-1.35200E-01 6.67622E-01-6.23905E-03 7.30169E-03
 -1       781 2.26172E+00 1.67704E-01-2.50853E-01 4.30409E-01-5.13634E-03 8.80430E-03
 -1       782 2.57157E+00 3.69531E-01-1.14124E-01 7.93676E-01-1.25766E-02-1.29500E-02
 -1       783 2.08180E+00 1.37620E-01-2.84411E-01 4.01259E-01-1.77641E-03 4.02234E-03
 -1       784 4.95749E+00 1.72952E+00 8.01611E-01 2.23818E+00-2.33781E-02 1.04051E-01
 -1       785 4.51179E+00 1.44780E+00 6.80046E-01 2.01517E+00-1.95126E-02 1.41775E-02
 -1       786 6.03869E+00 2.88727E+00 1.46287E+00 3.30013E+00 8.22778E-02 6.63038E-02
 -1       787 8.32077E+00 8.34567E+00 3.72972E+00 6.24988E+00 3.93070E-01 1.41657E-01
 -1       788 6.26728E+00 1.67046E+01 5.68384E+00 3.64340E+00-1.38762E-01 1.89635E-01
 -1       789 4.83429E+00 1.19081E+01 3.97035E+00 1.89893E+00-1.05639E-01 2.99953E-02
 -1       790 7.70641E+00 1.67878E+01 6.04469E+00-1.38501E+00 1.24427E-01-4.90331E-02
 -1       791 1.29984E+00 4.43625E-02-2.41722E-01 2.74653E-01-5.75330E-03-5.08434E-04
 -1       792 1.46596E+00 7.57416E-02-2.78876E-01 2.73326E-01-3.19036E-03 1.32745E-03
 -1       793 9.84096E-01-2.87455E-02-1.79156E-01 2.41283E-01-9.28462E-04 8.57022E-03
 -1       794 1.12975E+00 1.91456E-02-1.95101E-01 2.54640E-01-2.40791E-03 1.15059E-04
 -1       795 1.22847E+00 5.79184E-02-2.04418E-01 3.19440E-01-5.05209E-03-3.56784E-03
 -1       796 1.14816E+00 6.88959E-02-1.60584E-01 3.91972E-01-6.02212E-03-9.98049E-04
 -1       797 1.37924E+00 1.48723E-01-1.76971E-01 4.30041E-01-1.08085E-03-7.97993E-03
 -1       798 1.32076E+00 2.67722E-01-6.53578E-03-5.36806E-01 1.26169E-03-2.89853E-03
 -1       799 1.04559E+00-6.34222E-02-4.89115E-02-5.15222E-01 2.21996E-03-2.10301E-03
 -1       800 1.79743E+00 9.37869E-01 8.68430E-02-6.34460E-01 2.14007E-04 4.12172E-03
 -1       801 1.53592E+00 6.16630E-01 3.06951E-02-5.86254E-01 2.70152E-03-1.59223E-03
 -1       802 1.26217E+00 5.45208E-01 1.62907E-03-7.27839E-01-2.95018E-04-3.66912E-03
 -1       803 5.80306E+00 5.61060E+00 2.26059E+00-9.97972E-01 4.25773E-04-1.90412E-03
 -1       804 5.40970E+00 5.02733E+00 1.96257E+00-9.20116E-01-1.11875E-02 1.05476E-02
 -1       805 6.64041E+00 6.96792E+00 2.92259E+00-1.28697E+00 2.08127E-02-2.41635E-02
 -1       806 6.05852E+00 6.21565E+00 2.52626E+00-1.07041E+00 1.23120E-02-1.59287E-02
 -1       807 5.35359E+00 6.18499E+00 2.32017E+00-1.25484E+00 8.13455E-03-1.26950E-02
 -1       808-7.11254E-01 4.06159E-01-1.67205E-02-1.85947E-01 3.68803E-05 2.97145E-04
 -1       809-6.52216E-01 3.49827E-01-2.70853E-02-3.72647E-01-1.66724E-03-1.29879E-03
 -1       810-4.97029E-01 5.72886E-01-3.58253E-02-1.36299E-01 4.05158E-03-1.16651E-03
 -1       811-7.24184E-01 3.72364E-01-2.18819E-02-1.37169E-02 5.80912E-03 5.60539E-03
 -1       812-7.40585E-01 2.75777E-01-1.64692E-02 8.41359E-02 5.71193E-03-2.59595E-03
 -1       813-7.78219E-01 1.90585E-01-3.04439E-02 2.14586E-01 1.72230E-03-5.14797E-03
 -1       814-5.00363E-01 4.58902E-01-2.45065E-02 1.54425E-01-2.02973E-03 2.14264E-03
 -1       815 6.41376E+00 4.24369E+00 1.88469E+00 4.18474E+00 2.52355E-01 1.88792E-01
 -1       816 4.20576E+00 1.11631E+01 3.45636E+00 3.53977E+00 4.47420E-03-1.15567E-01
 -1       817 4.39989E+00 1.14643E+01 3.63673E+00 3.01548E-01 1.97149E-01 3.01004E-02
 -1       818 4.95317E+00 5.81101E+00 2.01617E+00 4.12772E+00-6.35726E-02-1.67825E-02
 -1       819 4.12759E+00 7.36698E+00 2.30739E+00 3.20005E+00 1.68117E-02 2.00597E-02
 -1       820 6.83071E-02 2.66945E-01 2.81513E-02 7.80519E-01-1.40863E-03-3.03183E-03
 -1       821-2.16898E-03 2.96810E-01-1.49672E-02 7.29439E-01 2.38188E-03-4.27914E-04
 -1       822 4.06659E-02 1.66285E-01 3.94688E-02 6.90415E-01-3.44279E-03 4.44371E-03
 -1       823-7.67369E-02 1.87582E-01 1.32316E-02 6.26068E-01 2.07155E-03 3.12161E-03
 -1       824 2.25709E-02 1.75566E-01 7.01868E-02 6.00947E-01 6.32987E-04 5.84699E-03
 -1       825-2.17699E-01 1.04248E-01 2.87599E-02 4.61918E-01 1.10923E-03-5.92038E-03
 -1       826 1.02200E-01 3.39182E-01-1.91325E-02 6.81329E-01 1.04419E-03 5.12473E-04
 -1       827 9.44311E-02 3.77071E-01-2.93665E-02 7.18359E-01-1.88351E-03 2.93231E-03
 -1       828 2.74054E-01 3.44540E-01-4.07119E-02 5.74200E-01-2.78602E-03-3.11852E-03
 -1       829 1.16056E-01 3.02011E-01-5.86252E-02 6.12964E-01-1.30698E-03 2.64102E-03
 -1       830 4.68898E-02 3.05018E-01-7.64425E-02 4.63530E-01-7.16270E-03-6.26083E-04
 -1       831-7.36839E-02 3.31527E-01-1.33182E-02 6.18341E-01 2.84224E-03 1.00506E-03
 -1       832 4.00206E-02 4.12426E-01-2.97155E-02 6.11103E-01-1.71289E-03 1.12909E-03
 -1       833-2.00709E-01 2.12463E-01-1.59536E-04 5.58381E-01 9.96224E-04-1.19326E-03
 -1       834-2.72234E-01 2.88476E-01-7.84272E-03 4.85840E-01-1.41589E-03-1.94327E-03
 -1       835-3.27430E-01 1.29185E-01-6.61495E-03 4.84210E-01-1.53021E-03 1.20826E-03
 -1       836 4.18134E-02 5.56346E-01-3.73735E-02 5.74099E-01-3.11817E-03-3.02429E-03
 -1       837 2.39219E-01 5.56710E-01-1.52536E-02 6.46439E-01-3.09962E-03 1.26462E-03
 -1       838 4.16221E-01 5.87881E-01-3.87269E-02 6.42272E-01-2.23092E-03 1.87008E-03
 -1       839 3.92885E-01 4.32506E-01-3.84561E-02 6.49514E-01 8.85362E-04-2.04408E-03
 -1       840 5.23530E-01 3.66151E-01-4.04785E-02 5.43125E-01-3.29061E-03 1.68312E-03
 -1       841 8.80936E-02-7.12461E-01-3.83190E-02-7.48582E-01 9.26573E-03 2.09098E-03
 -1       842-6.46599E-02-4.57281E-01-4.93726E-02-7.43803E-01 3.05372E-04-7.08364E-03
 -1       843 2.36890E-01-8.27572E-01-6.29513E-02-6.60899E-01 6.42730E-03-4.86745E-03
 -1       844 2.73479E-01-3.61811E-01-4.29548E-02-8.09282E-01 1.28207E-03-9.97667E-03
 -1       845 3.45812E-01-9.35327E-01-6.58981E-02-5.89012E-01-4.84960E-04-3.98436E-03
 -1       846-4.41778E-01 9.69214E-02-9.95821E-03-6.22749E-01-2.57636E-03-9.56051E-03
 -1       847-6.14260E-01 2.32156E-01-1.62786E-02-5.45429E-01-2.19955E-04-6.66464E-03
 -1       848-3.29592E-01-6.29582E-02-2.90646E-02-6.73333E-01-9.67003E-03-1.33151E-02
 -1       849-2.97159E-01 8.44883E-02-4.64677E-02-7.35879E-01-2.03360E-04-4.31866E-03
 -1       850-2.62226E-01-2.57080E-01-1.19864E-02-5.88908E-01 1.38361E-03-1.32846E-02
 -1       851-1.54131E-01-3.04197E-01-2.19278E-02-7.26818E-01 8.21783E-04-9.08471E-03
 -1       852-1.38437E-01 5.62306E-01-2.59019E-02 4.58627E-01 1.65781E-03 2.67629E-04
 -1       853 2.55242E-02 7.16054E-01-3.20492E-02 4.89048E-01-5.31596E-03-2.46200E-03
 -1       854-4.81246E-01 2.51440E-01-2.03001E-02 3.44471E-01 1.93700E-03-2.64351E-03
 -1       855-3.08041E-01 3.94400E-01-1.76986E-02 3.95220E-01-1.12021E-04 1.59418E-03
 -1       856-3.47791E-01 5.08721E-01-3.56157E-02 3.04481E-01 5.85881E-04 1.50693E-03
 -1       857 4.26046E-01 8.17753E-01-3.97046E-02 6.74071E-01-1.76260E-03 4.39860E-03
 -1       858 6.58508E-01 7.15314E-01-3.64002E-02 7.09201E-01-2.22006E-03-1.07006E-05
 -1       859 1.98792E-01 9.26884E-01-3.63757E-02 5.42600E-01 4.66964E-03 5.97686E-03
 -1       860 3.78338E-01 1.07128E+00-4.62260E-02 6.06706E-01 9.15061E-03 8.05911E-03
 -1       861-2.26741E-02 8.93273E-01-2.79209E-02 4.07202E-01-8.15176E-04-2.99933E-03
 -1       862 8.90929E-01 7.58001E-01-6.09165E-02 7.58111E-01-2.20185E-03 2.95184E-03
 -1       863 8.64710E-01 4.70196E-01-6.11365E-02 6.85844E-01 3.84950E-03 6.58118E-04
 -1       864 1.00469E+00 3.14503E-01-9.18848E-02 5.85749E-01 2.81324E-03 6.11927E-04
 -1       865 7.65909E-01 3.13249E-01-7.03947E-02 5.43704E-01-7.36225E-05-2.13155E-03
 -1       866 6.46897E-01 2.22364E-01-6.78772E-02 4.35885E-01-2.68813E-03 1.86341E-03
 -1       867 3.08241E-01 1.40551E+00-3.19899E-02 5.24260E-01 6.74722E-03 2.71694E-03
 -1       868 6.07429E-01 1.37222E+00-6.50723E-03 7.17768E-01-1.42102E-03 1.18629E-03
 -1       869 8.29540E-01 1.52921E+00 1.77747E-02 8.15024E-01-5.24905E-03 1.99363E-03
 -1       870 8.63915E-01 1.06673E+00-4.09823E-02 8.55310E-01 3.10091E-03 4.17697E-04
 -1       871 1.13488E+00 8.16370E-01-5.13870E-02 8.51514E-01 2.36152E-03 8.59538E-03
 -1       872 1.12205E-01 1.36058E+00-2.04022E-02 2.86909E-01 2.71699E-03 9.05409E-04
 -1       873 2.91825E-01 1.69726E+00 2.68525E-03 3.36338E-01 3.39693E-03 1.53901E-03
 -1       874-4.20277E-02 1.07657E+00-1.90621E-02 2.49401E-01 7.68101E-03 2.96064E-03
 -1       875-9.62775E-02 1.21653E+00-4.44474E-02 6.35246E-02 2.34657E-03 2.97044E-03
 -1       876-1.94123E-01 8.33904E-01-2.79991E-02 2.18224E-01 5.10566E-03 1.04150E-03
 -1       877 2.45470E-01 1.92131E+00 1.41752E-02 1.10876E-02-4.01859E-03-1.62911E-03
 -1       878 4.80974E-01 2.11828E+00 5.89591E-02 3.09493E-01 3.20297E-03 1.69108E-03
 -1       879 6.28066E-01 2.52255E+00 1.39951E-01 2.65443E-01 7.48565E-03-7.46048E-05
 -1       880 6.36874E-01 2.13982E+00 6.32371E-02 6.27511E-01 1.10130E-02 2.37299E-04
 -1       881 9.03930E-01 2.27369E+00 1.21931E-01 8.06238E-01 1.39919E-02 3.17350E-03
 -1       882 7.46574E-01 1.88695E+00 5.31554E-02 7.76273E-01-4.35674E-04 9.51941E-03
 -1       883 1.08636E+00 1.62747E+00 6.06515E-02 9.74395E-01-7.64075E-03 1.06449E-03
 -1       884 7.32640E-02 1.52230E+00-3.21752E-02-1.88709E-01 4.49679E-03-1.67708E-04
 -1       885 2.54998E-01 1.89747E+00 1.18384E-02-2.81756E-01-1.49019E-03-2.23293E-03
 -1       886-5.74053E-02 1.32690E+00-3.94456E-02-1.06921E-01 3.09484E-03 1.38872E-03
 -1       887-5.56838E-02 1.29094E+00-4.55957E-02-3.67691E-01 1.08864E-02-3.07030E-03
 -1       888-2.09345E-01 1.04330E+00-3.24699E-02-1.07921E-01-9.96513E-04 2.51894E-03
 -1       889 3.90603E-01 1.63765E+00 1.28335E-02-6.28230E-01 4.00880E-03 4.89373E-03
 -1       890 5.64180E-01 2.08625E+00 6.15549E-02-4.65566E-01 6.60252E-03 9.89679E-04
 -1       891 6.66191E-01 2.76611E+00 1.76659E-01 2.05782E-03-1.64505E-03 3.44157E-03
 -1       892 8.83300E-01 3.05498E+00 2.69296E-01 3.79990E-01 6.76664E-03 1.34785E-04
 -1       893 8.66836E-01 2.25980E+00 1.31967E-01-7.04553E-01 1.18634E-02 7.02384E-04
 -1       894 7.65504E-01 2.63860E+00 1.75200E-01-3.34740E-01-2.45303E-03 6.22187E-03
 -1       895 1.05591E+00 3.11792E+00 2.99581E-01-3.12450E-01 1.09888E-02-6.80866E-04
 -1       896 1.76273E-01 1.17312E+00-4.23972E-02-6.75930E-01 1.07853E-05 1.33037E-03
 -1       897 4.22753E-01 1.24856E+00-4.01939E-02-8.05847E-01-1.19769E-02 1.18215E-03
 -1       898-5.13091E-02 1.10508E+00-5.62494E-02-5.45719E-01 6.51139E-03-2.70243E-03
 -1       899 2.11275E-02 8.56481E-01-4.00251E-02-7.44936E-01 2.62461E-03-3.53523E-03
 -1       900-1.87139E-01 9.44807E-01-4.98315E-02-4.60003E-01 7.70825E-03 2.64085E-03
 -1       901 1.05524E+00 2.62947E+00 2.27519E-01 8.74089E-01-1.07628E-02-4.98974E-03
 -1       902 1.09101E+00 2.20967E+00 1.28793E-01 1.04131E+00-3.57458E-03 5.71071E-03
 -1       903 9.82178E-01 2.97353E+00 2.60698E-01 7.26178E-01 7.85174E-03-3.98693E-03
 -1       904 1.25546E+00 3.07238E+00 3.51287E-01 9.93313E-01 9.98514E-03-2.01789E-03
 -1       905 1.08678E+00 3.43920E+00 3.77640E-01 4.27345E-01 1.10994E-03 2.73272E-03
 -1       906 5.09372E-01 8.10889E-01-2.50788E-02-8.83210E-01 6.23611E-03-5.41829E-03
 -1       907 7.65683E-01 1.17409E+00-3.83980E-03-8.70818E-01 1.55314E-03-2.78726E-03
 -1       908 9.41561E-01 9.51266E-01-1.15638E-02-8.85445E-01 7.58890E-03-5.18237E-03
 -1       909 9.38915E-01 1.54883E+00 4.52309E-02-8.64059E-01-8.94656E-03 6.56357E-04
 -1       910 1.10384E+00 1.83072E+00 1.01636E-01-8.66499E-01 1.19339E-02-4.00447E-03
 -1       911 1.37329E+00 2.34261E+00 2.24707E-01-8.01210E-01 6.18443E-03-5.67230E-03
 -1       912 1.33410E+00 1.57367E+00 9.92217E-02-8.87544E-01 8.12176E-04 6.57732E-04
 -1       913-1.15771E-01 5.32538E-01-4.03612E-02-7.61916E-01 6.96917E-03-8.96429E-04
 -1       914 6.35756E-02 5.32560E-01-5.82125E-02-8.38192E-01 8.63916E-03 3.07340E-03
 -1       915 1.12112E-01 2.37848E-01-3.97046E-02-8.83996E-01 1.02289E-03 3.84283E-04
 -1       916 2.73188E-01 5.47879E-01-4.57917E-02-8.81915E-01 5.83958E-03-1.18914E-03
 -1       917 5.29156E-01 4.07073E-01-5.35288E-02-8.89630E-01-2.70508E-03 7.10429E-04
 -1       918-3.15331E-01 4.98253E-01-4.29301E-02-6.61212E-01 5.19079E-03 1.43453E-03
 -1       919-2.33033E-01 2.91312E-01-3.80422E-02-7.70894E-01 1.82247E-03 1.45931E-03
 -1       920-3.33999E-01 7.19495E-01-3.61574E-02-4.71486E-01 1.28841E-03 4.85473E-04
 -1       921-4.64117E-01 4.33828E-01-3.65423E-02-5.27472E-01-1.98302E-03-1.74843E-04
 -1       922-3.44294E-01 8.19097E-01-4.67377E-02-3.02639E-01 3.55868E-03 4.33906E-03
 -1       923-3.58786E-01 7.96815E-01-3.04785E-02-1.45999E-01-1.02140E-03-4.90949E-05
 -1       924-3.71151E-01 7.48454E-01-4.09199E-02 4.90293E-02 5.37356E-04-1.23904E-03
 -1       925-3.19745E-01 6.50995E-01-3.17181E-02 2.09123E-01 2.87534E-03-9.71576E-05
 -1       926 1.20032E+00 3.07857E-01-1.17182E-01 5.95359E-01-2.62221E-03-2.65419E-03
 -1       927 1.10055E+00 1.69855E-01-1.14350E-01 4.56882E-01-1.31642E-03-1.99222E-03
 -1       928 1.36818E+00 7.91095E-01-7.03878E-02 8.75411E-01-7.79913E-03 2.50507E-03
 -1       929 1.38531E+00 4.77418E-01-8.04963E-02 7.50198E-01 3.46936E-03-1.26541E-03
 -1       930 1.40178E+00 2.72766E-01-1.46390E-01 6.04002E-01-1.46322E-03-1.66026E-03
 -1       931 8.44990E-01 1.29868E-01-6.81516E-02 3.23391E-01-3.16293E-03 4.36151E-03
 -1       932 5.77812E-01 2.15711E-01-4.32474E-02 3.03636E-01-3.89306E-04-3.42402E-03
 -1       933 1.00913E+00 9.67130E-02-1.04238E-01 3.75040E-01-2.11405E-03-6.04929E-03
 -1       934 9.49748E-01 5.62211E-02-7.82826E-02 2.51057E-01 2.38705E-03-5.65899E-03
 -1       935-1.41698E-01 7.41569E-02-5.50504E-02-8.18376E-01-1.53963E-03-6.31893E-03
 -1       936 1.42745E-02-2.57703E-02-3.34980E-02-8.58389E-01-3.35583E-03-2.19176E-04
 -1       937 1.32470E-01-4.92105E-02-3.27753E-02-8.79498E-01-1.56696E-03-2.36402E-03
 -1       938-9.38174E-02-1.75386E-01-3.43109E-02-8.23410E-01 1.84007E-03-8.79078E-03
 -1       939-7.14113E-01 1.38565E-01-1.64175E-02 2.80684E-01 1.48007E-04 1.17975E-03
 -1       940-6.20285E-01 9.29046E-02-1.52438E-02 3.42344E-01-2.14453E-03 2.86974E-03
 -1       941-4.94982E-01 7.56694E-02 3.40139E-03 3.82142E-01-4.63148E-04-2.41886E-04
 -1       942 1.76328E+00 1.29459E-01-2.67862E-01 3.77813E-01-6.41279E-04 3.43334E-03
 -1       943 1.94020E+00 1.62037E-01-2.76078E-01 4.18651E-01 2.09456E-03 9.30380E-03
 -1       944 1.71795E+00 1.93475E-01-2.10914E-01 4.97646E-01-6.10063E-03-6.11704E-03
 -1       945 1.45001E+00 1.29611E+00 3.35526E-02 1.10884E+00-5.15145E-04 1.76412E-03
 -1       946 1.75884E+00 8.74660E-01-1.40765E-02 1.01943E+00-9.74683E-03 1.11179E-03
 -1       947 1.38931E+00 1.77489E+00 1.08946E-01 1.11239E+00 5.18144E-03 7.77117E-03
 -1       948 6.67557E-01 8.39877E-02-5.09688E-02-8.10538E-01 8.23383E-04-4.80770E-03
 -1       949 4.05107E-01-1.15990E-01-5.99541E-02-8.07555E-01 5.88034E-03-4.53725E-03
 -1       950 7.62692E-01-1.46088E-01-6.29636E-02-6.88411E-01 6.30280E-03-2.96620E-03
 -1       951 9.36463E-01 4.34164E-01-3.06569E-02-7.86884E-01-1.88943E-03-3.55271E-03
 -1       952 1.12558E+00 7.79742E-01 7.25940E-04-8.45744E-01 5.68448E-03-4.19254E-03
 -1       953 1.30374E+00 1.09596E+00 3.69719E-02-8.35538E-01 5.27958E-03-7.47917E-03
 -1       954 7.57914E-01-3.79227E-01-5.57212E-02-5.55689E-01 2.65142E-03-2.55236E-03
 -1       955 4.99207E-01-7.55780E-01-5.64006E-02-5.20476E-01 4.77988E-04-3.85035E-03
 -1       956 3.36145E-01-1.25839E+00-7.46932E-02-3.95560E-01 2.07185E-03-2.24980E-03
 -1       957 1.01193E+00-5.44368E-02-1.20697E-01 2.42313E-01 4.82942E-03 1.94675E-03
 -1       958 2.00194E+00 7.62684E-01-3.55617E-02 9.96261E-01 3.17694E-03 5.69930E-03
 -1       959 1.87490E+00 3.98995E-01-1.16037E-01 7.35169E-01 3.27397E-03 5.04519E-03
 -1       960 1.58374E+00 2.79730E-01-1.49764E-01 5.88596E-01-7.09620E-03-7.68785E-03
 -1       961 2.24178E+00 1.18347E+00 9.68098E-02 1.27955E+00-2.35173E-03 1.07871E-02
 -1       962 2.28328E+00 5.61724E-01-5.78287E-02 9.17531E-01-1.34131E-03 4.21509E-03
 -1       963 1.90258E+00 2.01099E+00 2.17319E-01 1.44802E+00 6.05792E-03 1.33866E-02
 -1       964 2.27498E+00 1.81618E+00 2.20454E-01 1.50401E+00 2.38832E-02 1.97454E-02
 -1       965 1.59824E+00 1.95071E+00 1.54891E-01 1.24401E+00-3.38638E-03 1.27659E-03
 -1       966 1.62828E+00 2.70298E+00 3.37743E-01 1.39392E+00-3.79851E-03-5.51194E-03
 -1       967 2.24506E+00 2.70468E-01-1.72773E-01 6.45806E-01-1.22574E-03 4.14633E-03
 -1       968 2.46609E+00 5.73203E-01-2.82626E-02 8.88130E-01-5.84695E-03 6.84617E-04
 -1       969 1.81043E+00 2.35830E+00 3.05808E-01-9.16790E-01 1.73664E-03 1.54587E-03
 -1       970 1.62009E+00 2.94766E+00 3.96551E-01-8.08430E-01 2.38262E-03-9.45546E-05
 -1       971 1.92322E+00 3.42195E+00 5.66116E-01-7.88428E-01-7.49967E-03 6.32901E-03
 -1       972 1.35093E+00 3.30395E+00 4.10021E-01-5.88269E-01-2.40382E-03-1.47071E-03
 -1       973 1.30577E+00 3.68044E+00 4.88715E-01-2.44135E-01 1.17675E-02-1.04490E-03
 -1       974 1.68410E+00 5.03985E+00 9.26188E-01 3.52547E-01 3.75158E-03 3.11770E-03
 -1       975 1.96043E+00 4.89434E+00 9.57548E-01-2.46679E-01 2.35959E-04 7.87116E-03
 -1       976 2.25614E+00 5.50591E+00 1.20442E+00-2.01114E-01 9.17418E-03 6.21647E-03
 -1       977 1.80753E+00 5.09122E+00 9.64601E-01 7.83089E-01 8.98948E-03-5.06484E-03
 -1       978 1.55104E+00 4.43740E+00 7.31143E-01 6.12039E-01 3.26772E-03 3.06545E-03
 -1       979 1.57952E+00 4.20430E+00 6.78504E-01-2.25948E-01-1.39621E-03-2.91930E-03
 -1       980 1.99481E+00 4.39194E+00 8.24358E-01-6.03612E-01 3.96488E-03 9.37989E-03
 -1       981 1.16586E+00 3.82355E+00 4.78902E-01 1.39707E-01-2.19799E-02 4.13826E-03
 -1       982 1.34937E+00 3.84367E+00 5.29157E-01 9.26014E-01 2.77881E-04 4.33338E-03
 -1       983 1.34268E+00 4.01146E+00 5.80448E-01 5.47550E-01 1.61919E-04 1.17212E-02
 -1       984 2.01222E+00 1.97959E+00 2.73519E-01-8.93866E-01-4.20517E-03 7.12171E-03
 -1       985 2.32401E+00 2.50237E+00 4.32211E-01-8.98559E-01 4.28702E-03 2.65733E-03
 -1       986 1.55137E+00 1.36989E+00 1.13390E-01-8.49516E-01 1.09358E-03 5.23146E-04
 -1       987 1.74962E+00 1.14948E+00 1.02367E-01-7.54565E-01 4.38025E-03-1.93188E-03
 -1       988 1.82943E+00 1.66815E+00 1.91742E-01-8.38094E-01-9.42313E-04 2.77588E-03
 -1       989 3.16547E+00 7.54022E-01 1.01054E-01 1.29549E+00-5.99627E-03 7.81234E-03
 -1       990 3.25208E+00 5.41174E-01 4.93318E-02 9.71914E-01-2.00891E-02-1.85808E-02
 -1       991 3.81411E+00 8.53566E-01 2.84696E-01 1.24802E+00-1.13086E-03 2.51756E-03
 -1       992 2.98968E+00 1.06253E+00 1.55214E-01 1.38364E+00-2.32440E-02-1.68204E-02
 -1       993 3.35268E+00 1.57811E+00 4.35840E-01 1.82613E+00 3.88283E-02 1.60623E-02
 -1       994 2.72488E+00 8.06737E-01 8.97860E-02 1.12905E+00-2.90914E-03-3.25326E-04
 -1       995 2.68835E+00 1.17276E+00 1.72075E-01 1.50446E+00-2.01514E-02-5.47330E-03
 -1       996 2.82778E+00 3.02434E+00 7.17102E-01 2.11118E+00 2.01794E-02-3.88757E-02
 -1       997 3.23401E+00 2.75147E+00 7.30882E-01 2.14495E+00-1.88221E-02 1.08156E-02
 -1       998 3.55696E+00 4.46995E+00 1.30474E+00 2.93375E+00 1.40122E-02 6.39062E-03
 -1       999 4.15687E+00 1.94394E+00 7.30567E-01 2.40723E+00-1.60712E-02-5.59894E-03
 -1      1000 2.51162E+00 2.51215E+00 5.17537E-01 1.77543E+00-8.96746E-03-2.62909E-02
 -1      1001 2.26325E+00 3.45023E+00 6.38858E-01 1.85401E+00 6.60775E-03-1.57817E-03
 -1      1002 1.83173E+00 3.71880E+00 6.30686E-01 1.40887E+00-9.29499E-03 4.96305E-03
 -1      1003 2.07208E+00 4.53809E+00 9.02044E-01 1.59851E+00 1.35581E-02-7.55661E-03
 -1      1004 2.56859E+00 6.21781E+00 1.53229E+00 1.74336E+00 4.37078E-02 1.31770E-02
 -1      1005 2.18288E+00 5.26325E+00 1.14040E+00 1.35064E+00 9.43572E-03-1.60855E-02
 -1      1006 2.18973E+00 6.54523E+00 1.50698E+00 7.35116E-01-6.39693E-03 1.92484E-03
 -1      1007 3.41722E+00 6.15419E+00 1.76515E+00 2.41776E+00 6.44978E-02 4.19986E-02
 -1      1008 1.60152E+00 3.30928E+00 4.78679E-01 1.23362E+00-2.31602E-03 6.47872E-03
 -1      1009 2.71526E+00 2.41240E+00 4.99696E-01-8.48372E-01-1.03600E-03-5.49977E-03
 -1      1010 2.61562E+00 2.96771E+00 6.12774E-01-9.43734E-01 1.38551E-02-1.47951E-02
 -1      1011 2.38402E+00 3.40274E+00 6.67903E-01-9.75787E-01-1.78821E-02 1.05797E-02
 -1      1012 2.18584E+00 3.97618E+00 7.74366E-01-7.78848E-01-4.94095E-03 1.09615E-02
 -1      1013 2.97444E+00 3.37897E+00 8.14160E-01-9.61557E-01 1.10174E-03-2.09955E-03
 -1      1014 5.25968E-01 2.03095E-01-3.73147E-02 1.70838E-01-1.98330E-04-5.86517E-04
 -1      1015 2.79732E-01 2.83449E-01-5.84021E-02 3.10222E-01-6.12042E-03 2.44835E-03
 -1      1016 7.98073E-01 1.48398E-01-1.06732E-02 9.44826E-02-2.85085E-03-1.76367E-03
 -1      1017 5.57893E-01 2.55349E-01 6.04215E-04 5.66999E-02-3.92617E-03-5.34350E-03
 -1      1018 9.21974E-01 1.95673E-02-6.20983E-02 1.47812E-01 3.24387E-04 5.13971E-03
 -1      1019 3.48469E+00 2.91288E+00 8.17742E-01-7.52476E-01 1.64433E-03 7.31381E-04
 -1      1020 3.20065E+00 2.52656E+00 6.48436E-01-7.05693E-01-3.01072E-03 7.45307E-03
 -1      1021 4.03067E+00 9.94703E+00 3.04843E+00 1.43896E-01-9.48346E-02 5.44242E-02
 -1      1022 4.88431E+00 1.02059E+01 3.36338E+00-9.50285E-01-2.96851E-02 1.59613E-02
 -1      1023 5.13336E+00 8.78229E+00 3.03762E+00-1.18684E+00 6.31431E-02-4.01243E-02
 -1      1024 2.63873E+00 8.63250E+00 2.25505E+00 1.34025E+00-8.44473E-02 5.22519E-02
 -1      1025 3.35946E+00 8.54408E+00 2.38839E+00 1.27656E-01 3.63726E-02 1.23562E-02
 -1      1026 3.10342E+00 7.23477E+00 1.95300E+00-9.55920E-02 1.70626E-02 7.95843E-04
 -1      1027 3.69754E+00 7.53752E+00 2.24527E+00-8.93534E-01-8.45506E-03 8.20094E-03
 -1      1028 4.60244E+00 6.71186E+00 2.26195E+00-1.25356E+00 2.73415E-03-8.59545E-03
 -1      1029 5.09059E+00 7.97094E+00 2.76051E+00-1.21551E+00 2.19258E-02-6.47178E-03
 -1      1030 5.95658E+00 7.43319E+00 2.85888E+00-1.46567E+00-3.67169E-03-2.27011E-02
 -1      1031 2.72584E+00 6.44531E+00 1.59717E+00-2.75651E-01 4.64868E-03 4.57715E-03
 -1      1032 2.87871E+00 5.73028E+00 1.44201E+00-8.12450E-01-1.04521E-02-4.59378E-03
 -1      1033 3.31632E+00 4.93439E+00 1.34280E+00-9.76211E-01 2.37134E-02-1.06372E-02
 -1      1034 4.06466E+00 5.54214E+00 1.73050E+00-1.14597E+00 1.15722E-02-8.67723E-03
 -1      1035 4.61959E+00 4.94624E+00 1.69805E+00-1.11027E+00-2.89867E-03-2.11180E-03
 -1      1036 4.44983E+00 6.12618E+00 2.02735E+00-1.16199E+00 9.62318E-03-2.09955E-02
 -1      1037 2.66537E+00 4.59859E+00 1.06332E+00-9.10858E-01 1.49083E-02 1.70458E-03
 -1      1038 3.40695E+00 4.19498E+00 1.15367E+00-1.03827E+00-2.82395E-03 3.42707E-03
 -1      1039 3.27544E+00 3.76338E+00 9.90686E-01-9.77916E-01-2.67409E-03 4.17015E-03
 -1      1040 3.36924E+00 3.17177E+00 8.48590E-01-9.00921E-01 3.98501E-03 5.95342E-04
 -1      1041 2.17121E+01 2.09815E+01 1.17743E+01-2.75003E+00-1.64745E-01 2.16517E-01
 -1      1042 2.21889E+01 2.41113E+01 1.19800E+01-4.79723E+00 2.00558E-01-3.93713E-02
 -1      1043 2.31651E+01 2.18698E+01 1.20600E+01-4.78738E+00-3.82979E-02 3.77580E-02
 -1      1044 2.10279E+01 2.10793E+01 1.12029E+01-3.45899E+00 1.75238E-01 1.94735E-01
 -1      1045 2.30173E+01 2.08270E+01 1.22714E+01-3.13589E+00-2.05694E-01-1.43060E-01
 -1      1046 2.33915E+01 2.17626E+01 1.19709E+01-4.23161E+00 2.87851E-01-6.17924E-02
 -1      1047 2.28280E+01 2.01817E+01 1.12342E+01-3.54221E+00-1.43145E-02-9.56473E-02
 -1      1048 2.49479E+01 2.23218E+01 1.21211E+01-5.10072E+00 7.38330E-02-3.49353E-02
 -1      1049 2.25750E+01 2.05053E+01 1.09978E+01-3.36053E+00-3.94285E-02-4.08074E-03
 -1      1050 2.00931E+01 1.76474E+01 8.98303E+00-1.12912E+00 1.17260E-02 3.15527E-01
 -1      1051 2.15357E+01 2.20762E+01 1.00817E+01-4.16537E+00 1.10911E-01 4.02345E-01
 -1      1052 1.90004E+01 1.69296E+01 9.28780E+00-1.22914E+00 3.12118E-01 8.05043E-02
 -1      1053 2.48005E+01 2.54733E+01 1.32160E+01-5.47088E+00 3.27144E-01 8.02765E-02
 -1      1054 2.41295E+01 2.32071E+01 1.21913E+01-4.72944E+00 2.68938E-01-6.96425E-02
 -1      1055 2.25120E+01 2.17689E+01 1.17561E+01-4.15409E+00-8.88911E-03 1.21334E-01
 -1      1056 2.19595E+01 1.96689E+01 1.12786E+01-3.87813E+00 1.95978E-02-4.84238E-02
 -1      1057 2.91119E+00 1.53127E+00 3.45895E-01 9.09462E-03 5.40766E-03-2.07618E-02
 -1      1058 2.60916E+00 1.28451E+00-2.69822E-03-4.42473E-03 1.52239E-03-1.91462E-01
 -1      1059 2.10736E+01 1.99249E+01 7.88930E+00-3.49010E+00 4.63672E-03 3.03149E-01
 -1      1060 2.19470E+01 2.35241E+01 1.21970E+01-5.13384E+00-8.55066E-02-1.05482E-01
 -1      1061 1.95442E+01 1.77751E+01 9.59466E+00-2.40118E+00-6.78424E-02 2.55535E-01
 -1      1062 2.26222E+01 1.97889E+01 1.16931E+01-3.67792E+00 5.58132E-02 1.46703E-02
 -1      1063 2.22205E+01 2.35380E+01 1.22813E+01-4.35846E+00 1.53039E-02 1.48336E-01
 -1      1064 2.29262E+01 2.39464E+01 1.22528E+01-4.76600E+00 2.25331E-01 3.16524E-01
 -1      1065 2.16654E+01 2.21447E+01 1.14993E+01-4.74474E+00 2.54088E-01 6.60959E-02
 -1      1066 4.97593E+00 3.56816E+00 1.41263E+00-1.13458E-02-3.39850E-03-4.68893E-03
 -1      1067 3.88956E+00 2.70057E+00 5.91534E-03-2.50801E-02 2.53466E-03-3.01787E-01
 -1      1068 6.89174E+00 5.42236E+00 2.52215E+00-1.11269E-02-2.44948E-03 2.83259E-02
 -1      1069 1.98191E+01 1.90260E+01 7.28495E+00-3.54291E+00 1.94267E-01 3.85895E-01
 -1      1070 2.38861E+01 2.33153E+01 1.31084E+01-5.11180E+00-1.65249E-01 2.42076E-01
 -1      1071 1.71263E+00 4.71563E-01-1.32932E-02-8.98890E-03 3.95946E-03-1.54888E-01
 -1      1072 5.04960E+00 4.13935E+00-8.05132E-03-3.84136E-02 6.26695E-03-3.44341E-01
 -1      1073 1.71202E+00 3.52014E-01 6.47635E-03-5.76547E-04 7.11851E-03-5.67777E-02
 -1      1074 9.69187E+00 8.11433E+00 4.19662E+00-7.67931E-02-2.57316E-02-5.66100E-02
 -1      1075 2.26299E+01 2.46350E+01 1.23687E+01-4.80514E+00-1.39635E-01 4.56125E-02
 -1      1076 1.98542E+01 2.02747E+01 8.79226E+00-3.83641E+00 1.31978E-01 3.02891E-01
 -1      1077 2.25077E+01 2.23161E+01 1.18997E+01-4.34255E+00-1.20661E-01 1.12737E-01
 -1      1078 2.02160E+01 1.83960E+01 9.23846E+00-1.24885E+00 7.65938E-02 2.66438E-01
 -1      1079 2.22632E+01 2.06618E+01 1.11606E+01-3.84784E+00-2.09760E-01 5.18718E-01
 -1      1080 2.26566E+01 2.23777E+01 1.19357E+01-4.68720E+00-6.02943E-02 9.58522E-02
 -1      1081 2.30177E+01 2.18517E+01 1.22264E+01-3.91060E+00-2.74117E-01 1.08742E-02
 -1      1082 2.24366E+01 2.14843E+01 1.05798E+01-4.23715E+00 1.26177E-01 2.05485E-01
 -1      1083 2.17311E+01 2.13857E+01 1.13769E+01-3.63449E+00-1.03500E-01 2.85815E-01
 -1      1084 2.22535E+01 2.06489E+01 1.09038E+01-2.78883E+00 1.27195E-01 1.65268E-01
 -1      1085 2.25237E+01 2.38742E+01 1.22424E+01-5.27171E+00 1.36002E-03 2.81539E-01
 -1      1086 1.97861E+01 2.26679E+01 6.83558E+00-4.90785E+00 9.18856E-02 6.26082E-01
 -1      1087 2.08853E+01 2.00509E+01 1.18375E+01-3.11549E+00 1.79907E-01 2.08595E-02
 -1      1088 8.73581E-01-5.14144E-01-1.02115E-02 1.25583E-02-5.69663E-03-9.69629E-02
 -1      1089 7.54509E+00 6.60733E+00 1.71015E-02-1.64230E-01 5.40468E-02-7.31217E-01
 -1      1090 4.86743E-01-1.18120E+00-7.05427E-02-1.49777E-02 3.61110E-03-5.16693E-02
 -1      1091 1.68641E+01 1.45384E+01 8.22368E+00-1.10567E+00 6.05838E-03 1.38790E-01
 -1      1092 1.12494E+01 9.56817E+00 1.78121E-01-6.82702E-01 2.42811E-01-1.01431E+00
 -1      1093 3.38447E+00 2.04943E+00 5.58905E-01-1.43920E-02 1.93417E-03-3.38955E-02
 -1      1094 3.24429E+00 1.88723E+00 4.81916E-01-2.32357E-02-7.91916E-03-3.90648E-02
 -1      1095 2.68437E+00 1.24283E+00 2.29551E-01-3.68740E-02 2.58008E-03-6.78977E-02
 -1      1096 2.99441E+00 1.67648E+00 3.49832E-01-3.00694E-03 1.23622E-02-9.36864E-02
 -1      1097 3.73928E+00 2.36875E+00 6.80260E-01-4.98401E-02-1.77049E-02-5.92454E-02
 -1      1098 3.59520E+00 2.08628E+00 5.31760E-01-2.94186E-02 3.10460E-03-8.26223E-02
 -1      1099 4.03834E+00 2.75035E+00 8.16314E-01 2.60550E-03-2.09732E-03-5.81337E-02
 -1      1100 3.93063E+00 2.51943E+00 6.89421E-01-3.47203E-02-1.32487E-02-8.04830E-02
 -1      1101 3.40916E+00 1.94410E+00 4.25580E-01-7.27619E-02 3.98290E-03-1.33996E-01
 -1      1102 3.84055E+00 2.35653E+00 5.51465E-01-3.34246E-02-1.15010E-02-1.40134E-01
 -1      1103 4.37132E+00 3.04898E+00 8.84050E-01-3.50065E-02-1.61996E-02-7.85195E-02
 -1      1104 4.23362E+00 2.89653E+00 7.27386E-01-1.78417E-02 1.81518E-03-1.12069E-01
 -1      1105 3.66125E+00 2.24899E+00 4.28598E-01-1.67878E-02-9.06943E-04-1.63252E-01
 -1      1106 4.29950E+00 2.87221E+00 6.46615E-01 9.39939E-03-1.98372E-03-1.36982E-01
 -1      1107 5.00632E+00 3.65308E+00 1.16194E+00-5.77311E-02 8.92298E-03-5.68549E-02
 -1      1108 5.22559E+00 3.84022E+00 1.34277E+00-5.36764E-02-1.67568E-03-3.13049E-02
 -1      1109 3.57990E+00 2.17462E+00 3.21360E-01-3.12347E-02 2.79356E-03-2.10061E-01
 -1      1110 4.05713E+00 2.64422E+00 4.42279E-01-2.86561E-02-4.26437E-03-2.05544E-01
 -1      1111 4.68791E+00 3.46801E+00 8.08414E-01 5.81647E-03-5.48077E-04-1.13801E-01
 -1      1112 4.48946E+00 3.26276E+00 5.95516E-01 1.31014E-02 7.34392E-03-1.89619E-01
 -1      1113 5.39740E+00 3.94094E+00 1.03955E+00-3.39291E-02-1.68336E-02-7.86383E-02
 -1      1114 5.27846E+00 3.76237E+00 8.47064E-01-1.74201E-03 1.91174E-02-1.33616E-01
 -1      1115 5.96585E+00 4.37491E+00 1.67440E+00-4.11178E-02 7.78134E-04-1.69019E-03
 -1      1116 6.15894E+00 4.67275E+00 1.85781E+00-7.14665E-03 3.26041E-03 5.82797E-03
 -1      1117 3.05904E+00 1.79927E+00 2.18052E-01-1.99897E-02-4.57881E-03-2.10255E-01
 -1      1118 6.00693E+00 4.80951E+00 1.35750E+00 6.84503E-03 5.86788E-03-4.28008E-02
 -1      1119 5.89789E+00 4.53908E+00 1.13356E+00-5.03622E-02 3.14109E-03-1.12919E-01
 -1      1120 5.04106E+00 3.73761E+00 6.58268E-01-3.45801E-02 1.63652E-02-1.51300E-01
 -1      1121 5.90390E+00 4.47936E+00 9.63491E-01-7.20732E-02-1.06114E-03-9.67101E-02
 -1      1122 6.33584E+00 4.76677E+00 1.56430E+00-5.03806E-02 2.12553E-03-6.32859E-03
 -1      1123 5.09556E+00 3.61956E+00 5.29974E-01-7.56648E-02-6.86179E-03-2.43162E-01
 -1      1124 5.62235E+00 4.37056E+00 7.13868E-01 3.24563E-02 2.39488E-02-2.20141E-01
 -1      1125 2.55134E+00 1.10870E+00 1.72722E-01-3.99725E-02 8.88978E-03-1.19926E-01
 -1      1126 6.96237E+00 5.52433E+00 2.33284E+00 2.40640E-02-2.64438E-02 5.82376E-02
 -1      1127 6.68547E+00 5.12457E+00 2.09164E+00 1.55382E-02 2.91119E-02-1.63524E-02
 -1      1128 7.15143E+00 5.85965E+00 2.52595E+00-4.90431E-02-7.04552E-03-6.77930E-03
 -1      1129 6.56732E+00 5.00032E+00 2.11996E+00-6.59941E-02-1.24614E-02 1.24393E-02
 -1      1130 7.50447E+00 6.02561E+00 2.74663E+00 8.32103E-02 5.53381E-02-1.12523E-02
 -1      1131 6.96189E+00 5.17569E+00 2.33020E+00-4.42403E-02-3.24414E-05 2.12764E-02
 -1      1132 8.23131E+00 6.47842E+00 3.11904E+00-1.81248E-01 2.76101E-02 4.71947E-02
 -1      1133 7.05659E+00 5.61632E+00 2.54081E+00-4.49585E-02-6.52651E-03 1.80303E-02
 -1      1134 2.90972E+00 1.69858E+00 1.39632E-01-1.21749E-02 3.87025E-03-2.44998E-01
 -1      1135 2.61541E+00 1.30586E+00 9.46655E-02-1.38006E-03 6.29162E-03-2.29319E-01
 -1      1136 4.42979E+00 3.11648E+00 3.88546E-01-5.19998E-02 6.53176E-03-2.75376E-01
 -1      1137 4.25165E+00 2.97749E+00 2.29010E-01-5.60426E-02-2.06227E-02-3.20641E-01
 -1      1138 6.62519E+00 5.44047E+00 1.29578E+00-1.29779E-01-2.56775E-02-8.19148E-02
 -1      1139 6.84896E+00 5.27141E+00 1.15433E+00-6.85078E-02 1.66257E-02-9.50955E-02
 -1      1140 6.84737E+00 5.43916E+00 1.68300E+00-2.66683E-02-7.10004E-03 2.66790E-02
 -1      1141 8.49764E+00 6.63121E+00 3.28067E+00 2.07927E-02-5.42980E-03 2.50464E-02
 -1      1142 7.71452E+00 6.06861E+00 2.86868E+00 9.42174E-04-1.21088E-03 2.64699E-02
 -1      1143 6.46232E+00 4.98149E+00 2.15569E+00 1.10520E-02-5.01187E-03-2.16317E-02
 -1      1144 6.67256E+00 5.43447E+00 2.38625E+00 5.37848E-03 4.66278E-03 2.66420E-02
 -1      1145 5.76153E+00 4.35825E+00 1.73795E+00-1.43106E-02 1.12986E-02 4.44702E-03
 -1      1146 7.82506E+00 6.27833E+00 2.96776E+00-6.43859E-02-2.13463E-02 2.37255E-02
 -1      1147 7.04517E+00 5.71892E+00 2.60509E+00-1.13964E-01-5.64893E-03-1.23187E-02
 -1      1148 6.30642E+00 4.82057E+00 2.11355E+00-4.59874E-02 2.68426E-02 2.16349E-02
 -1      1149 6.70911E+00 5.16609E+00 2.34306E+00-7.63795E-02 2.25945E-03-5.28114E-03
 -1      1150 5.69221E+00 4.37529E+00 1.79124E+00-2.70368E-02-6.82598E-03-5.02090E-03
 -1      1151 7.69457E+00 6.46066E+00 3.00098E+00-1.02688E-01 7.62260E-03-2.90043E-03
 -1      1152 7.02133E+00 5.71352E+00 2.59975E+00-4.54620E-02 2.76127E-03 3.63872E-02
 -1      1153 8.51101E+00 6.81563E+00 3.40050E+00 9.51715E-03-2.23504E-02-1.12474E-03
 -1      1154 7.96653E+00 6.33405E+00 3.08455E+00-1.11085E-01 3.83755E-03 2.05598E-02
 -1      1155 6.56906E+00 5.19575E+00 2.34319E+00-4.98881E-02 7.49181E-03 4.70130E-02
 -1      1156 7.63441E+00 6.45099E+00 2.82445E+00-1.44951E-01-4.35985E-02 6.82505E-03
 -1      1157 7.91308E+00 6.43226E+00 2.81302E+00-9.87948E-02-3.04094E-02 2.79710E-02
 -1      1158 6.49689E+00 5.26549E+00 1.99769E+00 2.33515E-03-4.17802E-03 1.33156E-02
 -1      1159 7.50071E+00 6.15781E+00 2.55113E+00-1.20127E-01 2.15858E-02 7.45604E-02
 -1      1160 6.68624E+00 5.11506E+00 1.97669E+00-1.14983E-01-1.31730E-02 1.05367E-02
 -1      1161 7.37220E+00 6.06521E+00 2.43500E+00-8.78796E-02-1.84919E-02 4.69783E-03
 -1      1162 7.34972E+00 5.66784E+00 2.74255E+00-1.22172E-01 3.75240E-02 1.39182E-02
 -1      1163 8.67320E+00 6.82331E+00 3.46073E+00-2.32760E-01-3.72451E-02-1.60017E-02
 -1      1164 5.73850E+00 4.26889E+00 5.61308E-01-5.00491E-02-1.04898E-02-2.53968E-01
 -1      1165 6.34504E+00 5.24426E+00 8.01946E-01 1.38994E-02 4.01572E-03-2.12785E-01
 -1      1166 8.65971E+00 6.81889E+00 3.28412E+00 2.08793E-02-2.46906E-02 5.71848E-02
 -1      1167 7.84848E+00 6.45995E+00 1.85466E+00-6.27286E-02 1.23024E-02 6.55693E-02
 -1      1168 8.23607E+00 6.51107E+00 2.15673E+00-5.11870E-02 7.04248E-03 8.36860E-03
 -1      1169 3.77994E+00 2.45846E+00 1.76629E-01-5.55449E-02 9.26704E-03-3.16255E-01
 -1      1170 9.11356E+00 7.08457E+00 3.29333E+00-6.54242E-02-3.09204E-03 4.15480E-02
 -1      1171 9.04396E+00 6.99472E+00 3.19647E+00-1.81149E-01 2.63977E-02 6.76925E-02
 -1      1172 9.30025E+00 7.61753E+00 3.61586E+00-1.75030E-01-3.39455E-02 1.00263E-01
 -1      1173 9.94137E+00 7.64841E+00 3.85698E+00-2.40299E-01 1.53034E-02 4.98835E-02
 -1      1174 9.45576E+00 8.02573E+00 4.02109E+00-1.12662E-01-8.14332E-03 1.58210E-02
 -1      1175 7.96357E+00 6.20424E+00 3.06830E+00-1.58844E-01-5.20403E-04 4.12223E-02
 -1      1176 6.72159E+00 5.29409E+00 2.40781E+00-6.49154E-02 2.89328E-04-1.61071E-02
 -1      1177 9.32665E+00 8.01924E+00 4.00194E+00-5.99363E-02 2.44613E-03 7.47765E-02
 -1      1178 8.44662E+00 7.07401E+00 3.42290E+00 1.05526E-02-4.67232E-03 7.18135E-02
 -1      1179 9.19981E+00 8.11286E+00 3.94500E+00-1.52382E-01 2.36919E-02 8.10749E-02
 -1      1180 9.94183E+00 8.57206E+00 4.28010E+00-2.30320E-01 2.65847E-02 3.27083E-02
 -1      1181 1.03256E+01 8.44571E+00 4.47708E+00-1.91338E-01 3.89886E-02 3.93265E-02
 -1      1182 9.74912E+00 8.70018E+00 4.40005E+00-1.26982E-02 9.00103E-04 1.99260E-02
 -1      1183 1.03031E+01 8.54341E+00 4.52507E+00-1.74421E-01 4.39992E-02-3.40670E-02
 -1      1184 9.74119E+00 7.77083E+00 2.90460E+00-3.35531E-01-4.25512E-02 1.34657E-01
 -1      1185 9.88433E+00 7.98211E+00 3.11755E+00-3.64055E-01 4.99030E-02 1.01993E-01
 -1      1186 9.83108E+00 7.77234E+00 2.81425E+00-1.04805E-01 9.30688E-02 4.47833E-02
 -1      1187 5.59068E+00 4.03546E+00 1.66118E+00-4.23111E-02-6.16907E-03-3.29584E-03
 -1      1188 5.00945E+00 3.65041E+00 1.38083E+00-1.36406E-02 3.13503E-03-3.39858E-02
 -1      1189 9.49744E+00 7.66840E+00 3.98776E+00 5.23182E-02 8.39852E-04 1.34765E-02
 -1      1190 5.42754E+00 4.15028E+00 3.34444E-01 1.46748E-02 1.88018E-02-3.53243E-01
 -1      1191 6.48068E+00 4.92690E+00 5.69190E-01-5.92807E-02-2.79701E-02-2.83272E-01
 -1      1192 7.88884E+00 6.02640E+00 1.22752E+00-9.16923E-03 2.54737E-02-9.54753E-02
 -1      1193 7.32153E+00 6.22048E+00 8.71464E-01-5.42426E-02 1.03391E-03-1.75331E-01
 -1      1194 9.67174E+00 7.47458E+00 2.00635E+00-3.28160E-01-8.87964E-03-2.00117E-02
 -1      1195 9.62921E+00 7.63150E+00 2.26526E+00-3.31885E-01 7.03617E-03 1.22362E-02
 -1      1196 9.56987E+00 7.84700E+00 1.77030E+00-3.26285E-01 2.10208E-02-2.07749E-02
 -1      1197 1.05760E+01 8.76898E+00 4.27067E+00-3.70615E-01 4.04605E-02 9.10370E-02
 -1      1198 1.01833E+01 8.76842E+00 4.03092E+00-2.32115E-01-1.27173E-02 4.15793E-04
 -1      1199 8.50636E+00 7.25934E+00 3.04774E+00-3.24343E-02-1.65112E-02 7.11818E-02
 -1      1200 1.08590E+01 8.73531E+00 4.22130E+00-3.42846E-01 6.03398E-02 1.38286E-01
 -1      1201 9.00243E+00 7.15452E+00 3.16671E+00-8.15444E-02-4.70235E-02 5.99264E-02
 -1      1202 1.00321E+01 8.53272E+00 3.85070E+00-1.60017E-01-2.47390E-02 1.09754E-01
 -1      1203 9.08919E+00 7.06512E+00 3.08403E+00 6.25371E-02 2.76716E-03 9.20471E-02
 -1      1204 1.05225E+01 8.91077E+00 4.09996E+00-9.82650E-02-2.66370E-02 1.78154E-01
 -1      1205 9.07021E+00 7.31544E+00 3.09042E+00-1.73637E-01 3.97563E-03 8.65258E-02
 -1      1206 1.06740E+01 8.86183E+00 4.02899E+00-1.94434E-01 4.49047E-02 1.15535E-01
 -1      1207 1.09401E+01 9.35560E+00 4.52694E+00-7.63753E-02 2.46318E-02 1.35201E-01
 -1      1208 8.33774E+00 6.67589E+00 2.34031E+00-1.52134E-01 1.35369E-02 2.76570E-02
 -1      1209 9.87998E+00 8.27839E+00 3.31115E+00 9.30020E-03-5.11473E-02 1.90743E-01
 -1      1210 1.11465E+01 9.80175E+00 5.12978E+00-2.03532E-01 3.60466E-02-1.86940E-02
 -1      1211 7.30508E+00 6.29352E+00 6.89853E-01-2.02265E-02 2.02073E-02-3.37813E-01
 -1      1212 9.11374E+00 7.33601E+00 1.12735E+00-7.38696E-02 7.93392E-04-2.01666E-01
 -1      1213 6.40665E+00 5.15923E+00 1.82963E+00 9.67019E-03 7.70385E-03 1.33652E-02
 -1      1214 5.85141E+00 4.35679E+00 1.47714E+00-2.28276E-02-1.57612E-03-1.11053E-02
 -1      1215 1.20804E+01 9.88110E+00 5.43054E+00-3.58275E-01 3.24042E-02-1.49136E-02
 -1      1216 1.04316E+01 9.09949E+00 4.65553E+00-1.81163E-01 3.18982E-02 9.48427E-02
 -1      1217 3.48503E+00 2.32863E+00 6.40238E-02 1.82722E-02 1.12901E-02-3.39846E-01
 -1      1218 1.22413E+01 9.35976E+00 5.00744E+00-1.86960E-01-3.24471E-02 2.73167E-02
 -1      1219 2.31273E+01 2.15258E+01 1.16542E+01-4.11628E+00-1.36774E-01 1.58891E-01
 -1      1220 2.41840E+01 2.21679E+01 1.24847E+01-4.42893E+00 7.64473E-02 8.90860E-02
 -1      1221 1.07827E+01 9.39292E+00 4.59897E+00-4.41899E-01 1.44559E-02 8.93722E-02
 -1      1222 1.21875E+01 1.02701E+01 5.36049E+00-6.81828E-01-1.12654E-01 5.70532E-02
 -1      1223 1.04429E+01 8.08464E+00 4.16590E+00-9.98296E-02-8.33797E-02 1.57097E-01
 -1      1224 9.21588E+00 7.23406E+00 3.02813E+00-7.97739E-02 1.72334E-02 1.10624E-01
 -1      1225 1.02733E+01 9.38649E+00 3.99632E+00-1.31784E-02 2.12187E-02 1.21252E-01
 -1      1226 5.32617E+00 4.04384E+00 1.61919E+00-8.68511E-03 1.40701E-03 7.57877E-03
 -1      1227 4.64473E+00 3.16859E+00 1.15267E+00-4.68177E-03-6.32861E-03-2.79333E-02
 -1      1228 4.15842E+00 2.89670E+00 1.05452E-01 3.76951E-03-6.09321E-03-3.75702E-01
 -1      1229 7.71568E+00 6.05098E+00 2.45748E+00-3.65730E-02 3.05947E-02 5.58160E-02
 -1      1230 1.25941E+01 9.80785E+00 5.40206E+00-5.27680E-01 2.12140E-02 7.06797E-02
 -1      1231 2.12164E+01 1.95689E+01 1.24911E+01-2.00998E+00 1.29376E-01 2.98930E-01
 -1      1232 1.16521E+01 9.15210E+00 4.92685E+00-4.67920E-01-2.85898E-02 7.22558E-02
 -1      1233 9.12284E+00 7.44845E+00 3.05172E+00-3.18578E-01 2.11488E-02 1.21501E-01
 -1      1234 1.08552E+01 9.03868E+00 4.06377E+00-2.78832E-01-4.72709E-02 1.51681E-01
 -1      1235 9.18800E+00 7.80304E+00 3.87843E+00-4.05146E-02 1.34647E-02-7.95152E-02
 -1      1236 1.16127E+01 9.81861E+00 5.23695E+00-4.56108E-01-5.01593E-02 6.06492E-02
 -1      1237 2.42194E+00 1.17561E+00 4.03674E-02-3.97779E-02 3.41242E-03-2.63361E-01
 -1      1238 2.13701E+00 8.46470E-01 2.27727E-02-4.13145E-02 2.84229E-03-2.28013E-01
 -1      1239 2.30508E+00 1.06860E+00 6.71752E-02-5.53641E-03 6.68872E-03-2.03800E-01
 -1      1240 1.81772E+00 5.39250E-01 7.09616E-03-2.09506E-02 2.60824E-03-2.06190E-01
 -1      1241 2.76001E+00 1.58688E+00 5.36842E-02-2.58660E-02 1.79673E-04-2.81719E-01
 -1      1242 1.31568E+01 1.12309E+01 6.12334E+00-7.15715E-01 6.69548E-02 7.77969E-02
 -1      1243 1.26663E+01 1.08158E+01 5.83322E+00-8.27913E-01-1.50101E-02 1.34320E-01
 -1      1244 1.07537E+01 9.29844E+00 4.84584E+00-1.56449E-01-3.93356E-02 3.29727E-02
 -1      1245 1.19736E+01 9.70087E+00 4.36553E+00-6.63896E-01-6.17187E-02 2.05271E-01
 -1      1246 1.20842E+01 9.86588E+00 4.29452E+00-1.03590E+00 1.37846E-01 1.45406E-01
 -1      1247 1.23202E+01 1.11497E+01 5.62514E+00-5.17365E-01 7.09762E-02 1.90203E-01
 -1      1248 2.23885E+01 2.00798E+01 1.15209E+01-2.27840E+00-4.15742E-02 2.54524E-01
 -1      1249 1.08402E+01 9.03246E+00 4.55395E+00-1.42460E-01 4.00418E-03 1.26578E-01
 -1      1250 8.70743E+00 7.48488E+00 3.38371E+00 2.87756E-02 3.93964E-02 8.28410E-02
 -1      1251 1.28776E+01 1.16398E+01 6.19198E+00-3.76229E-01-3.37963E-02 1.21402E-01
 -1      1252 1.17335E+01 9.65380E+00 5.26173E+00-3.82643E-01 4.13906E-02 2.50825E-02
 -1      1253 1.34772E+01 1.08729E+01 6.10207E+00-5.12772E-01-7.55858E-02-6.22909E-03
 -1      1254 7.59951E+00 6.31590E+00 2.31224E+00-3.84208E-02 2.99585E-03 2.11785E-02
 -1      1255 3.24579E+00 1.94209E+00 6.23615E-02-1.21861E-02 8.38314E-03-3.19387E-01
 -1      1256 1.21730E+01 1.02492E+01 4.24724E+00-6.89285E-01-7.51594E-02 2.50543E-01
 -1      1257 1.17478E+01 1.00793E+01 3.52698E+00-2.92417E-02 2.70732E-02 1.43166E-01
 -1      1258 1.16621E+01 9.69917E+00 3.59354E+00-5.08971E-01-4.65304E-02 2.04385E-01
 -1      1259 1.98478E+00 6.10741E-01 2.05613E-02-2.92595E-02-7.77853E-04-1.62960E-01
 -1      1260 1.46077E+00 1.08301E-01-2.89781E-02-7.94209E-03-9.23222E-03-1.67506E-01
 -1      1261 1.31063E+01 1.07389E+01 5.36493E+00-3.15594E-01-5.84105E-02 1.02287E-01
 -1      1262 1.06017E+01 8.78688E+00 4.61317E+00-2.42155E-01-2.48701E-02 3.52040E-02
 -1      1263 8.72183E+00 7.41494E+00 3.65575E+00-1.20914E-01 5.74462E-03 9.60524E-03
 -1      1264 8.71592E+00 7.47381E+00 3.51197E+00-1.34498E-01-3.06003E-02-1.19395E-02
 -1      1265 1.05661E+01 8.76836E+00 4.49470E+00-2.53883E-01 1.03035E-01 4.65821E-02
 -1      1266 7.25545E+00 6.19669E+00 4.25087E-01-4.97887E-02-1.28770E-04-4.40826E-01
 -1      1267 9.09304E+00 7.41865E+00 7.97732E-01-2.37870E-01 7.33554E-02-3.72237E-01
 -1      1268 5.61543E+00 4.13355E+00 1.24218E+00-3.66652E-02 1.76425E-03-6.94251E-02
 -1      1269 5.23710E+00 4.12407E+00 1.69873E-01-8.27539E-02 7.00034E-03-3.95786E-01
 -1      1270 8.68438E+00 6.88583E+00 2.59647E+00-9.97220E-02-2.88362E-02 9.92928E-02
 -1      1271 1.33874E+01 1.10128E+01 6.13091E+00-8.99076E-01 3.67039E-02 3.94551E-02
 -1      1272 6.28115E+00 5.07970E+00 2.43520E-01 1.23707E-02-4.18863E-04-4.76546E-01
 -1      1273 4.85409E+00 3.59958E+00 1.37038E+00 1.02657E-02-1.30961E-03-8.01262E-03
 -1      1274 4.31221E+00 2.87375E+00 1.01701E+00-3.05568E-02-5.34195E-03-3.53915E-02
 -1      1275 7.19155E+00 5.96907E+00 1.86956E+00-1.13090E-02 6.33069E-03 2.80103E-02
 -1      1276 1.14500E+01 1.01556E+01 3.20648E+00-4.91485E-01-4.27870E-02 1.59594E-01
 -1      1277 9.68799E+00 7.80216E+00 2.54508E+00-3.77787E-01-1.53378E-02 1.37933E-01
 -1      1278 4.61145E+00 3.24856E+00 1.05652E+00-3.99726E-02 1.51334E-02-3.87530E-02
 -1      1279 8.89279E+00 7.08493E+00 3.27148E+00-2.92275E-01 8.08922E-04 6.45088E-02
 -1      1280 3.94771E+00 2.59905E+00 3.31882E-01-3.67754E-02 4.80606E-03-2.39184E-01
 -1      1281 1.27697E+01 1.07348E+01 5.51351E+00-3.81837E-01-8.97058E-02 6.26136E-02
 -1      1282 1.33268E+01 1.10881E+01 5.72134E+00-5.17427E-01 2.84582E-02 1.82371E-01
 -1      1283 1.29678E+01 1.15939E+01 5.71454E+00-4.03742E-01 3.29102E-02 6.59083E-02
 -1      1284 1.21569E+01 1.12266E+01 5.48297E+00-1.31701E-01 1.68108E-02 1.65948E-01
 -1      1285 7.27593E+00 6.03201E+00 1.79696E-01-1.19354E-01 3.31241E-02-5.65554E-01
 -1      1286 1.31046E+01 1.19820E+01 5.77556E+00-5.83446E-01 6.00530E-02 1.94804E-01
 -1      1287 1.26662E+01 1.16759E+01 5.41126E+00-1.61650E-01 1.29346E-02 1.62609E-01
 -1      1288 1.37126E+01 1.12094E+01 6.26841E+00-4.78391E-01-2.03700E-02-6.43718E-02
 -1      1289 1.44013E+01 1.14738E+01 6.58266E+00-2.16617E-01-1.78399E-01 1.64207E-01
 -1      1290 1.17596E+01 1.03572E+01 5.29667E+00-3.71250E-01-7.73835E-03-4.04547E-02
 -1      1291 9.86893E+00 8.19037E+00 4.18764E+00-2.12942E-01 1.15325E-02 1.92802E-02
 -1      1292 1.09575E+01 8.90666E+00 4.72935E+00-4.57151E-01-4.56387E-02 6.53233E-02
 -1      1293 1.34333E+01 1.16162E+01 6.26742E+00-6.53678E-01 3.91470E-03-1.37725E-01
 -1      1294 1.23140E+01 9.76706E+00 5.42554E+00-7.72590E-01 1.31731E-02 3.15990E-02
 -1      1295 9.68719E+00 8.19876E+00 4.13704E+00-3.10135E-01-2.16549E-02-1.57154E-02
 -1      1296 9.53258E+00 7.57426E+00 3.91922E+00-1.82814E-01 2.45306E-02 3.21745E-03
 -1      1297 3.31665E+00 2.21448E+00 1.10231E-03-1.59100E-02 5.82712E-03-3.06010E-01
 -1      1298 1.23035E+01 1.03730E+01 3.24664E+00-4.70526E-01 3.22079E-02 2.97637E-01
 -1      1299 1.30838E+01 1.10389E+01 3.30324E+00-5.77709E-01-1.98858E-01 1.29516E-01
 -1      1300 4.75711E+00 3.38709E+00 1.18204E+00-3.54979E-02 2.14968E-03-3.68325E-02
 -1      1301 8.07643E+00 6.79158E+00 1.85736E+00-1.39602E-01-3.96895E-02-2.02345E-02
 -1      1302 1.37176E+01 1.15800E+01 6.57178E+00-6.20954E-01-4.76445E-02-8.92550E-03
 -1      1303 8.52958E+00 7.14376E+00 3.54260E+00-4.27943E-02 2.82083E-02-2.06432E-02
 -1      1304 4.74847E+00 3.41493E+00 9.50124E-01 2.11219E-02-6.00190E-03-6.66599E-02
 -1      1305 1.64338E+00 4.10901E-01-1.06262E-02-1.59590E-04 2.64460E-03-1.99463E-01
 -1      1306 1.39664E+01 1.15211E+01 6.19255E+00-1.03866E+00 4.24895E-03 3.93293E-02
 -1      1307 1.33189E+01 1.10011E+01 5.88825E+00-5.99468E-01 9.43889E-02 8.80328E-02
 -1      1308 1.36764E+01 1.17393E+01 6.05915E+00-7.94002E-01 2.37558E-02 6.26226E-02
 -1      1309 1.17602E+01 1.09352E+01 4.60012E+00-1.38752E-01-5.19856E-02 2.20308E-01
 -1      1310 1.28995E+01 1.06095E+01 4.99289E+00-5.81102E-01 5.46414E-02 1.72784E-01
 -1      1311 1.39043E+01 1.08076E+01 5.57676E+00-3.75789E-01 1.55173E-01 1.99751E-01
 -1      1312 1.27885E+01 9.71310E+00 5.60487E+00-3.43671E-01-2.45454E-02-4.32015E-02
 -1      1313 1.63171E+01 1.39758E+01 7.90673E+00-1.89577E+00-1.88999E-02 1.37508E-01
 -1      1314 2.28339E+00 8.78463E-01 1.29073E-01-2.34531E-02-9.50183E-03-4.69009E-02
 -1      1315 1.43071E+01 1.32796E+01 7.03572E+00-5.96196E-01 1.50856E-01-7.28999E-02
 -1      1316 1.32393E+01 1.15262E+01 6.03105E+00-5.65409E-01-1.07179E-01-5.00892E-02
 -1      1317 1.32567E+01 1.21568E+01 5.78795E+00-3.83690E-01-5.74568E-02 2.01410E-01
 -1      1318 1.12106E+01 9.54264E+00 8.23887E-01-1.04641E+00 1.39621E-01-5.58666E-01
 -1      1319 9.89413E-01-4.93169E-01-5.12284E-02-1.34152E-02 2.18036E-04-7.95355E-02
 -1      1320 7.15487E-01-7.94368E-01-4.52688E-02-8.47984E-03 6.51851E-04-9.92684E-02
 -1      1321 5.23821E-01-1.05660E+00-1.09210E-02 1.92539E-03-1.99458E-03-7.41235E-02
 -1      1322 2.47318E-01-1.59037E+00-4.48122E-02-1.57259E-02-4.24936E-03-6.43483E-02
 -1      1323 2.12304E+00 8.42369E-01-5.38133E-03-1.40793E-02 6.44014E-03-2.08729E-01
 -1      1324 5.52400E+00 4.18921E+00 1.74857E+00-1.69962E-02 1.87444E-02 1.68811E-02
 -1      1325 4.50283E+00 3.35843E+00 1.30711E-02-1.85081E-02-7.64454E-03-3.96883E-01
 -1      1326 1.18003E+01 1.02016E+01 5.06908E+00-2.31057E-01-6.88463E-02 6.70121E-02
 -1      1327 1.37454E+01 1.24345E+01 6.39861E+00-2.97546E-01-5.47199E-02 9.31393E-02
 -1      1328 4.34088E+00 2.93067E+00 1.04365E+00 2.07937E-02 7.89590E-03 1.13431E-02
 -1      1329 1.58343E+01 1.47076E+01 8.00841E+00-1.62839E+00-4.27824E-02-3.41057E-02
 -1      1330 1.53092E+01 1.25543E+01 7.08256E+00-8.89167E-01 2.24943E-02-2.29792E-02
 -1      1331 1.38811E+01 1.20168E+01 6.68554E+00-1.22838E+00 5.25838E-02 6.61168E-03
 -1      1332 4.74193E+00 3.39485E+00 1.35603E-01-3.52489E-02 1.21479E-02-3.98446E-01
 -1      1333 1.30452E+01 1.11497E+01 5.93706E+00-2.30972E-01 2.28514E-02 1.46128E-01
 -1      1334 1.63814E+01 1.40176E+01 6.76741E+00-2.41341E+00-1.07835E-01 2.09613E-01
 -1      1335 4.37453E+00 2.91009E+00 9.87995E-01-8.05895E-03 1.75562E-03-2.06762E-02
 -1      1336 1.57909E+01 1.29076E+01 5.46680E+00-1.11641E+00 7.28016E-02 4.29286E-01
 -1      1337 1.44329E+01 1.34429E+01 7.03400E+00-2.08933E-01 7.51774E-02-4.33244E-02
 -1      1338 5.60568E+00 4.18061E+00 1.75388E+00 2.13666E-03-2.75677E-03-1.04018E-02
 -1      1339 1.82204E+01 1.41716E+01 7.72840E+00-1.77706E+00-2.02171E-01 4.18367E-02
 -1      1340 1.15090E+01 9.31195E+00 4.93712E+00-4.06286E-01-4.41045E-02 7.88223E-02
 -1      1341 1.38885E+01 1.30399E+01 6.66599E+00-1.48962E-01 1.97886E-01-1.46421E-01
 -1      1342 1.08639E+01 8.92403E+00 4.63432E+00-8.95042E-02-3.10681E-03 8.66980E-02
 -1      1343 1.30973E+01 1.11389E+01 6.08349E+00-8.13963E-01-1.41797E-01 9.34156E-02
 -1      1344 1.55525E+01 1.42741E+01 7.52436E+00-7.20532E-01-2.15739E-01 2.48733E-01
 -1      1345 2.07390E+00 6.38426E-01 7.02571E-02-4.94383E-03 1.88088E-04-9.48753E-02
 -1      1346 1.44087E+00 1.34800E-01-5.34455E-03 1.28466E-02-1.38357E-03-1.26471E-01
 -1      1347 3.49787E+00 2.23891E+00 4.82835E-03-8.68280E-03 3.31780E-03-2.52485E-01
 -1      1348 1.57428E+01 1.34512E+01 7.60278E+00-1.23052E+00 8.45906E-02 3.08266E-02
 -1      1349 5.80134E+00 4.26485E+00 1.53211E+00-1.36230E-02-2.98588E-03-2.48442E-02
 -1      1350 5.36237E+00 3.86510E+00 1.59963E+00-2.50181E-02 8.31970E-03-6.70433E-03
 -1      1351 1.55089E+01 1.24005E+01 7.24798E+00-1.35407E+00 9.65450E-02 2.93799E-01
 -1      1352 1.51715E+01 1.40455E+01 3.48387E+00-2.30362E+00 4.41761E-02 8.76336E-02
 -1      1353 1.09076E+01 8.89827E+00 4.75827E+00-1.62990E-01 3.46843E-02 3.97414E-03
 -1      1354 1.65487E+01 1.40743E+01 7.85615E+00-1.71480E+00-9.53671E-02 2.03915E-01
 -1      1355 4.88357E+00 3.54877E+00 3.45573E-01 1.54910E-02 4.82184E-03-3.15110E-01
 -1      1356 1.49216E+01 1.39982E+01 7.47633E+00-5.04518E-01 1.04179E-01 1.05500E-03
 -1      1357 1.37529E+01 1.14760E+01 6.32625E+00-8.83302E-01 4.21789E-02 1.78094E-01
 -1      1358 1.73362E+01 1.53353E+01 8.66413E+00-2.54665E+00-1.29050E-01-1.41039E-01
 -1      1359 1.34742E+01 1.10571E+01 5.72115E+00-5.59442E-01-6.87890E-02 1.18506E-01
 -1      1360 1.00459E+01 8.90553E+00 3.60578E+00-1.75015E-01-1.33354E-02 8.61512E-02
 -1      1361 8.35491E+00 6.50740E+00 1.70047E+00-9.68787E-02 1.55074E-02-4.95239E-02
 -1      1362 3.85628E+00 2.52109E+00 7.75753E-01-4.36078E-03 1.06546E-02-3.69902E-02
 -1      1363 1.92815E+01 1.65693E+01 9.22517E+00-2.33642E+00-4.36157E-02 3.47604E-02
 -1      1364 1.62440E+01 1.25791E+01 7.42164E+00-1.55980E+00 1.35981E-02 9.72531E-02
 -1      1365 1.91702E+01 1.69098E+01 9.66627E+00-1.76022E+00 1.10084E-02-9.89121E-04
 -1      1366 3.39572E+00 2.07084E+00 2.19186E-01-1.29302E-02 3.97579E-03-2.58674E-01
 -1      1367 3.39895E+00 2.08261E+00 1.26490E-01-4.42592E-02 4.55380E-03-3.11215E-01
 -1      1368 1.26879E+01 9.93200E+00 4.15745E+00-2.88016E-01-1.46134E-02 1.75209E-01
 -1      1369 2.24615E+01 2.35508E+01 1.20260E+01-4.51813E+00 2.20012E-01 8.83729E-02
 -1      1370 1.75391E+01 1.90564E+01 3.48260E+00-4.33884E+00 4.96337E-01 8.09556E-02
 -1      1371 7.28237E+00 5.86140E+00 2.76784E+00-4.73109E-02-8.77172E-03-3.09680E-03
 -1      1372 6.40607E+00 4.90395E+00 2.22429E+00-5.92100E-02 1.05213E-02 1.02769E-02
 -1      1373 2.88164E+00 1.52309E+00 2.66211E-01-3.30918E-02-3.72192E-03-1.44737E-01
 -1      1374 2.82839E+00 1.47283E+00 2.06004E-01-4.18494E-02-8.45758E-03-1.65706E-01
 -1      1375 2.31929E+01 2.51535E+01 1.32079E+01-5.76984E+00-5.54510E-02-1.27345E-01
 -1      1376 2.40063E+01 2.42536E+01 1.24336E+01-4.82799E+00-2.11415E-01-2.33380E-02
 -1      1377 1.50570E+01 1.36668E+01 7.61402E+00-8.29549E-01 3.37571E-02 2.28638E-02
 -1      1378 1.92928E+01 1.76619E+01 6.62979E+00-3.19362E+00-1.01597E-01 3.45367E-01
 -1      1379 2.45487E+01 2.51555E+01 1.39585E+01-5.56018E+00-2.07399E-01 3.75715E-01
 -1      1380 2.29135E+01 2.27527E+01 1.33800E+01-3.93631E+00 2.20216E-01-8.97562E-02
 -1      1381 1.90080E+01 1.67053E+01 7.74736E+00-1.46459E+00 1.89666E-01 8.08656E-01
 -1      1382 2.13505E+01 2.17701E+01 1.20343E+01-4.25723E+00 9.49749E-02 1.32407E-02
 -1      1383 1.83137E+01 1.62553E+01 9.10400E+00-1.94520E+00-5.21938E-03-2.12567E-01
 -1      1384 2.09387E+01 2.00078E+01 9.39366E+00-3.75117E+00 1.11906E-01 2.12827E-01
 -1      1385 2.24543E+01 2.06584E+01 1.29717E+01-2.20476E+00-9.62355E-02 2.39780E-01
 -1      1386 2.05530E+01 1.92742E+01 8.53907E+00-2.92498E+00-1.19075E-01 4.15448E-01
 -1      1387 2.31489E+01 2.33067E+01 1.32157E+01-4.77312E+00 2.37846E-01-5.41145E-02
 -1      1388 1.72101E+01 1.44525E+01 8.25408E+00-1.82744E+00 3.97775E-02 1.13921E-01
 -1      1389 2.26091E+01 2.34147E+01 1.19189E+01-4.37930E+00-3.88562E-01-3.42924E-01
 -1      1390 2.12340E+01 2.04117E+01 9.05555E+00-3.88168E+00 1.40835E-01 3.16830E-01
 -1      1391 2.06101E+01 1.90788E+01 9.69009E+00-2.19971E+00 1.96589E-01 4.06173E-01
 -1      1392 2.15781E+01 2.20206E+01 1.03656E+01-4.86239E+00 2.73583E-02 5.04930E-01
 -1      1393 1.59796E+01 1.29714E+01 6.28196E+00-1.86380E+00-9.70432E-02 4.64868E-01
 -1      1394 2.20378E+01 2.64191E+01 1.17364E+01-6.13202E+00-5.59177E-01 9.90283E-02
 -1      1395 2.08074E+01 1.86504E+01 1.12170E+01-1.23943E+00-1.00048E-02 3.08763E-02
 -1      1396 2.37179E+01 2.12570E+01 1.27658E+01-4.11646E+00 2.59447E-01-1.62447E-01
 -1      1397 1.99591E+01 1.79237E+01 9.54982E+00-1.21796E+00-1.26756E-01-3.29467E-02
 -1      1398 1.51126E+01 1.29803E+01 6.39116E+00-9.27248E-01 2.11559E-01 3.51313E-01
 -1      1399 2.03239E+01 2.11624E+01 1.06868E+01-4.18693E+00 8.31701E-02 3.17457E-01
 -1      1400 2.18677E+01 2.03209E+01 1.06070E+01-2.72627E+00-1.07167E-01 5.64129E-01
 -1      1401 1.49134E+01 1.33611E+01 5.95641E+00-6.59875E-01 1.71581E-01 2.32516E-01
 -1      1402 2.23879E+01 2.29104E+01 1.10655E+01-5.30572E+00-3.65561E-02 3.97117E-03
 -1      1403 2.29258E+01 2.02086E+01 1.09483E+01-2.88147E+00-4.91981E-02 5.30895E-01
 -1      1404 2.23071E+01 2.06919E+01 1.26881E+01-2.17893E+00-3.60618E-01-3.43772E-01
 -1      1405 2.27007E+01 2.11032E+01 1.08120E+01-4.23241E+00 3.12795E-01-1.10680E-01
 -1      1406 2.47290E+01 2.51449E+01 1.27996E+01-4.89777E+00-2.60587E-01 1.21555E-02
 -1      1407 2.35724E+01 2.31846E+01 1.15078E+01-4.21493E+00 2.57568E-01 2.48684E-01
 -1      1408 2.20178E+01 2.37469E+01 1.18404E+01-4.60699E+00-9.75532E-02 1.81147E-02
 -1      1409 2.37310E+01 2.29525E+01 1.23272E+01-4.97544E+00 1.34130E-01 6.29880E-02
 -1      1410 1.38711E+01 1.19091E+01 3.54007E+00-7.30327E-01 3.41157E-02-5.36930E-04
 -1      1411 2.31256E+01 2.15641E+01 1.12997E+01-3.51244E+00-2.13107E-01 1.87050E-01
 -1      1412 2.26579E+01 2.14508E+01 1.16922E+01-4.08804E+00 1.08201E-01-3.37331E-01
 -1      1413 2.22191E+01 2.30903E+01 1.17799E+01-4.64501E+00-7.40558E-02-1.33218E-02
 -1      1414 2.06601E+01 1.93222E+01 1.10768E+01-1.02465E+00 2.07016E-01 1.28227E-01
 -1      1415 2.17583E+01 2.23125E+01 1.15857E+01-4.86064E+00 2.22692E-01 1.99225E-01
 -1      1416 2.20126E+01 2.28303E+01 1.16370E+01-4.42525E+00 1.05863E-02 1.58050E-01
 -1      1417 2.22609E+01 2.06006E+01 1.16552E+01-1.65004E+00 4.88220E-02-5.94136E-02
 -1      1418 2.30351E+01 2.09893E+01 1.25404E+01-4.07205E+00-1.42337E-01 1.59960E-01
 -1      1419 2.26900E+01 2.27452E+01 1.22224E+01-4.80337E+00-1.61822E-01 2.14516E-01
 -1      1420 2.38835E+01 2.22025E+01 1.22057E+01-4.03777E+00 2.06676E-01 1.16787E-01
 -1      1421 2.55514E+01 2.33009E+01 1.30184E+01-5.44653E+00-1.48615E-01 7.70850E-02
 -1      1422 2.52439E+01 2.64373E+01 1.35093E+01-6.38402E+00-1.33717E-01-1.36792E-01
 -1      1423 2.39166E+01 2.11956E+01 1.14731E+01-3.65577E+00-1.77417E-01-1.75712E-01
 -1      1424 2.37652E+01 2.41524E+01 1.24583E+01-5.02781E+00-1.85433E-01 2.93869E-01
 -1      1425 2.35780E+01 2.37463E+01 1.25462E+01-5.27034E+00-4.29561E-02 4.84601E-02
 -1      1426 1.66381E+01 1.39834E+01 7.98639E+00-1.08446E+00-1.74035E-01 3.01504E-01
 -1      1427 1.51279E+00 2.14152E-01-1.65561E-02-5.26532E-04-1.61329E-03-1.08042E-01
 -1      1428 1.60003E+01 1.35621E+01 7.14683E+00-2.03875E+00-1.39647E-02 3.31919E-01
 -1      1429 1.60046E+01 1.39754E+01 7.72291E+00-1.63535E+00-9.58269E-02 4.31559E-01
 -1      1430 3.00202E+00 1.78617E+00-8.04005E-03-2.68678E-02 1.65881E-02-2.87522E-01
 -1      1431 5.03145E+00 3.78040E+00 1.05495E+00 1.19712E-03-2.46355E-03-7.70342E-02
 -1      1432 1.64680E+01 1.35406E+01 7.80636E+00-1.14268E+00-6.00967E-02 4.24269E-01
 -1      1433 2.62660E+00 1.47881E+00 1.69494E-02-1.40390E-02 3.02659E-03-2.76230E-01
 -1      1434 7.95266E+00 6.57544E+00 3.19326E+00-1.14085E-01-2.03823E-02-2.83370E-03
 -1      1435 9.23558E-01-4.33367E-01-2.86622E-02 4.81982E-03-2.02424E-04-1.18568E-01
 -1      1436 1.56937E+01 1.36193E+01 6.88363E+00-7.55935E-01-6.71380E-02 2.03984E-01
 -1      1437 1.48536E+01 1.25609E+01 5.62753E+00-9.82175E-01 5.41393E-02 3.82067E-01
 -1      1438 1.64834E+01 1.44379E+01 7.74754E+00-1.49082E+00-1.33373E-01 3.25984E-01
 -1      1439 8.73329E+00 7.54982E+00 3.60399E+00 3.39559E-03 9.17410E-04 7.21171E-02
 -1      1440 1.27668E+00-6.24972E-02-1.60249E-02 9.12961E-03 2.59292E-03-1.59607E-01
 -1      1441 6.33951E+00 4.73710E+00 2.12737E+00 1.12155E-02-6.88590E-03-1.01674E-02
 -1      1442 5.31946E+00 3.81941E+00 1.41805E+00-4.20079E-02-5.00333E-03-2.71309E-02
 -1      1443 1.30798E+01 1.01130E+01 5.53326E+00-5.71781E-01-4.76097E-02 1.35560E-01
 -1      1444 9.29380E+00 7.87389E+00 3.79767E+00-9.31483E-02 9.02108E-03-9.72564E-03
 -1      1445 1.53574E+01 1.28094E+01 5.09852E+00-1.56758E+00-2.31609E-02 1.01838E-01
 -1      1446 1.65164E+01 1.38648E+01 8.21096E+00-1.86488E+00 8.24561E-02 2.43173E-01
 -1      1447 8.28166E+00 6.70977E+00 3.09528E+00-1.25846E-01 5.70698E-02 3.01776E-02
 -1      1448 7.95507E+00 6.21532E+00 2.83604E+00-5.75862E-02-2.07664E-03 2.87382E-02
 -1      1449 4.80548E+00 3.42955E+00 1.26109E+00-5.10752E-02-1.85346E-02-2.77772E-02
 -1      1450 5.51804E+00 4.10015E+00 1.62848E+00-8.31844E-02-1.22305E-02-2.42375E-02
 -1      1451 2.41823E+01 2.12797E+01 1.26287E+01-4.18158E+00-8.88570E-02-3.53975E-02
 -1      1452 6.48955E+00 4.92919E+00 3.78550E-01-1.70734E-01 2.96705E-02-4.15268E-01
 -1      1453 1.13007E-01-2.12140E+00-9.73993E-02-8.28312E-03 2.35954E-03-3.19740E-02
 -1      1454 3.16389E+00 1.88643E+00 3.05304E-01-1.71151E-02 9.32058E-04-1.69075E-01
 -1      1455 1.57219E+01 1.35109E+01 7.16100E+00-1.12439E+00 6.74851E-02 2.95022E-01
 -1      1456 1.61881E+01 1.42488E+01 8.02948E+00-1.39206E+00 2.51405E-01-3.95928E-02
 -1      1457 6.06458E+00 4.75862E+00 1.93079E+00-3.62146E-02-3.51995E-03-9.39257E-03
 -1      1458 8.51431E+00 6.67950E+00 3.34843E+00-6.79405E-02 3.05826E-02 6.12664E-02
 -1      1459 1.34363E+01 1.24637E+01 5.03871E+00-2.66516E-01 1.45663E-01 1.29276E-02
 -1      1460 1.12627E+00-2.99727E-01-3.78689E-02-2.21788E-02 8.75993E-03-1.23197E-01
 -1      1461 8.96979E+00 7.59122E+00 3.76640E+00 5.77731E-03-2.76456E-02 2.42405E-02
 -1      1462 4.92911E+00 3.55052E+00 2.67854E-01 1.24725E-02-1.28545E-02-3.37085E-01
 -1      1463 6.83553E+00 5.56544E+00 1.51830E+00 1.44550E-02 7.26424E-03-7.39265E-02
 -1      1464 7.99007E+00 6.19732E+00 2.30981E+00-8.70659E-02-2.78001E-02 4.32527E-02
 -1      1465 7.55153E+00 6.40592E+00 2.46580E+00-8.65000E-03 8.28336E-03 5.04920E-02
 -1      1466 5.24675E+00 4.12555E+00 1.21315E-01-4.56400E-02-4.12498E-03-4.44541E-01
 -1      1467 1.70582E+01 1.43982E+01 8.63369E+00-1.94019E+00 1.39398E-01-3.79826E-01
 -1      1468 1.51007E+01 1.23137E+01 6.47640E+00-4.70704E-01-4.42066E-02 3.18187E-02
 -1      1469 6.40619E+00 5.04983E+00 1.75133E+00-5.11801E-02-1.93073E-03 3.21970E-03
 -1      1470 2.04386E+00 7.88863E-01 6.01290E-03-1.13982E-02 3.94868E-03-2.40359E-01
 -1      1471 7.52844E+00 5.86043E+00 2.34022E+00 2.92732E-02-1.50381E-02 7.64054E-02
 -1      1472 7.78286E+00 6.55558E+00 2.46468E+00-2.24606E-02-1.44849E-02 9.21025E-02
 -1      1473 7.12511E+00 5.61032E+00 2.00168E+00-1.41005E-02-2.59974E-02-6.50278E-03
 -1      1474 4.40004E+00 3.21530E+00 4.75680E-01-1.40985E-03-2.15001E-03-1.85943E-01
 -1      1475 1.60804E+01 1.45510E+01 8.20690E+00-9.84018E-01-2.52802E-01 2.72889E-01
 -1      1476 1.55986E+01 1.38228E+01 7.30105E+00-8.52870E-01-1.03275E-01 1.48622E-01
 -1      1477 8.85332E-02-2.20260E+00-2.54565E-02 1.33123E-02-7.45568E-03-3.21946E-02
 -1      1478 7.58350E+00 6.29993E+00 3.01007E+00-2.91115E-02 2.99391E-02 2.26314E-02
 -1      1479 2.36402E+00 1.08002E+00 1.10925E-01-1.48167E-02-2.16106E-03-1.51624E-01
 -1      1480 2.35323E+01 2.10246E+01 1.29029E+01-2.22668E+00 5.32337E-02 2.27965E-01
 -1      1481 9.22406E+00 7.99966E+00 3.84545E+00-1.64968E-01 9.58549E-03-5.27259E-02
 -1      1482 7.10609E+00 5.56057E+00 1.90002E+00-6.90926E-03 1.46906E-02-3.22310E-02
 -1      1483 1.59222E+01 1.46027E+01 7.70723E+00-1.60991E+00-4.46262E-02 2.05226E-01
 -1      1484 8.89699E+00 7.67309E+00 4.93789E-01-3.87046E-01 2.70821E-02-5.26402E-01
 -1      1485 1.07544E+01 9.27535E+00 4.81920E+00-4.86042E-01 7.80733E-03-2.52259E-03
 -1      1486 5.41325E+00 3.99261E+00 1.52755E+00-5.57244E-03-6.14516E-04-2.64413E-02
 -1      1487 6.59089E+00 5.00951E+00 1.38199E+00-7.54858E-02 8.57219E-03-5.83578E-02
 -1      1488 2.44586E+01 2.21866E+01 1.11247E+01-4.69399E+00-2.27522E-01 8.29794E-01
 -1      1489 4.70656E+00 3.39773E+00 1.27302E+00 5.06629E-03-3.73695E-03 1.01260E-02
 -1      1490 1.57430E+01 1.37474E+01 6.80260E+00-7.74305E-01 6.33153E-02 3.91434E-01
 -1      1491 1.24474E+01 1.12232E+01 5.73113E+00-3.05455E-01 1.49608E-03-5.39618E-02
 -1      1492 1.65022E+01 1.43095E+01 7.62450E+00-1.30608E+00 1.07693E-01 8.39894E-02
 -1      1493 1.66747E+01 1.58338E+01 8.53973E+00-2.57309E+00-6.76896E-02 5.09093E-02
 -1      1494 9.53330E+00 7.67620E+00 3.13849E+00-3.33261E-01-3.98804E-02 5.25944E-02
 -1      1495 8.11598E+00 6.41067E+00 2.37975E+00-1.75455E-01 4.11954E-02 3.04410E-02
 -1      1496 6.99939E+00 5.54346E+00 2.58940E+00-7.20987E-02 2.30208E-02-2.27425E-02
 -1      1497 8.74928E+00 7.44847E+00 3.61703E+00-1.08771E-01 1.21996E-02 4.24795E-02
 -1      1498 1.58884E+01 1.45732E+01 7.83405E+00-8.73618E-01-5.76817E-02 2.51280E-01
 -1      1499 1.69612E+01 1.35975E+01 7.76013E+00-1.21672E+00 1.11047E-02 1.31400E-01
 -1      1500 5.86439E+00 4.53408E+00 1.95412E+00-4.36718E-02-3.96398E-03-9.41588E-03
 -1      1501 1.65955E+01 1.39753E+01 7.39716E+00-1.04433E+00 1.12579E-01 1.28130E-01
 -1      1502 1.63918E+01 1.45332E+01 7.76112E+00-9.89256E-01 1.30392E-01 1.74989E-01
 -1      1503 1.76690E+01 1.52508E+01 8.88486E+00-2.68552E+00-3.56611E-02 2.12176E-01
 -1      1504 1.62638E+01 1.49704E+01 8.14925E+00-7.29111E-01 3.97949E-02 2.96128E-01
 -1      1505 2.65627E+01 2.56895E+01 1.36782E+01-6.24669E+00-2.21212E-01 2.35242E-01
 -1      1506 1.68320E+01 1.46561E+01 8.40326E+00-2.03328E+00 1.28634E-02 1.94696E-01
 -1      1507 2.04073E+01 2.53622E+01 8.25137E+00-5.35579E+00 3.70324E-01 3.21990E-01
 -1      1508 1.44932E+01 1.36052E+01 5.80160E+00-1.66814E-01 1.29165E-01 2.04098E-01
 -1      1509 1.67696E+01 1.32091E+01 7.90988E+00-1.21456E+00 9.47432E-02-2.29303E-01
 -1      1510 1.58312E+01 1.40726E+01 6.62068E+00-1.18632E+00-2.80262E-02 1.74318E-01
 -1      1511 5.99086E+00 4.94205E+00 9.55822E-03-9.54853E-02 2.11651E-02-4.58348E-01
 -1      1512 1.64849E+01 1.35077E+01 6.91108E+00-1.29809E+00 6.12418E-02 5.17076E-02
 -1      1513 1.65374E+01 1.50613E+01 7.32276E+00-1.95111E+00-3.83826E-02 6.03668E-02
 -1      1514 1.74374E+01 1.42587E+01 8.10806E+00-1.72302E+00-1.79794E-01-2.73229E-01
 -1      1515 1.73079E+01 1.52003E+01 8.44204E+00-2.10176E+00 1.14698E-01 8.09631E-02
 -1      1516 1.70416E+01 1.49290E+01 8.00851E+00-1.59764E+00 4.52695E-02-1.44512E-01
 -1      1517 1.57195E+01 1.43641E+01 7.41483E+00-1.26706E+00 1.81829E-02 1.40862E-01
 -1      1518 1.69539E+01 1.52656E+01 8.50122E+00-1.19166E+00-2.22875E-01 7.08847E-01
 -1      1519 1.75235E+01 1.48009E+01 8.34960E+00-1.69871E+00 8.44668E-02-2.94786E-01
 -1      1520 1.60381E+01 1.49482E+01 8.06495E+00-3.91909E-01 3.17660E-02 8.70913E-02
 -1      1521 2.32506E+01 2.19230E+01 1.19533E+01-4.79174E+00-1.39016E-01 1.38616E-01
 -1      1522 3.99753E+00 2.47860E+00 8.25637E-01-2.29382E-02-4.11264E-03-8.67655E-03
 -1      1523 9.93828E+00 8.35584E+00 4.38220E+00-1.14481E-01-1.25829E-02-1.13601E-02
 -1      1524 2.39755E+01 2.10900E+01 1.21849E+01-3.05570E+00 3.03579E-01 5.98840E-02
 -1      1525 1.09549E+01 9.35723E+00 4.60342E+00-3.94014E-01-7.60485E-02 7.95403E-02
 -1      1526 2.83066E+00 1.57681E+00-1.10346E-02 2.12475E-02-4.55042E-03-1.68063E-01
 -1      1527 1.18178E+01 9.53847E+00 5.23373E+00-3.86478E-01-1.30980E-02-1.92286E-03
 -1      1528 3.92249E+00 2.72905E+00 2.05965E-02-4.37084E-02 1.14956E-02-3.51015E-01
 -1      1529 9.68407E+00 7.77331E+00 3.72515E+00-3.99671E-01 1.18829E-02 8.03134E-02
 -1      1530 6.00227E+00 4.54204E+00 1.91377E+00-2.48202E-02 1.33581E-02-5.07862E-03
 -1      1531 6.03033E+00 4.52252E+00 1.63302E+00-8.57925E-02 9.94462E-03-3.02298E-02
 -1      1532 1.62087E+01 1.49573E+01 8.07297E+00-1.58474E+00-7.18800E-02-2.85822E-02
 -1      1533 1.69187E+01 1.40590E+01 8.20235E+00-1.98065E+00-7.58680E-02-5.46149E-02
 -1      1534 2.75201E+01 2.41807E+01 1.30840E+01-5.88294E+00 2.85928E-01-2.22179E-01
 -1      1535 1.24693E+01 1.13754E+01 5.97595E+00-3.02502E-01 5.04142E-02-2.13402E-03
 -1      1536 8.34755E+00 6.88818E+00 3.28542E+00-2.84625E-02-6.24211E-03 7.33455E-02
 -1      1537 1.66022E+01 1.51325E+01 8.64688E+00-1.08646E+00 1.61097E-01-2.75650E-01
 -1      1538 1.51496E+01 1.35733E+01 5.83033E+00-9.48126E-01-1.63961E-01 3.98230E-01
 -1      1539 1.54717E+01 1.38695E+01 7.48798E+00-8.56198E-01-3.98905E-02 8.35592E-02
 -1      1540 6.21549E+00 5.12488E+00 1.21903E-01-1.77252E-02 2.08568E-02-5.45733E-01
 -1      1541 9.94052E+00 8.11137E+00 2.82318E+00-1.56920E-01 2.20179E-02 1.93244E-01
 -1      1542 2.41603E+00 1.16288E+00 1.52050E-02-1.29484E-02 5.48500E-03-2.64450E-01
 -1      1543 1.80540E+01 1.51245E+01 8.05472E+00-2.12935E+00 2.12809E-02-5.18785E-02
 -1      1544 1.32723E+01 1.20687E+01 3.99074E+00-4.44092E-01 1.44939E-01 1.92692E-01
 -1      1545 1.12486E+01 9.07242E+00 2.34054E+00-6.30923E-01 7.74913E-03 3.31474E-02
 -1      1546 7.05802E+00 5.83612E+00 1.21605E+00-4.46762E-02 6.49132E-03-1.20900E-01
 -1      1547 5.67872E+00 4.32781E+00 1.65713E+00-2.73017E-02 3.74215E-03-3.54616E-02
 -1      1548 3.99270E+00 2.61623E+00 2.59610E-01-7.36614E-02 8.96397E-03-2.80474E-01
 -1      1549 1.04057E+01 9.30272E+00 1.74630E+00-5.38175E-02-1.94745E-02-1.86975E-02
 -1      1550 1.74585E+01 1.60160E+01 9.00536E+00-1.53463E+00-1.39062E-02 1.63490E-01
 -1      1551 3.68324E+00 2.17637E+00 6.70324E-01 2.84219E-03 1.32920E-02-1.99587E-02
 -1      1552 1.30454E+01 1.06889E+01 5.19008E+00-5.89500E-02 1.60894E-01-9.91482E-02
 -1      1553 6.16789E+00 4.86397E+00 2.12096E+00-2.81260E-02-1.22797E-02 2.22707E-03
 -1      1554 1.72878E+01 1.52220E+01 7.87683E+00-1.39432E+00 4.94400E-02 1.54540E-01
 -1      1555 4.50588E+00 3.35468E+00 7.16225E-02-6.89780E-02 1.85037E-02-4.03915E-01
 -1      1556 6.12944E+00 4.55963E+00 2.01072E+00-2.49333E-02-1.04252E-02-4.01378E-03
 -1      1557 1.11808E+01 9.48606E+00 1.66358E+00-6.80858E-01-4.14042E-02-1.57309E-02
 -1      1558 1.28969E+01 1.04144E+01 4.93757E+00-6.14023E-01-1.06068E-01 7.05498E-02
 -1      1559 1.77927E+01 1.47514E+01 8.16764E+00-1.99125E+00 6.92194E-02-4.00101E-01
 -1      1560 8.56460E+00 6.65071E+00 3.18820E+00 9.02134E-03 3.39186E-02 6.54274E-02
 -1      1561 9.62592E+00 8.56361E+00 3.92310E+00-2.80184E-02 7.04199E-03 9.55131E-02
 -1      1562 1.15776E+01 9.22683E+00 5.10200E+00-1.68401E-01 2.15982E-02-1.80632E-02
 -1      1563 1.73182E+01 1.54664E+01 8.77067E+00-2.26246E+00-1.25545E-02-2.61507E-01
 -1      1564 2.52609E+01 2.55502E+01 1.32432E+01-5.71767E+00 6.45335E-01 6.25116E-01
 -1      1565 1.76288E+01 1.75917E+01 1.97290E+00-4.25621E+00 1.94832E-01-5.52059E-01
 -1      1566 1.19894E+01 9.97013E+00 4.85521E+00-6.00854E-01 2.41881E-03 8.20471E-02
 -1      1567 2.78897E+00 1.45394E+00 1.65498E-01-1.22299E-02-3.37728E-03-1.98783E-01
 -1      1568 7.02366E+00 5.53249E+00 2.04755E+00-8.70249E-02-1.01847E-02 3.81817E-02
 -1      1569 2.69156E+01 2.58653E+01 1.37741E+01-5.42699E+00-1.24040E-01 1.93578E-02
 -1      1570 2.22390E+00 7.79782E-01 7.78556E-02-2.39652E-02 7.91715E-03-1.23881E-01
 -1      1571 5.31780E+00 3.98241E+00 1.26543E+00-3.59509E-02 9.34985E-03-3.58439E-02
 -1      1572 1.26366E+00-1.52380E-01-4.68757E-02 1.12495E-02 2.52812E-03-4.32814E-02
 -1      1573 1.73337E+01 1.59026E+01 8.67824E+00-2.11363E+00 7.97209E-02-1.92284E-01
 -1      1574 2.24700E+00 9.71238E-01-6.86555E-03 6.07743E-03-6.12597E-03-1.63737E-01
 -1      1575 1.75411E+01 1.50467E+01 8.02318E+00-1.17555E+00 2.73247E-02 9.70660E-02
 -1      1576 1.75002E+01 1.52571E+01 8.46616E+00-2.35793E+00-7.19043E-02 6.47058E-02
 -1      1577 5.94275E+00 4.36337E+00 1.45130E+00-2.18037E-02 1.37046E-02-3.62273E-02
 -1      1578 1.55254E+01 1.33623E+01 5.03853E+00-1.61383E+00 1.49466E-01 4.89116E-01
 -1      1579 6.31131E+00 4.76690E+00 2.15097E+00-1.84148E-02 1.82427E-02-1.94960E-02
 -1      1580 1.66439E+01 1.44541E+01 8.14975E+00-1.50615E+00-1.40403E-01 1.00228E-01
 -1      1581 1.48314E+01 1.35528E+01 2.49054E+00-2.35804E+00 2.69068E-01-4.50709E-01
 -1      1582 4.65297E+00 3.49701E+00 9.29487E-03-5.63850E-02 2.53229E-02-3.25373E-01
 -1      1583 1.33859E+01 1.14856E+01 6.23354E+00-7.51584E-01-6.74455E-02 8.85535E-02
 -1      1584 1.15534E+01 9.75079E+00 5.13771E+00-3.10059E-01-5.96853E-04-7.05743E-02
 -1      1585 1.34202E+01 1.18004E+01 6.38644E+00-6.63181E-01 8.48721E-02-1.30483E-03
 -1      1586 4.99226E+00 3.68576E+00 1.31452E+00-1.41661E-02-5.02499E-03-2.24680E-02
 -1      1587 1.22859E+01 1.02415E+01 5.03079E+00-4.08201E-01-6.47298E-02 1.47163E-01
 -1      1588 5.19890E+00 4.30651E+00 5.21860E-02 3.53367E-03 3.94975E-03-4.35635E-01
 -1      1589 1.81372E+01 1.40382E+01 7.72563E+00-2.07377E+00 2.85525E-01 1.00485E-01
 -1      1590 4.33123E+00 2.90509E+00 9.71460E-01-3.51573E-02 2.00188E-02-3.73071E-02
 -1      1591 1.54383E+01 1.42443E+01 7.16618E+00-3.13946E-01 5.62193E-02 1.86897E-01
 -1      1592 1.75018E-01-1.90096E+00-1.06441E-01-8.70990E-03-4.07222E-04-2.19299E-02
 -1      1593 3.32856E-02-2.72713E+00-1.74254E-01 4.36087E-03 1.63411E-03-1.22904E-02
 -1      1594 4.21657E-02-2.75339E+00-1.35046E-01-2.72151E-03 2.55994E-03-1.40769E-02
 -1      1595 3.68175E+01 2.70829E+01 1.76580E+01-7.38943E+00-1.88250E-02 1.70254E+00
 -1      1596 2.28932E+01 2.13532E+01 1.20982E+01-1.89010E+00-1.81519E-01 1.82481E+00
 -1      1597 3.01955E+01 4.21951E+01 2.01759E+01-1.10214E+01 2.35102E+00-1.36284E+00
 -1      1598 1.80947E-02-2.74118E+00-1.80689E-02 2.00181E-03-5.29276E-03-1.39318E-02
 -1      1599 1.65918E-01-1.88578E+00-7.98313E-03 8.10113E-03-3.57168E-03-2.01191E-02
 -1      1600 3.36261E-02-2.81184E+00-9.46645E-02-4.74553E-03-2.89744E-03-1.96115E-02
 -1      1601 1.38265E+01 1.26133E+01 1.57377E+00-1.40885E+00 4.34971E-01-1.73163E+00
 -1      1602 2.37217E+01 1.57442E+01 1.06306E+00-5.52062E+00 1.04392E+00-2.30658E+00
 -1      1603 2.30786E+01 3.18787E+01 7.62724E+00-8.75530E+00-1.10759E+00 1.62114E+00
 -1      1604 6.38554E-01-9.42108E-01-7.36706E-02-4.32652E-03 9.23934E-04-2.59000E-02
 -1      1605 3.90662E-01-1.38875E+00-7.74533E-02-5.60815E-03 2.93699E-03-2.52940E-02
 -1      1606 2.86791E-01-1.65605E+00-8.99065E-02-7.33188E-03-1.32178E-03-4.31215E-02
 -1      1607 1.32923E+00-7.23771E-02-3.64418E-02-9.67375E-04 3.03865E-03-2.53441E-02
 -1      1608 1.00677E+00-4.29222E-01-6.17870E-02-2.63074E-03 4.04950E-03-2.42814E-02
 -1      1609 8.82916E-01-5.81126E-01-5.29562E-02-6.42932E-03 4.15995E-03-3.53959E-02
 -1      1610 7.09241E-01-8.34772E-01-6.40740E-02-2.39027E-02 5.07649E-03-6.33729E-02
 -1      1611 1.10361E+00-3.32603E-01-5.27078E-02 1.67595E-02 3.37679E-03-5.43822E-02
 -1      1612 1.85250E+00 4.83484E-01 3.36252E-02-8.52406E-04 2.42400E-03-2.31699E-02
 -1      1613 1.52595E+00 1.69378E-01-2.45100E-02-2.34455E-03 4.54687E-03-2.83525E-02
 -1      1614 1.45788E+00 8.74779E-02-3.04322E-02 1.12302E-02 3.82992E-03-5.02844E-02
 -1      1615 2.42389E+00 1.05685E+00 1.92117E-01-6.34007E-03 1.94483E-03-1.38783E-02
 -1      1616 2.09421E+00 7.44816E-01 9.70084E-02-5.66555E-03 6.11655E-04-1.45029E-02
 -1      1617 1.96055E+00 6.04277E-01 5.62613E-02-1.29866E-02 3.75584E-03-5.86898E-02
 -1      1618 3.07436E+00 1.68834E+00 4.16704E-01-4.38465E-03 2.33140E-03-8.35573E-03
 -1      1619 2.70548E+00 1.37182E+00 2.72505E-01-6.45273E-03 4.39392E-03-1.54712E-02
 -1      1620 2.52991E+00 1.19265E+00 2.14804E-01 7.63827E-03 5.83465E-03-3.23275E-02
 -1      1621 3.61209E+00 2.26805E+00 6.76272E-01-1.47442E-02 1.74508E-04-1.05902E-02
 -1      1622 3.27500E+00 1.93900E+00 5.15021E-01-4.96096E-03 1.21808E-03-1.06600E-02
 -1      1623 3.12735E+00 1.77280E+00 4.45187E-01 8.14428E-03 4.01007E-03-3.00040E-02
 -1      1624 4.48223E+00 3.08708E+00 1.11760E+00-7.42236E-03 3.40040E-03 4.64819E-03
 -1      1625 4.06616E+00 2.70667E+00 9.03779E-01-6.01816E-03 6.16791E-03-4.10362E-03
 -1      1626 3.91732E+00 2.50704E+00 8.17017E-01-1.31257E-02 6.43039E-03-4.99203E-03
 -1      1627 3.64654E+00 2.28298E+00 6.82172E-01-3.92687E-02 4.83386E-03-2.82587E-02
 -1      1628 4.11092E+00 2.67227E+00 9.14631E-01 3.55297E-02 6.18447E-03 1.47204E-02
 -1      1629 5.14175E+00 3.81963E+00 1.52598E+00-1.43079E-02 9.87575E-05-2.14621E-03
 -1      1630 4.72495E+00 3.40109E+00 1.28900E+00-6.54897E-03 1.46863E-03 2.97283E-03
 -1      1631 4.59038E+00 3.22355E+00 1.19973E+00 1.31941E-02 3.16073E-04 5.34256E-04
 -1      1632 6.32851E+00 4.88662E+00 2.19641E+00-1.27217E-02 5.01142E-03-8.06265E-03
 -1      1633 5.73057E+00 4.41605E+00 1.87219E+00-1.56966E-02 4.05339E-03-2.02472E-03
 -1      1634 5.49258E+00 4.12825E+00 1.70935E+00-1.52041E-02 6.80863E-03 5.44131E-03
 -1      1635 5.19029E+00 3.82865E+00 1.55657E+00 8.60799E-03 7.21057E-03 2.20795E-02
 -1      1636 5.76137E+00 4.45977E+00 1.89931E+00-2.92701E-02 9.13781E-03 1.52599E-02
 -1      1637 7.11220E+00 5.79601E+00 2.69399E+00-2.32409E-02 1.81264E-03 1.24604E-02
 -1      1638 6.56133E+00 5.19935E+00 2.35578E+00 2.47230E-03-1.41961E-03 1.39938E-02
 -1      1639 6.52228E+00 5.00036E+00 2.27299E+00 1.69699E-02 1.34289E-03 4.43337E-03
 -1      1640 8.81948E+00 7.34788E+00 3.65390E+00-1.68925E-02 2.63437E-03 7.75823E-03
 -1      1641 7.91345E+00 6.62250E+00 3.17522E+00-1.95211E-02 1.14012E-02-4.43196E-03
 -1      1642 7.59785E+00 6.23419E+00 2.96444E+00-2.41400E-02 9.28061E-03 1.48983E-02
 -1      1643 7.10770E+00 5.79528E+00 2.72255E+00 1.70267E-02 1.77958E-02 5.85701E-02
 -1      1644 7.91772E+00 6.68456E+00 3.22684E+00-3.56212E-02 2.44331E-02 4.34708E-03
 -1      1645 1.01960E+01 8.83078E+00 4.52830E+00-4.48823E-02-4.79556E-03-6.11291E-03
 -1      1646 9.17679E+00 7.82810E+00 3.94440E+00 2.58808E-03-4.97157E-03 2.93385E-04
 -1      1647 8.94147E+00 7.59174E+00 3.81229E+00-5.80506E-02 2.15523E-02-6.24740E-02
 -1      1648 1.33779E+01 1.19448E+01 6.32962E+00-2.05684E-01-3.36015E-03 2.47576E-01
 -1      1649 1.17520E+01 1.03318E+01 5.29190E+00-1.02813E-01-9.72985E-03 3.73898E-02
 -1      1650 1.11863E+01 9.61683E+00 5.04016E+00-5.52993E-02 3.96845E-02 7.35875E-03
 -1      1651 1.02122E+01 8.69908E+00 4.51498E+00-1.17902E-01-3.69783E-02-2.84537E-02
 -1      1652 1.20039E+01 9.74102E+00 5.37588E+00 2.50566E-03 4.85002E-02 1.04032E-01
 -1      1653 1.62924E+01 1.53038E+01 9.00205E+00-2.71027E-01-1.57968E-01 3.02354E-01
 -1      1654 1.56216E+01 1.23712E+01 7.53693E+00-1.91581E-01 7.49485E-02 2.50257E-01
 -1      1655 1.48427E+01 1.31212E+01 7.01406E+00-7.98116E-01 2.93555E-03 1.61110E-01
 -1      1656 2.31134E+01 1.88690E+01 1.08206E+01-2.73829E+00-5.99925E-02 7.60462E-01
 -1      1657 3.73655E-01-1.34548E+00-1.52965E-02 3.68917E-04 2.23737E-03-3.87723E-02
 -1      1658 6.11431E-01-9.22709E-01-2.39255E-03 3.72206E-03-1.50325E-03-4.64262E-02
 -1      1659 2.97102E-01-1.58060E+00-1.45705E-02 8.51848E-03-1.98749E-03-4.82478E-02
 -1      1660 7.64634E-01-6.82710E-01-1.70581E-02 4.72687E-04-1.24966E-03-4.67697E-02
 -1      1661 1.00756E+00-4.08671E-01 5.32348E-05 5.97870E-03-4.05800E-04-6.13254E-02
 -1      1662 6.78025E-01-7.81710E-01-5.43260E-03 1.43441E-02-9.04491E-03-8.38632E-02
 -1      1663 1.24451E+00-1.13363E-01-1.23866E-02-1.19169E-03 1.59359E-03-6.11751E-02
 -1      1664 1.48574E+00 1.14907E-01 8.33063E-05 6.67874E-03-9.83208E-04-7.29375E-02
 -1      1665 1.03969E+00-2.84650E-01-2.58090E-02 9.65652E-03-9.58105E-04-1.21086E-01
 -1      1666 1.16744E+00-1.69924E-01-7.33744E-03 5.84668E-03 6.51355E-05-8.23165E-02
 -1      1667 1.35253E+00 4.32306E-02-3.95833E-03 1.29040E-02-2.96003E-03-1.42469E-01
 -1      1668 1.59549E+00 2.62641E-01-9.82753E-03 1.16040E-03 6.59067E-04-7.92675E-02
 -1      1669 1.78657E+00 4.53991E-01-7.49122E-03-7.05128E-03 1.93519E-03-9.24927E-02
 -1      1670 1.57674E+00 3.05095E-01-1.29827E-02 1.78837E-03 5.32800E-04-1.36462E-01
 -1      1671 2.02273E+00 6.66928E-01-2.00834E-02-6.49364E-03-4.56579E-03-7.96593E-02
 -1      1672 2.25723E+00 8.76615E-01-4.91251E-03 6.69528E-04-3.70454E-03-9.38334E-02
 -1      1673 1.90544E+00 6.54044E-01-1.47079E-02-2.35083E-02 9.73387E-03-1.77879E-01
 -1      1674 2.00729E+00 6.43624E-01 1.05886E-03-4.66613E-03-3.85467E-04-1.16611E-01
 -1      1675 2.14028E+00 8.91737E-01-5.34650E-03 6.65789E-03-7.98934E-03-1.86558E-01
 -1      1676 2.35901E+00 1.00000E+00-1.78728E-02-9.92523E-03-1.58188E-03-9.22347E-02
 -1      1677 2.61236E+00 1.20361E+00 1.07922E-02-1.89829E-03 2.53035E-03-1.13438E-01
 -1      1678 2.37963E+00 1.12959E+00-3.01285E-02-1.03663E-02-9.39144E-04-1.65189E-01
 -1      1679 2.66435E+00 1.31308E+00-2.80321E-02 1.32391E-03-9.88974E-04-7.44740E-02
 -1      1680 2.92274E+00 1.54897E+00 9.12838E-03-9.36210E-04 3.46125E-03-1.08234E-01
 -1      1681 2.68825E+00 1.42771E+00-6.21310E-04 3.33770E-02-7.76901E-03-1.75622E-01
 -1      1682 3.13584E+00 1.82495E+00-2.07956E-02-2.30373E-02 4.88562E-03-1.35060E-01
 -1      1683 3.44799E+00 2.08115E+00 1.90611E-02 6.79952E-03 3.12464E-04-1.56787E-01
 -1      1684 3.37157E+00 2.25299E+00-8.02801E-03-3.51764E-02 6.41153E-03-2.60641E-01
 -1      1685 3.13552E+00 1.90414E+00 5.20788E-03 1.39685E-02 6.94737E-03-1.69776E-01
 -1      1686 3.06272E+00 1.88737E+00-1.72465E-02 6.54903E-03 7.54494E-03-2.37486E-01
 -1      1687 3.55758E+00 2.29031E+00-1.02183E-02-3.47642E-03-2.73398E-03-1.53314E-01
 -1      1688 3.80311E+00 2.57472E+00-1.26720E-02-8.65482E-03-6.21123E-03-1.74149E-01
 -1      1689 3.61049E+00 2.44598E+00-3.94494E-02 2.66222E-03 6.85826E-03-2.62350E-01
 -1      1690 4.16060E+00 2.84889E+00-1.47923E-02-2.80067E-02-1.66464E-03-1.94830E-01
 -1      1691 4.51860E+00 3.20067E+00 3.81706E-02-7.07489E-03 8.93478E-03-2.13885E-01
 -1      1692 4.08482E+00 2.95712E+00-5.34064E-04 7.15547E-03-5.88685E-03-3.47989E-01
 -1      1693 4.16942E+00 2.90726E+00-1.83627E-02-1.03766E-02-2.97122E-03-2.09781E-01
 -1      1694 4.64400E+00 3.46953E+00 2.41429E-02-7.79521E-02 2.34238E-02-3.80878E-01
 -1      1695 4.64348E+00 3.47127E+00-2.05560E-02-1.12286E-02 5.80270E-03-1.79494E-01
 -1      1696 5.02347E+00 3.87920E+00-1.36179E-02-3.71145E-02 1.17311E-02-2.23065E-01
 -1      1697 4.73059E+00 3.77893E+00-4.08004E-02-1.10073E-02 4.37840E-03-2.97435E-01
 -1      1698 5.53880E+00 4.21087E+00 1.99455E-02-2.87955E-02 6.33586E-04-2.63578E-01
 -1      1699 5.83525E+00 4.71089E+00-2.66110E-02-4.91807E-02 2.73597E-03-3.07806E-01
 -1      1700 5.53925E+00 4.53735E+00-2.46749E-03-9.73467E-02 2.51058E-02-3.91940E-01
 -1      1701 6.79980E+00 5.45849E+00 2.04288E-02-4.50589E-02-1.20485E-02-4.44562E-01
 -1      1702 7.05269E+00 6.09985E+00-5.22475E-02-7.90460E-02 4.90785E-02-6.30320E-01
 -1      1703 6.65946E+00 5.63079E+00 7.80006E-03-1.00468E-01 3.69305E-02-6.12257E-01
 -1      1704 9.43356E+00 6.37212E+00-4.52322E-02-3.56534E-03-5.33064E-02-7.80202E-01
 -1      1705 8.72047E+00 8.17208E+00-9.38661E-02 4.14937E-04 1.36490E-01-9.99800E-01
 -1      1706 9.20137E+00 7.84450E+00 1.69032E-01-2.12551E-01 1.53178E-01-1.03594E+00
 -1      1707 1.53707E+01 1.29692E+01 1.38218E+00-1.64069E+00 1.72469E-01-1.58364E+00
 -1      1708 1.79683E-01-1.83124E+00-6.70456E-02-1.59686E-02 5.95771E-03-5.18710E-02
 -1      1709 9.84781E-02-2.39331E+00-8.03513E-02-1.34644E-02 4.93081E-05-4.17087E-02
 -1      1710 1.69191E-01-1.87527E+00-3.20413E-02-2.86050E-03-1.03100E-02-4.62387E-02
 -1      1711 2.60182E+01 3.46622E+01 1.63155E+01-5.83074E+00-2.15479E+00 1.77175E+00
 -1      1712 3.17651E+01 4.66298E+01 2.15268E+01-9.20407E+00 5.34677E-02-3.96232E-01
 -1      1713 2.35151E+01 2.49594E+01 1.30951E+01-5.82484E+00 2.79079E-01-6.38891E-01
 -1      1714 2.34127E+01 2.42921E+01 1.39059E+01-4.82749E+00 1.67533E-01-6.23384E-01
 -1      1715 2.54472E+01 2.59937E+01 1.53365E+01-4.52714E+00 4.96813E-01-4.65984E-01
 -1      1716 2.30658E+01 2.17136E+01 1.27555E+01-3.26122E+00 3.29335E-01-5.28403E-01
 -1      1717 3.34463E+01 4.50185E+01 2.17429E+01-9.74269E+00-2.52530E-01 4.28829E-01
 -1      1718 2.54770E+01 3.24581E+01 1.66998E+01-5.54164E+00 1.28922E+00-7.44580E-01
 -1      1719 2.27069E+01 2.25644E+01 1.25452E+01-3.88099E+00-2.03677E-01 3.18111E-01
 -1      1720 3.42556E+01 4.42337E+01 2.24202E+01-9.69184E+00 6.52431E-02 1.18028E-01
 -1      1721 3.42889E+01 4.41876E+01 2.22320E+01-9.59137E+00-1.71132E-01 6.50196E-03
 -1      1722 2.37611E+01 2.37827E+01 1.27631E+01-5.04024E+00-2.32515E-01-7.79445E-02
 -1      1723 2.84334E+01 3.73967E+01 1.82890E+01-7.61050E+00-9.90237E-01-3.43746E-02
 -1      1724 3.37083E+01 4.54191E+01 2.25584E+01-1.03088E+01 2.59724E-02-4.70800E-01
 -1      1725 2.26278E+01 2.36456E+01 1.34559E+01-5.20829E+00-1.73739E-01 3.71872E-01
 -1      1726 2.95734E+01 3.29726E+01 1.73678E+01-7.88241E+00-1.33167E-01 5.06633E-01
 -1      1727 2.79282E+01 3.25013E+01 1.73564E+01-7.33605E+00-1.93897E-01 3.96082E-01
 -1      1728 2.45019E+01 2.56000E+01 1.32115E+01-5.66131E+00-1.49844E-01-1.50619E-01
 -1      1729 3.04705E+01 3.37302E+01 1.69419E+01-8.06333E+00 4.36196E-01-1.25269E+00
 -1      1730 2.92364E+01 3.41364E+01 1.77866E+01-8.33645E+00 1.73999E-01 3.60185E-01
 -1      1731 2.48469E+01 2.57890E+01 1.37678E+01-6.00493E+00-1.75433E-01 7.52532E-01
 -1      1732 2.72472E+01 3.31161E+01 1.81653E+01-6.15764E+00 1.25398E-01-3.24880E-02
 -1      1733 3.10665E+01 3.34110E+01 1.86380E+01-7.26436E+00 3.79841E-01-1.02553E+00
 -1      1734 2.34461E+01 2.38350E+01 1.30990E+01-4.73677E+00 1.88898E-01-9.29283E-01
 -1      1735 3.12742E+01 4.40742E+01 2.12462E+01-9.59630E+00-3.97372E-01 4.52380E-01
 -1      1736 2.67647E+01 3.82588E+01 1.81747E+01-7.17982E+00 6.97895E-01 3.84861E-01
 -1      1737 2.38456E+01 2.45473E+01 1.29797E+01-4.58026E+00-4.52568E-02 8.88628E-01
 -1      1738 3.12085E+01 4.21120E+01 2.04726E+01-8.93100E+00 2.06888E-01 1.57665E-01
 -1      1739 3.13400E+01 4.20701E+01 2.04303E+01-8.99583E+00-2.68432E-01 2.77503E-02
 -1      1740 2.20483E+01 2.32433E+01 1.27791E+01-4.37114E+00 6.89075E-02-4.89161E-01
 -1      1741 2.63038E+01 3.32357E+01 1.67242E+01-6.28994E+00-9.22703E-01 1.61589E-01
 -1      1742 3.01011E+01 4.22228E+01 1.99816E+01-9.40264E+00 3.60168E-01-1.72647E-03
 -1      1743 2.21980E+01 2.26543E+01 1.22701E+01-4.91302E+00 1.95101E-01 5.14123E-01
 -1      1744 2.81716E+01 2.70659E+01 1.60322E+01-4.25958E+00-2.85776E-01 1.04202E+00
 -1      1745 2.66929E+01 2.53935E+01 1.61458E+01-3.87100E+00-1.24900E-01-3.89182E-01
 -1      1746 2.40186E+01 2.14977E+01 1.25957E+01-2.59110E+00 2.27680E-01-1.10848E+00
 -1      1747 2.58362E+01 3.53106E+01 1.66811E+01-7.03501E+00-1.03059E+00-1.54046E-03
 -1      1748 2.69357E+01 3.42495E+01 1.61078E+01-6.81901E+00 1.32758E+00-9.06230E-01
 -1      1749 2.37245E+01 2.13269E+01 1.24188E+01-2.78418E+00-2.99582E-01 1.04481E+00
 -1      1750 2.51584E+01 3.77011E+01 1.69017E+01-6.08684E+00-3.23219E+00 1.60897E+00
 -1      1751 2.31766E+01 3.24731E+01 1.74659E+01-4.90741E+00 2.55876E+00-2.13531E+00
 -1      1752 2.44840E+01 2.36373E+01 1.35651E+01-4.02742E+00-2.98646E-01-8.95204E-02
 -1      1753 2.58950E+01 3.43892E+01 1.72037E+01-6.62851E+00-1.72896E+00 1.12505E+00
 -1      1754 2.50432E+01 3.85826E+01 1.74572E+01-6.29162E+00 3.17916E+00-8.30589E-01
 -1      1755 2.53147E+01 2.47317E+01 1.29004E+01-4.19436E+00-5.28560E-02 3.74762E-01
 -1      1756 2.93486E+01 3.27752E+01 1.74593E+01-7.33601E+00 2.63784E-01-5.38759E-02
 -1      1757 2.88779E+01 3.27550E+01 1.72666E+01-7.42570E+00-1.80539E-01 6.18956E-01
 -1      1758 2.47464E+01 2.47469E+01 1.37635E+01-5.48566E+00 3.52863E-01-7.02841E-01
 -1      1759 3.39706E+01 3.46874E+01 1.89041E+01-9.40712E+00 1.33793E-01-1.69244E-01
 -1      1760 2.91113E+01 3.35534E+01 1.75626E+01-8.23489E+00 1.01365E-01 7.45204E-01
 -1      1761 2.46038E+01 2.42743E+01 1.36436E+01-5.15209E+00 8.95624E-02 5.35662E-01
 -1      1762 3.31298E+01 3.28603E+01 1.85466E+01-8.17537E+00 5.51798E-01-6.28566E-01
 -1      1763 3.49168E+01 3.42711E+01 1.93628E+01-8.91324E+00 1.50818E-01-1.56523E-01
 -1      1764 2.43502E+01 2.22922E+01 1.27915E+01-4.54331E+00 2.49239E-01-5.84793E-01
 -1      1765 2.73580E+01 2.85781E+01 1.52091E+01-5.50170E+00-3.60779E-01 1.39258E-01
 -1      1766 3.13279E+01 3.21579E+01 1.78023E+01-8.10065E+00 3.25026E-01-9.34911E-02
 -1      1767 2.28614E+01 2.09234E+01 1.23057E+01-4.01248E+00 8.34885E-02 2.44210E-01
 -1      1768 2.62167E+01 2.34917E+01 1.46019E+01-2.70243E+00-1.07032E-01 1.33580E-01
 -1      1769 2.64861E+01 2.38065E+01 1.45680E+01-2.74504E+00 1.18150E-01-5.67641E-01
 -1      1770 2.22255E+01 1.97127E+01 1.10248E+01-1.76216E+00 7.45019E-02-6.97574E-01
 -1      1771 3.00504E+01 3.01830E+01 1.73736E+01-7.28311E+00-6.78128E-01 1.03464E+00
 -1      1772 2.66513E+01 2.78814E+01 1.56240E+01-5.04753E+00 1.90378E-01-4.56950E-01
 -1      1773 2.19597E+01 2.01695E+01 1.18062E+01-2.08804E+00-1.03215E-01 5.29659E-01
 -1      1774 3.64475E+01 3.72729E+01 2.00134E+01-1.04037E+01-2.78101E-01 3.14440E-01
 -1      1775 3.11516E+01 3.40163E+01 1.78037E+01-8.24857E+00 1.66935E-01 7.61788E-01
 -1      1776 2.56565E+01 2.43037E+01 1.33117E+01-5.29631E+00-2.89593E-01 9.01161E-01
 -1      1777 3.58189E+01 3.47664E+01 1.97182E+01-9.13857E+00 2.28805E-01-4.29619E-02
 -1      1778 3.65518E+01 3.56881E+01 1.98843E+01-9.32629E+00-2.42497E-01 2.00152E-02
 -1      1779 2.54280E+01 2.34763E+01 1.34471E+01-5.08577E+00-1.52040E-01-3.60160E-01
 -1      1780 2.78052E+01 2.87664E+01 1.55777E+01-5.99956E+00-3.21705E-01-1.82535E-01
 -1      1781 3.37727E+01 3.34052E+01 1.85795E+01-9.08281E+00 1.21249E-01-1.49292E-01
 -1      1782 2.30718E+01 2.03790E+01 1.20891E+01-4.01950E+00-1.27682E-01 1.15544E-01
 -1      1783 2.86756E+01 2.61982E+01 1.63702E+01-3.76239E+00-1.10665E-01 5.50625E-01
 -1      1784 2.83885E+01 2.59152E+01 1.62518E+01-3.71399E+00 1.22698E-01-4.76947E-01
 -1      1785 2.37548E+01 2.09963E+01 1.19703E+01-2.49098E+00 1.09363E-01-6.30610E-01
 -1      1786 3.64057E+01 3.63460E+01 1.94574E+01-9.94684E+00-7.70084E-02 4.33049E-01
 -1      1787 2.95574E+01 3.15097E+01 1.69596E+01-6.65559E+00 1.46489E-01-1.37649E-01
 -1      1788 2.50031E+01 2.29077E+01 1.36425E+01-3.15145E+00-5.01927E-02 9.08065E-01
 -1      1789 3.13761E+01 3.14990E+01 1.76707E+01-7.50613E+00 4.12293E-01-8.71856E-01
 -1      1790 3.41309E+01 3.28063E+01 1.82854E+01-8.57086E+00 9.06668E-02 6.88553E-02
 -1      1791 2.62966E+01 2.38735E+01 1.32816E+01-5.07597E+00-1.98784E-01 1.92201E-01
 -1      1792 2.85842E+01 3.07823E+01 1.66831E+01-7.06336E+00-6.71275E-01 3.66422E-02
 -1      1793 2.94627E+01 3.17264E+01 1.77454E+01-7.88560E+00 3.43596E-01 5.04499E-03
 -1      1794 2.23637E+01 2.06442E+01 1.22061E+01-4.10115E+00 1.47491E-03 4.44490E-01
 -1      1795 3.12594E+01 2.85555E+01 1.59561E+01-6.85801E+00-3.63675E-02 2.09565E-01
 -1      1796 2.75484E+01 2.69565E+01 1.52289E+01-5.81504E+00-5.33189E-01 6.12235E-01
 -1      1797 2.21914E+01 2.00433E+01 1.09469E+01-3.23245E+00-1.37299E-01-5.71113E-01
 -1      1798 2.82185E+01 2.87000E+01 1.54535E+01-6.16960E+00 8.31073E-02-7.50228E-01
 -1      1799 3.36955E+01 3.09961E+01 1.73221E+01-8.20914E+00 9.44701E-02-1.79661E-01
 -1      1800 2.19520E+01 1.96868E+01 1.11933E+01-3.18060E+00 1.18430E-01 2.35849E-01
 -1      1801 2.63679E+01 2.55666E+01 1.58833E+01-3.95666E+00-4.49931E-01 2.37035E-01
 -1      1802 2.77841E+01 2.64697E+01 1.62763E+01-3.65590E+00-1.21682E-01-1.06472E+00
 -1      1803 2.27879E+01 2.13153E+01 1.23425E+01-2.78939E+00-4.51878E-02-8.56744E-01
 -1      1804 3.11215E+01 4.38345E+01 2.07823E+01-9.23506E+00-6.91419E-01 1.59715E-01
 -1      1805 2.61963E+01 3.33545E+01 1.67669E+01-6.07829E+00 8.47587E-01-3.48566E-01
 -1      1806 2.48373E+01 2.25874E+01 1.32322E+01-3.02059E+00-4.17733E-01 9.87970E-01
 -1      1807 3.26198E+01 4.33199E+01 2.08111E+01-9.13561E+00 1.40291E-01 5.06648E-01
 -1      1808 3.21741E+01 4.32485E+01 2.05404E+01-8.84970E+00-4.61638E-01 3.46823E-01
 -1      1809 2.34614E+01 2.46550E+01 1.26182E+01-4.78521E+00-2.84827E-01-2.99748E-01
 -1      1810 2.49485E+01 3.02917E+01 1.48928E+01-5.65107E+00-8.66248E-01 6.15343E-02
 -1      1811 3.04570E+01 4.06142E+01 1.90120E+01-9.18834E+00 3.20944E-01 1.15760E-01
 -1      1812 2.17249E+01 2.21685E+01 1.17448E+01-4.49472E+00 2.93339E-01 3.90077E-01
 -1      1813 2.55180E+01 2.50664E+01 1.51053E+01-3.58583E+00-6.92263E-02 1.23359E+00
 -1      1814 2.45418E+01 2.24168E+01 1.49386E+01-3.35331E+00 2.16298E-01-4.89979E-01
 -1      1815 2.26870E+01 2.04300E+01 1.20360E+01-2.45109E+00 2.69983E-01-1.04530E+00
 -1      1816 2.75068E+01 3.74958E+01 1.80746E+01-8.15169E+00-1.34074E+00 2.60395E-01
 -1      1817 2.47864E+01 3.39686E+01 1.50914E+01-6.77013E+00 1.12533E+00-4.99951E-02
 -1      1818 2.34855E+01 2.12918E+01 1.21651E+01-2.53773E+00-2.15248E-01 1.56131E+00
 -1      1819 3.34305E+01 3.02395E+01 1.71777E+01-7.12071E+00 1.53991E-01-2.82202E-01
 -1      1820 2.91764E+01 3.04236E+01 1.71471E+01-6.45869E+00-3.64031E-01 4.18740E-01
 -1      1821 2.42353E+01 2.30598E+01 1.28335E+01-3.98229E+00 1.19504E-01-1.11075E+00
 -1      1822 3.27493E+01 4.01032E+01 1.97667E+01-9.67996E+00 1.40328E+00-9.18167E-01
 -1      1823 3.24296E+01 3.10584E+01 1.78883E+01-7.83065E+00 3.15989E-01 1.89345E-01
 -1      1824 2.32173E+01 2.17058E+01 1.19807E+01-3.81828E+00-1.79713E-02 6.67238E-01
 -1      1825 3.31204E+01 4.55471E+01 2.18121E+01-9.37650E+00 1.85075E-02 3.98109E-01
 -1      1826 3.27022E+01 4.40874E+01 2.15339E+01-9.09622E+00-8.00288E-01 2.93396E-01
 -1      1827 2.18195E+01 2.26265E+01 1.21129E+01-4.87681E+00 1.00626E-02-2.22614E-01
 -1      1828 2.60854E+01 3.85145E+01 1.72825E+01-6.90613E+00-1.37516E+00-3.94861E-01
 -1      1829 3.08858E+01 4.49154E+01 2.07707E+01-9.63072E+00 1.19513E-01 3.10663E-01
 -1      1830 2.20372E+01 2.19815E+01 1.22135E+01-4.85104E+00-1.16428E-01 9.90034E-01
 -1      1831 2.67749E+01 2.44080E+01 1.45367E+01-2.24851E+00 1.11783E-01 1.30022E-01
 -1      1832 2.42078E+01 2.49485E+01 1.41542E+01-3.06860E+00 1.07142E-01-9.28714E-01
 -1      1833 2.27354E+01 2.03732E+01 1.10016E+01-1.78595E+00 3.50806E-01-1.46554E+00
 -1      1834 3.14851E+01 2.87793E+01 1.65176E+01-4.58319E+00-1.29251E-01 3.51812E-01
 -1      1835 2.73160E+01 2.53302E+01 1.48969E+01-3.71164E+00-4.77302E-02 1.70189E-01
 -1      1836 2.14090E+01 1.98107E+01 1.13094E+01-1.55807E+00 6.67539E-02 5.07683E-01
 -1      1837 2.77576E+01 2.85773E+01 1.59388E+01-4.11098E+00 1.52836E-01 3.48405E-01
 -1      1838 3.14871E+01 2.90203E+01 1.62197E+01-4.20427E+00-6.70286E-02-2.49900E-01
 -1      1839 2.26678E+01 2.03713E+01 1.15834E+01-2.00238E+00 4.06147E-02-4.72125E-02
 -1      1840 2.72230E+01 3.71235E+01 1.81274E+01-7.89660E+00-1.06806E+00 4.17086E-01
 -1      1841 2.71262E+01 3.82111E+01 1.78274E+01-7.47909E+00 1.37519E+00-1.40136E-01
 -1      1842 2.36306E+01 2.22521E+01 1.22743E+01-2.29974E+00-1.90539E-01 1.13443E+00
 -1      1843 3.27704E+01 3.28481E+01 1.78279E+01-8.24963E+00-5.50801E-02 3.61859E-01
 -1      1844 2.83003E+01 3.08856E+01 1.70531E+01-6.92333E+00-3.91093E-01 9.12537E-01
 -1      1845 2.45088E+01 2.39224E+01 1.31763E+01-4.96028E+00 1.04156E-01-8.54930E-01
 -1      1846 2.59105E+01 2.81867E+01 1.51686E+01-6.21329E+00-6.95928E-01 3.89021E-01
 -1      1847 3.24001E+01 3.32983E+01 1.74970E+01-8.78930E+00-1.34946E-02-1.56469E-01
 -1      1848 2.35009E+01 2.17426E+01 1.23839E+01-4.51389E+00-8.09502E-02 3.37665E-01
 -1      1849 3.23711E+01 4.24454E+01 2.03387E+01-9.24901E+00-2.55911E-01 3.52827E-01
 -1      1850 2.67007E+01 3.11709E+01 1.66088E+01-5.18416E+00 1.23681E+00-1.13754E+00
 -1      1851 2.47863E+01 2.16845E+01 1.25554E+01-2.97148E+00-9.88445E-02 1.18728E-02
 -1      1852 2.98282E+01 3.90342E+01 1.94891E+01-7.68394E+00 1.48780E-01 5.02907E-02
 -1      1853 3.22132E+01 4.09507E+01 2.03177E+01-8.77120E+00-1.23491E-01-2.31549E-01
 -1      1854 2.29624E+01 2.02857E+01 1.16249E+01-3.89453E+00-2.03964E-01-1.23071E-01
 -1      1855 3.39537E+01 4.52455E+01 2.21083E+01-1.02777E+01-1.96528E-01 4.72354E-02
 -1      1856 3.11017E+01 4.41144E+01 2.10880E+01-8.98550E+00 2.16152E-01 6.59237E-01
 -1      1857 2.34777E+01 2.23213E+01 1.18258E+01-4.80003E+00-3.51952E-02 4.33830E-01
 -1      1858 2.69497E+01 3.38371E+01 1.70742E+01-6.46296E+00-1.70789E+00 1.39863E+00
 -1      1859 3.40252E+01 4.36337E+01 2.15929E+01-9.84335E+00-2.45755E-01-9.35215E-02
 -1      1860 2.29886E+01 2.22482E+01 1.25567E+01-4.73495E+00 6.17047E-02-4.82553E-01
 -1      1861 2.83249E+01 4.28497E+01 1.83432E+01-7.78965E+00-1.38632E+00 6.21036E-01
 -1      1862 2.69986E+01 3.78577E+01 1.81700E+01-6.50466E+00 1.84153E+00-1.05466E+00
 -1      1863 2.62575E+01 2.37557E+01 1.39067E+01-3.67097E+00-2.80783E-01 7.28965E-01
 -1      1864 2.87530E+01 3.14972E+01 1.76163E+01-5.93631E+00-2.90058E-01 8.41792E-01
 -1      1865 2.80262E+01 3.21082E+01 1.75888E+01-5.57223E+00 1.29857E-01-9.00879E-01
 -1      1866 2.40961E+01 2.31128E+01 1.23617E+01-3.73501E+00 1.58299E-01-6.09646E-01
 -1      1867 3.32980E+01 5.10542E+01 2.37504E+01-9.96452E+00 1.25708E-02 1.49363E-01
 -1      1868 2.89417E+01 3.97528E+01 1.84260E+01-7.42093E+00 1.45337E+00-6.68595E-01
 -1      1869 2.50114E+01 2.42518E+01 1.31280E+01-4.26234E+00-2.13855E-01 8.73070E-01
 -1      1870 2.97515E+01 4.07711E+01 1.91684E+01-7.99393E+00-1.20409E+00 8.74122E-01
 -1      1871 3.32327E+01 4.99044E+01 2.32721E+01-9.84918E+00-7.78485E-03 1.26828E-03
 -1      1872 2.31484E+01 2.53234E+01 1.34890E+01-6.12592E+00-1.13883E-01-6.19021E-02
 -1      1873 3.42551E+01 4.19632E+01 2.12719E+01-1.04714E+01-2.89941E-01 5.80023E-01
 -1      1874 3.07332E+01 3.65920E+01 1.88047E+01-7.29633E+00 9.00784E-01-3.26577E-01
 -1      1875 2.59498E+01 2.52734E+01 1.34259E+01-4.99748E+00 1.40110E-01-1.74627E-01
 -1      1876 3.30703E+01 4.21843E+01 2.09049E+01-8.68438E+00 4.56241E-01 2.10649E-01
 -1      1877 3.41277E+01 4.39082E+01 2.18905E+01-9.82187E+00-3.58863E-01-1.79730E-01
 -1      1878 2.53340E+01 2.37885E+01 1.32866E+01-5.68740E+00 4.60451E-02 3.19360E-01
 -1      1879 3.28868E+01 3.51924E+01 1.83449E+01-8.16331E+00 3.52015E-01-1.07013E+00
 -1      1880 3.45908E+01 3.92920E+01 2.00669E+01-9.40631E+00-7.82092E-01 1.23200E+00
 -1      1881 2.30095E+01 2.21284E+01 1.21154E+01-4.37082E+00 5.47157E-02 1.20415E-01
 -1      1882 2.46522E+01 2.77675E+01 1.51771E+01-4.66583E+00-4.93397E-01 1.03100E+00
 -1      1883 3.03337E+01 3.32990E+01 1.72856E+01-7.60258E+00 4.54108E-01-4.02550E-01
 -1      1884 2.16995E+01 2.08910E+01 1.11302E+01-3.28544E+00 1.51895E-01-1.96786E-01
 -1      1885 3.14801E+01 4.27373E+01 2.03723E+01-9.82347E+00-2.46980E-01 3.34501E-01
 -1      1886 2.46098E+01 3.22535E+01 1.53146E+01-6.43092E+00 1.26595E+00 9.88523E-02
 -1      1887 2.42358E+01 2.12376E+01 1.17839E+01-2.22956E+00 1.67671E-02 7.62535E-01
 -1      1888 3.25596E+01 4.13607E+01 2.03690E+01-9.28828E+00 2.38930E-01 2.08414E-01
 -1      1889 3.25271E+01 4.16190E+01 2.04227E+01-9.27780E+00-2.12004E-01-3.16458E-02
 -1      1890 2.22851E+01 2.23080E+01 1.21413E+01-4.90336E+00-1.21950E-02-4.33740E-01
 -1      1891 2.88784E+01 3.69692E+01 1.80346E+01-8.23583E+00-4.06119E-01 2.33278E-01
 -1      1892 3.20613E+01 4.22164E+01 2.04806E+01-9.77300E+00 2.72707E-01 3.08410E-01
 -1      1893 2.22058E+01 2.19565E+01 1.18704E+01-4.82723E+00-4.57427E-02 6.25744E-01
 -1      1894 2.83228E+01 3.28608E+01 1.71435E+01-7.00815E+00-2.99125E-02 5.77779E-01
 -1      1895 2.89834E+01 3.32860E+01 1.75285E+01-7.01488E+00 2.88315E-02-1.90341E-01
 -1      1896 2.43438E+01 2.41120E+01 1.26974E+01-4.93783E+00 2.24333E-01-5.77285E-01
 -1      1897 3.23612E+01 5.05064E+01 2.29548E+01-9.54526E+00 1.29514E-01 2.39150E-01
 -1      1898 2.90335E+01 4.10958E+01 1.88923E+01-7.76382E+00 1.20317E+00-3.65673E-01
 -1      1899 2.19088E+01 2.19534E+01 1.11406E+01-3.74026E+00-3.58676E-02 7.04601E-01
 -1      1900 3.02193E+01 4.68711E+01 2.12104E+01-8.21153E+00-5.40064E-01 1.28000E-01
 -1      1901 3.19514E+01 5.08481E+01 2.29302E+01-9.54120E+00 1.64024E-01 1.39632E-01
 -1      1902 2.27071E+01 2.35242E+01 1.27946E+01-5.00376E+00 5.08753E-02 4.03628E-01
 -1      1903 3.29946E+01 4.18015E+01 2.03526E+01-9.15100E+00-2.56710E-02 7.54722E-02
 -1      1904 3.00403E+01 4.00730E+01 1.98141E+01-7.93414E+00-4.87271E-02-6.44912E-02
 -1      1905 2.24127E+01 2.22032E+01 1.15657E+01-3.78779E+00 1.64899E-01-5.73714E-01
 -1      1906 2.53590E+01 3.16591E+01 1.58372E+01-5.48765E+00-1.06083E+00 1.14619E+00
 -1      1907 3.25195E+01 4.26612E+01 2.00244E+01-9.42943E+00 3.16979E-01-2.43607E-01
 -1      1908 2.30617E+01 2.24301E+01 1.15715E+01-4.46623E+00 1.42048E-01 8.62217E-02
 -1      1909 2.88977E+01 3.12626E+01 1.64221E+01-6.40282E+00 1.72205E-01 3.65469E-01
 -1      1910 2.54803E+01 2.89719E+01 1.50588E+01-5.72911E+00 5.44155E-01 1.96896E-01
 -1      1911 2.39124E+01 2.30374E+01 1.22700E+01-3.62181E+00 2.76770E-01-5.04358E-02
 -1      1912 2.85002E+01 2.69280E+01 1.50401E+01-4.08462E+00-2.30802E-01-3.11783E-01
 -1      1913 2.97489E+01 3.03928E+01 1.59367E+01-6.57798E+00-7.59702E-01 1.09150E+00
 -1      1914 2.14705E+01 2.14624E+01 1.14452E+01-3.71174E+00 4.99106E-03 6.88506E-01
 -1      1915 2.92087E+01 2.79585E+01 1.53186E+01-5.89271E+00-8.38826E-02-1.79765E-01
 -1      1916 2.90531E+01 2.65930E+01 1.48833E+01-3.60294E+00-1.09403E-01 1.78654E+00
 -1      1917 2.16008E+01 2.00974E+01 1.06616E+01-2.48407E+00-7.68601E-02 2.13119E-01
 -1      1918 3.11362E+01 2.75778E+01 1.57961E+01-7.25993E+00-1.94487E-01 5.99409E-01
 -1      1919 2.95044E+01 2.83843E+01 1.52810E+01-6.24234E+00-3.53533E-01 9.18008E-01
 -1      1920 2.11299E+01 1.92287E+01 1.02664E+01-3.06358E+00-7.49138E-02-4.68613E-02
 -1      1921 3.75351E+01 3.76391E+01 2.05030E+01-1.06828E+01 2.24715E-02 1.33269E-01
 -1      1922 3.46197E+01 3.47535E+01 1.85534E+01-8.81847E+00 7.84250E-01-2.04409E-01
 -1      1923 2.49752E+01 2.15866E+01 1.14375E+01-4.32954E+00 1.96805E-01 3.89888E-01
 -1      1924 3.42653E+01 3.41696E+01 1.88425E+01-7.81585E+00 4.80840E-01-1.14745E-01
 -1      1925 3.81444E+01 3.72478E+01 2.06665E+01-9.48156E+00 9.97126E-02-2.33342E-02
 -1      1926 2.52836E+01 2.23370E+01 1.29564E+01-4.18293E+00 2.18001E-01-4.82460E-01
 -1      1927 2.81473E+01 3.17936E+01 1.62674E+01-7.52907E+00 2.43879E-01-8.75134E-01
 -1      1928 3.34179E+01 3.46904E+01 1.84267E+01-8.62032E+00 4.52152E-01 3.35636E-01
 -1      1929 2.43372E+01 2.11269E+01 1.18545E+01-3.84347E+00-1.77666E-02 5.11987E-01
 -1      1930 3.09023E+01 4.05891E+01 1.93225E+01-9.49623E+00-2.28275E-01 2.56046E-01
 -1      1931 2.75851E+01 3.59661E+01 1.71026E+01-7.71220E+00 7.33506E-01 2.68433E-01
 -1      1932 2.37031E+01 2.29253E+01 1.16612E+01-5.20043E+00-1.43024E-01 4.23839E-01
 -1      1933 2.91900E+01 3.84415E+01 1.80176E+01-8.23704E+00 7.67027E-01-1.08371E-01
 -1      1934 3.07600E+01 3.97592E+01 1.88033E+01-9.06829E+00-8.10064E-02 2.19692E-01
 -1      1935 2.16618E+01 2.23598E+01 1.12420E+01-5.04677E+00 1.78569E-01-1.67990E-01
 -1      1936 2.69687E+01 2.86724E+01 1.48298E+01-5.84949E+00-5.81241E-01-2.91329E-01
 -1      1937 2.89114E+01 3.58970E+01 1.67421E+01-8.71284E+00-9.40798E-01 1.28195E+00
 -1      1938 2.07700E+01 2.11895E+01 1.08536E+01-4.27794E+00 1.13758E-01 8.35547E-01
 -1      1939 3.19175E+01 2.34732E+01 1.45435E+01-5.61105E+00 1.68529E-01-7.78408E-01
 -1      1940 2.84495E+01 2.45986E+01 1.36372E+01-5.19405E+00-2.49642E-01 1.27438E+00
 -1      1941 2.10345E+01 1.91894E+01 9.82969E+00-1.87383E+00 1.78593E-02-9.05520E-01
 -1      1942 2.86528E+01 2.51759E+01 1.37456E+01-5.01432E+00 1.00852E-01-1.13671E+00
 -1      1943 3.21246E+01 2.35937E+01 1.49824E+01-5.65534E+00 7.33414E-02 7.66592E-01
 -1      1944 2.02060E+01 1.79539E+01 9.64747E+00-1.06439E+00-6.70554E-02 2.73175E-01
 -1      1945 2.47763E+01 2.63509E+01 1.34725E+01-4.72677E+00-1.85153E-01 7.34607E-01
 -1      1946 2.76456E+01 2.65078E+01 1.44547E+01-4.49108E+00 1.08961E-01 6.14698E-01
 -1      1947 2.12088E+01 1.87698E+01 9.99756E+00-1.68418E+00 7.92140E-03 4.79835E-01
 -1      1948 2.73401E+01 3.28322E+01 1.56131E+01-8.68478E+00-6.80796E-01-5.97153E-01
 -1      1949 2.50073E+01 3.73210E+01 1.64390E+01-8.48250E+00-3.71261E-01 8.08098E-01
 -1      1950 2.28068E+01 2.20843E+01 1.14187E+01-3.54146E+00-3.43092E-01 1.91942E+00
 -1      1951 3.30431E+01 3.28010E+01 1.68720E+01-8.47791E+00 4.77192E-02 4.65185E-01
 -1      1952 3.11710E+01 3.16733E+01 1.62999E+01-7.69744E+00-5.39978E-01 1.16665E+00
 -1      1953 2.28481E+01 2.34111E+01 1.13591E+01-4.87774E+00-2.73433E-01-9.49580E-01
 -1      1954 2.42783E+01 3.24361E+01 1.43425E+01-7.46753E+00-6.79992E-01 9.59149E-02
 -1      1955 3.06617E+01 3.25397E+01 1.62936E+01-9.12763E+00 2.10072E-01 7.23255E-01
 -1      1956 2.20741E+01 2.10881E+01 1.06816E+01-4.42715E+00-7.20352E-02 1.19987E+00
 -1      1957 2.29341E+01 3.03187E+01 1.39911E+01-5.54680E+00-2.26336E+00 1.75204E+00
 -1      1958 2.22475E+01 2.96525E+01 1.38391E+01-5.71547E+00 2.16183E+00-1.24059E+00
 -1      1959 2.40125E+01 2.21878E+01 1.12539E+01-3.54881E+00 7.00348E-02-1.11907E-02
 -1      1960 2.89725E+01 2.64627E+01 1.38798E+01-3.89986E+00 1.00279E-01 5.18295E-01
 -1      1961 2.49626E+01 2.45838E+01 1.25490E+01-4.28516E+00 4.09800E-02 5.90036E-01
 -1      1962 2.23615E+01 2.09729E+01 1.02435E+01-3.20429E+00 2.53721E-01-3.17718E-01
 -1      1963 2.49355E+01 2.38270E+01 1.28281E+01-3.29279E+00 4.14371E-01 7.55331E-01
 -1      1964 2.91848E+01 2.63837E+01 1.36448E+01-3.49202E+00 4.82829E-02 1.28432E-01
 -1      1965 2.06174E+01 1.86462E+01 9.43087E+00-1.65717E+00 1.64620E-01 1.40488E-01
 -1      1966 2.44245E+01 3.15247E+01 1.29544E+01-6.33100E+00-1.41221E+00 1.40410E+00
 -1      1967 2.56527E+01 3.30679E+01 1.44400E+01-6.15993E+00 1.17183E+00 5.31086E-01
 -1      1968 2.11495E+01 1.88106E+01 9.05826E+00-1.67699E+00-2.24811E-01 1.20640E+00
 -1      1969 2.32574E+01 2.01421E+01 1.19110E+01-2.36616E+00 3.91553E-01 4.85346E-01
 -1      1970 2.48321E+01 2.39195E+01 1.28825E+01-3.45987E+00 5.95415E-01-8.43138E-01
 -1      1971 2.11834E+01 1.85597E+01 9.31349E+00-2.27683E+00 4.29793E-01-9.16201E-01
 -1      1972 2.85185E+01 3.20043E+01 1.50586E+01-7.13845E+00-4.50842E-01 9.28422E-01
 -1      1973 2.48695E+01 2.70187E+01 1.28290E+01-4.49289E+00 4.01666E-01 5.06353E-01
 -1      1974 2.01816E+01 1.80562E+01 8.88037E+00-1.52984E+00-6.39288E-02 9.69823E-01
 -1      1975 3.27402E+01 3.41260E+01 1.62628E+01-8.40095E+00 2.67827E-02 5.37373E-01
 -1      1976 3.06443E+01 3.30630E+01 1.58929E+01-7.61327E+00-5.48900E-01 1.44375E+00
 -1      1977 2.29341E+01 2.13368E+01 1.03855E+01-4.18716E+00-1.44675E-01 4.54701E-01
 -1      1978 2.75924E+01 3.20961E+01 1.45813E+01-7.11874E+00 2.22539E-02-4.54008E-01
 -1      1979 3.11875E+01 3.40649E+01 1.54766E+01-8.54760E+00 9.73547E-02 5.88460E-02
 -1      1980 2.35152E+01 2.23993E+01 1.06419E+01-4.67465E+00-1.98591E-01 9.00796E-01
 -1      1981 2.68712E+01 3.08729E+01 1.40902E+01-6.21849E+00 2.80996E-01 4.55975E-01
 -1      1982 2.64185E+01 2.88993E+01 1.43323E+01-6.38249E+00 3.78271E-01-4.11785E-01
 -1      1983 2.19753E+01 2.15411E+01 9.67073E+00-4.42346E+00 2.52294E-01-2.19456E-01
 -1      1984 2.40764E+01 2.58906E+01 1.15098E+01-4.59693E+00-7.94285E-01 1.08865E+00
 -1      1985 2.62099E+01 3.10614E+01 1.28493E+01-6.44233E+00 2.78640E-01 4.49740E-01
 -1      1986 2.11943E+01 2.06880E+01 8.87463E+00-3.97633E+00 1.46519E-01 5.91840E-01
 -1      1987 2.42803E+01 2.19600E+01 1.09001E+01-3.14314E+00-1.59204E-02 1.36964E+00
 -1      1988 2.41081E+01 2.03460E+01 1.11833E+01-3.21256E+00 2.51083E-01 6.24250E-01
 -1      1989 2.08106E+01 1.81792E+01 8.39646E+00-2.23076E+00 2.38894E-01-1.66400E-01
 -1      1990 2.75583E+01 2.91383E+01 1.21600E+01-7.68532E+00-1.15952E-01 5.05652E-01
 -1      1991 2.40658E+01 2.56771E+01 1.08028E+01-5.50145E+00 1.96125E-01 9.05514E-01
 -1      1992 1.97989E+01 1.71724E+01 7.06592E+00-1.80845E+00-1.17477E-01 1.36886E+00
 -1      1993 2.60137E+01 2.90566E+01 1.24781E+01-6.59371E+00 2.45038E-01 3.68362E-01
 -1      1994 2.88899E+01 3.00251E+01 1.28151E+01-7.48049E+00 3.00621E-02 1.25880E-01
 -1      1995 1.91999E+01 1.82449E+01 7.02282E+00-3.36966E+00 4.30465E-02 8.69820E-02
 -1      1996 2.89245E+01 4.57597E+01 1.72350E+01-8.82626E+00 2.18584E-01 8.48324E-01
 -1      1997 2.58384E+01 3.71989E+01 1.35775E+01-7.03370E+00 1.38327E+00 1.40865E-01
 -1      1998 2.22538E+01 2.28372E+01 8.03877E+00-4.97336E+00 1.95367E-01 6.80340E-01
 -1      1999 2.07577E+01 3.11443E+01 9.73987E+00-5.28809E+00-1.43710E+00 1.60115E+00
 -1      2000 2.74355E+01 4.35202E+01 1.57342E+01-8.41431E+00 3.67669E-01 4.13846E-01
 -1      2001 1.88797E+01 2.39968E+01 8.15754E+00-4.90751E+00 3.06322E-01 3.53221E-01
 -1      2002 2.50784E+01 3.60256E+01 1.03511E+01-7.66860E+00 7.39688E-01 9.75120E-01
 -1      2003 2.04986E+01 2.83611E+01 7.72740E+00-5.41676E+00 1.87691E+00-3.85206E-01
 -1      2004 2.03413E+01 2.05596E+01 5.57374E+00-4.21873E+00 3.88747E-01 8.49812E-02
 -1      2005 1.69804E+01 1.85827E+01 3.10595E+00-4.81700E+00 3.40785E-01 6.91800E-01
 -1      2006 2.01716E+01 1.87193E+01 1.01085E+01-3.39353E+00-2.09685E-01 3.44495E-01
 -1      2007 1.83334E+01 1.64917E+01 9.38286E+00-1.99771E+00-1.96426E-01 5.20645E-01
 -1      2008 1.66175E+01 1.49465E+01 8.32085E+00-1.24973E+00-7.15007E-02 6.02861E-02
 -1      2009 1.86489E+01 1.69222E+01 9.59869E+00-1.98362E+00 6.63433E-02-2.70237E-01
 -1      2010 2.09412E+01 1.88844E+01 1.01928E+01-3.02843E+00-8.80979E-02-1.88492E-02
 -1      2011 2.03293E+01 1.78819E+01 9.73887E+00-2.18252E+00-3.23588E-01 9.28759E-01
 -1      2012 1.82843E+01 1.65769E+01 9.61779E+00-1.04943E+00-8.86146E-02 4.89731E-01
 -1      2013 1.90679E+01 1.68362E+01 1.00623E+01-2.91297E+00 1.10225E-01-3.30053E-01
 -1      2014 2.03909E+01 1.85581E+01 9.67573E+00-3.12204E+00 4.08869E-01-9.98784E-01
 -1      2015 1.76418E+01 1.48972E+01 7.47578E+00-1.56687E+00-2.97456E-02 1.30101E-01
 -1      2016 1.99677E+01 1.82664E+01 9.93052E+00-2.58046E+00-1.38876E-01 6.34240E-01
 -1      2017 1.93673E+01 1.80951E+01 9.97022E+00-2.58171E+00-7.45026E-02 2.59771E-01
 -1      2018 1.97943E+01 1.85238E+01 1.02191E+01-2.70857E+00 1.12344E-02-2.59315E-01
 -1      2019 2.09589E+01 1.85903E+01 1.03060E+01-2.64082E+00 5.99047E-02-2.02645E-01
 -1      2020 1.64522E+01 1.46599E+01 8.19860E+00-1.53236E+00-3.69227E-02 4.89413E-02
 -1      2021 1.91610E+01 1.77763E+01 9.23066E+00-2.21041E+00 1.14627E-02 2.88082E-01
 -1      2022 2.03679E+01 1.91499E+01 9.91712E+00-2.61371E+00 2.03765E-01 1.99990E-02
 -1      2023 2.03754E+01 1.76654E+01 9.60460E+00-1.90769E+00-6.36178E-03 1.64515E-01
 -1      2024 1.88913E+01 1.71390E+01 9.20773E+00-2.17347E+00 1.73283E-01-7.19574E-02
 -1      2025 1.74005E+01 1.51584E+01 7.67805E+00-1.16613E+00 7.80405E-02 1.06941E-01
 -1      2026 1.79572E+01 1.54496E+01 9.17537E+00-1.87720E+00-6.88804E-02-7.26427E-01
 -1      2027 2.05214E+01 1.81013E+01 1.01082E+01-2.76261E+00-1.20183E-01-3.73169E-01
 -1      2028 1.95126E+01 1.71446E+01 9.39660E+00-2.63831E+00 2.01327E-02 8.20973E-01
 -1      2029 1.82745E+01 1.58054E+01 9.19053E+00-1.85248E+00-1.82751E-01 9.80256E-02
 -1      2030 1.66304E+01 1.35339E+01 7.94845E+00-1.46513E+00-2.85026E-02-2.56974E-01
 -1      2031 1.62820E+01 1.33793E+01 7.76089E+00-7.80407E-01-2.71242E-01 1.23633E-01
 -1      2032 1.73979E+01 1.43987E+01 8.25402E+00-1.84969E+00 8.99807E-02 3.59708E-01
 -1      2033 1.91044E+01 1.74868E+01 9.77096E+00-2.76232E+00 3.52423E-01-1.72272E-01
 -1      2034 1.56796E+01 1.25462E+01 7.16933E+00-7.93689E-01 1.04855E-01 2.75850E-01
 -1      2035 1.84017E+01 1.72565E+01 9.90092E+00-1.66974E+00-4.51984E-02-6.02643E-01
 -1      2036 1.87666E+01 1.73102E+01 9.97937E+00-1.42640E+00 6.70470E-02-9.39166E-02
 -1      2037 1.86013E+01 1.71243E+01 8.90911E+00-1.77113E+00 1.84120E-01-2.34372E-01
 -1      2038 1.63794E+01 1.50532E+01 8.27256E+00-1.08046E+00 2.45627E-02-1.03390E-01
 -1      2039 1.85345E+01 1.64009E+01 9.56714E+00-2.69527E+00 6.08918E-02 1.26480E-01
 -1      2040 1.73108E+01 1.47995E+01 8.82268E+00-2.57192E+00-9.73198E-02 7.63066E-02
 -1      2041 1.88585E+01 1.76090E+01 8.64936E+00-3.41289E+00 1.11792E-01 2.91854E-01
 -1      2042 1.83996E+01 1.57091E+01 8.90073E+00-3.15972E+00-1.42199E-01 5.73797E-01
 -1      2043 1.62648E+01 1.36433E+01 7.47815E+00-1.87408E+00-1.45743E-01 3.93890E-01
 -1      2044 2.02849E+01 1.69528E+01 9.31418E+00-3.45704E+00 2.37853E-01 2.23697E-01
 -1      2045 1.80135E+01 1.38299E+01 7.99877E+00-1.43142E+00 1.51020E-01 6.15053E-01
 -1      2046 1.72268E+01 1.58629E+01 8.90624E+00-7.52760E-01 3.11151E-02-1.48793E-01
 -1      2047 1.79701E+01 1.66723E+01 8.54566E+00-1.38312E+00 1.58568E-01-4.59671E-01
 -1      2048 1.53663E+01 1.39403E+01 7.52338E+00-7.25693E-01-3.90723E-03-1.63312E-01
 -1      2049 1.81230E+01 1.59938E+01 9.15579E+00-2.35478E+00 7.89654E-02 1.21995E-01
 -1      2050 1.74180E+01 1.47911E+01 9.21439E+00-2.33963E+00 1.20636E-01 2.90187E-01
 -1      2051 1.51374E+01 1.35324E+01 6.59493E+00-3.27081E-01 1.11866E-01 4.08102E-01
 -1      2052 1.53112E+01 1.37470E+01 6.89258E+00-4.31097E-01-1.19500E-02 2.08211E-01
 -1      2053 1.63385E+01 1.42643E+01 7.18655E+00-3.63260E-01 6.60501E-03 4.00753E-01
 -1      2054 1.55032E+01 1.34085E+01 6.71421E+00-9.61612E-01 1.04371E-01 2.03361E-01
 -1      2055 1.82521E+01 1.66678E+01 8.42161E+00-1.65529E+00 3.58919E-02 5.96838E-01
 -1      2056 1.74004E+01 1.61426E+01 7.77525E+00-1.46107E+00 1.55791E-01 2.66790E-01
 -1      2057 1.97370E+01 1.79280E+01 8.29366E+00-2.35386E+00 2.19107E-01-1.64056E-01
 -1      2058 2.02809E+01 1.83724E+01 8.96826E+00-2.61856E+00 1.73290E-02 7.03248E-01
 -1      2059 2.01573E+01 1.79843E+01 8.63264E+00-2.29496E+00 7.49829E-02-5.63524E-01
 -1      2060 1.52762E+01 1.36686E+01 6.09179E+00-9.97245E-01 9.58527E-02 1.34992E-01
 -1      2061 1.75441E+01 1.59904E+01 6.95325E+00-1.65198E+00-2.61927E-01 5.13092E-01
 -1      2062 1.65182E+01 1.49205E+01 7.30560E+00-8.72543E-01 5.31496E-02 6.71134E-01
 -1      2063 1.58929E+01 1.45504E+01 7.00121E+00-7.81363E-01 2.38166E-01-4.17207E-02
 -1      2064 1.76948E+01 1.60083E+01 6.83408E+00-1.89668E+00 3.79284E-01-6.02141E-01
 -1      2065 1.39801E+01 1.28321E+01 5.41887E+00-4.73712E-01-3.41701E-02 3.68381E-01
 -1      2066 1.98282E+01 1.88443E+01 1.07385E+01-3.32453E+00 7.29228E-02-3.31850E-01
 -1      2067 2.29297E+01 2.11541E+01 1.15900E+01-3.73859E+00 2.37954E-01-4.02343E-01
 -1      2068 2.29951E+01 2.12261E+01 1.14861E+01-3.25751E+00 6.59176E-02 6.66244E-01
 -1      2069 2.06176E+01 1.98702E+01 1.07421E+01-2.72252E+00-1.53570E-01-4.20746E-01
 -1      2070 1.72565E+01 1.57823E+01 8.70693E+00-1.77172E+00 6.65170E-02 1.32667E-01
 -1      2071 1.84916E+01 1.68558E+01 9.54108E+00-2.40047E+00 1.13604E-01 1.23783E-01
 -1      2072 2.03014E+01 1.74588E+01 9.83262E+00-2.43868E+00 2.89557E-01-8.26597E-02
 -1      2073 2.08588E+01 1.85899E+01 1.01839E+01-2.21785E+00 3.83379E-01-8.58109E-01
 -1      2074 1.56746E+01 1.37420E+01 7.80100E+00-1.00394E+00 1.56379E-01-1.59232E-01
 -1      2075 1.90993E+01 1.77984E+01 1.09146E+01-1.69647E+00 3.85370E-03-2.77558E-01
 -1      2076 1.97460E+01 1.77327E+01 9.77107E+00-1.90058E+00 1.35438E-01 9.59957E-02
 -1      2077 1.94948E+01 1.75641E+01 9.53343E+00-1.91045E+00 8.48506E-02-4.17976E-03
 -1      2078 1.96483E+01 1.73274E+01 9.46548E+00-2.24334E+00 2.61373E-02 2.44855E-01
 -1      2079 1.88922E+01 1.65823E+01 9.36488E+00-2.48304E+00-1.92598E-02 1.56582E-02
 -1      2080 1.66036E+01 1.46685E+01 7.72029E+00-1.08741E+00 6.51142E-02 2.33849E-01
 -1      2081 1.81161E+01 1.64789E+01 8.74215E+00-1.70024E+00-1.47233E-01 1.55549E-02
 -1      2082 1.72514E+01 1.60328E+01 8.68701E+00-1.54037E+00-7.45372E-02 3.00494E-01
 -1      2083 1.82438E+01 1.74754E+01 9.35241E+00-2.39886E+00-1.79097E-02 2.08923E-01
 -1      2084 1.48714E+01 1.35878E+01 7.06522E+00-8.38504E-01-6.23756E-02 2.74533E-01
 -1      2085 1.99705E+01 1.88866E+01 9.65346E+00-3.03104E+00 3.51371E-02 3.68517E-01
 -1      2086 3.28175E+00 1.96451E+00 5.24727E-01-2.19698E-02 9.34925E-04-2.85995E-02
 -1      2087 3.05597E+00 1.70253E+00 4.16302E-01-8.19409E-04-1.02484E-03-1.36788E-02
 -1      2088 2.89165E+00 1.53889E+00 3.26239E-01 3.64386E-03 6.98750E-03-4.75643E-02
 -1      2089 2.74741E+00 1.38397E+00 2.81247E-01 1.39837E-02 1.02070E-02-3.10925E-02
 -1      2090 2.44964E+00 1.04559E+00 1.61389E-01-3.48265E-02-7.35559E-03-6.40076E-02
 -1      2091 2.60086E+00 1.40628E+00 6.63483E-04-3.39665E-02 1.21111E-02-2.41768E-01
 -1      2092 2.83368E+00 1.63456E+00 6.50824E-03-5.08664E-02 1.78842E-02-2.73359E-01
 -1      2093 2.79813E+00 1.51898E+00-9.81320E-03-1.91317E-03 7.78567E-03-2.36623E-01
 -1      2094 2.87075E+00 1.70912E+00 7.53323E-03 5.97963E-03-5.62230E-03-2.36322E-01
 -1      2095 2.41632E+00 1.21240E+00 3.25829E-03-6.94354E-03-2.62560E-03-2.22997E-01
 -1      2096 1.57265E+01 1.42182E+01 5.72021E+00-1.02534E+00 1.70755E-01 2.70056E-01
 -1      2097 1.69483E+01 1.53506E+01 5.81187E+00-1.79283E+00 2.17947E-01-1.87409E-01
 -1      2098 1.77093E+01 1.62784E+01 6.26424E+00-2.54111E+00 1.11186E-01 4.86958E-01
 -1      2099 1.71271E+01 1.56807E+01 6.49051E+00-2.54525E+00 8.63086E-02 4.21191E-01
 -1      2100 1.47241E+01 1.30186E+01 4.61304E+00-9.25431E-01 1.13943E-01 2.41857E-01
 -1      2101 1.94266E+01 1.87508E+01 1.04782E+01-3.80280E+00-1.74418E-01 2.20032E-01
 -1      2102 1.80413E+01 1.75991E+01 9.25031E+00-3.13404E+00-2.61154E-01 9.67776E-01
 -1      2103 1.93173E+01 1.78967E+01 9.86695E+00-3.02709E+00 3.28615E-01-9.96756E-01
 -1      2104 1.75022E+01 1.51077E+01 8.28494E+00-1.67867E+00 6.34767E-02-1.23901E-01
 -1      2105 1.84563E+01 1.72468E+01 1.02142E+01-2.70264E+00 2.52901E-01-2.32524E-01
 -1      2106 1.89660E+01 1.62502E+01 8.69731E+00-2.10605E+00-1.05663E-02 1.28115E-01
 -1      2107 1.53777E+01 1.25045E+01 6.53683E+00-8.61187E-01 1.69320E-01 1.07136E-01
 -1      2108 1.51560E+01 1.18437E+01 6.48446E+00-7.01612E-01 1.06985E-02 1.83083E-01
 -1      2109 1.48145E+01 1.12666E+01 5.83899E+00-5.64904E-01-3.89505E-02 2.48298E-01
 -1      2110 1.62690E+01 1.41311E+01 7.48311E+00-1.06125E+00-9.07499E-02 1.84356E-01
 -1      2111 2.18246E+01 1.80405E+01 1.00289E+01-3.66614E+00 1.25650E-02-1.72780E-01
 -1      2112 1.88374E+01 1.61693E+01 8.50964E+00-1.39523E+00-5.40836E-02 2.03871E-01
 -1      2113 1.74922E+01 1.47712E+01 8.76300E+00-2.26518E+00 2.89368E-02 6.54464E-02
 -1      2114 1.72719E+01 1.47129E+01 8.57185E+00-2.12736E+00-1.89479E-02-1.78061E-01
 -1      2115 2.00297E+01 1.72076E+01 9.99892E+00-3.05812E+00 8.86622E-02-9.75170E-02
 -1      2116 2.25587E+01 2.07669E+01 1.12601E+01-3.80127E+00-1.20454E-01 5.12926E-02
 -1      2117 1.88836E+01 1.55047E+01 8.84863E+00-2.77447E+00-6.41018E-02 6.91284E-02
 -1      2118 1.73535E+01 1.34454E+01 8.27285E+00-2.06932E+00-9.05656E-02 4.77466E-01
 -1      2119 1.65471E+01 1.30188E+01 7.46029E+00-1.89896E+00-1.57137E-01 1.42039E-01
 -1      2120 2.09681E+01 1.90697E+01 1.01129E+01-2.44966E+00-3.80295E-01 4.26911E-01
 -1      2121 1.90028E+01 1.83892E+01 9.70530E+00-2.25355E+00-1.44940E-01 1.69925E-01
 -1      2122 1.85522E+01 1.83470E+01 9.92298E+00-2.73221E+00-3.00169E-02 8.13600E-02
 -1      2123 1.59168E+01 1.46547E+01 7.87139E+00-1.10162E+00-1.35796E-01 3.58684E-01
 -1      2124 1.95000E+01 1.78665E+01 9.66612E+00-2.56163E+00 1.46032E-01-7.07264E-02
 -1      2125 1.93458E+01 1.75148E+01 9.59452E+00-2.45483E+00 3.32908E-01-1.75249E-01
 -1      2126 2.06629E+01 1.73583E+01 9.56620E+00-2.14350E+00 1.76414E-01 2.32459E-01
 -1      2127 2.16817E+01 1.79835E+01 1.01866E+01-2.13224E+00 1.17168E-01 4.65817E-01
 -1      2128 2.08875E+01 1.79174E+01 1.00904E+01-2.08140E+00-8.89479E-02-2.09523E-01
 -1      2129 1.66397E+01 1.44993E+01 7.54470E+00-1.20827E+00 5.57261E-02 1.78241E-01
 -1      2130 1.68440E+01 1.60745E+01 8.94673E+00-6.52157E-01 1.79809E-01-1.34324E-01
 -1      2131 1.88156E+01 1.70028E+01 8.56605E+00-1.64173E+00 3.98862E-01-9.68260E-01
 -1      2132 1.51615E+01 1.36013E+01 6.98862E+00-7.53906E-01 8.22834E-02-1.59739E-01
 -1      2133 2.03797E+01 1.79464E+01 1.00351E+01-2.91234E+00-2.91136E-02 5.05918E-01
 -1      2134 1.90967E+01 1.82037E+01 1.01145E+01-2.87004E+00-9.57944E-02 4.05761E-01
 -1      2135 5.38275E+00 3.98180E+00 1.65856E+00 4.21736E-04 1.40820E-02-8.16248E-03
 -1      2136 5.17661E+00 3.70516E+00 1.50145E+00-2.97336E-02 9.97333E-03-3.10573E-02
 -1      2137 4.80422E+00 3.47211E+00 1.33041E+00-1.79667E-02-3.68686E-03-7.06548E-03
 -1      2138 4.48469E+00 3.14169E+00 1.15410E+00 2.39796E-02 1.42197E-03 9.06085E-03
 -1      2139 4.95591E+00 3.62406E+00 1.41203E+00-2.39273E-02-8.72052E-04 1.03823E-02
 -1      2140 4.23110E+00 3.01051E+00 5.06014E-02-5.52961E-02 3.20071E-03-3.42191E-01
 -1      2141 4.38331E+00 3.31478E+00 5.89073E-02-2.59092E-02-1.53776E-02-3.88261E-01
 -1      2142 3.72648E+00 2.48617E+00 1.97366E-02-4.13599E-02 7.00470E-03-2.89821E-01
 -1      2143 3.84058E+00 2.70201E+00 6.77934E-03-4.32781E-02 1.65831E-02-3.28911E-01
 -1      2144 4.15207E+00 3.00941E+00 1.43264E-02-7.23450E-02 2.06263E-02-3.76549E-01
 -1      2145 7.20029E+00 5.89030E+00 2.76683E+00 1.68948E-02 2.70092E-02 1.20044E-03
 -1      2146 6.99314E+00 5.47532E+00 2.54502E+00-3.88575E-02 2.10870E-02 4.07375E-03
 -1      2147 6.72515E+00 5.11915E+00 2.36950E+00-5.23678E-02 4.48738E-02-6.54229E-02
 -1      2148 1.46102E+01 1.25388E+01 3.69023E+00-1.02587E+00 2.19861E-02 4.82321E-01
 -1      2149 1.67730E+01 1.47558E+01 5.20109E+00-1.57106E+00 5.67232E-02 3.23656E-01
 -1      2150 1.68157E+01 1.60826E+01 5.21979E+00-2.70931E+00 9.25495E-02 6.62837E-01
 -1      2151 1.84964E+01 1.94617E+01 5.93528E+00-4.11177E+00 2.40913E-02 1.59149E-01
 -1      2152 1.72737E+01 1.45774E+01 5.18246E+00-1.53847E+00 2.46660E-02-1.84456E-01
 -1      2153 1.95744E+01 1.92473E+01 1.02912E+01-2.97774E+00-1.67757E-01 5.69830E-02
 -1      2154 1.89900E+01 1.88915E+01 1.01526E+01-2.88269E+00-9.49592E-02 6.43992E-02
 -1      2155 1.88264E+01 1.93416E+01 1.02052E+01-3.21290E+00-1.10006E-01 7.65274E-01
 -1      2156 1.61598E+01 1.52738E+01 8.06485E+00-2.04462E+00-3.20825E-02 3.41259E-01
 -1      2157 1.98947E+01 2.04999E+01 1.10862E+01-4.09142E+00-3.02302E-02 1.30901E-01
 -1      2158 1.54118E+00 2.64372E-01-7.13373E-03 4.44711E-03-1.25550E-03-1.60945E-01
 -1      2159 1.67593E+00 4.36741E-01-1.38634E-02-1.01014E-02 4.72854E-03-1.78950E-01
 -1      2160 1.83367E+00 6.05663E-01-1.71179E-03-1.27345E-02 4.77194E-03-2.15644E-01
 -1      2161 1.86746E+00 6.31477E-01-6.26657E-03-2.23910E-02 5.25640E-03-1.91297E-01
 -1      2162 2.07626E+00 8.12923E-01 1.78029E-03-2.64437E-02 1.04000E-02-2.21229E-01
 -1      2163 5.54855E+00 4.61057E+00 4.65193E-02-6.91453E-02 6.56100E-03-4.16303E-01
 -1      2164 6.12059E+00 5.07833E+00 7.45179E-02-1.31622E-01 3.39793E-02-4.73833E-01
 -1      2165 5.11036E+00 4.21628E+00 1.72225E-02-2.89516E-02 5.58056E-03-3.83644E-01
 -1      2166 5.60991E+00 4.69176E+00 7.85579E-02-3.92268E-02 4.92817E-03-4.76487E-01
 -1      2167 4.81590E+00 3.83395E+00-4.31319E-02-3.07216E-03 1.24720E-02-3.44903E-01
 -1      2168 2.21236E+00 7.63788E-01 1.00834E-01-3.28045E-02-1.14083E-02-7.36258E-02
 -1      2169 1.83043E+00 4.99808E-01 3.24623E-02-7.17319E-03 3.81195E-03-7.71687E-02
 -1      2170 1.73381E+00 4.27921E-01 1.36017E-02-8.06933E-03-2.10596E-04-9.61558E-02
 -1      2171 1.59521E+00 2.80980E-01-3.67317E-04-2.36577E-03 1.17875E-03-8.22178E-02
 -1      2172 1.38047E+00 2.37191E-02-3.01434E-02 1.29380E-02-2.11679E-03-7.14387E-02
 -1      2173 9.87285E+00 8.21222E+00 4.28365E+00-1.13539E-01-3.75327E-03-6.79038E-02
 -1      2174 9.12440E+00 7.79818E+00 3.94189E+00-1.39763E-01 7.88615E-03-6.59598E-03
 -1      2175 1.03954E+01 8.79259E+00 4.68028E+00-1.46567E-01-3.28349E-03-3.96107E-02
 -1      2176 1.96598E+01 1.86417E+01 9.75613E+00-3.05445E+00-2.23175E-01 4.12247E-01
 -1      2177 1.84723E+01 1.75377E+01 1.04710E+01-2.72364E+00-2.53981E-02 4.81660E-01
 -1      2178 1.98902E+01 1.82385E+01 1.03660E+01-2.63788E+00 4.61484E-02-3.27446E-02
 -1      2179 2.12911E+01 1.89120E+01 1.06488E+01-2.62744E+00-2.25460E-03-6.36984E-01
 -1      2180 1.80551E+01 1.58626E+01 8.63100E+00-1.93905E+00 1.66957E-02-1.01087E-01
 -1      2181 1.70948E+01 1.56433E+01 6.52262E+00-2.35986E+00 1.93929E-01-7.11179E-03
 -1      2182 1.58328E+01 1.36342E+01 5.54320E+00-1.07917E+00 1.08345E-02 4.84245E-01
 -1      2183 1.68399E+01 1.54969E+01 6.64493E+00-2.04062E+00 2.44685E-03 1.10079E+00
 -1      2184 1.82772E+01 1.54745E+01 7.11280E+00-2.58980E+00-8.53190E-02 6.24381E-01
 -1      2185 1.68015E+01 1.49455E+01 6.47268E+00-2.47912E+00 1.34423E-01-6.07279E-02
 -1      2186 1.95090E+01 1.79408E+01 9.95581E+00-2.34559E+00-1.67499E-01-2.21307E-01
 -1      2187 1.90317E+01 1.69205E+01 9.58476E+00-2.34652E+00-8.79972E-02 1.53534E-03
 -1      2188 1.60135E+01 1.34074E+01 7.43560E+00-8.94311E-01-1.89810E-01 2.00477E-01
 -1      2189 1.96373E+01 1.79038E+01 9.70537E+00-2.29481E+00-3.47838E-01 8.55367E-01
 -1      2190 1.87575E+01 1.74156E+01 1.04689E+01-1.65069E+00-1.92800E-01 3.83871E-01
 -1      2191 1.83612E+01 1.59287E+01 7.41931E+00-2.08078E+00 6.05133E-02 4.51421E-01
 -1      2192 1.63522E+01 1.47316E+01 7.20248E+00-7.00818E-01 1.12183E-01 8.09954E-01
 -1      2193 1.67943E+01 1.57511E+01 7.24879E+00-7.53134E-01 1.21372E-01 3.13788E-01
 -1      2194 1.73239E+01 1.60896E+01 7.60683E+00-1.10655E+00 1.66660E-01 3.89868E-02
 -1      2195 1.37584E+01 1.23563E+01 5.28330E+00-2.38702E-01 9.72513E-02 3.67351E-01
 -1      2196 1.67496E+01 1.43700E+01 7.57401E+00-2.28080E+00-2.65534E-01 4.76800E-01
 -1      2197 1.50856E+01 1.28870E+01 6.29077E+00-2.11452E+00-6.78262E-02-2.18946E-01
 -1      2198 1.75981E+01 1.55330E+01 8.11112E+00-2.78066E+00 8.46856E-02-5.30627E-01
 -1      2199 2.18927E+01 1.97028E+01 9.49039E+00-4.13884E+00-2.14837E-01 1.69413E-01
 -1      2200 1.95817E+01 1.67728E+01 8.29193E+00-3.14935E+00-1.91112E-02 8.85285E-01
 -1      2201 1.92533E+01 1.76781E+01 9.54111E+00-2.89752E+00-3.29119E-02 7.22585E-01
 -1      2202 1.95836E+01 1.75284E+01 1.04552E+01-3.15935E+00 1.43854E-01-9.35267E-02
 -1      2203 1.94587E+01 1.67476E+01 9.38211E+00-2.46041E+00 8.67988E-02-7.09873E-01
 -1      2204 1.73610E+01 1.50890E+01 7.85774E+00-1.34804E+00 8.32105E-02-1.26078E-01
 -1      2205 1.81616E+01 1.46053E+01 9.05607E+00-2.20403E+00 3.19271E-01-4.71333E-02
 -1      2206 2.11470E+01 1.93061E+01 1.05881E+01-4.23534E+00-3.49793E-01-1.59470E-01
 -1      2207 2.02982E+01 1.86452E+01 1.04843E+01-3.31897E+00-2.90712E-01 4.86750E-01
 -1      2208 1.59851E+01 1.45198E+01 8.20029E+00-1.86597E+00-8.16048E-02 1.33965E-01
 -1      2209 1.91052E+01 1.75674E+01 9.73711E+00-2.65145E+00-2.73860E-01-1.92069E-02
 -1      2210 1.82525E+01 1.64327E+01 9.33678E+00-1.19668E+00-3.11574E-02 5.75620E-01
 -1      2211 1.63729E+01 1.40633E+01 7.41157E+00-4.57250E-01 3.04065E-02-2.39385E-01
 -1      2212 1.91142E+01 1.68516E+01 8.35298E+00-2.37276E+00 1.39773E-01-4.21624E-01
 -1      2213 1.96513E+01 1.65543E+01 8.65569E+00-1.78876E+00-2.45481E-02 6.99703E-01
 -1      2214 1.84597E+01 1.61528E+01 8.64508E+00-1.50670E+00-8.52770E-02-2.07794E-02
 -1      2215 1.65426E+01 1.41802E+01 6.82444E+00-1.03822E+00 3.60506E-02 1.92511E-01
 -1      2216 1.95291E+01 1.67885E+01 9.05442E+00-2.13244E+00-2.30028E-02 7.45202E-02
 -1      2217 1.86249E+01 1.67267E+01 9.04865E+00-2.00041E+00 7.17886E-02 4.27583E-01
 -1      2218 1.84236E+01 1.71702E+01 8.97754E+00-2.85179E+00 3.28936E-02-8.17584E-02
 -1      2219 1.93813E+01 1.78639E+01 9.36756E+00-3.00830E+00 6.55188E-02-2.06631E-01
 -1      2220 1.67583E+01 1.45506E+01 7.81980E+00-1.48138E+00 4.21426E-02-6.80446E-03
 -1      2221 1.98523E+01 1.72809E+01 9.35709E+00-1.66676E+00-2.18953E-01 6.29450E-01
 -1      2222 1.87187E+01 1.72921E+01 9.41480E+00-1.61360E+00 1.06500E-01 1.84593E-01
 -1      2223 1.92512E+01 1.76137E+01 9.47683E+00-1.64999E+00 1.87753E-01 9.96293E-02
 -1      2224 1.54919E+01 1.39417E+01 7.37501E+00-8.05564E-01 6.48722E-03 1.25487E-01
 -1      2225 1.95490E+01 1.84124E+01 9.88819E+00-3.11724E+00-1.15109E-01 1.95697E-01
 -1      2226 1.97574E+01 1.88224E+01 9.66450E+00-3.41128E+00 7.72551E-02 1.04703E-01
 -1      2227 1.73382E+01 1.56041E+01 8.00519E+00-2.23076E+00-6.90543E-03 8.35883E-02
 -1      2228 1.92004E+01 1.77908E+01 1.00174E+01-2.96421E+00 1.86755E-01-3.47701E-01
 -1      2229 1.86083E+01 1.84829E+01 5.40474E+00-3.71965E+00 1.06318E-01-4.54305E-02
 -1      2230 1.81198E+01 1.76497E+01 4.71434E+00-3.48141E+00 2.64613E-01-1.25568E-01
 -1      2231 1.54343E+01 1.43927E+01 3.08849E+00-2.57704E+00 1.13189E-01-4.04095E-01
 -1      2232 1.63732E+01 1.61814E+01 3.09138E+00-3.14960E+00 3.97764E-01-2.48179E-01
 -1      2233 1.82993E+01 1.73710E+01 9.59706E+00-2.40324E+00 1.87913E-02-3.18969E-04
 -1      2234 1.54322E+01 1.42017E+01 7.73105E+00-1.12579E+00-6.59032E-04 1.32902E-01
 -1      2235 1.85640E+01 1.69258E+01 1.00503E+01-1.82845E+00 1.10070E-01 1.38834E-01
 -1      2236 1.93237E+01 1.82413E+01 9.84342E+00-2.40326E+00 2.53045E-01-5.43620E-01
 -1      2237 7.00541E-01-7.54860E-01-2.28873E-02 1.60098E-02-7.92717E-03-9.67305E-02
 -1      2238 8.86006E-01-4.82562E-01-1.61377E-02 5.83268E-03-4.31806E-03-1.10365E-01
 -1      2239 1.07243E+00-2.53801E-01-2.66687E-02-1.91929E-03 4.25714E-04-1.33895E-01
 -1      2240 9.27418E+00 8.26073E+00 4.47190E-01-6.07888E-01 6.71454E-02-6.53520E-01
 -1      2241 1.09562E+01 9.62705E+00 5.43503E-01-1.12852E+00 2.70894E-01-5.79221E-01
 -1      2242 7.75625E+00 6.62573E+00 2.50972E-01-1.62067E-01 2.56826E-02-5.50045E-01
 -1      2243 8.29610E+00 7.22545E+00 2.60037E-01-3.79648E-01 6.89484E-02-5.84497E-01
 -1      2244 7.32871E+00 6.31498E+00 1.07396E-01-1.98646E-01 5.58280E-02-5.74982E-01
 -1      2245 6.64661E+00 5.59532E+00 9.37032E-02-1.62396E-01 4.11374E-02-4.81304E-01
 -1      2246 9.99284E+00 8.64964E+00 6.50579E-01-7.22408E-01 9.00818E-02-5.62386E-01
 -1      2247 8.34646E-01-6.39688E-01-4.45000E-02-3.10330E-02 4.42328E-03-9.16916E-02
 -1      2248 5.86963E-01-1.00381E+00-4.94728E-02-1.93550E-02 6.06647E-03-7.41548E-02
 -1      2249 4.63581E-01-1.23871E+00-5.96817E-02-1.07014E-02 3.96935E-04-7.85332E-02
 -1      2250 3.61275E-01-1.43174E+00-7.01597E-02-7.50526E-03 8.10772E-04-6.55631E-02
 -1      2251 1.66384E+01 1.48969E+01 8.04085E+00-1.35424E+00-5.70694E-02-3.29236E-02
 -1      2252 1.37562E+01 1.21238E+01 6.65384E+00-4.64622E-01 7.09572E-02 7.08895E-02
 -1      2253 2.03559E+01 1.88233E+01 1.02110E+01-2.85475E+00 1.18494E-01-6.52257E-02
 -1      2254 1.25919E+01 1.11299E+01 1.41009E+00-1.62412E+00 2.10973E-01-4.95468E-01
 -1      2255 1.33495E+01 1.20802E+01 1.40555E+00-2.05007E+00 4.01088E-01-4.76379E-01
 -1      2256 1.45044E+01 1.44547E+01 1.87570E+00-2.45126E+00 3.22432E-01-5.75051E-01
 -1      2257 3.45452E+00 2.12379E+00 5.83470E-01-2.45246E-02 8.81973E-03-4.65097E-02
 -1      2258 3.35732E+00 2.02798E+00 5.61764E-01-1.28356E-02-1.33684E-03-7.87239E-03
 -1      2259 3.85940E+00 2.31857E+00 7.40556E-01-2.22860E-02-1.23513E-02-4.23329E-03
 -1      2260 3.15966E+00 1.79305E+00 4.15841E-01-2.52529E-02-3.32559E-03-6.30304E-02
 -1      2261 2.74353E+00 1.40846E+00 2.40061E-01 1.44790E-02 5.38784E-03-7.73301E-02
 -1      2262 3.43462E+00 2.10180E+00 5.66291E-01-8.08342E-03-1.37160E-02-4.70523E-02
 -1      2263 3.34013E+00 2.00859E+00 5.11209E-01-3.77609E-02 2.90300E-03-1.09217E-01
 -1      2264 3.48794E+00 2.17109E+00 6.12414E-01 1.42198E-02 2.32897E-03-4.19848E-02
 -1      2265 3.75272E+00 2.43776E+00 7.33036E-01-2.39043E-02-4.63492E-04-3.79592E-02
 -1      2266 3.75048E+00 2.35986E+00 7.29558E-01 4.07431E-03 6.76576E-03-1.28198E-02
 -1      2267 2.67122E+00 1.33247E+00 2.25270E-01 2.27648E-02 3.97898E-03-1.01633E-01
 -1      2268 2.63773E+00 1.16681E+00 1.96935E-01-4.90428E-02 3.77376E-03-8.19767E-02
 -1      2269 2.28547E+00 8.30978E-01 9.82969E-02-2.33475E-02 7.35616E-03-1.04248E-01
 -1      2270 2.33313E+00 8.88112E-01 1.18720E-01-3.21760E-02 1.66613E-03-8.47202E-02
 -1      2271 3.75350E+00 2.26336E+00 6.12717E-01-4.71539E-02-7.76833E-03-6.92324E-02
 -1      2272 3.20267E+00 1.86745E+00 4.14576E-01-2.94203E-02 1.33857E-02-9.72404E-02
 -1      2273 3.12327E+00 1.77688E+00 3.72502E-01-2.25726E-02 9.63339E-03-1.09807E-01
 -1      2274 2.89549E+00 1.58349E+00 3.09458E-01 1.88945E-03 7.50957E-03-1.15803E-01
 -1      2275 2.67353E+00 1.30173E+00 2.17199E-01-1.88536E-02-1.09205E-03-1.49191E-01
 -1      2276 3.85063E+00 2.52053E+00 7.12722E-01 1.09105E-02-7.52669E-03-6.93367E-02
 -1      2277 3.74860E+00 2.36412E+00 6.34619E-01 3.41200E-02-1.89970E-03-6.72238E-02
 -1      2278 3.91007E+00 2.59773E+00 7.75378E-01-3.59169E-02-2.57615E-03-3.39782E-02
 -1      2279 4.14982E+00 2.83802E+00 9.08849E-01-1.27087E-02 3.22517E-03-5.73421E-02
 -1      2280 4.07463E+00 2.72883E+00 8.70281E-01-2.28709E-02 1.17498E-02-3.53247E-02
 -1      2281 3.95469E+00 2.63591E+00 8.12026E-01-4.15818E-02 3.96176E-04-3.24101E-02
 -1      2282 4.38346E+00 2.89986E+00 9.63858E-01-2.70228E-02 4.83946E-03-1.55175E-02
 -1      2283 3.94223E+00 2.64509E+00 7.53176E-01 1.07133E-03 2.26194E-03-6.43326E-02
 -1      2284 3.70564E+00 2.25075E+00 5.89988E-01-1.31257E-02-7.49214E-03-7.97319E-02
 -1      2285 3.54116E+00 2.12524E+00 5.12530E-01-3.75467E-02-1.11355E-02-9.36841E-02
 -1      2286 3.44570E+00 1.98070E+00 4.66667E-01-5.02472E-02 7.04168E-03-9.35548E-02
 -1      2287 3.13617E+00 1.74819E+00 3.39886E-01-6.94471E-02 3.22067E-03-1.42414E-01
 -1      2288 4.29590E+00 2.99120E+00 9.14355E-01-3.51625E-02 4.84167E-03-4.70311E-02
 -1      2289 4.18200E+00 2.86142E+00 8.42720E-01-1.57143E-02 4.99968E-03-5.56355E-02
 -1      2290 4.37680E+00 3.05963E+00 9.90406E-01-2.97215E-02-1.03333E-03-4.35434E-02
 -1      2291 4.72124E+00 3.32399E+00 1.12534E+00-4.30050E-02 5.16516E-03-2.97209E-02
 -1      2292 4.50937E+00 3.15218E+00 1.07811E+00-4.20086E-02 5.34498E-03-4.00061E-02
 -1      2293 3.90501E+00 2.42971E+00 6.36682E-01-3.45976E-02-1.27653E-02-1.16863E-01
 -1      2294 3.51903E+00 2.10340E+00 4.61019E-01-4.63966E-02-1.86991E-03-1.57619E-01
 -1      2295 4.06899E+00 2.74932E+00 7.61356E-01 1.01659E-02-1.24564E-02-8.15072E-02
 -1      2296 4.01954E+00 2.65437E+00 6.76809E-01-1.87506E-03-1.65983E-02-1.24693E-01
 -1      2297 4.42101E+00 3.14219E+00 9.74649E-01-1.92855E-02 1.34446E-03-5.99039E-02
 -1      2298 3.45117E+00 2.13098E+00 4.06192E-01-5.27721E-02-4.59000E-03-1.49432E-01
 -1      2299 3.23850E+00 1.92823E+00 3.61960E-01-2.97518E-02-6.49696E-03-1.63345E-01
 -1      2300 3.08058E+00 1.71333E+00 3.04018E-01-6.70568E-02-8.17946E-03-1.41516E-01
 -1      2301 2.83531E+00 1.49999E+00 2.44914E-01-6.33735E-02-8.64620E-03-1.44737E-01
 -1      2302 2.94955E+00 1.64317E+00 2.29769E-01 1.28467E-03-6.97915E-03-1.82089E-01
 -1      2303 4.33644E+00 2.97447E+00 8.07523E-01-3.93720E-02-4.79665E-03-9.49395E-02
 -1      2304 3.95004E+00 2.56844E+00 5.92142E-01-3.05158E-03-6.29235E-03-1.26676E-01
 -1      2305 3.89268E+00 2.52632E+00 5.43277E-01-7.07110E-03-6.33678E-04-1.38357E-01
 -1      2306 3.76058E+00 2.31565E+00 4.85758E-01-3.09085E-02-8.15417E-03-1.44316E-01
 -1      2307 3.39090E+00 2.07337E+00 3.62340E-01-3.40028E-02 1.40908E-03-1.65785E-01
 -1      2308 4.59528E+00 3.31160E+00 9.77179E-01-4.24224E-02-1.22681E-03-6.37031E-02
 -1      2309 4.57229E+00 3.27076E+00 9.26882E-01-1.41395E-02 3.78709E-03-9.55332E-02
 -1      2310 4.72057E+00 3.42061E+00 1.09412E+00-5.07483E-02-4.81338E-03-4.79244E-02
 -1      2311 5.17350E+00 3.75344E+00 1.26610E+00-5.84484E-02 4.38664E-04-2.90129E-02
 -1      2312 4.87237E+00 3.53396E+00 1.18964E+00-6.09530E-02 7.84748E-03-4.01533E-02
 -1      2313 4.25319E+00 2.89917E+00 6.98937E-01-1.17527E-02 4.65469E-03-1.31382E-01
 -1      2314 3.86665E+00 2.51201E+00 4.94791E-01 1.86563E-03 4.50357E-04-1.55816E-01
 -1      2315 4.42726E+00 3.15000E+00 8.18009E-01 1.60457E-02 2.07467E-03-9.63523E-02
 -1      2316 4.50530E+00 3.12644E+00 7.87311E-01 4.05556E-02-6.49150E-03-9.63343E-02
 -1      2317 4.84141E+00 3.54447E+00 1.05992E+00-1.62239E-02 5.29770E-03-8.38084E-02
 -1      2318 3.79730E+00 2.45547E+00 4.38563E-01 1.70254E-02 6.56088E-03-1.63581E-01
 -1      2319 3.62932E+00 2.21255E+00 3.80758E-01-2.13496E-02 4.35128E-03-1.82570E-01
 -1      2320 3.28104E+00 1.99258E+00 2.56313E-01-4.79521E-02 1.20172E-03-2.11988E-01
 -1      2321 3.32430E+00 2.02326E+00 3.20172E-01-3.31839E-02-1.72630E-03-1.79375E-01
 -1      2322 3.10089E+00 1.83794E+00 2.64932E-01-1.65119E-02-2.07704E-03-1.83399E-01
 -1      2323 4.15418E+00 2.75338E+00 5.44901E-01-3.06687E-03-1.63789E-03-1.53817E-01
 -1      2324 3.73906E+00 2.36726E+00 3.51666E-01-2.25798E-02-2.41709E-03-2.01694E-01
 -1      2325 4.46324E+00 3.14538E+00 7.08531E-01 2.62165E-02-5.64075E-03-1.17910E-01
 -1      2326 4.30728E+00 3.00064E+00 5.98381E-01 4.31865E-02 3.60976E-04-1.59728E-01
 -1      2327 4.61233E+00 3.25906E+00 8.08085E-01 4.51767E-02 7.72866E-04-1.11057E-01
 -1      2328 4.86325E+00 3.62422E+00 9.25995E-01-1.45396E-04-4.12645E-04-9.60814E-02
 -1      2329 4.88873E+00 3.57415E+00 1.00038E+00 2.56680E-02-4.68003E-03-7.01876E-02
 -1      2330 5.44351E+00 4.10522E+00 1.46588E+00-5.07064E-02-9.87803E-04-7.38737E-03
 -1      2331 5.31288E+00 4.00300E+00 1.36380E+00-7.36255E-02 6.99809E-03-4.00518E-02
 -1      2332 5.89989E+00 4.33344E+00 1.61440E+00-4.19232E-02-9.35847E-03-1.20985E-02
 -1      2333 5.27762E+00 3.97371E+00 1.32091E+00-6.36334E-02 2.63020E-04-5.13152E-02
 -1      2334 5.10982E+00 3.81137E+00 1.19513E+00-4.98597E-02 6.49771E-03-5.33688E-02
 -1      2335 5.02463E+00 3.69249E+00 1.10715E+00-6.67590E-03 2.03421E-05-4.59996E-02
 -1      2336 5.51984E+00 4.16842E+00 1.39033E+00-6.35054E-02 3.54147E-03-2.60652E-02
 -1      2337 5.56892E+00 4.23487E+00 1.55403E+00-4.07455E-02 1.58365E-03-1.78448E-02
 -1      2338 6.08135E+00 4.52579E+00 1.77731E+00-6.52539E-03 4.71873E-03 1.74885E-02
 -1      2339 5.37824E+00 4.06331E+00 1.46434E+00-3.53598E-02-4.07111E-03-3.00986E-02
 -1      2340 5.86941E+00 4.52214E+00 1.74619E+00-4.73578E-02 3.03122E-03-1.61397E-02
 -1      2341 4.85231E+00 3.50214E+00 1.19183E+00-4.99516E-02 7.60216E-03-3.69968E-02
 -1      2342 5.29639E+00 3.84249E+00 1.38778E+00-6.72949E-02-6.06471E-03-3.27909E-02
 -1      2343 5.40874E+00 4.00373E+00 1.49381E+00 4.40467E-03 2.03460E-03-4.30022E-02
 -1      2344 3.67655E+00 2.33006E+00 3.00782E-01-3.54711E-02-3.46105E-03-2.29079E-01
 -1      2345 3.49323E+00 2.13176E+00 2.81857E-01-2.38180E-02-1.42984E-03-2.40509E-01
 -1      2346 3.21859E+00 1.95842E+00 2.31807E-01-3.74044E-02 1.87436E-03-2.36150E-01
 -1      2347 2.99304E+00 1.75727E+00 1.77085E-01-1.88066E-02-1.00822E-03-2.31762E-01
 -1      2348 3.12980E+00 1.89503E+00 1.79379E-01-2.56544E-02 5.50434E-03-2.52956E-01
 -1      2349 4.58914E+00 3.35606E+00 7.03305E-01 1.49644E-02 3.82239E-03-1.55179E-01
 -1      2350 4.21351E+00 2.91232E+00 4.89761E-01 3.60771E-02 2.60204E-03-2.08646E-01
 -1      2351 4.16541E+00 2.91182E+00 4.38467E-01 1.20552E-02 1.56154E-03-2.04740E-01
 -1      2352 4.00860E+00 2.62879E+00 3.89561E-01-3.90894E-02-2.72682E-03-2.25819E-01
 -1      2353 3.62588E+00 2.29898E+00 2.48544E-01-3.00077E-02 4.32213E-03-2.45629E-01
 -1      2354 4.99071E+00 3.72337E+00 9.19323E-01-2.34668E-02-1.50657E-03-9.36602E-02
 -1      2355 4.88024E+00 3.60277E+00 7.91557E-01-2.83293E-02 8.96392E-04-1.46678E-01
 -1      2356 5.08572E+00 3.81942E+00 1.00001E+00-2.65750E-02-3.29550E-03-8.72790E-02
 -1      2357 5.42202E+00 4.09116E+00 1.13203E+00-5.14210E-02-5.30842E-03-6.91408E-02
 -1      2358 5.27184E+00 3.96682E+00 1.13603E+00-3.23817E-02-1.55928E-04-6.60933E-02
 -1      2359 5.36076E+00 3.82526E+00 9.20177E-01-1.20429E-02 1.74253E-03-1.14283E-01
 -1      2360 4.80185E+00 3.53890E+00 7.06266E-01-2.18629E-02 8.78314E-03-1.61958E-01
 -1      2361 4.75627E+00 3.51074E+00 6.48200E-01-2.71565E-02 4.10590E-03-1.57008E-01
 -1      2362 4.44076E+00 3.24450E+00 5.42075E-01 3.22587E-03 2.60837E-04-1.77886E-01
 -1      2363 4.12559E+00 2.88444E+00 3.77268E-01 7.97657E-03 1.84980E-03-2.12313E-01
 -1      2364 5.63772E+00 4.25818E+00 1.14887E+00 4.63200E-02-5.28734E-03-6.30664E-02
 -1      2365 5.58773E+00 4.17195E+00 1.04831E+00 6.02466E-02 9.27466E-03-8.70745E-02
 -1      2366 5.78545E+00 4.34116E+00 1.27979E+00-4.58489E-02-1.42885E-02-2.11236E-02
 -1      2367 6.10806E+00 4.79365E+00 1.46208E+00-1.69677E-03-2.59538E-03-3.03012E-02
 -1      2368 5.93333E+00 4.42973E+00 1.37112E+00-6.04291E-02 1.63726E-02-7.87454E-02
 -1      2369 5.91258E+00 4.65909E+00 1.23728E+00 7.21974E-03 7.57595E-03-6.90743E-02
 -1      2370 5.56486E+00 4.09825E+00 9.74220E-01 1.75254E-03 1.43192E-02-1.28193E-01
 -1      2371 5.40304E+00 4.10401E+00 8.58709E-01-5.84349E-02 6.89603E-03-1.24578E-01
 -1      2372 5.16812E+00 3.77987E+00 7.67624E-01-3.72580E-02 1.55138E-02-1.29822E-01
 -1      2373 4.70749E+00 3.47570E+00 5.51554E-01-3.54821E-02 7.02102E-03-1.76210E-01
 -1      2374 6.40009E+00 5.03851E+00 2.03754E+00 2.53066E-02 2.31349E-03 1.64720E-02
 -1      2375 6.19877E+00 4.79445E+00 1.89682E+00 7.11773E-02 1.00534E-02 2.40058E-02
 -1      2376 6.91334E+00 5.30125E+00 2.19252E+00 1.60298E-02-2.43811E-02 6.48197E-02
 -1      2377 6.08504E+00 4.63335E+00 1.76525E+00 7.05667E-02 1.69423E-02-6.41598E-04
 -1      2378 6.08115E+00 4.64802E+00 1.75171E+00 5.81245E-02 1.05093E-03-6.17137E-03
 -1      2379 6.56771E+00 5.18732E+00 2.12397E+00-1.32747E-02-2.80143E-03 7.74892E-03
 -1      2380 6.98695E+00 5.70819E+00 2.42878E+00-5.32883E-02-4.96025E-03 6.93186E-03
 -1      2381 6.37637E+00 4.85909E+00 1.99545E+00-4.64229E-02-8.81064E-03 5.05621E-04
 -1      2382 6.78249E+00 5.35837E+00 2.27795E+00-1.69687E-03-1.36311E-02-1.87311E-02
 -1      2383 6.06287E+00 4.67270E+00 1.87300E+00-7.79402E-02 5.30312E-03-2.21689E-02
 -1      2384 2.74621E+00 1.49419E+00 1.11638E-01 5.91798E-04 8.12952E-04-2.28372E-01
 -1      2385 2.81752E+00 1.52961E+00 1.39012E-01 5.57358E-03-9.13402E-04-2.25805E-01
 -1      2386 2.71990E+00 1.38283E+00 1.30371E-01-8.54084E-03 5.30580E-04-2.17796E-01
 -1      2387 2.90136E+00 1.60934E+00 1.88191E-01-3.31708E-03-6.48012E-03-1.99594E-01
 -1      2388 2.94566E+00 1.65043E+00 2.22546E-01-3.45274E-03-2.84096E-03-1.83763E-01
 -1      2389 6.32667E+00 5.11677E+00 1.49000E+00-3.31403E-02 9.38073E-03-2.06043E-02
 -1      2390 6.22576E+00 4.96321E+00 1.36590E+00-2.44471E-02 8.32025E-03-3.39541E-02
 -1      2391 6.60539E+00 5.12202E+00 1.74975E+00 2.87208E-02-6.87391E-03-4.26766E-02
 -1      2392 6.49337E+00 5.22692E+00 1.65222E+00-5.52143E-02-4.63770E-03-2.30190E-02
 -1      2393 6.39113E+00 5.17579E+00 1.56895E+00-2.82696E-02-3.09697E-04-3.07982E-02
 -1      2394 6.85881E+00 5.55484E+00 1.79283E+00-6.61542E-02 1.12413E-03 9.42534E-03
 -1      2395 7.20609E+00 5.59152E+00 1.94036E+00-3.82287E-02-6.06179E-03-2.43219E-02
 -1      2396 5.86450E+00 4.51273E+00 1.03023E+00-1.19379E-01 8.99205E-03-9.13206E-02
 -1      2397 5.39067E+00 4.08763E+00 7.72054E-01-7.88464E-02 1.63634E-02-1.24816E-01
 -1      2398 6.21924E+00 4.80008E+00 1.25461E+00-1.01181E-01 7.51419E-03-8.97839E-02
 -1      2399 6.18316E+00 4.74802E+00 1.14383E+00-8.68346E-02-3.99960E-03-4.19387E-02
 -1      2400 6.68269E+00 5.17348E+00 1.50693E+00-2.23629E-02 1.99671E-04 1.35954E-02
 -1      2401 5.37709E+00 3.97885E+00 6.99537E-01-4.69382E-02-3.31759E-03-1.58300E-01
 -1      2402 4.95219E+00 3.65709E+00 5.98472E-01-2.01298E-02 1.87612E-02-1.94280E-01
 -1      2403 4.71267E+00 3.35228E+00 4.59011E-01-7.34655E-02 1.86413E-02-2.90734E-01
 -1      2404 4.70763E+00 3.38824E+00 5.11412E-01-8.38009E-03 9.60891E-03-1.85370E-01
 -1      2405 4.36840E+00 3.18331E+00 4.23071E-01-1.81072E-02 1.03796E-02-2.22077E-01
 -1      2406 5.81361E+00 4.43890E+00 8.65185E-01-6.76150E-03 4.33893E-03-1.69669E-01
 -1      2407 5.17283E+00 3.82983E+00 5.36137E-01 7.29761E-02 9.84549E-04-2.41312E-01
 -1      2408 6.17511E+00 4.89928E+00 1.10319E+00-1.19376E-02-2.61816E-02-7.25765E-02
 -1      2409 6.10731E+00 4.88110E+00 9.80574E-01-6.11794E-02-3.55938E-03-1.81983E-01
 -1      2410 6.19811E+00 4.94430E+00 1.18572E+00 4.52819E-02-1.71517E-02-7.02680E-02
 -1      2411 6.67894E+00 5.51862E+00 1.42403E+00-4.18162E-02-1.03152E-02-2.44041E-02
 -1      2412 6.59382E+00 5.22139E+00 1.40707E+00 2.57849E-02 5.74176E-03-8.65329E-02
 -1      2413 5.91857E+00 4.47082E+00 1.44534E+00-1.41946E-02-7.65794E-03-3.34313E-02
 -1      2414 6.31789E+00 4.87666E+00 1.62873E+00-8.34488E-02 1.03999E-04 5.61162E-04
 -1      2415 6.73310E+00 5.30822E+00 1.91197E+00-1.10519E-01-2.10751E-03 1.29447E-02
 -1      2416 6.67522E+00 5.09755E+00 1.78165E+00-5.51873E-02-1.89242E-02 6.53082E-02
 -1      2417 6.85960E+00 5.47833E+00 1.96262E+00 5.04567E-02-1.38334E-02 4.57426E-04
 -1      2418 5.19617E+00 3.86783E+00 4.94045E-01 7.24925E-02 9.77504E-03-2.57601E-01
 -1      2419 4.98613E+00 3.56667E+00 4.22141E-01-3.82437E-03-1.16345E-02-2.96889E-01
 -1      2420 4.59925E+00 3.29355E+00 3.49282E-01-8.52916E-02-1.70428E-02-2.58648E-01
 -1      2421 4.27586E+00 3.04479E+00 3.22502E-01-7.45472E-02-6.35334E-03-2.91588E-01
 -1      2422 4.38782E+00 3.18991E+00 2.14910E-01 1.46088E-02-2.18258E-02-3.29049E-01
 -1      2423 6.77497E+00 5.42094E+00 1.22391E+00-1.43563E-01 2.70787E-03-1.12460E-01
 -1      2424 6.13100E+00 4.82783E+00 9.01600E-01-7.79054E-02 2.39170E-02-1.56112E-01
 -1      2425 6.10702E+00 4.73966E+00 8.10434E-01-3.58746E-02 4.69147E-04-1.32007E-01
 -1      2426 5.58192E+00 4.29750E+00 6.49417E-01 4.34126E-03 1.47939E-02-2.06290E-01
 -1      2427 5.28799E+00 3.91541E+00 4.62600E-01-3.73135E-02 1.77250E-02-3.07190E-01
 -1      2428 2.36710E+00 9.21551E-01 1.09482E-01-2.63207E-02 8.33389E-03-1.23944E-01
 -1      2429 2.15942E+00 7.19286E-01 8.74041E-02-2.28034E-02 1.16426E-02-1.17102E-01
 -1      2430 2.59994E+00 1.29341E+00 1.83618E-01-3.82904E-02-7.86796E-03-1.38696E-01
 -1      2431 2.42002E+00 1.09515E+00 1.49900E-01-2.16050E-02-4.92083E-03-1.40944E-01
 -1      2432 2.27350E+00 9.05505E-01 9.59385E-02 1.45327E-03-5.44112E-03-1.29438E-01
 -1      2433 7.33160E+00 5.89928E+00 2.57931E+00-1.01549E-02-3.34527E-02 7.31071E-02
 -1      2434 7.02187E+00 5.60810E+00 2.38010E+00 9.03166E-03 1.34191E-02-6.61578E-02
 -1      2435 7.48730E+00 6.10462E+00 2.70340E+00-8.93913E-02-4.78700E-03 5.40490E-03
 -1      2436 7.36779E+00 5.96262E+00 2.56435E+00-7.37800E-02-1.40037E-02 3.73576E-02
 -1      2437 7.62475E+00 6.14322E+00 2.72209E+00-8.86687E-02-1.52963E-02 7.89521E-02
 -1      2438 7.89860E+00 6.62675E+00 3.02540E+00-1.37203E-01-1.06225E-02 4.04522E-02
 -1      2439 8.19010E+00 6.43952E+00 2.88973E+00-1.07607E-01 3.96400E-02 2.23657E-02
 -1      2440 7.82482E+00 6.43810E+00 2.82132E+00-1.40301E-01-3.84307E-02-1.55243E-02
 -1      2441 7.13785E+00 5.78093E+00 2.40473E+00-6.07678E-02-1.12882E-02 1.04747E-03
 -1      2442 7.07706E+00 5.81698E+00 2.34562E+00-7.48093E-02-1.90205E-02 3.66611E-02
 -1      2443 6.50195E+00 5.20971E+00 2.04674E+00 8.79110E-03-6.27655E-04 1.03331E-02
 -1      2444 6.08613E+00 4.71354E+00 1.72509E+00 5.53318E-02-4.94532E-03 1.12978E-03
 -1      2445 6.73319E+00 5.37311E+00 2.32738E+00 8.72424E-02 8.78657E-03 1.60697E-02
 -1      2446 7.20010E+00 5.92266E+00 2.60602E+00 2.01870E-02 1.56468E-02 1.64171E-02
 -1      2447 7.87321E+00 6.52467E+00 2.98269E+00-2.02690E-02 3.95662E-02 1.84213E-02
 -1      2448 7.59702E+00 6.37272E+00 2.83260E+00-5.18139E-02 1.09270E-02 2.29711E-02
 -1      2449 8.64337E+00 6.68446E+00 3.17839E+00 2.89330E-03-5.88808E-03 7.74713E-02
 -1      2450 7.55364E+00 6.29409E+00 2.78110E+00-5.32372E-02 8.68061E-03 1.61131E-02
 -1      2451 8.04380E+00 6.38461E+00 2.99431E+00 1.74510E-02 2.88581E-03 9.16240E-02
 -1      2452 6.67506E+00 5.08822E+00 2.21513E+00-5.37354E-02-7.98993E-03 7.32703E-02
 -1      2453 7.02259E+00 5.50639E+00 2.43409E+00 8.67983E-02 3.58663E-02 1.36018E-02
 -1      2454 6.05814E+00 4.65148E+00 1.90638E+00-4.81854E-02-1.21201E-03 3.43534E-02
 -1      2455 6.10729E+00 4.75379E+00 1.98431E+00-4.95064E-02 1.34899E-03 2.61640E-02
 -1      2456 5.67769E+00 4.30986E+00 1.69678E+00 7.05872E-03 2.72771E-03 3.71595E-03
 -1      2457 7.40674E+00 5.67670E+00 2.60045E+00-6.75671E-02 4.88314E-04 2.52269E-02
 -1      2458 7.93620E+00 6.36936E+00 2.96536E+00-2.14949E-02-2.38941E-03-9.01387E-03
 -1      2459 8.26820E+00 6.96167E+00 3.25762E+00-2.10970E-02-4.66313E-02 1.59340E-02
 -1      2460 8.11542E+00 6.68786E+00 3.13724E+00 3.31626E-04 2.61298E-02-6.51785E-02
 -1      2461 8.77572E+00 7.26208E+00 3.43824E+00-1.05370E-01-7.63923E-03-2.73444E-02
 -1      2462 7.01933E+00 5.44460E+00 2.44123E+00-5.21004E-02-7.21650E-03 1.45198E-02
 -1      2463 7.47239E+00 6.08877E+00 2.78192E+00-9.68402E-02-6.08694E-03 8.91536E-02
 -1      2464 6.33212E+00 5.00274E+00 2.10383E+00-6.66241E-02-6.85681E-03-1.40003E-02
 -1      2465 6.52231E+00 5.16436E+00 2.20963E+00-6.84993E-02-1.01525E-03 1.73416E-02
 -1      2466 5.86764E+00 4.52790E+00 1.81912E+00-1.52887E-02 5.25685E-03-1.22420E-02
 -1      2467 7.46420E+00 6.14564E+00 2.82160E+00-8.91070E-02 1.69481E-03 1.10846E-02
 -1      2468 8.31803E+00 6.46559E+00 3.17043E+00-6.94670E-02 1.76841E-02 1.48737E-01
 -1      2469 8.70565E+00 7.14873E+00 3.49700E+00 5.18483E-02 5.47987E-04 1.17036E-01
 -1      2470 8.38187E+00 6.87491E+00 3.37649E+00 1.61453E-02 3.60228E-02 9.09179E-02
 -1      2471 9.19326E+00 7.98876E+00 3.91259E+00-1.40408E-01 3.13003E-04 2.27597E-02
 -1      2472 8.37799E+00 6.98206E+00 3.32177E+00-3.49484E-02 3.22534E-02-2.91020E-02
 -1      2473 8.85259E+00 7.73524E+00 3.61610E+00-1.37399E-01-1.36520E-02-8.09381E-03
 -1      2474 7.19044E+00 5.80707E+00 2.64262E+00-3.80878E-02-2.73229E-03 3.30394E-02
 -1      2475 8.07859E+00 6.39366E+00 3.05902E+00-2.35280E-02 3.41138E-02-6.20865E-02
 -1      2476 6.81767E+00 5.29560E+00 2.36481E+00-2.59989E-02 6.38553E-03-1.53182E-02
 -1      2477 6.85395E+00 5.43384E+00 2.41302E+00 2.86836E-02-1.16475E-02 8.70378E-03
 -1      2478 6.18994E+00 4.89221E+00 2.01141E+00-3.57733E-02-6.68698E-03 1.73129E-02
 -1      2479 2.60730E+00 1.41463E+00 7.08912E-02-9.52243E-03 2.90125E-03-2.44462E-01
 -1      2480 2.49424E+00 1.24206E+00 6.39905E-02-2.34911E-02 5.35258E-03-2.27195E-01
 -1      2481 2.82563E+00 1.63680E+00 1.00542E-01-2.15062E-02 2.39260E-03-2.61059E-01
 -1      2482 2.53866E+00 1.35909E+00 3.71440E-02-1.85169E-02-2.24465E-04-2.69292E-01
 -1      2483 3.05292E+00 1.83484E+00 1.38373E-01-3.27611E-02 3.00565E-03-2.62939E-01
 -1      2484 2.21198E+00 9.77469E-01-2.58868E-03-3.89339E-02-3.66074E-04-2.36571E-01
 -1      2485 2.26509E+00 1.04542E+00 3.30039E-02-2.86726E-02 6.78529E-03-2.13281E-01
 -1      2486 2.17133E+00 9.37542E-01 3.01256E-02-1.87577E-02 5.44617E-03-2.06183E-01
 -1      2487 2.42972E+00 1.18618E+00 7.15129E-02-1.55700E-02 1.02255E-02-2.16370E-01
 -1      2488 2.52885E+00 1.26277E+00 1.11608E-01-2.01973E-02 4.51776E-03-1.98825E-01
 -1      2489 3.91449E+00 2.66582E+00 1.79268E-01-3.42772E-02-1.21075E-02-3.05876E-01
 -1      2490 3.96954E+00 2.71864E+00 2.38795E-01-3.10275E-02-5.04197E-03-2.96719E-01
 -1      2491 3.91228E+00 2.54255E+00 2.29686E-01-7.90834E-02 4.60403E-03-3.17533E-01
 -1      2492 4.02556E+00 2.79439E+00 2.50192E-01-2.40742E-02 1.75677E-04-2.77948E-01
 -1      2493 4.08020E+00 2.87582E+00 3.32618E-01 2.09034E-02 6.56323E-03-2.11857E-01
 -1      2494 3.83989E+00 2.63371E+00 1.28048E-01-1.95869E-02 7.68867E-03-3.40700E-01
 -1      2495 3.61845E+00 2.40114E+00 1.22156E-01-9.66133E-03-2.18264E-03-3.37553E-01
 -1      2496 4.20792E+00 2.93828E+00 1.69449E-01-1.91250E-02-9.72854E-03-3.79152E-01
 -1      2497 3.77840E+00 2.63112E+00 8.78277E-02-2.36148E-02 9.12960E-03-3.49666E-01
 -1      2498 4.40739E+00 3.19635E+00 1.88744E-01 1.43843E-02-1.00536E-02-3.45349E-01
 -1      2499 7.09723E+00 5.91495E+00 1.48834E+00-1.36716E-01-2.39568E-03-2.37333E-02
 -1      2500 7.28204E+00 5.76264E+00 1.46053E+00-1.20774E-02-6.41766E-03 2.72819E-02
 -1      2501 7.04680E+00 5.92834E+00 1.61845E+00-9.12816E-02-4.13256E-03 2.54632E-02
 -1      2502 7.92941E+00 6.56824E+00 1.98575E+00-1.06289E-01 1.91570E-02 8.92774E-02
 -1      2503 7.28308E+00 6.05153E+00 1.74827E+00-3.96134E-02 1.09096E-02-5.89961E-02
 -1      2504 6.46513E+00 5.26554E+00 9.71923E-01-9.05858E-03-5.21756E-03-1.49866E-01
 -1      2505 5.91474E+00 4.68499E+00 6.30775E-01 7.64619E-02-1.32568E-02-2.35149E-01
 -1      2506 6.86647E+00 5.57312E+00 1.17296E+00-3.51680E-02-2.73970E-03-9.91645E-02
 -1      2507 6.67693E+00 5.53653E+00 1.02139E+00-1.65812E-02 1.98708E-03-1.59702E-01
 -1      2508 7.85953E+00 6.57430E+00 1.87865E+00-2.68894E-02-1.88637E-02 7.16016E-02
 -1      2509 7.35783E+00 5.87961E+00 1.44029E+00-1.80657E-02 3.39563E-03-1.03728E-01
 -1      2510 7.60745E+00 6.31505E+00 1.49357E+00-1.27618E-01-6.90432E-03-9.25417E-02
 -1      2511 6.70797E+00 5.32609E+00 1.54420E+00 4.92541E-02 2.64322E-03-1.26575E-02
 -1      2512 7.01489E+00 5.61377E+00 1.74637E+00 2.73324E-02 5.04753E-03 2.77708E-02
 -1      2513 7.42727E+00 5.96910E+00 2.01692E+00-1.16818E-01-9.54696E-03 6.19894E-02
 -1      2514 7.54850E+00 6.21909E+00 2.11725E+00-8.82357E-02 9.74477E-03 1.26304E-02
 -1      2515 7.46741E+00 5.92441E+00 2.12603E+00-6.03654E-02 2.67256E-02-3.46834E-02
 -1      2516 7.31848E+00 5.93950E+00 1.97545E+00-1.34763E-01-1.90440E-03 3.79489E-02
 -1      2517 8.12572E+00 6.25577E+00 2.28488E+00-1.65979E-01 1.98306E-02 5.30420E-02
 -1      2518 8.11037E+00 6.63496E+00 3.14562E+00 1.06658E-01 1.92684E-02 5.10777E-02
 -1      2519 8.49152E+00 7.02433E+00 3.37521E+00 6.61927E-02 1.20234E-03-1.12125E-04
 -1      2520 9.07451E+00 7.53756E+00 3.71702E+00-2.74854E-02 1.29448E-02 2.83528E-02
 -1      2521 9.60183E+00 8.35852E+00 4.12330E+00-2.26150E-01 2.93611E-02 5.20381E-02
 -1      2522 9.27401E+00 8.04109E+00 3.91487E+00-1.02781E-01 1.68796E-02 7.96612E-02
 -1      2523 6.52277E+00 5.17422E+00 2.25555E+00 3.79282E-02 9.69596E-03-2.17922E-02
 -1      2524 7.05302E+00 5.79375E+00 2.58328E+00-1.78653E-02 8.59528E-03 2.40650E-02
 -1      2525 7.17808E+00 5.88862E+00 2.64084E+00-4.82153E-02-6.04032E-03 4.04147E-02
 -1      2526 7.60878E+00 6.27315E+00 2.87181E+00-6.80388E-02-8.99854E-03 2.20464E-02
 -1      2527 8.09019E+00 6.55355E+00 3.10772E+00-4.83987E-02-2.47592E-03-1.74833E-02
 -1      2528 8.04456E+00 6.41445E+00 3.06089E+00 2.94559E-02-2.76100E-02 9.83935E-02
 -1      2529 8.49955E+00 7.20938E+00 3.42745E+00 3.28380E-02 3.20103E-03 5.60445E-02
 -1      2530 6.17635E+00 4.77436E+00 2.02930E+00 1.06627E-02 6.70530E-03-4.70952E-02
 -1      2531 6.26580E+00 4.94445E+00 2.12617E+00 5.13268E-02 9.03344E-03 4.59403E-03
 -1      2532 5.70471E+00 4.39304E+00 1.72897E+00-1.55339E-02-1.41877E-02-3.13296E-02
 -1      2533 5.76661E+00 4.50513E+00 1.84048E+00-2.47535E-02-1.52837E-02-1.16926E-02
 -1      2534 5.60279E+00 4.28469E+00 1.71508E+00-3.85146E-02-4.85662E-03 4.88069E-04
 -1      2535 6.87143E+00 5.59346E+00 2.48892E+00-1.53979E-02-3.29909E-03-1.17897E-02
 -1      2536 7.24717E+00 5.97808E+00 2.73213E+00-9.22580E-02-1.38440E-02 7.01372E-03
 -1      2537 6.46257E+00 5.14750E+00 2.26958E+00 1.92375E-02 8.43823E-03 2.81405E-02
 -1      2538 6.67534E+00 5.23059E+00 2.33816E+00-6.80949E-02 2.17697E-02-2.29891E-02
 -1      2539 6.11460E+00 4.66304E+00 2.04131E+00-1.58559E-02 1.43872E-02 2.71815E-02
 -1      2540 5.49097E+00 4.05816E+00 1.56863E+00-1.37403E-03 2.27629E-03 2.87935E-02
 -1      2541 5.09153E+00 3.75259E+00 1.35669E+00-3.00428E-02 1.14969E-03-1.43355E-02
 -1      2542 5.35159E+00 4.01940E+00 1.50457E+00-4.97527E-02 3.77352E-03-1.32367E-02
 -1      2543 5.60716E+00 4.18229E+00 1.63054E+00-2.26946E-02 8.02910E-03-3.29139E-02
 -1      2544 5.70926E+00 4.33842E+00 1.69852E+00 8.79649E-03-3.19433E-03-1.85723E-02
 -1      2545 5.16353E+00 3.84007E+00 1.41359E+00-2.11302E-02-3.44009E-03-1.97607E-02
 -1      2546 7.32335E+00 6.16306E+00 2.86923E+00-1.05929E-01 2.20125E-02-3.49951E-03
 -1      2547 7.99640E+00 6.47024E+00 3.14449E+00-5.74644E-02-1.22170E-02 6.32340E-02
 -1      2548 8.54906E+00 7.04450E+00 3.45527E+00-4.81523E-02 5.67204E-03 8.72457E-02
 -1      2549 8.10628E+00 6.68180E+00 3.21632E+00 5.47607E-03-8.37379E-03 2.15076E-02
 -1      2550 8.46697E+00 7.13024E+00 3.42769E+00-7.16633E-02 2.75827E-05 4.57725E-02
 -1      2551 6.61526E+00 5.03536E+00 2.24453E+00-1.03125E-01 2.45825E-03 2.53926E-02
 -1      2552 6.72967E+00 5.35047E+00 2.41977E+00-3.38619E-02-5.99329E-03 1.88100E-02
 -1      2553 7.00945E+00 5.71281E+00 2.60192E+00-3.45706E-02 5.84053E-03-1.82926E-02
 -1      2554 7.24651E+00 6.02894E+00 2.75898E+00-1.03360E-01 8.41827E-03 6.69629E-03
 -1      2555 7.93223E+00 6.62558E+00 3.11765E+00-1.36857E-01 3.14778E-02-2.90365E-02
 -1      2556 5.95584E+00 4.61869E+00 1.91379E+00-7.27007E-02 3.06466E-03-2.42496E-03
 -1      2557 6.19670E+00 4.78849E+00 2.05158E+00-9.45534E-02-6.51368E-03-2.17559E-03
 -1      2558 5.80528E+00 4.36189E+00 1.83712E+00-2.08748E-02-1.30504E-03 1.90718E-02
 -1      2559 5.56820E+00 4.22922E+00 1.72187E+00-2.29812E-02 1.46779E-04-1.25770E-02
 -1      2560 5.70781E+00 4.20762E+00 1.73446E+00-1.88672E-02 1.13810E-02-2.37087E-03
 -1      2561 5.93245E+00 4.57347E+00 1.92482E+00-4.34182E-02-1.52232E-02 1.35245E-02
 -1      2562 6.54633E+00 4.97049E+00 2.21906E+00-3.22705E-02-9.47574E-04 5.81273E-03
 -1      2563 6.74203E+00 5.38827E+00 2.41656E+00 1.95847E-02 5.26889E-03 9.02776E-03
 -1      2564 7.28232E+00 6.07845E+00 2.78157E+00-3.84422E-02-2.95338E-03 2.18172E-02
 -1      2565 6.64423E+00 5.14994E+00 2.33313E+00 2.36504E-02-2.94901E-06 3.29128E-02
 -1      2566 5.23364E+00 3.85297E+00 1.51272E+00-4.20789E-02-6.73280E-04-2.74758E-02
 -1      2567 5.30081E+00 3.99767E+00 1.57182E+00 7.44487E-04 1.29355E-03-1.13693E-02
 -1      2568 5.14042E+00 3.83923E+00 1.49134E+00 1.12342E-02 5.82227E-03-1.26068E-02
 -1      2569 5.48944E+00 4.20125E+00 1.70113E+00-1.37315E-02-2.11725E-03-4.40976E-04
 -1      2570 5.71069E+00 4.39570E+00 1.84126E+00-3.10888E-02-9.45037E-03 4.52598E-03
 -1      2571 7.50614E+00 6.29410E+00 2.93038E+00-4.80422E-02-2.17628E-02 2.57695E-02
 -1      2572 7.94553E+00 6.69829E+00 3.14200E+00-8.97843E-02-1.46617E-02 3.98489E-02
 -1      2573 9.02847E+00 7.40496E+00 3.70068E+00-5.18615E-02 6.42752E-04-4.01037E-02
 -1      2574 8.51027E+00 7.19267E+00 3.46972E+00-1.44482E-01 5.98772E-04 3.59060E-02
 -1      2575 9.45088E+00 7.85697E+00 3.94336E+00-1.26396E-01 7.96100E-03 4.49987E-02
 -1      2576 8.47969E+00 7.11557E+00 3.42766E+00-2.21754E-01 1.46762E-02-1.00074E-02
 -1      2577 9.02357E+00 7.12388E+00 3.63609E+00-1.58453E-01-2.53449E-02 9.75760E-02
 -1      2578 7.44223E+00 6.07076E+00 2.84749E+00-1.13889E-01 8.69816E-04 3.42138E-02
 -1      2579 8.10166E+00 6.55615E+00 3.24118E+00-2.93750E-02-1.37911E-02-1.66319E-02
 -1      2580 6.76516E+00 5.42107E+00 2.47461E+00-6.36420E-02 6.34950E-03 2.05173E-02
 -1      2581 7.08573E+00 5.74575E+00 2.67173E+00-1.22399E-01 8.28028E-03 2.42275E-02
 -1      2582 6.40975E+00 4.89424E+00 2.24166E+00 2.86582E-02 1.88142E-03-2.53838E-02
 -1      2583 8.23045E+00 6.75239E+00 3.30108E+00 5.62182E-02-1.21145E-02-1.19860E-02
 -1      2584 8.70547E+00 7.09248E+00 3.55725E+00 6.18346E-02-3.22853E-02 2.18715E-02
 -1      2585 9.16927E+00 7.56467E+00 3.83011E+00-1.85529E-02-8.33239E-03-6.71391E-03
 -1      2586 9.72951E+00 8.39195E+00 4.28498E+00-1.62689E-01-3.89897E-03 5.85740E-03
 -1      2587 9.50748E+00 8.13693E+00 4.06911E+00-1.42026E-01-8.88582E-03 7.09002E-02
 -1      2588 6.86643E+00 5.47331E+00 2.52019E+00-1.09114E-01 1.00949E-02 5.18437E-02
 -1      2589 7.53830E+00 6.05863E+00 2.88137E+00-1.51453E-01 2.02984E-02 2.87860E-02
 -1      2590 7.86088E+00 6.12244E+00 3.07279E+00-1.92215E-01 4.40279E-02-9.88380E-03
 -1      2591 8.28932E+00 6.58107E+00 3.20516E+00-1.95058E-01-1.98555E-02-1.50883E-02
 -1      2592 8.70768E+00 7.12865E+00 3.52837E+00 1.93596E-02-8.93793E-03-1.29820E-01
 -1      2593 8.28947E+00 6.84833E+00 3.32218E+00 1.46316E-02-3.39078E-03-6.80021E-03
 -1      2594 8.96332E+00 7.69898E+00 3.80792E+00-4.50370E-02-7.58845E-03-2.07184E-02
 -1      2595 6.39380E+00 5.05329E+00 2.22003E+00-6.09646E-02-4.23898E-03 2.65203E-02
 -1      2596 6.62726E+00 5.31889E+00 2.39086E+00-1.06081E-01 4.18153E-03 5.94602E-04
 -1      2597 6.24157E+00 4.62747E+00 2.07698E+00-5.53111E-03-3.52459E-03-3.73631E-02
 -1      2598 6.30024E+00 4.79183E+00 2.13475E+00 1.22637E-02-1.00197E-02 2.90522E-02
 -1      2599 6.09700E+00 4.69793E+00 2.05187E+00-8.48269E-03-5.06781E-03-6.85088E-03
 -1      2600 8.25333E+00 7.00450E+00 3.13148E+00-1.91557E-01-3.65785E-02 3.39554E-02
 -1      2601 8.44480E+00 6.96681E+00 3.16728E+00-1.20943E-01-3.96798E-02 6.62530E-02
 -1      2602 8.31789E+00 7.11548E+00 3.22986E+00-2.33722E-01-3.40524E-02 6.72421E-02
 -1      2603 9.55309E+00 7.69771E+00 3.74872E+00-2.44235E-01-3.55425E-02 1.11540E-01
 -1      2604 8.62273E+00 7.17418E+00 3.36558E+00-1.48519E-01 4.42008E-02-1.05163E-02
 -1      2605 7.68580E+00 6.30516E+00 2.62479E+00-1.46309E-01-1.05587E-02 7.39292E-02
 -1      2606 6.97828E+00 5.70135E+00 2.22980E+00-8.06974E-02 8.64344E-03 4.95883E-02
 -1      2607 8.43188E+00 6.89931E+00 3.06948E+00-2.29830E-01-1.30422E-02 9.19416E-02
 -1      2608 8.15551E+00 6.69362E+00 2.89894E+00-2.30502E-01 2.10943E-02 7.60954E-02
 -1      2609 9.56746E+00 7.73826E+00 3.66206E+00-2.59207E-01-1.06769E-02 1.54561E-01
 -1      2610 8.72974E+00 7.16399E+00 3.25289E+00-2.43239E-01-3.14115E-02 5.96825E-02
 -1      2611 9.16015E+00 7.40016E+00 3.49789E+00-3.41175E-01-1.99553E-02 7.57940E-02
 -1      2612 6.91689E+00 5.56099E+00 2.22476E+00-5.06238E-02 4.47601E-03 8.14961E-02
 -1      2613 6.48963E+00 5.21522E+00 1.97927E+00-9.41839E-03 7.85587E-03 4.43368E-02
 -1      2614 6.35183E+00 4.82833E+00 1.81149E+00-1.26800E-01 2.86167E-03-2.12615E-02
 -1      2615 6.19171E+00 4.84917E+00 1.78364E+00 3.19865E-02-3.81899E-04 1.45060E-02
 -1      2616 5.93924E+00 4.39327E+00 1.58589E+00-4.54385E-02 6.77584E-03-2.35640E-02
 -1      2617 7.31597E+00 6.06519E+00 2.51308E+00-6.27518E-02 2.55295E-03 3.54061E-02
 -1      2618 6.86384E+00 5.49592E+00 2.15800E+00-3.05617E-02-1.31441E-02-4.00344E-02
 -1      2619 8.03257E+00 6.71560E+00 2.89852E+00-1.45105E-01 2.06807E-02 3.90692E-03
 -1      2620 7.95182E+00 6.66616E+00 2.84578E+00-1.31951E-01-4.65230E-03 4.80963E-02
 -1      2621 8.91021E+00 7.09497E+00 3.21743E+00-1.18306E-01 1.82060E-02-5.85603E-02
 -1      2622 6.87453E+00 5.60278E+00 2.08596E+00-6.21603E-02-3.73490E-03 5.70434E-03
 -1      2623 6.46411E+00 5.11784E+00 1.87099E+00-3.09941E-03-1.23516E-02-2.30099E-02
 -1      2624 6.08355E+00 4.67077E+00 1.61021E+00 4.38532E-02 3.52501E-03 2.23329E-03
 -1      2625 6.29709E+00 4.75914E+00 1.71857E+00-8.53051E-02-1.20331E-02 6.16137E-03
 -1      2626 5.89306E+00 4.47426E+00 1.56762E+00-7.30774E-02 7.52775E-03-4.20378E-02
 -1      2627 9.10209E+00 7.00694E+00 3.28412E+00-1.91798E-01 6.44844E-03 1.27846E-01
 -1      2628 8.01757E+00 6.62838E+00 2.78258E+00-1.90508E-01-1.24067E-02 4.07585E-02
 -1      2629 8.18150E+00 6.47026E+00 2.73555E+00-8.65387E-02-5.28720E-02 1.22358E-01
 -1      2630 7.38435E+00 6.04515E+00 2.37737E+00-7.76099E-02-7.94975E-04-3.15845E-04
 -1      2631 6.77205E+00 5.53503E+00 2.04354E+00-1.58567E-02 1.47563E-02 1.02776E-02
 -1      2632 7.65839E+00 5.86703E+00 2.88001E+00-1.75849E-01-1.54567E-02 2.26266E-02
 -1      2633 8.20190E+00 6.40765E+00 3.25390E+00-1.78280E-01-8.37632E-03 1.52835E-02
 -1      2634 6.94589E+00 5.56459E+00 2.53353E+00-1.33122E-01 7.03030E-03-1.65489E-02
 -1      2635 7.29244E+00 5.80335E+00 2.70720E+00-1.57441E-01 6.55395E-03-1.93481E-02
 -1      2636 6.39313E+00 5.07622E+00 2.24551E+00-6.18777E-02-1.15687E-02-4.78828E-04
 -1      2637 8.18678E+00 6.85130E+00 3.38497E+00 4.38739E-02 3.78838E-02 6.77127E-02
 -1      2638 8.76140E+00 7.31424E+00 3.64175E+00 5.06968E-03-3.73934E-03 9.31704E-02
 -1      2639 9.54947E+00 8.28850E+00 4.15337E+00 1.61673E-02 7.37513E-03 5.25682E-02
 -1      2640 8.79076E+00 7.45665E+00 3.74053E+00 1.40964E-01-1.04468E-02-2.79559E-03
 -1      2641 9.44738E+00 8.17001E+00 4.10451E+00 2.95906E-02-7.66484E-03-2.64822E-02
 -1      2642 5.84997E+00 4.66719E+00 5.32322E-01 5.77473E-02 5.00957E-03-2.73826E-01
 -1      2643 5.62161E+00 4.19692E+00 4.39652E-01 7.51565E-03-1.63779E-03-3.12907E-01
 -1      2644 5.08335E+00 3.72467E+00 2.28132E-01 6.04466E-02 1.36318E-03-3.41534E-01
 -1      2645 5.33983E+00 3.90898E+00 3.95079E-01-4.79397E-02-2.31481E-02-2.88460E-01
 -1      2646 4.81847E+00 3.60154E+00 3.25759E-01-2.02088E-02 3.67714E-03-3.21471E-01
 -1      2647 6.29212E+00 5.14694E+00 7.25610E-01 1.13231E-02 1.56463E-02-2.50440E-01
 -1      2648 5.83822E+00 4.58000E+00 4.73546E-01-5.28746E-02 1.18659E-02-3.50743E-01
 -1      2649 6.87226E+00 5.69380E+00 9.24658E-01-6.19475E-02 2.28429E-02-2.15628E-01
 -1      2650 6.86818E+00 5.39806E+00 8.22509E-01 3.23970E-02-1.33690E-02-1.13739E-01
 -1      2651 7.03846E+00 5.83792E+00 1.15833E+00-6.67364E-02-1.88439E-03-8.22629E-02
 -1      2652 7.92886E+00 6.43670E+00 1.41533E+00-1.30903E-01 1.23673E-02-7.27324E-02
 -1      2653 7.39914E+00 6.13421E+00 1.36242E+00-8.52909E-02 4.25337E-03-1.04803E-01
 -1      2654 9.31755E+00 8.13436E+00 3.81758E+00-2.18009E-01 1.40785E-02 2.61415E-02
 -1      2655 9.27527E+00 7.64636E+00 3.76954E+00-4.79722E-02 1.86708E-03 7.67773E-02
 -1      2656 9.70713E+00 8.29249E+00 4.17649E+00-1.60992E-01 2.40048E-02 9.21184E-02
 -1      2657 8.86104E+00 7.02317E+00 3.43826E+00 9.45137E-02-1.10676E-02 8.79390E-02
 -1      2658 8.82395E+00 7.03709E+00 3.39862E+00 5.48939E-02 2.52153E-02 2.35295E-02
 -1      2659 8.92243E+00 7.09383E+00 2.53795E+00-1.86709E-01 1.04306E-01 3.40052E-02
 -1      2660 8.58802E+00 7.13988E+00 2.29479E+00-1.80247E-01 1.84826E-02 1.03103E-01
 -1      2661 9.93364E+00 7.62727E+00 2.82469E+00-2.00922E-01 3.04491E-02-7.03366E-03
 -1      2662 8.44164E+00 7.15214E+00 2.24399E+00-4.89897E-02-5.24795E-03 6.28352E-02
 -1      2663 8.58129E+00 7.34917E+00 2.23829E+00-1.31349E-01-2.95699E-02 1.04954E-01
 -1      2664 9.04929E+00 7.18211E+00 2.65266E+00-2.14002E-01-6.91885E-02 2.76157E-02
 -1      2665 9.58350E+00 7.92971E+00 3.07314E+00-4.09166E-01 2.41227E-02 4.69397E-02
 -1      2666 8.17126E+00 6.75234E+00 2.22046E+00-1.39680E-01-1.75567E-03-1.55953E-02
 -1      2667 9.08883E+00 7.35965E+00 2.67399E+00-2.88924E-01 3.44360E-02 4.37910E-02
 -1      2668 7.43267E+00 6.12494E+00 1.88791E+00-8.90001E-02 7.34020E-03-1.46289E-02
 -1      2669 3.29010E+00 2.13094E+00 4.11048E-02 2.88447E-02-1.11387E-03-3.25596E-01
 -1      2670 3.46171E+00 2.18396E+00 9.79811E-02-2.62874E-02 1.12684E-02-3.14617E-01
 -1      2671 3.31677E+00 2.01561E+00 1.09515E-01-4.01469E-02 3.98561E-03-3.29748E-01
 -1      2672 3.53161E+00 2.23612E+00 1.33277E-01-5.38945E-02 3.23506E-03-3.23469E-01
 -1      2673 3.64363E+00 2.32141E+00 1.57976E-01-6.80756E-02 6.61471E-03-2.91997E-01
 -1      2674 9.65994E+00 7.67593E+00 3.63822E+00-1.54100E-01 9.18651E-03 1.12470E-01
 -1      2675 9.47693E+00 7.53617E+00 3.56887E+00-1.56470E-01 4.32019E-02 1.27314E-01
 -1      2676 9.59840E+00 8.04504E+00 3.72872E+00 3.94669E-02 3.62301E-02 1.03408E-01
 -1      2677 1.05872E+01 8.92213E+00 4.28339E+00-1.03783E-01 4.07437E-02 2.26232E-01
 -1      2678 9.18524E+00 7.63823E+00 3.47794E+00 7.26058E-02 1.70952E-02 2.19556E-02
 -1      2679 1.00820E+01 8.97738E+00 4.15416E+00-1.02533E-01 3.67580E-02 9.48471E-02
 -1      2680 8.89196E+00 7.52279E+00 3.40647E+00 6.34985E-02-1.04588E-02 2.22534E-02
 -1      2681 9.91138E+00 8.75549E+00 4.08119E+00-1.58023E-01-8.43875E-03 3.28030E-02
 -1      2682 9.60022E+00 7.79752E+00 3.57844E+00-9.43070E-02 1.60601E-02-8.93048E-02
 -1      2683 9.32749E+00 7.98797E+00 3.49592E+00-2.14412E-01-2.54442E-02 5.09196E-02
 -1      2684 8.55758E+00 7.08074E+00 3.05222E+00-6.50536E-02-2.63179E-02 7.22789E-02
 -1      2685 7.94096E+00 6.28599E+00 2.58184E+00 1.12391E-01-1.59020E-02 8.18008E-02
 -1      2686 1.01313E+01 8.44765E+00 4.10828E+00-9.21311E-02-1.57285E-02-2.39590E-02
 -1      2687 9.84452E+00 8.51993E+00 4.06435E+00-1.28067E-01-4.04522E-02 1.36719E-01
 -1      2688 1.11552E+01 9.71593E+00 4.70002E+00-3.40926E-01-3.19042E-02 2.33471E-01
 -1      2689 9.81682E+00 8.30707E+00 3.87460E+00-2.22815E-01-2.54198E-02 1.46577E-01
 -1      2690 9.76962E+00 8.23699E+00 3.96154E+00-2.58850E-01 1.68074E-02 1.30996E-01
 -1      2691 1.05555E+01 8.47539E+00 4.33879E+00-3.34447E-01 1.57197E-02 2.11154E-02
 -1      2692 1.20627E+01 9.75943E+00 5.04651E+00-3.63334E-01-1.04346E-01-1.41391E-01
 -1      2693 1.00082E+01 7.71570E+00 3.98760E+00-1.31939E-01-6.82144E-03 1.51966E-01
 -1      2694 1.11953E+01 8.89584E+00 4.71672E+00-3.30086E-01 1.23083E-02 1.20851E-01
 -1      2695 8.61224E+00 7.31535E+00 3.42589E+00-8.13707E-04 7.70078E-02 3.66407E-02
 -1      2696 1.08133E+01 8.98634E+00 4.82811E+00-2.19814E-01 4.22404E-02-9.46772E-02
 -1      2697 1.02417E+01 8.89387E+00 4.46291E+00-2.61201E-01-2.79203E-02 3.13764E-02
 -1      2698 1.11776E+01 9.68301E+00 5.05656E+00-3.64318E-01 2.13295E-02 6.65676E-02
 -1      2699 9.89329E+00 8.57539E+00 4.28442E+00-1.75403E-01 1.32093E-02 4.96443E-02
 -1      2700 1.04894E+01 9.11935E+00 4.61081E+00-3.00360E-01 1.29077E-02 2.63234E-02
 -1      2701 1.17022E+01 1.01396E+01 5.20380E+00-4.44853E-01-2.13628E-02-6.72126E-03
 -1      2702 9.74196E+00 8.07949E+00 4.14845E+00-3.73756E-02 8.66555E-03 1.01164E-01
 -1      2703 6.93242E+00 5.51028E+00 2.55267E+00-3.29212E-02-7.70742E-03 3.43362E-04
 -1      2704 7.59752E+00 6.10043E+00 2.90579E+00-8.34692E-02 4.29332E-03 1.72630E-02
 -1      2705 8.03056E+00 6.56897E+00 3.18703E+00 4.29195E-02 1.28815E-02 1.12683E-01
 -1      2706 8.76268E+00 7.46422E+00 3.69652E+00-7.63673E-03 1.73642E-02 5.52497E-02
 -1      2707 7.70800E+00 6.41950E+00 3.01424E+00 1.30757E-02-1.01199E-03 1.53238E-03
 -1      2708 6.52929E+00 5.06083E+00 2.31339E+00-4.52199E-02 1.07259E-02-1.49302E-02
 -1      2709 6.66890E+00 5.24224E+00 2.42439E+00-1.07555E-03 6.01092E-03-1.42697E-03
 -1      2710 6.16000E+00 4.88773E+00 2.14939E+00-6.72844E-02-7.57343E-03-1.03639E-02
 -1      2711 6.06255E+00 4.72771E+00 2.07908E+00-6.88155E-02 3.62267E-03 5.34504E-03
 -1      2712 5.97154E+00 4.68556E+00 2.02164E+00-3.13029E-02-8.84624E-03-1.57788E-02
 -1      2713 9.26161E+00 7.85748E+00 3.95481E+00-1.23735E-01-2.43051E-03 6.47340E-02
 -1      2714 9.69881E+00 8.37800E+00 4.27822E+00-1.87925E-01 1.18143E-02 1.52139E-03
 -1      2715 1.03855E+01 8.97508E+00 4.58582E+00-2.57136E-01 1.16875E-04 8.94752E-02
 -1      2716 1.06148E+01 9.34911E+00 4.84905E+00-1.73850E-01-4.92721E-03-3.40121E-04
 -1      2717 1.08854E+01 9.15876E+00 4.90407E+00-3.04923E-01 5.11925E-02-8.66062E-02
 -1      2718 1.03301E+01 8.99123E+00 4.58367E+00-2.97543E-01 1.59415E-04 4.58220E-02
 -1      2719 1.18286E+01 9.52258E+00 5.15322E+00-3.99438E-01 2.28660E-02 5.55331E-02
 -1      2720 8.78159E+00 7.50609E+00 3.69094E+00-3.57819E-02 1.83374E-03 4.66715E-02
 -1      2721 1.00023E+01 8.05443E+00 4.26426E+00-3.25612E-02 3.93656E-02 7.60745E-03
 -1      2722 8.00677E+00 6.78171E+00 3.21456E+00-3.29563E-02-1.09241E-02-1.45602E-02
 -1      2723 8.30445E+00 7.13652E+00 3.50136E+00-4.49315E-02-1.17546E-02-2.82460E-02
 -1      2724 7.68267E+00 6.22642E+00 2.97885E+00-9.83018E-02-1.68191E-02 2.52613E-02
 -1      2725 1.09135E+01 9.54676E+00 4.84952E+00-4.98533E-01 3.57447E-02-2.38278E-02
 -1      2726 1.04458E+01 9.26850E+00 4.66709E+00-4.52503E-01 4.27045E-02 4.42142E-02
 -1      2727 1.20889E+01 9.48143E+00 5.20792E+00-5.18140E-01-3.23647E-02 2.01042E-01
 -1      2728 1.01075E+01 8.82149E+00 4.42138E+00-3.60254E-01 6.29797E-03 7.39663E-02
 -1      2729 1.01316E+01 8.81546E+00 4.36977E+00-3.69340E-01 1.53053E-02-1.37923E-02
 -1      2730 1.15864E+01 9.88545E+00 5.09658E+00-4.95523E-01 8.94064E-03 5.15407E-02
 -1      2731 1.26520E+01 1.03868E+01 5.65795E+00-7.12936E-01 2.79153E-02-9.66975E-02
 -1      2732 1.02561E+01 8.90310E+00 4.46797E+00-2.43196E-01-1.04205E-02 1.13951E-01
 -1      2733 1.18901E+01 1.02165E+01 5.33432E+00-3.86523E-01-4.09081E-02 1.77052E-01
 -1      2734 9.63316E+00 8.37951E+00 4.13153E+00-1.42289E-01-2.82420E-02 6.99263E-02
 -1      2735 1.08842E+01 9.25632E+00 4.89485E+00 2.84985E-03 5.13462E-02 5.62968E-02
 -1      2736 1.26199E+01 1.14964E+01 6.10017E+00-3.46784E-01 1.37580E-02 3.03672E-02
 -1      2737 1.10542E+01 9.39918E+00 5.07264E+00-5.23400E-02 1.41104E-02 3.26073E-02
 -1      2738 1.20149E+01 1.03913E+01 5.56860E+00-2.04876E-01-3.42190E-02 5.51068E-02
 -1      2739 9.76502E+00 8.39910E+00 4.25847E+00-1.60054E-01 1.27117E-02 6.95538E-03
 -1      2740 1.07168E+01 8.66785E+00 4.62376E+00-1.93007E-01 2.24797E-02 1.01610E-01
 -1      2741 1.13552E+01 9.73114E+00 5.18733E+00-6.29604E-02 4.54678E-02 8.53675E-03
 -1      2742 1.04907E+01 9.25876E+00 4.81459E+00-2.05866E-01-2.89151E-03 6.78553E-02
 -1      2743 1.02053E+01 8.80088E+00 4.49301E+00-2.74237E-01 1.20549E-02-6.82429E-02
 -1      2744 1.13781E+01 1.01272E+01 5.20416E+00-3.18607E-01-1.49795E-02 2.53144E-02
 -1      2745 1.21176E+01 1.06888E+01 5.63074E+00-4.93374E-01-1.57787E-02 4.87716E-02
 -1      2746 1.23926E+01 1.04604E+01 5.72933E+00-4.85291E-01 2.86850E-02-3.35234E-02
 -1      2747 1.01671E+01 8.29058E+00 4.36166E+00 8.02090E-02 1.73473E-02 1.53036E-02
 -1      2748 1.04834E+01 8.88545E+00 4.65683E+00-5.37336E-02 2.73529E-02 7.88107E-03
 -1      2749 1.20932E+01 1.05331E+01 5.63418E+00-4.58314E-01 5.54665E-02 1.83668E-02
 -1      2750 1.12861E+01 9.55569E+00 5.10152E+00-3.23528E-01 5.25617E-02 8.07063E-03
 -1      2751 1.22420E+01 1.01325E+01 5.56721E+00-4.90351E-01 2.17655E-02-2.16210E-02
 -1      2752 1.06986E+01 9.04649E+00 3.74063E+00-5.23655E-01 5.38827E-02 7.34550E-02
 -1      2753 1.07939E+01 9.16756E+00 3.61993E+00-7.23360E-01-4.42383E-03 1.95567E-01
 -1      2754 1.05502E+01 8.65863E+00 3.44528E+00-5.71899E-01-8.66780E-02 2.11779E-01
 -1      2755 1.06374E+01 8.48532E+00 3.49547E+00-3.63614E-01 6.22253E-02-4.75216E-02
 -1      2756 1.24635E+01 9.61779E+00 4.14943E+00-1.04154E+00-6.85721E-02 3.81885E-01
 -1      2757 8.71418E+00 7.09096E+00 2.58763E+00 9.38635E-02 2.32178E-03 1.00342E-01
 -1      2758 9.94554E+00 8.05431E+00 3.14465E+00-3.81004E-02 9.55316E-03 2.25072E-01
 -1      2759 1.06072E+01 9.26312E+00 3.78579E+00 9.09934E-02-5.32732E-02 1.82470E-01
 -1      2760 1.02906E+01 8.91666E+00 3.56770E+00 1.40809E-01 2.12992E-02 2.41263E-01
 -1      2761 1.16185E+01 1.05503E+01 4.52461E+00-2.35076E-01 1.34140E-02 2.08553E-01
 -1      2762 1.16864E+01 1.02491E+01 4.32164E+00-8.35062E-01 2.38180E-02 1.24551E-01
 -1      2763 1.09834E+01 9.01861E+00 3.50529E+00-4.26921E-01 1.01537E-01 1.13758E-01
 -1      2764 1.10550E+01 9.22633E+00 3.49589E+00-3.99474E-01-3.36228E-03 1.83826E-01
 -1      2765 9.76843E+00 8.22036E+00 2.78599E+00-2.14443E-01 2.46270E-02 1.41626E-01
 -1      2766 8.67396E+00 7.44117E+00 2.26182E+00-1.90419E-01 2.30640E-03 6.14336E-02
 -1      2767 5.03513E+00 3.69276E+00 1.42563E+00-6.70793E-02-1.31755E-02 1.28597E-03
 -1      2768 4.84980E+00 3.51804E+00 1.32762E+00-3.67285E-02-1.04141E-02-2.08113E-02
 -1      2769 5.52830E+00 4.06033E+00 1.63490E+00-8.18490E-02-1.39384E-02 1.81514E-02
 -1      2770 5.11960E+00 3.73971E+00 1.41277E+00-8.98535E-02-1.38085E-02-1.35251E-02
 -1      2771 4.80888E+00 3.37858E+00 1.25123E+00 1.57065E-02-1.23356E-03-3.20045E-02
 -1      2772 4.93133E+00 3.58012E+00 1.36429E+00 2.93013E-02 1.34897E-03-2.70059E-03
 -1      2773 4.63241E+00 3.21822E+00 1.15882E+00 4.23057E-03-2.08618E-03-2.36044E-02
 -1      2774 4.52279E+00 3.04717E+00 1.07824E+00-2.97930E-02-5.04277E-03-1.85016E-02
 -1      2775 4.53620E+00 3.11235E+00 1.11102E+00 4.85087E-03-1.56506E-02-3.56154E-03
 -1      2776 1.01180E+01 8.20317E+00 4.28050E+00-6.01053E-02-3.14668E-02 5.72212E-03
 -1      2777 1.07885E+01 9.11195E+00 4.76598E+00-1.07291E-01 1.44335E-02-4.58598E-02
 -1      2778 8.92875E+00 7.63990E+00 3.79743E+00-6.03617E-02 1.54882E-02-4.93678E-02
 -1      2779 9.55484E+00 8.15193E+00 4.13648E+00-2.25056E-01 8.02916E-03 1.51613E-02
 -1      2780 8.19369E+00 6.94894E+00 3.38355E+00-9.72836E-02-3.09382E-03-5.42181E-03
 -1      2781 5.71861E+00 4.52616E+00 3.29949E-01-1.11881E-01 3.10939E-03-2.87897E-01
 -1      2782 5.26585E+00 4.11785E+00 2.82409E-01-2.92953E-02 1.83755E-02-3.42032E-01
 -1      2783 4.88290E+00 3.67104E+00 9.69137E-02-1.39836E-02 5.07479E-03-3.87521E-01
 -1      2784 4.93000E+00 3.62794E+00 1.83952E-01 5.33850E-02 1.38783E-02-3.53262E-01
 -1      2785 4.83757E+00 3.45829E+00 1.96728E-01-3.84382E-03 7.78332E-03-3.61403E-01
 -1      2786 7.46116E+00 6.07234E+00 1.06041E+00-1.71583E-03 9.28113E-03-4.83139E-02
 -1      2787 6.73990E+00 5.28452E+00 5.71627E-01 6.88909E-02-1.75858E-02-2.04144E-01
 -1      2788 6.55800E+00 5.30192E+00 4.31059E-01 5.53789E-02 1.46596E-02-2.69993E-01
 -1      2789 6.54857E+00 4.89769E+00 4.32013E-01-1.32906E-01 1.62476E-02-3.10427E-01
 -1      2790 5.78403E+00 4.58572E+00 2.57427E-01-1.89047E-01 2.42925E-02-4.08238E-01
 -1      2791 8.59805E+00 6.87228E+00 1.62019E+00-1.54086E-01 2.05853E-02-2.08091E-02
 -1      2792 8.28165E+00 6.94936E+00 1.41084E+00-2.17793E-01 4.61955E-03-1.02491E-01
 -1      2793 8.52456E+00 6.65650E+00 1.59440E+00-1.39605E-01 5.21603E-03-2.78494E-02
 -1      2794 9.67036E+00 7.62306E+00 2.16624E+00-3.81996E-01 1.59609E-03 1.37545E-02
 -1      2795 8.93319E+00 6.94007E+00 1.95594E+00-2.32645E-01 1.02886E-01-6.05188E-02
 -1      2796 9.66531E+00 7.64814E+00 1.92430E+00-3.28708E-01 1.46024E-02-6.19421E-02
 -1      2797 8.32007E+00 7.05983E+00 1.25570E+00-2.57664E-01 5.68858E-03-1.03961E-01
 -1      2798 8.37742E+00 7.16832E+00 1.19286E+00-1.99836E-01-4.02350E-04-2.18561E-01
 -1      2799 7.33701E+00 6.29108E+00 8.08373E-01-3.56496E-02 4.28961E-03-2.66116E-01
 -1      2800 6.58376E+00 5.45311E+00 4.40582E-01 8.71938E-02-1.47746E-02-3.86184E-01
 -1      2801 9.79282E+00 8.31530E+00 2.46290E+00 1.90660E-01-3.13880E-02 7.61858E-02
 -1      2802 9.75041E+00 8.17657E+00 2.34100E+00 1.30683E-01-5.08251E-02 1.46595E-01
 -1      2803 9.95890E+00 8.25544E+00 2.29367E+00-1.77281E-01-4.60598E-02 3.81660E-02
 -1      2804 1.00684E+01 8.63793E+00 2.21134E+00-3.15409E-01-3.74613E-03 3.57354E-02
 -1      2805 1.12386E+01 1.01271E+01 3.37521E+00-1.88693E-01-3.55729E-02 2.66861E-01
 -1      2806 1.00105E+01 8.28734E+00 2.59883E+00-1.58392E-01-2.17167E-02 9.20149E-02
 -1      2807 1.18246E+01 9.82891E+00 3.56456E+00-2.50907E-01 5.06807E-03 3.87661E-02
 -1      2808 9.92709E+00 7.81373E+00 2.52617E+00-4.21386E-01-3.00976E-03 3.08349E-02
 -1      2809 9.81000E+00 8.38249E+00 2.67266E+00-2.56604E-01 1.31598E-02 1.89046E-01
 -1      2810 9.13777E+00 7.20561E+00 2.13154E+00-2.42993E-01-7.30307E-02 4.27247E-02
 -1      2811 9.30274E+00 7.84086E+00 1.49509E+00-2.58862E-01 9.17081E-03-1.49003E-01
 -1      2812 8.00523E+00 6.86316E+00 8.74265E-01-1.05113E-01 3.11183E-02-2.83034E-01
 -1      2813 1.02914E+01 8.57161E+00 2.05367E+00-4.16791E-01 4.38968E-02 2.40353E-04
 -1      2814 1.02473E+01 8.34480E+00 1.68383E+00-2.54492E-01-4.60570E-02-1.26376E-01
 -1      2815 1.17792E+01 1.04053E+01 3.12796E+00-6.11331E-01 3.64021E-02 1.05384E-01
 -1      2816 1.01923E+01 8.84199E+00 2.24886E+00-3.09454E-01 7.38842E-02 6.53222E-02
 -1      2817 1.13543E+01 9.31762E+00 2.64168E+00-4.04578E-01 2.92572E-02 3.31438E-01
 -1      2818 1.10352E+01 9.58061E+00 4.67119E+00-2.03739E-01-8.10063E-03-1.24329E-03
 -1      2819 1.09333E+01 9.73071E+00 4.53417E+00-2.96011E-01-2.75540E-02 7.02724E-02
 -1      2820 1.14249E+01 9.98697E+00 4.89883E+00 3.65639E-02 3.32547E-02 1.46101E-01
 -1      2821 1.07187E+01 9.36522E+00 4.55787E+00 7.74169E-02 1.76618E-02 1.69711E-01
 -1      2822 1.21741E+01 1.09831E+01 5.46311E+00-1.85933E-01 2.19558E-03 7.13177E-02
 -1      2823 1.06265E+01 8.92636E+00 4.11734E+00-3.46061E-01 2.30019E-02 7.66078E-02
 -1      2824 9.44710E+00 8.07760E+00 3.53693E+00-2.77520E-01 1.53244E-02 9.34646E-02
 -1      2825 1.11254E+01 9.90751E+00 4.61642E+00-3.49800E-01 4.59166E-02 1.04091E-01
 -1      2826 1.13993E+01 9.64494E+00 4.67881E+00-2.74070E-01 3.68810E-02 2.28842E-01
 -1      2827 1.25961E+01 1.11601E+01 5.39993E+00-5.08796E-01 1.89121E-03 1.56380E-01
 -1      2828 9.64684E+00 7.88932E+00 3.66631E+00-2.00612E-01-2.30784E-02 1.33338E-01
 -1      2829 8.62365E+00 7.22199E+00 3.15005E+00-6.42067E-02-1.32941E-02 4.88238E-02
 -1      2830 8.10913E+00 6.53934E+00 2.74180E+00-1.84714E-02 9.48570E-03 4.56973E-02
 -1      2831 7.96587E+00 6.40664E+00 2.64060E+00 7.97849E-02-6.86262E-04 7.93924E-02
 -1      2832 7.72640E+00 5.92682E+00 2.37403E+00-5.10069E-03 2.43886E-02 6.15218E-02
 -1      2833 1.00639E+01 8.59268E+00 4.01440E+00-2.04678E-01-8.56851E-03 1.29837E-01
 -1      2834 9.30381E+00 7.46041E+00 3.35049E+00 4.44364E-02-3.27224E-02 5.01268E-02
 -1      2835 1.13410E+01 9.34649E+00 4.61839E+00-2.92361E-01 5.49813E-02 1.10763E-02
 -1      2836 1.07337E+01 9.40284E+00 4.36114E+00-3.56254E-01-6.03127E-02 2.14790E-01
 -1      2837 1.29086E+01 1.13677E+01 5.66941E+00-4.23829E-01 2.64415E-02 1.76201E-01
 -1      2838 1.11146E+01 9.31677E+00 4.57348E+00-2.49897E-02 4.50606E-02 1.31574E-01
 -1      2839 1.20815E+01 1.06504E+01 5.22622E+00-2.41141E-01 1.87679E-02 3.56250E-02
 -1      2840 9.50784E+00 7.52091E+00 3.34717E+00 7.17437E-02-3.67716E-03 4.98243E-02
 -1      2841 9.07538E+00 7.08107E+00 3.05206E+00 8.61607E-04-2.20965E-02-1.38246E-03
 -1      2842 7.97384E+00 6.82059E+00 2.70873E+00-3.81561E-02-2.12717E-03 5.41337E-02
 -1      2843 8.13022E+00 6.86837E+00 2.73801E+00-6.93626E-02 4.06306E-04 4.10625E-02
 -1      2844 7.53935E+00 6.25395E+00 2.47114E+00-1.08052E-02-1.14491E-03 6.77695E-02
 -1      2845 1.02120E+01 8.73500E+00 3.93895E+00-1.31901E-01 1.39190E-02 5.99162E-02
 -1      2846 9.53316E+00 7.73421E+00 3.42919E+00 9.38027E-02 2.41471E-02 1.12617E-01
 -1      2847 1.09247E+01 9.34310E+00 4.29969E+00-4.10512E-01-7.30466E-03 1.07326E-01
 -1      2848 1.11845E+01 9.64902E+00 4.56043E+00-2.96289E-01-5.60996E-04 3.99742E-03
 -1      2849 1.22390E+01 1.00954E+01 4.89342E+00-6.25947E-01-4.11144E-02 2.40649E-01
 -1      2850 9.33683E+00 7.83031E+00 3.37187E+00-2.51463E-02 8.60571E-03 1.60565E-01
 -1      2851 9.03717E+00 7.20851E+00 3.08742E+00-4.98598E-02 5.20884E-03 1.80262E-01
 -1      2852 8.39063E+00 7.01667E+00 2.76365E+00-1.04554E-01-1.35823E-02 1.23199E-01
 -1      2853 8.11959E+00 6.90960E+00 2.72535E+00-4.66807E-02-2.16845E-02 1.23815E-01
 -1      2854 7.65197E+00 6.47913E+00 2.47508E+00-1.59943E-02-3.76387E-03 7.60355E-02
 -1      2855 1.07486E+01 8.83509E+00 4.02354E+00-1.64344E-01 2.57881E-02 1.67909E-01
 -1      2856 9.40378E+00 7.82370E+00 3.32463E+00-1.31853E-01 1.71751E-02 9.73616E-02
 -1      2857 1.13167E+01 9.85286E+00 4.54045E+00 5.48809E-02-6.09847E-03 1.66915E-01
 -1      2858 1.11695E+01 9.72695E+00 4.43720E+00 8.70312E-02 3.69162E-02 1.61954E-01
 -1      2859 1.17013E+01 1.01445E+01 4.75995E+00-4.10496E-01-1.07838E-01 2.98621E-01
 -1      2860 1.29297E+01 1.13711E+01 5.44477E+00-2.50709E-01-2.59418E-02 1.30245E-01
 -1      2861 1.20052E+01 1.02405E+01 5.08482E+00-4.55240E-01 9.89328E-03-8.19116E-02
 -1      2862 9.65275E+00 7.82865E+00 3.38373E+00-4.18935E-02 2.13444E-02 8.23411E-02
 -1      2863 9.19210E+00 7.29670E+00 3.09005E+00-1.79618E-01 8.89337E-03 2.45312E-02
 -1      2864 8.09749E+00 6.79519E+00 2.62063E+00-1.17871E-01 1.12048E-02 3.43797E-02
 -1      2865 8.24876E+00 6.86174E+00 2.67213E+00-1.53841E-01-1.51658E-03 5.66450E-02
 -1      2866 7.70286E+00 6.46445E+00 2.39310E+00-3.76811E-02-5.17462E-03 6.17004E-02
 -1      2867 1.03239E+01 9.17892E+00 4.01867E+00-6.35137E-02 6.33708E-03 8.41842E-02
 -1      2868 9.56034E+00 8.04112E+00 3.34976E+00 1.02966E-01 1.82686E-02 1.49151E-01
 -1      2869 1.15554E+01 9.87229E+00 4.63112E+00-2.18717E-01 2.46432E-02 7.66059E-02
 -1      2870 1.16401E+01 1.03960E+01 4.70510E+00-2.63647E-01 1.22631E-02 4.29893E-02
 -1      2871 1.26261E+01 1.13833E+01 5.44427E+00-2.56284E-01 2.89967E-02 1.39360E-01
 -1      2872 1.22078E+01 1.05909E+01 5.25850E+00-3.56655E-01 1.51221E-03 1.41273E-01
 -1      2873 1.27675E+01 1.14611E+01 5.73908E+00-3.09409E-01 4.45491E-02 3.23329E-02
 -1      2874 1.13400E+01 9.95940E+00 4.79890E+00-2.57868E-01-2.08799E-02 1.09070E-01
 -1      2875 1.27834E+01 1.11225E+01 5.59960E+00-5.30286E-01-4.29187E-02 9.72806E-02
 -1      2876 1.05821E+01 9.41863E+00 4.44639E+00-1.93509E-01-4.29093E-02 1.20161E-01
 -1      2877 8.61588E+00 6.75349E+00 2.51343E+00-1.07053E-01-1.85511E-02 8.58486E-02
 -1      2878 8.90980E+00 7.37502E+00 2.80011E+00 4.96381E-02-1.75017E-02 1.10694E-01
 -1      2879 7.63061E+00 6.31809E+00 2.07482E+00-9.39921E-02-6.23779E-03 4.64242E-02
 -1      2880 7.79410E+00 6.45771E+00 2.20592E+00-1.06208E-01-1.58918E-03 5.90088E-02
 -1      2881 7.01650E+00 5.72835E+00 1.69646E+00 1.46237E-02 1.27535E-03-2.88480E-02
 -1      2882 9.12224E+00 7.65000E+00 2.93295E+00-2.76764E-02-2.09052E-02 8.11291E-02
 -1      2883 9.85711E+00 8.64189E+00 3.48707E+00-1.06961E-01-8.58604E-03 1.03371E-01
 -1      2884 1.10847E+01 9.52488E+00 4.11403E+00-2.53492E-01-6.25773E-02 2.84139E-01
 -1      2885 1.18605E+01 1.06748E+01 4.64454E+00-2.22932E-01-1.50510E-02 1.65028E-01
 -1      2886 1.11862E+01 9.96821E+00 4.23572E+00-4.43463E-01-4.29620E-03 1.70291E-01
 -1      2887 1.34267E+01 1.20219E+01 6.48627E+00-9.42077E-01 4.08378E-02 8.01886E-03
 -1      2888 1.47112E+01 1.28544E+01 6.99006E+00-1.17508E+00 5.81130E-02 1.27918E-01
 -1      2889 1.17124E+01 9.94808E+00 5.26808E+00-4.96645E-01-3.77911E-02 3.77661E-02
 -1      2890 1.21246E+01 1.05800E+01 5.56098E+00-5.25210E-01 9.43726E-03-1.31774E-01
 -1      2891 1.47069E+01 1.29344E+01 7.06301E+00-1.20364E+00 2.23584E-02-1.54276E-01
 -1      2892 8.02335E+00 6.83038E+00 7.51073E-01-1.18845E-01 1.46977E-02-3.11954E-01
 -1      2893 7.27446E+00 6.24700E+00 5.69610E-01-3.57929E-02 9.25856E-03-3.80338E-01
 -1      2894 6.68114E+00 5.56030E+00 2.88310E-01 2.57524E-02-1.52081E-03-4.55413E-01
 -1      2895 6.75775E+00 5.62656E+00 4.28372E-01 3.29714E-02 7.80842E-03-4.03789E-01
 -1      2896 6.28742E+00 5.02792E+00 3.48623E-01 2.87307E-02-2.70019E-02-4.86213E-01
 -1      2897 9.13501E+00 7.31671E+00 9.33512E-01-1.10267E-01 5.50935E-02-2.85338E-01
 -1      2898 8.06711E+00 6.87521E+00 5.86008E-01-1.97224E-01 2.31981E-02-4.26671E-01
 -1      2899 9.52728E+00 7.91845E+00 1.25536E+00 1.15710E-01-8.86762E-03-1.14804E-01
 -1      2900 9.52146E+00 8.06772E+00 1.12413E+00 4.56340E-02 1.52302E-02-1.31403E-01
 -1      2901 1.05543E+01 9.15959E+00 1.94685E+00-1.05510E-01-9.63254E-02-6.28131E-02
 -1      2902 6.08954E+00 4.68523E+00 1.59877E+00 4.78327E-02 1.37707E-02-4.38372E-03
 -1      2903 5.90823E+00 4.35316E+00 1.44907E+00-2.10195E-02 1.39604E-02-2.95744E-02
 -1      2904 6.74623E+00 5.47929E+00 2.00200E+00-2.25717E-02 9.81752E-03 5.36140E-02
 -1      2905 6.35369E+00 5.09473E+00 1.78602E+00-6.43550E-04 6.29764E-03 1.49989E-02
 -1      2906 6.13421E+00 4.65865E+00 1.58454E+00-9.41001E-03 5.13538E-03-2.32816E-02
 -1      2907 5.14567E+00 3.86408E+00 1.15830E+00-7.91332E-03 4.46866E-03-6.05403E-02
 -1      2908 5.50454E+00 4.15600E+00 1.36237E+00-2.85595E-02 1.17854E-02-4.91149E-02
 -1      2909 5.35198E+00 4.05505E+00 1.24145E+00-2.32519E-02 2.69180E-03-4.39265E-02
 -1      2910 5.38192E+00 4.06779E+00 1.22312E+00-3.71491E-02 5.18880E-03-6.24270E-02
 -1      2911 5.63807E+00 4.27062E+00 1.43936E+00-8.01698E-02 7.70868E-03-2.61406E-02
 -1      2912 1.27603E+01 1.05433E+01 5.99343E+00-4.43899E-01 2.14600E-02-8.87809E-02
 -1      2913 1.17567E+01 1.03999E+01 5.43985E+00-4.90215E-01-2.26793E-02 1.07327E-01
 -1      2914 1.24936E+01 1.07341E+01 5.78531E+00 9.54604E-02 4.02708E-02 2.84024E-02
 -1      2915 1.36474E+01 1.20540E+01 6.64864E+00-2.20358E-01-1.82559E-02 3.87529E-02
 -1      2916 1.25989E+01 1.04201E+01 5.67807E+00-3.78717E-01-3.68620E-02-2.47313E-02
 -1      2917 1.34502E+01 1.20133E+01 6.41648E+00-1.19648E-01 2.06464E-02-1.66199E-01
 -1      2918 1.25969E+01 1.07154E+01 5.64756E+00-5.13901E-01-1.04108E-02-5.59485E-02
 -1      2919 1.03547E+01 9.08972E+00 4.75000E+00-2.14968E-01 4.15567E-02 8.06610E-02
 -1      2920 1.00574E+01 8.27065E+00 4.34910E+00-2.69919E-01 4.51712E-02-2.96855E-02
 -1      2921 1.38004E+01 1.20989E+01 6.34696E+00-8.90162E-01-1.18173E-02 5.30380E-02
 -1      2922 1.16830E+01 1.04565E+01 5.31348E+00-5.62166E-01 5.14727E-02 5.10642E-02
 -1      2923 1.16095E+01 1.04734E+01 5.39473E+00-6.44172E-01 6.56114E-02 6.23740E-02
 -1      2924 3.66009E+00 2.53902E+00 4.03092E-02-4.77912E-02 8.53742E-04-3.29877E-01
 -1      2925 3.38134E+00 2.26682E+00 3.90120E-02-1.10618E-02-1.41330E-03-3.15403E-01
 -1      2926 3.12638E+00 2.01520E+00 3.51700E-03 1.37800E-02-2.97711E-03-2.90368E-01
 -1      2927 3.15939E+00 1.86306E+00 2.98428E-02-2.60078E-02 1.53495E-02-3.01373E-01
 -1      2928 3.09235E+00 1.95989E+00-5.62324E-03-6.56964E-03-9.67766E-03-2.94516E-01
 -1      2929 1.32107E+01 1.05495E+01 5.69978E+00-6.74868E-01 1.40119E-01 1.28076E-01
 -1      2930 1.22004E+01 1.07254E+01 5.40522E+00-7.77334E-01 2.78482E-02 9.40146E-02
 -1      2931 1.20983E+01 1.05064E+01 5.37947E+00-1.03236E-01-7.25403E-02-8.59215E-02
 -1      2932 1.26199E+01 1.01472E+01 5.32302E+00 7.01663E-02-7.40141E-02 5.84031E-02
 -1      2933 1.35126E+01 1.10008E+01 5.91359E+00-5.89562E-01-6.83221E-02 1.11801E-01
 -1      2934 1.46339E+01 1.28045E+01 6.79419E+00-1.28071E+00 2.70770E-02 1.17366E-01
 -1      2935 1.72576E+01 1.43688E+01 8.87320E+00-2.22579E+00-9.57481E-02 3.36793E-01
 -1      2936 1.81402E+01 1.58966E+01 8.88376E+00-2.53142E+00 8.38062E-02 3.57666E-01
 -1      2937 1.92496E+01 1.73755E+01 9.51189E+00-2.01111E+00 1.78114E-02-1.64163E-01
 -1      2938 1.54345E+01 1.34980E+01 7.32201E+00-9.60345E-01 4.03742E-03 1.93769E-01
 -1      2939 1.93592E+01 1.74027E+01 9.59467E+00-1.97453E+00-1.48487E-01 1.32790E-01
 -1      2940 2.06768E+01 1.89000E+01 1.02210E+01-2.48367E+00-3.02185E-01 9.04552E-01
 -1      2941 1.97693E+01 1.85689E+01 1.03528E+01-2.29168E+00-2.87595E-02 1.80047E-01
 -1      2942 1.98401E+01 1.88319E+01 1.06696E+01-2.61233E+00 1.03347E-02-3.26186E-01
 -1      2943 2.05179E+01 1.94136E+01 1.05172E+01-3.29906E+00 3.55000E-02-1.69863E-01
 -1      2944 1.61780E+01 1.49500E+01 8.31160E+00-1.26600E+00 8.48312E-03-2.61980E-01
 -1      2945 1.37153E+01 1.10544E+01 5.80863E+00-8.50383E-01 6.42519E-03 5.80493E-03
 -1      2946 1.17404E+01 1.03956E+01 5.19109E+00-6.44674E-01 7.10586E-02-4.31432E-04
 -1      2947 1.16752E+01 1.01880E+01 5.17001E+00-4.93990E-01-8.63393E-02 2.31006E-01
 -1      2948 1.05612E+01 9.29766E+00 4.64392E+00-4.28281E-01-2.37645E-03 4.78136E-02
 -1      2949 9.72479E+00 8.28979E+00 3.93372E+00-2.27835E-01-4.45433E-03 7.50175E-02
 -1      2950 1.13965E+01 9.36205E+00 4.85042E+00-2.10048E-01-8.62847E-02 3.96240E-01
 -1      2951 1.19414E+01 1.08078E+01 5.54830E+00-4.60331E-01 6.14895E-02 9.68938E-02
 -1      2952 1.33893E+01 1.22996E+01 6.34113E+00-8.23924E-01 1.02378E-01 3.85104E-02
 -1      2953 1.27335E+01 1.12855E+01 5.83629E+00-6.86777E-01-3.15680E-04 1.56249E-01
 -1      2954 1.26696E+01 1.11217E+01 5.87542E+00-3.54921E-01-5.50780E-02-7.54891E-02
 -1      2955 1.45114E+01 1.31190E+01 6.93063E+00-5.82839E-01-4.31223E-02 8.09634E-02
 -1      2956 1.02903E+01 8.81181E+00 4.26667E+00-1.58992E-01 2.56204E-02 9.82441E-02
 -1      2957 1.17759E+01 9.85148E+00 5.05787E+00-3.18453E-01 9.17175E-02 8.80910E-02
 -1      2958 9.14833E+00 7.89028E+00 3.60554E+00-5.24796E-02 5.50066E-02 2.74925E-02
 -1      2959 9.36726E+00 8.21174E+00 3.87814E+00-7.80856E-02 2.24157E-02 1.04905E-01
 -1      2960 8.29737E+00 6.91907E+00 3.10844E+00 6.41655E-02 6.18173E-02 7.24754E-02
 -1      2961 9.25525E+00 8.13153E+00 3.30745E+00 4.31698E-02 2.72878E-02 1.82040E-01
 -1      2962 9.09963E+00 7.33725E+00 2.98403E+00-1.55938E-01 2.28405E-02 2.48542E-01
 -1      2963 8.52530E+00 6.72498E+00 2.61620E+00-1.91333E-01-3.31282E-02 1.12954E-01
 -1      2964 8.27219E+00 6.74420E+00 2.59255E+00-7.51331E-02-1.02691E-02 1.33604E-01
 -1      2965 7.64622E+00 6.21765E+00 2.30072E+00-2.20824E-02 3.56186E-04 1.10070E-02
 -1      2966 1.04053E+01 9.33040E+00 4.02098E+00-1.18165E-01 2.22600E-02 1.74246E-01
 -1      2967 9.34253E+00 8.05897E+00 3.32197E+00-7.96288E-02 9.25299E-03 1.72023E-01
 -1      2968 1.15888E+01 1.05463E+01 4.66983E+00-2.86507E-01 6.75016E-02 1.49228E-01
 -1      2969 1.17775E+01 1.00361E+01 4.69799E+00-2.54208E-01-3.30511E-02 3.52980E-01
 -1      2970 1.31954E+01 1.04759E+01 5.09735E+00-2.09154E-01-8.44690E-02-6.56881E-02
 -1      2971 1.10127E+01 1.00860E+01 4.38354E+00-1.38661E-01 1.94889E-02 9.12773E-02
 -1      2972 1.30614E+01 1.15655E+01 5.38952E+00-3.88571E-01 6.93605E-02 1.98159E-01
 -1      2973 4.69969E+00 3.36673E+00 1.24673E+00 2.14543E-02 1.46635E-03-3.11200E-02
 -1      2974 5.08080E+00 3.81869E+00 1.48850E+00-5.50474E-03-7.42465E-05-1.86249E-03
 -1      2975 5.15392E+00 3.88585E+00 1.54190E+00-1.87138E-03-1.88629E-03-1.37772E-02
 -1      2976 5.42359E+00 4.12388E+00 1.68011E+00-1.63093E-02 9.89259E-05 6.54812E-03
 -1      2977 5.83241E+00 4.38629E+00 1.88725E+00-1.72779E-02 8.90458E-03-1.06852E-02
 -1      2978 5.63545E+00 4.30723E+00 1.78465E+00-4.00918E-02-5.22698E-03 1.77793E-02
 -1      2979 4.44034E+00 3.02594E+00 1.06212E+00-1.70532E-02 3.76760E-04-6.82632E-02
 -1      2980 4.50516E+00 3.19889E+00 1.15971E+00 4.31493E-02 1.22912E-03-2.26461E-02
 -1      2981 4.20042E+00 2.84867E+00 9.45331E-01-4.44618E-02 5.10789E-03-3.79113E-02
 -1      2982 4.06504E+00 2.70446E+00 8.69125E-01-3.27336E-02 4.07496E-03-5.38094E-02
 -1      2983 4.07180E+00 2.82443E+00 6.90578E-02-3.13722E-02 2.59193E-03-3.62522E-01
 -1      2984 3.59718E+00 2.45718E+00-3.91585E-04-5.84231E-02 7.04954E-03-3.29533E-01
 -1      2985 4.38418E+00 3.19566E+00 1.38667E-01 1.50337E-02 6.25295E-04-3.54496E-01
 -1      2986 4.29595E+00 3.10567E+00 5.98573E-02-7.66494E-03-5.26612E-03-3.54947E-01
 -1      2987 4.16057E+00 3.02529E+00 2.43086E-02-5.27865E-02 2.19963E-03-3.52014E-01
 -1      2988 7.14328E+00 5.89461E+00 2.19105E+00 1.91257E-02-1.74701E-03 3.46603E-02
 -1      2989 7.19076E+00 5.80595E+00 2.22943E+00-6.53844E-02 2.42258E-03 6.46657E-02
 -1      2990 6.90357E+00 5.58509E+00 2.05802E+00-7.36092E-02 8.22840E-03 5.36897E-02
 -1      2991 1.30505E+01 1.08631E+01 5.84872E+00-2.85741E-01 7.79556E-02 3.10642E-02
 -1      2992 1.19871E+01 9.99716E+00 5.43156E+00-8.80591E-02 6.16477E-02 9.92846E-02
 -1      2993 1.29087E+01 1.17638E+01 6.25784E+00-4.77128E-01-4.01993E-02-4.34220E-02
 -1      2994 1.31240E+01 1.08216E+01 5.90827E+00-1.72780E-01-1.24010E-01 2.27760E-01
 -1      2995 1.39494E+01 1.15064E+01 6.27772E+00-7.64593E-01-1.82861E-02 1.19604E-01
 -1      2996 1.52083E+01 1.40550E+01 7.40725E+00-1.04384E+00 7.17871E-02-2.74102E-01
 -1      2997 1.86386E+01 1.69504E+01 8.78553E+00-1.96332E+00 3.38473E-01-4.21605E-01
 -1      2998 1.75513E+01 1.63769E+01 9.81612E+00-1.38218E+00 1.36042E-01-2.19315E-01
 -1      2999 1.86671E+01 1.72580E+01 1.03834E+01-1.63922E+00-4.37787E-02 6.26897E-01
 -1      3000 1.53581E+01 1.41974E+01 7.79008E+00-9.53364E-01-2.04578E-02 1.75661E-01
 -1      3001 2.13174E+01 1.91231E+01 1.01504E+01-2.27643E+00-4.24298E-01 1.37706E+00
 -1      3002 1.33201E+01 1.21299E+01 6.43195E+00-4.69877E-01 4.59326E-03 3.79742E-02
 -1      3003 1.19423E+01 9.63208E+00 5.19013E+00-2.44346E-01-7.89285E-02-4.47473E-02
 -1      3004 1.15967E+01 9.89164E+00 5.00760E+00-2.33899E-01-7.44087E-02-5.90131E-03
 -1      3005 1.13170E+01 9.22074E+00 4.83359E+00-2.95160E-01-5.04771E-02 2.66709E-02
 -1      3006 9.91066E+00 8.65372E+00 4.21638E+00-2.26462E-01 1.07869E-02-2.00393E-02
 -1      3007 9.59188E+00 8.20329E+00 3.33713E+00-1.82229E-01-4.33645E-02 4.81176E-02
 -1      3008 9.34036E+00 7.56096E+00 3.17226E+00-3.52701E-01 1.75151E-03 4.36303E-02
 -1      3009 8.56154E+00 6.79034E+00 2.67219E+00-2.62483E-01 1.75290E-02 5.97991E-02
 -1      3010 8.60680E+00 6.95947E+00 2.72151E+00-2.74653E-01 3.00592E-02 1.03051E-02
 -1      3011 1.31838E+01 1.16927E+01 5.67295E+00-3.58274E-01-2.77020E-02 2.94604E-01
 -1      3012 1.14105E+01 9.73844E+00 4.57897E+00-8.10695E-03-2.68614E-02 1.47536E-01
 -1      3013 1.28579E+01 1.10289E+01 5.18130E+00-3.02147E-01-9.98312E-02 1.84850E-01
 -1      3014 1.15780E+01 9.58224E+00 4.37543E+00-3.41488E-01-2.32896E-02-5.39720E-03
 -1      3015 9.37618E+00 8.04926E+00 3.17719E+00-6.74780E-02-5.58581E-02 1.80380E-02
 -1      3016 1.03254E+01 9.11436E+00 3.82973E+00-2.77754E-01-5.03381E-02 6.52389E-02
 -1      3017 1.11216E+01 9.90969E+00 4.21707E+00-4.10226E-01-3.02743E-02 1.12015E-01
 -1      3018 1.14469E+01 9.34082E+00 4.95431E+00-3.76874E-01 9.75782E-03 3.13811E-03
 -1      3019 9.92831E+00 8.54015E+00 4.32567E+00-1.98690E-01 2.38909E-02-4.03112E-02
 -1      3020 1.41527E+01 1.16836E+01 6.38531E+00-7.03138E-01-1.00703E-02-5.51918E-02
 -1      3021 1.28740E+01 1.14678E+01 6.04332E+00-6.79730E-01-6.41160E-03 1.08448E-01
 -1      3022 1.38670E+01 1.19120E+01 6.63893E+00-9.05288E-01 2.35050E-02 2.67628E-01
 -1      3023 1.27654E+01 1.09812E+01 5.95301E+00-7.42736E-01-5.33206E-02 7.75438E-02
 -1      3024 1.23060E+01 1.02521E+01 5.56237E+00-4.77383E-01 5.13505E-02-2.10245E-01
 -1      3025 2.22790E+00 9.66473E-01 1.52354E-02-2.77347E-02 4.89122E-03-2.63047E-01
 -1      3026 2.09282E+00 8.17463E-01 1.43231E-02-1.48266E-02 1.21585E-03-2.55201E-01
 -1      3027 2.54853E+00 1.36572E+00 1.63263E-02-1.04403E-02-1.08316E-03-2.72651E-01
 -1      3028 2.42175E+00 1.16727E+00 3.29916E-02-3.16521E-02 7.24659E-03-2.82308E-01
 -1      3029 2.19019E+00 9.44784E-01-5.19352E-03-2.10684E-02 8.97465E-03-2.52989E-01
 -1      3030 1.98405E+00 7.00679E-01 2.94599E-02-4.07622E-02 6.25212E-03-2.17228E-01
 -1      3031 2.03033E+00 7.82004E-01 2.33577E-02 8.07149E-04 2.29412E-03-2.00446E-01
 -1      3032 1.88258E+00 6.34620E-01 7.76249E-03-1.90183E-02 4.23753E-03-2.23781E-01
 -1      3033 1.72742E+00 4.93841E-01-3.27250E-03-9.86465E-03 2.16236E-03-2.06328E-01
 -1      3034 1.90679E+00 5.82930E-01 1.93707E-02-2.69773E-02-6.24656E-03-1.85661E-01
 -1      3035 2.08701E+00 8.11127E-01 2.59322E-02 7.01097E-03-6.43218E-03-1.85632E-01
 -1      3036 2.10761E+00 7.96791E-01 3.57106E-02 7.88228E-03-3.84366E-03-1.61297E-01
 -1      3037 2.34145E+00 1.09019E+00 9.44232E-02-1.14324E-02 1.59896E-04-1.81486E-01
 -1      3038 2.57517E+00 1.27648E+00 1.53146E-01-3.98634E-02-1.93199E-03-1.54870E-01
 -1      3039 2.55170E+00 1.27994E+00 1.33157E-01-2.70625E-02 1.63549E-03-1.87673E-01
 -1      3040 2.81282E+00 1.46435E+00 1.80860E-01-1.84015E-02-5.41344E-03-1.94432E-01
 -1      3041 1.62061E+00 2.95305E-01-2.03504E-02-2.93558E-03-1.09534E-02-1.84864E-01
 -1      3042 1.68420E+00 3.48915E-01-2.10088E-02-2.21423E-02-5.41740E-03-1.62110E-01
 -1      3043 1.50604E+00 1.96135E-01-3.27211E-02 8.29362E-03 9.83524E-04-1.84183E-01
 -1      3044 1.38178E+00 1.14409E-02-2.62620E-02-2.20521E-03-6.74212E-03-1.66071E-01
 -1      3045 1.44902E+00 1.57887E-01-1.71794E-02 2.03459E-02-4.86541E-03-1.79838E-01
 -1      3046 3.40499E+00 2.08391E+00 1.79993E-01-3.06117E-02 1.00279E-02-2.77330E-01
 -1      3047 3.04163E+00 1.83947E+00 8.10493E-02-5.59409E-02 6.53102E-03-2.91932E-01
 -1      3048 2.98032E+00 1.79097E+00 7.19164E-02-4.13778E-02 5.88273E-03-3.02142E-01
 -1      3049 2.69892E+00 1.54240E+00 3.23288E-02-1.61704E-02-4.55060E-04-2.85855E-01
 -1      3050 2.48527E+00 1.31502E+00 1.19306E-02-9.11011E-04-4.24140E-03-2.64287E-01
 -1      3051 1.47956E+01 1.31995E+01 7.40802E+00-1.30904E+00 1.04167E-01-8.47539E-02
 -1      3052 1.63583E+01 1.41985E+01 8.69687E+00-1.94687E+00 1.30041E-01 5.41712E-02
 -1      3053 1.48443E+01 1.31398E+01 7.21743E+00-1.30283E+00 4.30231E-02 1.38784E-01
 -1      3054 1.52643E+01 1.35385E+01 7.29410E+00-1.32509E+00 1.57778E-02-6.68315E-03
 -1      3055 1.33844E+01 1.14703E+01 6.26187E+00-6.71935E-01 8.54306E-02-2.27302E-02
 -1      3056 1.21096E+01 1.00546E+01 5.49698E+00-3.01334E-01 6.32667E-02-3.75187E-02
 -1      3057 1.16762E+01 1.07124E+01 5.62035E+00-2.16954E-01 1.34983E-02 8.92591E-02
 -1      3058 1.27197E+01 1.15822E+01 5.91506E+00-3.84919E-01-5.15480E-03 4.34351E-01
 -1      3059 1.35050E+01 1.22294E+01 6.59958E+00-8.95584E-01 6.58406E-02 2.07028E-01
 -1      3060 1.50983E+01 1.41496E+01 7.58526E+00-9.91316E-01-2.19615E-02-2.22474E-02
 -1      3061 1.09993E+01 9.75346E+00 4.89172E+00-1.54244E-01-1.92641E-02-3.99657E-02
 -1      3062 1.26034E+01 1.14800E+01 5.91158E+00-3.67791E-01 4.67531E-02-1.51624E-01
 -1      3063 1.02999E+01 8.69244E+00 4.51106E+00-1.28401E-01-1.72671E-02-4.22638E-02
 -1      3064 1.04193E+01 8.99309E+00 4.53110E+00-9.75409E-02-3.23192E-02 3.33699E-02
 -1      3065 9.18734E+00 7.90648E+00 3.89298E+00-1.03271E-01-4.55805E-03 1.21716E-02
 -1      3066 1.28012E+01 1.08545E+01 4.82958E+00-1.01636E+00-1.06486E-01 5.97410E-01
 -1      3067 1.34067E+01 1.15367E+01 5.23489E+00-1.46930E+00 1.39069E-01 9.60202E-02
 -1      3068 1.35636E+01 1.24118E+01 5.58531E+00-5.66919E-01 5.68827E-02 2.65305E-01
 -1      3069 1.30203E+01 1.12273E+01 5.22520E+00-6.69900E-01 6.15101E-02 2.25685E-01
 -1      3070 1.22809E+01 1.06613E+01 5.01708E+00-3.19619E-01-6.89841E-03 3.20545E-01
 -1      3071 1.50882E+01 1.39044E+01 6.34369E+00-1.41039E+00-1.28026E-01 1.02646E+00
 -1      3072 1.30391E+01 1.19139E+01 5.14611E+00-1.23362E+00 5.26213E-03 3.41251E-02
 -1      3073 1.35102E+01 1.18910E+01 5.01740E+00-1.19930E+00-1.37605E-01 4.35847E-01
 -1      3074 1.21791E+01 1.02830E+01 5.25959E+00-4.10057E-01-1.07224E-01 1.70135E-01
 -1      3075 1.27659E+01 1.13957E+01 5.85368E+00-5.34574E-01-1.98147E-02 1.02973E-01
 -1      3076 1.49419E+01 1.23788E+01 7.14585E+00-7.53090E-01-6.26293E-02-1.33468E-01
 -1      3077 1.41840E+01 1.26760E+01 6.51778E+00-9.69727E-01-7.69789E-02 3.17470E-01
 -1      3078 1.45798E+01 1.30701E+01 6.52980E+00-1.17448E+00 6.18162E-02-1.32666E-01
 -1      3079 1.63344E+01 1.32411E+01 7.89950E+00-1.69453E+00-1.00145E-04 1.75969E-02
 -1      3080 1.88956E+01 1.73594E+01 9.69958E+00-1.51470E+00-3.02553E-02 2.84606E-01
 -1      3081 1.80532E+01 1.71008E+01 9.47752E+00-8.94919E-01 1.20376E-01 3.48697E-01
 -1      3082 1.85786E+01 1.75285E+01 9.61128E+00-1.06931E+00 6.00164E-02 1.14691E-01
 -1      3083 1.89333E+01 1.73087E+01 9.62323E+00-1.36966E+00 8.43648E-03-1.13374E-02
 -1      3084 1.61525E+01 1.47820E+01 8.08330E+00-5.43776E-01 7.94463E-02 1.16242E-01
 -1      3085 8.96795E+00 7.71054E+00 3.58113E+00-3.99523E-02 2.30600E-02 6.16199E-03
 -1      3086 9.73201E+00 8.46265E+00 4.05549E+00-1.11772E-01 2.17007E-02-6.29022E-02
 -1      3087 1.10145E+01 9.52391E+00 4.77918E+00-2.87600E-01-5.12606E-03-5.75791E-02
 -1      3088 1.22398E+01 1.00311E+01 5.42935E+00-3.20078E-01 2.15416E-02-1.23501E-01
 -1      3089 1.02693E+01 8.79101E+00 4.35322E+00-3.39525E-01-1.38854E-03 2.52061E-02
 -1      3090 8.57395E+00 7.01584E+00 3.28443E+00 6.61800E-02 2.46757E-02 1.11951E-01
 -1      3091 8.15475E+00 6.59103E+00 2.98850E+00 1.11035E-01 3.47601E-02 5.45032E-02
 -1      3092 1.41383E+01 1.29749E+01 7.12764E+00-7.50144E-01 1.05772E-01-4.51355E-02
 -1      3093 1.63093E+01 1.29212E+01 8.14516E+00-1.42702E+00 2.41687E-01 3.72818E-01
 -1      3094 1.47372E+01 1.32420E+01 7.37532E+00-7.82697E-01 1.38179E-02 4.17668E-01
 -1      3095 1.46987E+01 1.30896E+01 7.12502E+00-1.20907E+00-8.01519E-02 1.42051E-01
 -1      3096 1.33159E+01 1.16738E+01 6.19552E+00-4.87794E-01-6.50759E-02 2.00683E-01
 -1      3097 1.41802E+01 1.28494E+01 6.79589E+00-7.47371E-01 1.42662E-01-2.76896E-01
 -1      3098 1.28950E+01 1.11046E+01 6.10281E+00-7.28265E-01 9.14075E-02-3.25921E-02
 -1      3099 1.43894E+01 1.19049E+01 6.81609E+00-9.01416E-01-1.81981E-02 2.09722E-02
 -1      3100 1.21481E+01 1.02297E+01 5.54190E+00-3.52762E-01 6.39572E-02 4.84022E-02
 -1      3101 1.42227E+01 1.26490E+01 6.80447E+00-1.03667E+00 1.12459E-01 4.70809E-02
 -1      3102 1.39414E+01 1.17145E+01 6.66488E+00-4.12941E-01-1.93670E-01 3.09823E-02
 -1      3103 1.41055E+01 1.19586E+01 6.82622E+00-4.46728E-01 2.03004E-02-5.77393E-02
 -1      3104 1.60728E+01 1.47540E+01 8.40304E+00-1.04428E+00-4.64723E-02 8.90550E-03
 -1      3105 7.32630E+00 5.81319E+00 2.06212E+00 4.67894E-02 8.48555E-03-1.42420E-02
 -1      3106 7.23896E+00 5.82694E+00 2.06338E+00 3.99665E-02-1.77083E-02 2.25237E-02
 -1      3107 7.35923E+00 6.04863E+00 2.20830E+00 2.40474E-02-6.61055E-03 3.85839E-02
 -1      3108 2.89858E+00 1.71825E+00 3.35110E-02-4.07657E-02 1.16583E-02-2.94358E-01
 -1      3109 1.25114E+01 1.09368E+01 4.51042E+00-3.66939E-01 5.50640E-02 1.41767E-01
 -1      3110 1.33309E+01 1.08598E+01 4.64236E+00-2.11597E-01 2.61717E-02 2.94049E-01
 -1      3111 1.22739E+01 1.00830E+01 4.18229E+00-4.10329E-01-2.26344E-02 5.62823E-02
 -1      3112 1.05093E+01 8.86898E+00 3.21903E+00-7.35742E-02-1.12764E-02 2.07965E-01
 -1      3113 1.59760E+01 1.38004E+01 6.25257E+00-1.38898E+00-2.75223E-02 3.24244E-01
 -1      3114 1.27608E+01 1.11520E+01 4.71536E+00-5.40617E-01-3.69609E-02 1.23742E-01
 -1      3115 1.18063E+01 1.00074E+01 3.79214E+00 5.20739E-03 5.02182E-02 7.72165E-02
 -1      3116 1.24360E+01 1.06873E+01 4.06516E+00 1.02889E-02 3.02844E-02 1.86559E-01
 -1      3117 1.32498E+01 1.18934E+01 4.47410E+00-5.87981E-01 2.19624E-02 2.12784E-01
 -1      3118 1.30376E+01 1.17903E+01 4.36986E+00-6.64212E-01-8.38630E-03 4.42751E-01
 -1      3119 1.34186E+01 1.16842E+01 4.61266E+00-4.89907E-01-2.74813E-02 1.91042E-01
 -1      3120 1.54572E+01 1.37595E+01 5.62553E+00-1.12914E+00-5.33381E-02 1.52241E-01
 -1      3121 9.98108E+00 8.59864E+00 2.94449E+00-1.57865E-01-2.28448E-02 2.78597E-01
 -1      3122 1.15152E+01 1.00985E+01 3.69253E+00-4.39478E-01-2.05626E-02 3.12931E-01
 -1      3123 1.37897E+01 1.11464E+01 4.83356E+00-6.22680E-01 1.53994E-01 1.29582E-01
 -1      3124 1.27775E+01 1.09232E+01 4.31146E+00-7.52776E-01-1.11732E-01 3.89026E-01
 -1      3125 1.42679E+01 1.25932E+01 5.26341E+00-6.82102E-01 6.56320E-02 1.04083E-01
 -1      3126 1.47065E+00 1.65885E-01-1.79122E-02-4.20153E-03 6.96811E-04-1.37451E-01
 -1      3127 1.73127E+00 4.15209E-01 3.56456E-03-2.36723E-02 4.14239E-03-1.26180E-01
 -1      3128 1.80697E+00 4.97016E-01 1.65758E-02-2.51134E-02 3.24896E-03-1.12924E-01
 -1      3129 2.07674E+00 6.83404E-01 4.78439E-02-1.99057E-02-1.36267E-03-1.21041E-01
 -1      3130 1.23856E+00-1.02609E-01-3.74147E-02-1.99537E-03-1.94825E-03-1.43861E-01
 -1      3131 1.28140E+00-5.82947E-02-3.92719E-02 1.16512E-02 6.36578E-04-1.09716E-01
 -1      3132 1.15957E+00-1.68785E-01-3.80629E-02-8.86786E-03-2.00031E-03-1.41156E-01
 -1      3133 1.00264E+00-3.66313E-01-3.59521E-02 4.92310E-03-1.97655E-03-1.27797E-01
 -1      3134 1.44937E+01 1.31234E+01 6.27451E+00-6.47468E-01 8.73697E-02 1.31983E-01
 -1      3135 1.43568E+01 1.21867E+01 6.29604E+00-5.12572E-01 1.51347E-02 2.42995E-01
 -1      3136 1.39578E+01 1.15645E+01 5.80607E+00-1.93011E-01 2.23369E-01-2.47599E-01
 -1      3137 1.31920E+01 1.04954E+01 5.31720E+00 1.16657E-01-5.67599E-02-1.79652E-03
 -1      3138 1.34889E+01 1.14590E+01 5.73666E+00 1.09930E-01 4.27079E-02 1.21499E-01
 -1      3139 1.46446E+01 1.30627E+01 6.51686E+00-1.87548E-01 8.75751E-03 1.52638E-01
 -1      3140 1.53155E+01 1.36667E+01 7.01789E+00-4.11829E-01 8.49905E-02 1.51164E-01
 -1      3141 9.25313E+00 7.92056E+00 3.99021E+00-1.63500E-01-4.80354E-03 4.33641E-02
 -1      3142 1.02308E+01 8.59207E+00 4.50519E+00-1.97044E-01-1.11023E-02 6.28281E-02
 -1      3143 1.10412E+01 9.51745E+00 5.00347E+00-2.93200E-01-3.76933E-02 1.69129E-01
 -1      3144 1.30454E+01 1.02668E+01 5.87085E+00-6.74518E-01 3.51633E-02 1.92789E-01
 -1      3145 1.05533E+01 9.19774E+00 4.86250E+00-2.28761E-01-1.89221E-02 1.56183E-02
 -1      3146 8.07360E+00 6.83192E+00 3.30890E+00-7.28067E-02 1.08362E-02 9.81467E-03
 -1      3147 8.54483E+00 7.27712E+00 3.60186E+00-1.04117E-01 1.22309E-02 1.52094E-02
 -1      3148 7.68179E+00 6.43080E+00 3.11021E+00-4.26297E-02 1.37149E-02 1.86292E-02
 -1      3149 9.48871E+00 8.28105E+00 3.99645E+00-1.94086E-01-1.57299E-03 5.64958E-02
 -1      3150 1.09207E+01 8.77957E+00 4.52181E+00-1.89659E-01-7.06943E-03 1.34090E-01
 -1      3151 1.13043E+01 9.81403E+00 4.97980E+00-4.84823E-01 3.69827E-02 4.19280E-02
 -1      3152 1.20417E+01 9.64506E+00 5.13377E+00-4.35607E-01-9.43336E-02 2.86532E-01
 -1      3153 1.07711E+01 9.25361E+00 4.78226E+00-4.25887E-01 1.91424E-02 1.66912E-01
 -1      3154 1.15427E+01 9.79938E+00 5.20690E+00-2.12794E-01-6.04930E-02 2.37747E-01
 -1      3155 1.14948E+01 9.77707E+00 5.15787E+00-4.38117E-01 8.35436E-02-3.47464E-02
 -1      3156 1.31872E+01 1.06592E+01 5.76607E+00-8.69256E-01-1.02350E-01-4.77624E-02
 -1      3157 8.04499E+00 6.70711E+00 4.75714E-01-1.93166E-01 2.64251E-02-4.60814E-01
 -1      3158 7.26109E+00 6.19777E+00 3.34647E-01-8.72725E-02 3.23918E-02-4.94045E-01
 -1      3159 6.71700E+00 5.62823E+00 2.38806E-01 1.82931E-02 1.36366E-02-4.85566E-01
 -1      3160 6.28054E+00 5.11174E+00 1.90544E-01 5.11955E-03 1.37357E-02-5.11075E-01
 -1      3161 6.73637E+00 5.58522E+00 1.42537E-01-1.03094E-01 4.37666E-02-5.64998E-01
 -1      3162 8.92466E+00 7.56797E+00 7.25085E-01-3.34129E-01 3.61572E-02-4.08334E-01
 -1      3163 9.99082E+00 8.35226E+00 1.22103E+00-4.46130E-01 2.85115E-02-2.30455E-01
 -1      3164 1.00823E+01 8.58240E+00 9.33516E-01-6.35852E-01-2.60237E-02-3.35386E-01
 -1      3165 1.04845E+01 9.26447E+00 1.73855E+00-2.42674E-01-1.34222E-02 6.16570E-02
 -1      3166 5.76050E+00 4.23424E+00 1.36223E+00-3.33487E-02-2.48062E-03-3.66378E-02
 -1      3167 4.76149E+00 3.69904E+00 5.76029E-02-6.79372E-02 2.65271E-03-3.94389E-01
 -1      3168 4.67817E+00 3.41826E+00 1.25673E-01-6.57456E-02 1.00430E-02-4.07209E-01
 -1      3169 5.84456E+00 4.63984E+00 2.90716E-01-1.11567E-01-4.41288E-03-4.63642E-01
 -1      3170 5.23113E+00 4.12936E+00 1.43840E-01-9.51467E-02 4.89281E-03-4.42208E-01
 -1      3171 4.73465E+00 3.68465E+00 5.74177E-02-6.06249E-02 5.24477E-03-4.17040E-01
 -1      3172 8.23352E+00 6.73906E+00 2.47558E+00-1.62749E-01 5.74061E-03 2.81941E-02
 -1      3173 9.14202E+00 7.33455E+00 2.85114E+00-2.08067E-01-5.32497E-02 6.21900E-02
 -1      3174 1.38344E+01 1.13230E+01 6.36364E+00-6.99502E-01-6.45891E-02 2.43305E-03
 -1      3175 1.40579E+01 1.21086E+01 6.85877E+00-1.10889E+00-7.55217E-02 1.95336E-01
 -1      3176 1.52121E+01 1.32365E+01 7.24519E+00-1.55950E+00 8.95780E-03-2.12018E-02
 -1      3177 1.62369E+01 1.47154E+01 8.39666E+00-2.26875E+00-7.08032E-02-3.70780E-01
 -1      3178 5.63686E+00 4.59151E+00 1.50045E-01 2.39069E-03-1.86305E-02-4.64321E-01
 -1      3179 5.68462E+00 4.70833E+00 1.44157E-01-1.58728E-02-1.97628E-03-4.49286E-01
 -1      3180 5.18584E+00 4.20598E+00 7.76590E-02 1.39967E-02-1.12191E-02-4.38931E-01
 -1      3181 4.45492E+00 3.11686E+00 1.13236E+00 2.48432E-02-1.81059E-03 6.67818E-03
 -1      3182 4.78562E+00 3.50012E+00 1.31932E+00 1.55936E-02-3.01831E-03 2.13911E-03
 -1      3183 5.04330E+00 3.73577E+00 1.46433E+00-8.48368E-03-7.96314E-04-4.10029E-03
 -1      3184 5.40075E+00 4.04514E+00 1.65521E+00-1.59188E-02 2.25695E-03-1.46643E-02
 -1      3185 4.24804E+00 2.87227E+00 1.02725E+00 3.58561E-02 4.00625E-03 7.33408E-03
 -1      3186 4.13749E+00 2.62444E+00 9.25538E-01-7.65326E-03-1.31113E-02-1.78752E-02
 -1      3187 3.95607E+00 2.44967E+00 8.10338E-01-2.16976E-03 1.00212E-02-3.66235E-02
 -1      3188 1.33443E+01 1.17153E+01 4.09990E+00-1.02483E+00-2.18514E-02 1.23507E-01
 -1      3189 1.37349E+01 1.20976E+01 4.24393E+00-1.07831E+00 3.89198E-02 8.78848E-02
 -1      3190 8.24263E+00 6.71142E+00 1.77212E+00-1.34780E-01-2.28735E-02-7.56313E-02
 -1      3191 8.78777E+00 7.34775E+00 2.19474E+00-2.23953E-01-3.30558E-02 1.00452E-01
 -1      3192 9.63534E+00 7.85385E+00 2.65980E+00-2.01477E-01 1.85116E-02 2.79464E-01
 -1      3193 4.83055E+00 3.51842E+00 1.23188E+00-1.53281E-02-1.06327E-03-2.81921E-02
 -1      3194 4.74393E+00 3.41611E+00 1.14795E+00-1.37640E-03 8.45227E-04-2.37949E-02
 -1      3195 9.29034E+00 8.08542E+00 3.71768E+00-2.55513E-02-1.73744E-02 5.35112E-02
 -1      3196 3.63553E+00 2.31669E+00 2.07477E-01-3.69396E-02 7.87388E-03-2.54746E-01
 -1      3197 3.98622E+00 2.61982E+00 3.05347E-01-4.56438E-02 1.21884E-02-2.40622E-01
 -1      3198 1.39721E+01 1.19471E+01 6.28622E+00-5.43187E-01-7.10550E-04-5.67051E-02
 -1      3199 1.45027E+01 1.26776E+01 6.36200E+00-7.46046E-01-2.25402E-02 1.98465E-01
 -1      3200 1.40507E+01 1.27915E+01 6.47122E+00-6.36724E-01 8.63847E-02 1.47054E-01
 -1      3201 1.40452E+01 1.21106E+01 6.39460E+00-5.44533E-01-4.83859E-02 2.33995E-01
 -1      3202 1.45584E+01 1.22956E+01 6.60071E+00-8.89782E-01 3.35582E-02 1.46349E-01
 -1      3203 1.49028E+01 1.31868E+01 6.70349E+00-9.78969E-01-7.03740E-02 2.33946E-01
 -1      3204 1.48386E+01 1.26249E+01 6.68862E+00-9.32355E-01-1.02237E-01 9.77436E-02
 -1      3205 1.65969E+01 1.43505E+01 7.47067E+00-1.10729E+00-8.81403E-02 2.18570E-01
 -1      3206 1.78469E+01 1.50904E+01 7.89319E+00-1.84020E+00-1.10386E-01 3.19259E-01
 -1      3207 1.57257E+01 1.36129E+01 6.90177E+00-1.18402E+00 9.30653E-03-3.33001E-02
 -1      3208 1.40914E+01 1.24822E+01 6.37700E+00-7.64626E-01 5.57870E-02 1.51162E-01
 -1      3209 1.33747E+01 1.15671E+01 5.81362E+00-6.24749E-01 3.42157E-02 1.76011E-01
 -1      3210 1.47619E+01 1.31514E+01 6.92477E+00-7.16404E-01 1.83025E-02-1.36987E-01
 -1      3211 1.38751E+01 1.27715E+01 6.45974E+00-6.11092E-01-3.71709E-02 1.64296E-01
 -1      3212 1.44499E+01 1.30107E+01 6.47305E+00-8.91448E-01 7.20495E-02 1.80110E-01
 -1      3213 1.44878E+01 1.23628E+01 6.46955E+00-7.53303E-01 1.54526E-02 9.08554E-02
 -1      3214 1.26782E+01 1.11630E+01 5.53541E+00-3.96274E-01-1.06009E-02 2.36189E-02
 -1      3215 1.18697E+01 1.02970E+01 4.93210E+00-2.90033E-01 2.94972E-02 1.12726E-01
 -1      3216 1.66417E+01 1.42001E+01 7.50937E+00-1.13022E+00 6.18220E-02 6.93706E-02
 -1      3217 1.47293E+01 1.32957E+01 6.69884E+00-8.81085E-01 2.29770E-02 1.04128E-01
 -1      3218 1.42336E+01 1.26050E+01 6.34394E+00-9.18101E-01 4.80936E-02 1.64490E-01
 -1      3219 1.23070E+01 1.06551E+01 5.11507E+00-3.40103E-01-1.03593E-03 2.26226E-01
 -1      3220 1.41647E+01 1.21355E+01 6.29736E+00-6.79216E-01-6.85048E-03 1.36093E-01
 -1      3221 1.43776E+01 1.31435E+01 6.45249E+00-6.53222E-01-2.31403E-02 6.04559E-02
 -1      3222 1.48686E+01 1.34249E+01 6.56580E+00-7.54281E-01 2.45306E-02 1.89050E-01
 -1      3223 1.65065E+01 1.48004E+01 7.60893E+00-1.37221E+00 2.39177E-02 9.18049E-02
 -1      3224 1.19113E+01 1.01129E+01 5.21999E+00 1.67564E-01 5.48923E-02 3.57514E-02
 -1      3225 1.33181E+01 1.18001E+01 6.17963E+00-1.00752E-01 1.21122E-01-1.51069E-02
 -1      3226 1.48381E+01 1.39906E+01 7.20428E+00-4.74276E-01 1.34327E-01 1.09842E-01
 -1      3227 1.43498E+01 1.24095E+01 6.88784E+00-3.30157E-01-2.32514E-02 1.75355E-01
 -1      3228 1.39055E+01 1.19062E+01 6.71290E+00 7.62755E-02 1.76534E-02-4.45773E-02
 -1      3229 1.54559E+01 1.38404E+01 7.83887E+00-5.09030E-01-9.46538E-02 1.17312E-01
 -1      3230 1.33821E+01 1.21091E+01 6.33829E+00-8.71501E-01-1.60378E-02-3.22725E-02
 -1      3231 1.48460E+01 1.34449E+01 7.45940E+00-6.69277E-01-1.06504E-03-2.28061E-01
 -1      3232 1.71515E+01 1.42389E+01 8.25531E+00-1.29427E+00 8.86232E-02-3.22887E-01
 -1      3233 1.03475E+01 8.59029E+00 4.41098E+00-2.88171E-01-3.28019E-02 9.07567E-02
 -1      3234 1.09173E+01 9.29402E+00 4.86661E+00-2.85632E-01-3.79917E-02 4.77985E-03
 -1      3235 1.14050E+01 9.79034E+00 5.18980E+00-4.33897E-01-9.37720E-02-3.16390E-02
 -1      3236 1.23769E+01 1.09513E+01 5.74300E+00-6.23943E-01-8.64679E-02-3.07684E-02
 -1      3237 1.43863E+01 1.30648E+01 6.85835E+00-1.20564E+00-4.43331E-03-5.16243E-02
 -1      3238 9.24589E+00 7.86272E+00 3.87449E+00-2.16635E-01 1.76069E-02 5.21681E-02
 -1      3239 9.78586E+00 8.33717E+00 4.13141E+00-3.28577E-01 6.59434E-03 3.24875E-02
 -1      3240 8.93758E+00 7.54291E+00 3.68628E+00-1.42912E-01 5.73607E-03 6.00206E-02
 -1      3241 1.15437E+01 9.45464E+00 5.11644E+00-6.67557E-01-7.97458E-02 9.06248E-02
 -1      3242 1.25008E+01 1.01855E+01 5.65273E+00-5.50604E-01 5.25413E-02-1.41215E-01
 -1      3243 1.02467E+01 8.68730E+00 4.41979E+00-4.57022E-01-9.17759E-03 2.75284E-03
 -1      3244 1.07043E+01 9.20177E+00 4.71373E+00-6.24697E-01-1.13622E-02-8.80517E-03
 -1      3245 9.25206E+00 7.85677E+00 3.84551E+00-2.08446E-01 1.49293E-03 1.26958E-02
 -1      3246 1.22845E+01 1.03980E+01 5.70444E+00-8.23848E-02 6.36916E-02 7.04046E-02
 -1      3247 1.36175E+01 1.22661E+01 6.56758E+00-3.40697E-01 4.87946E-02 9.46441E-03
 -1      3248 1.67284E+01 1.53775E+01 8.13421E+00-1.27398E+00 5.13288E-02 2.89405E-01
 -1      3249 1.58216E+01 1.38671E+01 7.56737E+00-1.16667E+00 1.63565E-02-2.86196E-02
 -1      3250 1.50855E+01 1.33581E+01 7.33968E+00-1.19245E+00 8.65656E-02-1.80413E-01
 -1      3251 1.02360E+01 8.74213E+00 4.47617E+00-4.63152E-01-3.15728E-02 1.13359E-02
 -1      3252 1.14586E+01 9.82209E+00 5.10197E+00-6.88437E-01 2.26884E-02-4.15067E-02
 -1      3253 1.23192E+01 1.01375E+01 5.58384E+00-5.63754E-01 2.17457E-02 2.00681E-01
 -1      3254 1.40033E+01 1.21392E+01 6.66884E+00-3.57727E-01 1.11693E-01 4.67478E-02
 -1      3255 9.00275E+00 7.21728E+00 3.64795E+00-8.67669E-02 2.81576E-02 2.23555E-02
 -1      3256 9.44746E+00 7.79119E+00 4.01677E+00-2.15664E-01-1.01291E-02 3.41133E-02
 -1      3257 1.51231E+01 1.27331E+01 5.05511E+00-1.68417E+00 1.09772E-01 2.76269E-01
 -1      3258 1.37751E+01 1.19716E+01 4.13977E+00-8.91697E-01-4.64550E-04 4.29931E-01
 -1      3259 1.11557E+01 9.46109E+00 2.78990E+00-8.00470E-02 8.90996E-02 2.02669E-01
 -1      3260 1.25246E+01 1.06863E+01 3.42493E+00-2.51445E-01 1.40239E-01 2.36782E-01
 -1      3261 1.52431E+01 1.33969E+01 5.29994E+00-8.48368E-01-4.29793E-02 6.50399E-01
 -1      3262 1.63073E+01 1.40019E+01 4.74179E+00-1.52039E+00-2.48599E-01 4.23122E-01
 -1      3263 1.36455E+01 1.15879E+01 3.15331E+00-7.72433E-01-8.41333E-02 2.67326E-02
 -1      3264 1.26157E+01 1.12277E+01 3.67834E+00-3.59723E-01-3.53216E-02 1.74325E-01
 -1      3265 1.18787E+01 1.04824E+01 2.49126E+00-4.12568E-01 1.31065E-02-1.90195E-02
 -1      3266 1.16591E+01 1.02053E+01 2.24531E+00-4.26513E-01-1.23722E-01 4.77442E-02
 -1      3267 1.15025E+01 9.55077E+00 2.62783E+00-3.60500E-01-8.76065E-02-8.85248E-02
 -1      3268 5.11748E+00 3.74335E+00 1.38101E+00-5.87123E-02 5.56529E-04-4.88022E-02
 -1      3269 4.83107E+00 3.42722E+00 1.21544E+00-5.23630E-02-4.77814E-03-3.64846E-02
 -1      3270 4.48559E+00 3.10633E+00 1.07632E+00-2.07521E-02 4.45469E-03-4.46014E-02
 -1      3271 5.48893E+00 4.05668E+00 1.57660E+00-3.36533E-02-8.96893E-03-5.09099E-02
 -1      3272 4.99813E+00 3.66966E+00 1.32440E+00-2.05832E-02 1.33836E-03-3.18891E-02
 -1      3273 1.54263E+01 1.40259E+01 7.54064E+00-7.16496E-01 9.30256E-03 2.14782E-01
 -1      3274 1.52061E+01 1.28975E+01 7.45814E+00-7.75029E-01-6.85586E-02 5.30345E-02
 -1      3275 1.55487E+01 1.35564E+01 7.65771E+00-1.21450E+00-5.86647E-02 9.01150E-02
 -1      3276 1.53845E+01 1.36444E+01 7.29317E+00-1.56040E+00-5.26389E-03-2.00957E-02
 -1      3277 1.39692E+01 1.19391E+01 6.39837E+00-5.12877E-01 7.17241E-03-1.42923E-01
 -1      3278 1.38431E+01 1.15537E+01 6.26638E+00-3.63929E-01-6.56042E-02 2.36732E-01
 -1      3279 1.69344E+01 1.54214E+01 7.95293E+00-2.07220E+00 1.06628E-01 1.90812E-01
 -1      3280 1.52386E+01 1.31861E+01 7.09493E+00-1.43087E+00 1.81184E-02-6.19800E-02
 -1      3281 1.43658E+01 1.27786E+01 6.84652E+00-7.96999E-01-6.46737E-02 2.69353E-01
 -1      3282 1.39015E+01 1.21087E+01 6.29876E+00-6.53822E-01-1.03125E-01 2.60847E-01
 -1      3283 1.18900E+01 1.04664E+01 5.35225E+00-2.14216E-01-3.51505E-02-2.50640E-02
 -1      3284 1.13019E+01 9.65494E+00 4.78035E+00-2.15448E-01-4.91372E-02-6.38609E-02
 -1      3285 1.48016E+01 1.26467E+01 6.74931E+00-8.67157E-01 8.36149E-02-1.57476E-01
 -1      3286 1.68719E+01 1.49350E+01 7.87324E+00-1.31844E+00-3.31255E-02 1.21132E-01
 -1      3287 1.46386E+01 1.28738E+01 6.60921E+00-1.26793E+00-1.12569E-01 1.40142E-01
 -1      3288 1.54288E+01 1.36677E+01 7.14135E+00-1.37358E+00 6.20867E-02-4.13928E-02
 -1      3289 1.69736E+01 1.39872E+01 8.17534E+00-1.65718E+00-1.06236E-01-1.50954E-01
 -1      3290 1.39670E+01 1.20567E+01 5.77971E+00-4.66979E-01 6.53324E-03-4.83307E-02
 -1      3291 1.36242E+01 1.22167E+01 5.64287E+00-4.75060E-01-7.05159E-02 2.47621E-01
 -1      3292 1.39965E+01 1.26435E+01 5.61315E+00-8.08325E-01 5.02058E-02 4.59848E-02
 -1      3293 1.54662E+01 1.29544E+01 6.50747E+00-9.13284E-01 1.99765E-01 2.74354E-01
 -1      3294 1.29748E+01 1.04746E+01 4.92881E+00-7.47050E-01-1.67941E-02 1.30394E-01
 -1      3295 1.64473E+01 1.48330E+01 7.04587E+00-2.17125E+00-8.71745E-02 1.64650E-01
 -1      3296 1.44811E+01 1.24453E+01 5.95129E+00-1.13951E+00 4.55712E-02 3.94972E-02
 -1      3297 1.42098E+01 1.19297E+01 5.68707E+00-1.26980E+00-1.42352E-01 2.26405E-01
 -1      3298 1.40732E+01 1.18615E+01 5.78670E+00-1.02410E+00-1.63025E-01 2.46737E-01
 -1      3299 1.60934E+01 1.41431E+01 7.07248E+00-1.01020E+00-2.35781E-02-1.67906E-01
 -1      3300 1.52128E+01 1.40434E+01 6.78822E+00-9.30933E-01-4.94578E-02 4.85234E-02
 -1      3301 1.34057E+01 1.10049E+01 6.22160E+00-2.49757E-01 3.11118E-04 3.12287E-02
 -1      3302 1.20553E+01 9.41690E+00 5.36090E+00-2.45513E-01 8.06737E-02-2.24091E-01
 -1      3303 1.24372E+01 1.02933E+01 5.84950E+00-1.31345E-01 6.80264E-02 4.12344E-02
 -1      3304 1.93496E+01 1.93041E+01 1.01238E+01-3.85988E+00-2.29552E-01-6.65421E-02
 -1      3305 1.46981E+01 1.31172E+01 7.09134E+00-7.66338E-01-1.84119E-01 3.37000E-01
 -1      3306 1.28818E+01 1.14469E+01 5.79636E+00-5.03850E-01-5.82975E-02-7.61026E-02
 -1      3307 1.13616E+01 9.75257E+00 5.02524E+00-3.89931E-02-1.13163E-02 3.42567E-02
 -1      3308 1.51307E+01 1.30421E+01 6.81473E+00-1.21948E+00-9.71897E-02-4.69604E-02
 -1      3309 1.46152E+01 1.28998E+01 6.83213E+00-1.04135E+00-1.72269E-02-3.61304E-01
 -1      3310 1.74308E+01 1.50164E+01 7.94841E+00-1.46916E+00-2.39361E-01 5.52475E-01
 -1      3311 1.74999E+01 1.31675E+01 6.91915E+00-1.53319E+00 6.47220E-03 1.81782E-01
 -1      3312 1.54449E+01 1.40808E+01 6.83969E+00-9.68303E-01-3.96063E-02 2.11649E-01
 -1      3313 1.42514E+01 1.30932E+01 6.49031E+00-7.75044E-01-1.67581E-02 4.40097E-01
 -1      3314 1.15238E+01 9.69493E+00 1.19794E+00-9.42461E-01 4.67249E-02-3.64015E-01
 -1      3315 1.32856E+01 1.13544E+01 2.50288E+00-1.21392E+00-1.87662E-02 2.35914E-01
 -1      3316 1.31270E+01 1.16299E+01 1.80341E+00-1.63209E+00 1.12491E-01-4.36486E-01
 -1      3317 1.07470E+00-4.02603E-01-4.41752E-02-2.08889E-02 4.66953E-03-1.07895E-01
 -1      3318 9.15902E-01-5.28286E-01-4.43312E-02-1.88911E-02 1.92264E-03-1.11421E-01
 -1      3319 1.21888E+00-1.63600E-01-4.94659E-02 2.35393E-02-1.97635E-03-8.99765E-02
 -1      3320 3.85833E-01-1.35460E+00-3.71430E-02-1.03852E-02 1.69358E-03-5.38519E-02
 -1      3321 6.27041E-01-9.28186E-01-3.42779E-02-5.64679E-03-2.21550E-03-8.53908E-02
 -1      3322 8.25443E-01-6.00078E-01-3.63387E-02 1.04265E-02-3.53162E-03-1.12414E-01
 -1      3323 2.25142E+00 9.84038E-01-3.26756E-03-1.08607E-02 4.54751E-03-2.27723E-01
 -1      3324 2.31292E+00 1.12301E+00-7.25816E-03 8.43872E-03-4.92309E-03-2.42989E-01
 -1      3325 5.67076E+00 4.35886E+00 1.85351E+00-3.15231E-02 1.22916E-02 1.13384E-02
 -1      3326 5.58124E+00 4.14643E+00 1.74681E+00-6.46890E-03 1.62716E-03-1.47021E-02
 -1      3327 5.87800E+00 4.55265E+00 1.95191E+00-5.63034E-02 1.47673E-02 1.53871E-03
 -1      3328 6.25749E+00 4.86974E+00 2.14968E+00-7.88571E-02 9.58613E-03 1.02098E-02
 -1      3329 4.87390E+00 3.71033E+00 6.70010E-02-2.95497E-02-1.95503E-02-4.07965E-01
 -1      3330 4.78612E+00 3.72685E+00-2.33323E-02 4.11145E-02-1.11774E-02-4.20820E-01
 -1      3331 1.01490E+01 9.00419E+00 4.19062E+00-1.57259E-01-1.78700E-02 4.23996E-02
 -1      3332 1.55738E+01 1.36865E+01 7.66145E+00-1.04053E+00 3.76665E-02-4.13910E-03
 -1      3333 1.44081E+01 1.28231E+01 7.19979E+00-9.32840E-01-5.73010E-03 3.49454E-01
 -1      3334 1.32240E+01 1.18414E+01 6.36375E+00-6.15591E-01 2.82194E-02-2.80531E-01
 -1      3335 1.45803E+01 1.32707E+01 6.96027E+00-9.60853E-01 1.24354E-02 1.35097E-01
 -1      3336 1.51820E+01 1.37277E+01 7.47091E+00-1.24125E+00-3.07445E-02-2.63120E-01
 -1      3337 1.47268E+01 1.33240E+01 7.30350E+00-1.42258E+00 9.45520E-02-1.03537E-01
 -1      3338 1.70767E+01 1.47355E+01 8.51666E+00-2.18716E+00-8.55565E-02-3.70353E-01
 -1      3339 1.88170E+01 1.73110E+01 8.39662E+00-2.37567E+00-2.65907E-01 1.33750E+00
 -1      3340 1.75987E+01 1.55004E+01 6.84444E+00-1.99532E+00-9.20436E-02 7.92841E-02
 -1      3341 5.79450E+00 4.35981E+00 1.86661E+00-2.25494E-02-8.17298E-03-1.25673E-02
 -1      3342 5.85155E+00 4.45545E+00 1.90579E+00 1.77014E-02-7.68305E-03-3.33182E-03
 -1      3343 1.82533E+01 1.38670E+01 7.95578E+00-1.39995E+00 2.00750E-01-2.72239E-01
 -1      3344 1.31314E+01 1.10184E+01 5.81002E+00-3.15432E-02 5.41015E-02 4.63345E-03
 -1      3345 1.39245E+01 1.12438E+01 6.08053E+00-8.28859E-01-6.20435E-02 1.43068E-01
 -1      3346 1.24641E+01 1.12304E+01 5.94536E+00-4.27260E-01-3.19212E-02 2.16993E-01
 -1      3347 1.39658E+01 1.18356E+01 6.64791E+00-1.11985E+00-8.75613E-02 9.54791E-02
 -1      3348 1.45453E+01 1.28608E+01 6.97062E+00-1.27447E+00-1.53919E-01 1.37262E-01
 -1      3349 1.60628E+01 1.45902E+01 8.19868E+00-1.90553E+00-9.81689E-02 1.98473E-01
 -1      3350 1.39007E+01 1.27253E+01 6.74692E+00-7.24156E-01 9.64218E-03 7.18448E-02
 -1      3351 1.42346E+01 1.28147E+01 6.91767E+00-7.93358E-01-5.55894E-02 4.76608E-01
 -1      3352 1.70630E+01 1.42706E+01 8.09846E+00-1.61256E+00-3.28774E-02 6.02517E-01
 -1      3353 1.87777E+01 1.74004E+01 9.98286E+00-1.53902E+00-2.68030E-01 3.66581E-01
 -1      3354 1.72399E+01 1.51212E+01 8.40833E+00-1.67948E+00 4.43927E-02 6.83621E-02
 -1      3355 1.56155E+01 1.39258E+01 7.65646E+00-1.34160E+00 4.49093E-02-8.43385E-02
 -1      3356 1.20805E+01 1.04965E+01 2.53496E+00-5.38314E-01 4.45484E-03 2.09774E-01
 -1      3357 1.53827E+01 1.33009E+01 7.46345E+00-1.41628E+00 4.25632E-03 1.84479E-01
 -1      3358 2.09333E+01 1.88135E+01 1.06906E+01-2.10346E+00 3.24967E-02 8.31042E-01
 -1      3359 1.75578E+01 1.52234E+01 8.52407E+00-3.11057E+00-2.45943E-02-5.99614E-02
 -1      3360 1.83023E+01 1.52148E+01 8.95390E+00-2.87121E+00 3.62695E-02-4.99637E-01
 -1      3361 1.60985E+01 1.42852E+01 7.59115E+00-1.36193E+00 8.05371E-02 9.88295E-02
 -1      3362 1.46917E+01 1.33815E+01 5.83686E+00-2.98550E-01 1.55646E-01 2.07677E-01
 -1      3363 1.29241E+01 1.04791E+01 4.44919E+00 2.37097E-01 8.81983E-02 1.58285E-01
 -1      3364 6.69384E+00 5.19969E+00 2.41070E+00-7.94532E-02 8.27521E-03 3.37646E-02
 -1      3365 7.03879E+00 5.67637E+00 2.67370E+00-8.22812E-02 7.77438E-03-1.28050E-02
 -1      3366 7.39977E+00 6.02427E+00 2.87168E+00-1.07823E-01-1.34267E-03-2.62511E-02
 -1      3367 1.84148E+01 1.77687E+01 8.82563E+00-2.55556E+00-1.59758E-01 1.83754E-01
 -1      3368 1.95339E+01 1.89800E+01 9.17344E+00-3.29525E+00 9.65223E-02-3.70707E-01
 -1      3369 1.92173E+01 1.72194E+01 9.13420E+00-1.34435E+00-4.28441E-02 7.81586E-01
 -1      3370 1.98006E+01 1.79506E+01 9.47551E+00-1.66719E+00 2.29114E-02-3.08557E-01
 -1      3371 1.96063E+01 1.87049E+01 9.48073E+00-2.52907E+00 1.53812E-01 1.65726E-01
 -1      3372 1.89930E+01 1.81195E+01 9.52052E+00-2.44493E+00 6.91659E-02 9.53417E-02
 -1      3373 1.99288E+01 1.90417E+01 1.03073E+01-3.07381E+00-8.87477E-02-1.75360E-01
 -1      3374 2.04239E+01 1.86231E+01 1.01769E+01-3.20780E+00 2.25224E-01 2.16344E-02
 -1      3375 7.23156E+00 5.97282E+00 2.21761E+00 2.75324E-02 2.91792E-03 2.14766E-02
 -1      3376 7.53756E+00-5.65325E+00-1.13198E+00 1.43802E+00 1.72669E-01 3.62132E-01
 -1      3377 5.68438E+00-1.81831E+00 4.46631E-01 1.49350E+00 8.20262E-01 5.54927E-01
 -1      3378 6.63877E-01-5.67157E+00-2.81835E+00-4.12384E+00-3.72472E-02-4.14951E-01
 -1      3379-3.58785E-01-3.53105E-01-1.53578E+00-8.89293E-01 2.93081E-04-4.11356E-01
 -1      3380 1.15559E+01 2.20406E+00 2.00863E+00 5.43968E+00 5.15132E-02 3.66291E-01
 -1      3381 1.48698E+00-2.83219E+00-1.33822E+00-1.24719E+00-1.92383E-01-3.72420E-01
 -1      3382 4.56321E+00-1.63637E+00-9.04332E-01-1.07012E-02 1.27409E-01 4.28752E-01
 -1      3383 1.06600E+01 2.28514E+00 2.53914E+00 5.99291E+00 4.36947E-01 2.21852E-01
 -1      3384 8.71976E+00 1.07940E+00 2.55699E-01 3.57551E+00-5.06708E-01-3.88363E-02
 -1      3385 4.35921E-01-2.91712E-01-2.86575E-01 1.17263E-01 8.28540E-02 1.41826E-01
 -1      3386 8.99178E+00-1.63029E-01 1.08303E+00 3.94639E+00-4.32321E-01 1.45231E-01
 -1      3387 6.54480E+00-2.43658E+00-2.70977E-01 1.00368E+00 8.37090E-02-1.81329E-01
 -1      3388 2.82337E-01-4.04606E+00-3.29416E+00-3.36716E+00 6.37257E-01 3.10391E-01
 -1      3389 3.82000E-02-6.00387E-01-2.72554E+00-1.50193E+00 2.15808E-01-4.26992E-02
 -1      3390 3.45825E+00-2.35915E+00-1.08517E+00-2.78604E-01 9.62614E-01 2.43259E-01
 -1      3391 6.28818E+00-1.43795E+00-3.44205E-01 6.92621E-01 2.14280E-01 5.93541E-01
 -1      3392 1.97935E+00-2.62244E-01-3.07332E+00 4.55938E-01 4.63088E-01 5.31608E-01
 -1      3393 9.46879E+00 2.29830E+00-3.96392E-01 4.99755E+00 2.04990E-01 7.57149E-01
 -1      3394 5.30025E+00 1.29307E+00 1.18678E-01 2.70788E+00-8.73907E-01-8.05336E-01
 -1      3395 1.00780E+01 3.17281E+00 2.73832E+00 5.82602E+00 2.84139E-01-1.97386E-01
 -1      3396 6.03316E+00-7.51610E+00-1.75818E+00 1.61419E+00-2.99974E-01 6.45972E-02
 -1      3397 6.33360E+00-2.23361E+00-5.20925E-01 2.00400E+00 2.02762E-01 1.35981E-01
 -1      3398 3.44213E+00 5.09366E-01 1.27566E+00 1.68605E+00 8.51281E-01-1.98948E-01
 -1      3399 9.30128E+00-8.39823E-01 1.26735E+00 3.48187E+00-1.45119E-01 1.40021E-01
 -1      3400 4.20035E+00-3.25451E+00-1.66888E+00-3.57966E-01 1.53971E-02-1.54758E-01
 -1      3401 9.95579E-01-3.70763E-03-4.85621E-02-2.79444E-02-7.38963E-03 1.03706E-01
 -1      3402 1.00226E+00-6.36752E-03-5.14991E-01-2.98871E-02-3.95914E-04 4.07063E-02
 -1      3403 1.05484E+00-1.83740E-02-8.21733E-02-6.11537E-02-1.33893E-02 1.91617E-01
 -1      3404 1.18840E+00-4.93134E-02-6.89089E-01-7.65719E-02 5.09234E-03 6.33030E-03
 -1      3405 1.17944E+00-2.02862E-02-7.72309E-01-1.60307E-01 1.53650E-02 7.87990E-03
 -1      3406 1.03181E+00-5.83984E-02-1.89465E-01-1.54679E-01-3.18266E-02 3.10995E-01
 -1      3407 6.71437E+00-1.60855E+00 7.70883E-01 2.54254E+00 8.40373E-01-2.53609E-01
 -1      3408 1.14055E+00-2.60787E+00-4.07457E+00-1.98821E+00 1.89029E-01 1.12793E+00
 -1      3409 3.02236E+00-2.11171E+00-2.31135E+00-6.54031E-01 4.75685E-02 9.69683E-01
 -1      3410 1.26018E+00-3.32358E+00-1.53702E+00-2.22503E+00 1.90166E-01 6.06175E-01
 -1      3411 8.28879E+00-2.66874E+00 6.99452E-01 3.49323E+00-2.51124E-02-3.83047E-01
 -1      3412 1.03259E+01 2.23521E+00 8.49015E-01 6.14298E+00-1.19853E-01-1.58817E-01
 -1      3413 1.03513E+01-8.20288E-01 2.06710E-01 4.46902E+00-7.26627E-01 1.05988E-01
 -1      3414 6.55757E+00-8.48506E+00-1.85271E+00 1.37149E+00 8.46358E-02 1.44216E-02
 -1      3415 1.17162E+00-4.02138E-01-6.22966E-01-2.33721E-01-6.81505E-02 7.31029E-01
 -1      3416 1.18850E+00-4.00560E-01-8.96855E-01-6.38036E-01 3.56236E-02 6.03297E-02
 -1      3417 1.96488E+00-3.00133E+00-3.84629E+00-1.70448E+00-2.79868E-01 2.10701E+00
 -1      3418 1.96331E+00-3.88903E+00-1.08512E+00-2.74083E+00 3.90634E-02 4.80386E-02
 -1      3419 1.05050E+00-4.43604E-02-1.14835E-01-2.54827E-02-1.56083E-02 1.77143E-01
 -1      3420 9.39847E-01-2.71942E-02-2.40457E-01-5.78681E-02-1.38639E-02 2.31812E-01
 -1      3421 9.32490E-01-1.32178E-02-4.05522E-01-9.04314E-02-2.02568E-02 3.32459E-01
 -1      3422 9.03164E-01-1.25291E-02-1.30016E-01-2.72243E-02-2.01357E-03 1.38717E-01
 -1      3423 9.23987E-01-2.65710E-02-3.36159E-01-4.99735E-02-7.65566E-03 2.25648E-01
 -1      3424 1.10045E+00-1.99399E-02-6.04395E-01-3.80998E-02 3.31007E-03 3.84364E-02
 -1      3425 1.04783E+00-8.79523E-03-5.76383E-01-2.89437E-02 3.95648E-04 8.09932E-02
 -1      3426 1.16434E+00-2.82021E-02-6.56213E-01-8.83116E-02 1.16058E-02 9.37074E-02
 -1      3427 9.65013E-01-2.15504E-03-4.73373E-01-2.56142E-02-7.97133E-03 8.36092E-02
 -1      3428 1.08165E+00-4.51591E-02-6.20060E-01-7.78344E-02-7.86927E-03 1.21602E-01
 -1      3429 1.19290E+00-5.98438E-02-7.13067E-01-7.49503E-02 5.09026E-03 1.10328E-01
 -1      3430 1.15753E+00-5.16862E-02-7.20641E-01-1.28617E-01-2.12675E-03 8.29333E-02
 -1      3431 1.19451E+00-1.71660E-02-7.65918E-01-1.44719E-01-5.09056E-03 8.79508E-02
 -1      3432 1.16359E+00-4.95605E-02-7.73266E-01-1.25091E-01-1.82140E-03 1.34205E-01
 -1      3433 1.28925E+00-1.05252E-01-7.62942E-01-4.03187E-02-9.65184E-03 5.94888E-02
 -1      3434 1.34640E+00-1.06567E-01-7.95680E-01-1.13498E-01 1.17182E-02 1.27375E-01
 -1      3435 1.18888E+00-7.18183E-02-8.29722E-01-1.60152E-01-1.01742E-03 1.50715E-01
 -1      3436 1.20783E+00-4.81669E-02-7.43486E-01-3.86446E-02-5.58055E-04 1.80802E-01
 -1      3437 1.21614E+00-6.73972E-02-8.31309E-01-1.18671E-01-4.58626E-03 1.90592E-01
 -1      3438 1.16986E+00-2.65125E-02-8.89343E-01-1.08736E-01-6.18502E-03 1.44310E-01
 -1      3439 1.21656E+00-5.57033E-02-8.89976E-01-1.41611E-01 8.01180E-03 1.86363E-01
 -1      3440 1.16891E+00-3.60999E-02-8.29329E-01-7.70573E-02 7.97711E-04 2.10345E-01
 -1      3441 1.22679E+00-4.02361E-02-9.09111E-01-1.37848E-01 9.65470E-04 2.34207E-01
 -1      3442 1.15451E+00-5.29905E-02-8.12005E-01-1.02601E-01-5.55700E-03 2.56103E-01
 -1      3443 1.14060E+00-1.26196E-02-9.22158E-01-7.07116E-02 7.94921E-03 2.63475E-01
 -1      3444 1.10068E+00-1.74522E-02-7.26950E-01-2.54594E-02-3.21336E-03 2.43314E-01
 -1      3445 1.27988E+00-1.29740E-01-1.02503E+00-1.55421E-01-1.93331E-02 2.31819E-01
 -1      3446 1.21614E+00-1.20242E-01-1.05806E+00-1.64979E-01-5.86820E-03 2.70937E-01
 -1      3447 1.10045E+00-5.00185E-02-9.39942E-01-1.32237E-01-6.15934E-03 3.25591E-01
 -1      3448 1.14542E+00-1.41962E-01-1.10700E+00-2.25602E-01 8.18553E-03 3.36865E-01
 -1      3449 1.29778E+00-7.28682E-02-9.30461E-01-1.72766E-01 8.09197E-03 1.62750E-01
 -1      3450 1.56637E+00-3.26438E-01-8.85537E-01-1.82889E-01-1.62010E-03 1.28295E-01
 -1      3451 1.07299E+00-1.72629E-01-1.20635E+00-4.23286E-01-1.91171E-02 2.58362E-01
 -1      3452 1.42906E+00-3.43333E-01-1.24807E+00-2.52457E-01 2.52096E-02 3.25725E-01
 -1      3453 1.16772E+00-1.38726E-01-1.09628E+00-2.11645E-01-2.02471E-02 3.69131E-01
 -1      3454 1.38977E+00-2.19269E-01-1.26968E+00-2.06763E-01-8.54043E-03 3.63870E-01
 -1      3455 1.02015E+00-3.03764E-03-1.18630E+00-1.94452E-01-9.87295E-03 4.00957E-01
 -1      3456 1.37268E+00-1.60387E-01-1.29422E+00-1.07838E-01 3.44523E-02 4.55877E-01
 -1      3457 1.07980E+00-4.81208E-02-1.15795E+00-1.58168E-01-8.28799E-03 4.46532E-01
 -1      3458 1.15107E+00-1.24166E-01-1.35536E+00-2.37660E-01-1.54429E-02 3.97724E-01
 -1      3459 9.95100E-01-3.66948E-02-1.15861E+00-1.67698E-01-4.89681E-03 5.50917E-01
 -1      3460 1.42149E+00-2.90121E-01-1.39429E+00-2.13896E-01-1.91454E-02 5.66348E-01
 -1      3461 9.44046E-01 3.08702E-02-1.11294E+00-9.33692E-02 4.92625E-03 6.08080E-01
 -1      3462 1.22908E+00-3.16478E-01-1.32570E+00-3.02498E-01-9.08603E-04 5.70783E-01
 -1      3463 9.46123E-01-8.16079E-02-1.03193E+00-1.96957E-01-5.17962E-02 6.07558E-01
 -1      3464 9.33039E-01-7.66156E-02-1.35485E+00-1.56102E-01 7.20906E-03 7.55453E-01
 -1      3465 1.13613E+00-7.28332E-02-9.57263E-01-1.18213E-01-1.58834E-02 4.01769E-01
 -1      3466 1.02280E+00-7.25779E-02-8.89189E-01-1.16751E-01-1.80562E-02 5.35413E-01
 -1      3467 1.29022E+00-2.65434E-01-1.12024E+00-3.88323E-01 2.00982E-02 2.52180E-01
 -1      3468 8.98466E+00-3.27339E-01 7.26732E-01 3.71920E+00 1.38545E-01-8.17749E-02
 -1      3469 1.20999E+00-1.63865E-01-1.36849E+00-3.12554E-01 2.50553E-02 3.31678E-01
 -1      3470 1.05190E+00-2.73958E-02-7.01738E-01-7.14955E-02-2.80728E-03 2.73757E-01
 -1      3471 1.02211E+00-1.38227E-02-6.03674E-01-6.76878E-02-7.16275E-03 2.40738E-01
 -1      3472 1.15776E+00-6.44557E-02-1.24981E+00-2.38897E-01 1.30093E-02 1.58931E-01
 -1      3473 1.48096E+00-5.73339E-01-1.31108E+00-3.86338E-01-7.66095E-02 2.47276E-01
 -1      3474 6.67467E+00-1.45122E+00-6.06359E-01 2.05093E+00-4.59900E-01-4.18440E-01
 -1      3475 1.05010E+00-1.10755E-01-1.55902E+00-3.91959E-01-2.89399E-02 4.15336E-01
 -1      3476 1.41356E+00-5.39411E-01-1.68625E+00-3.61885E-01-2.94003E-02 5.21556E-01
 -1      3477 9.63032E-01-2.66544E-01-1.98535E+00-7.46335E-01-3.21122E-02 5.86884E-01
 -1      3478 1.29329E+00-3.11960E-01-1.52294E+00-5.19150E-01-6.36146E-02 4.22912E-01
 -1      3479 1.21489E+00-5.64081E-02-8.99038E-01-2.02548E-01 1.65539E-03 1.36459E-01
 -1      3480 1.54005E+00-3.77216E-01-9.27887E-01-2.53429E-01 5.46966E-02 1.04939E-01
 -1      3481 1.55228E+00-4.61836E-01-9.57664E-01-3.73141E-01-8.62659E-02 7.20066E-02
 -1      3482 1.67897E+00-3.27279E+00-1.25433E+00-1.84095E+00-7.40135E-02 4.35430E-01
 -1      3483 1.14460E+00-2.10401E-01-9.40700E-01-3.55045E-01 1.02122E-02 1.07467E-01
 -1      3484 1.18021E+00-2.86295E-01-1.01539E+00-6.11210E-01 1.05242E-02 4.76584E-02
 -1      3485 1.54921E+00-1.56880E-01-8.55414E-01-1.11183E-01-2.44328E-02 6.56280E-02
 -1      3486 1.29160E+01 4.14735E+00 3.95147E+00 6.61281E+00 2.31739E-01-1.50601E-03
 -1      3487 1.19856E+00-5.76007E-01-1.14500E+00-7.82435E-01 2.07565E-02 1.72030E-01
 -1      3488 1.70682E+00-5.72139E-01-8.58401E-01-3.13430E-01-2.78622E-02 1.08510E-01
 -1      3489 1.37695E+00-1.38690E-01-8.16030E-01-1.17005E-01-6.45188E-03 7.11072E-02
 -1      3490 1.76075E+00-6.34236E-01-1.42411E+00-3.11035E-01-5.03819E-03 2.70462E-01
 -1      3491 9.00187E-01-1.04631E-01-8.56499E-01-1.92920E-01-1.07234E-02 6.52835E-01
 -1      3492 9.81101E-01-8.83096E-02-6.10370E-01-8.18353E-02-1.12339E-02 5.37421E-01
 -1      3493 1.08554E+00-3.45559E-01-1.19259E+00-3.00316E-01-3.64359E-02 7.93149E-01
 -1      3494 1.72397E+00-4.73877E-01-1.63780E+00-1.68046E-01-1.37272E-01 7.72340E-01
 -1      3495 1.30970E+00-5.35766E-01-1.74768E+00-6.04495E-01 6.00650E-03 1.01831E+00
 -1      3496 1.16804E+00-1.24831E-01-1.18261E+00-3.26319E-01 2.30764E-02 2.48576E-01
 -1      3497 1.32136E+00-8.50287E-01-1.31116E+00-8.85288E-01-1.01185E-01 1.54236E-01
 -1      3498 1.77562E+00-1.27486E+00-1.20377E+00-6.30617E-01 1.12396E-01 1.71868E-01
 -1      3499 1.13976E+00-8.95895E-02-1.01005E+00-2.23024E-01-2.53731E-03 1.80286E-01
 -1      3500 1.24156E+00-2.96444E-01-1.08153E+00-4.57420E-01 5.68665E-03 2.54807E-01
 -1      3501 1.29760E+00-6.33694E-02-1.20189E+00-1.71491E-01 1.13237E-02 2.13154E-01
 -1      3502 1.39461E+00-3.07876E-01-1.26224E+00-4.32062E-01-2.44613E-04 3.54785E-01
 -1      3503 8.25673E+00-2.88637E+00-9.22825E-01 2.98349E+00 1.26377E-01 3.09617E-01
 -1      3504 2.15566E+00-1.22848E+00-1.32435E+00-1.58578E-01 9.69453E-02 2.29710E-01
 -1      3505 2.57155E+00-1.62375E+00-1.42303E+00-2.87723E-01 3.07250E-02 1.44565E-01
 -1      3506 1.23111E+00-8.00503E-01-1.59061E+00-9.43316E-01 2.02778E-01 4.12424E-01
 -1      3507 1.32892E+00-3.40011E-01-1.72514E+00-6.33717E-01-2.32053E-05 2.85887E-01
 -1      3508 1.87216E+00-1.08224E+00-1.51224E+00-6.10436E-01-5.14977E-02 8.51353E-02
 -1      3509 1.11227E+00-7.89324E-01-2.43419E+00-1.00448E+00-4.76954E-02 9.37262E-01
 -1      3510 6.63518E-01-2.61242E-01-2.27125E+00-8.75446E-01-1.37323E-02 4.95062E-01
 -1      3511 1.13574E+00-3.84151E-02-7.20250E-01-1.26904E-01-1.53045E-02 5.82624E-02
 -1      3512 1.21218E+00-4.91873E-02-7.52256E-01-9.22963E-02 7.15442E-03 4.63019E-02
 -1      3513 8.42099E-01-4.12489E-02-2.34155E-01-4.02967E-02-1.34962E-02 1.55360E-01
 -1      3514 9.41472E-01-8.81795E-03-3.96179E-01-4.84209E-02-2.19418E-03 1.68896E-01
 -1      3515 1.22598E+00-2.86281E-02-7.23553E-01-9.38295E-02 2.76742E-03 8.90073E-03
 -1      3516 1.04642E+00-4.18434E-03-6.66393E-01-4.89449E-02-3.03259E-03 2.03073E-01
 -1      3517 1.44247E+00-8.27848E-01-1.96251E+00-5.70245E-01 2.61396E-03 4.26603E-01
 -1      3518 1.54249E+00-1.05326E+00-1.89933E+00-6.56719E-01 3.86549E-02 3.96990E-01
 -1      3519 8.66018E-01-1.11147E-01-3.22847E-01-1.54531E-01-5.18535E-02 5.21745E-01
 -1      3520 1.47382E+00-2.62734E-01-7.66024E-01-2.06432E-01 1.23561E-02 1.33585E-02
 -1      3521 1.13335E+00-7.36740E-03-7.58069E-01-1.57372E-01-1.98772E-02-5.11270E-02
 -1      3522 1.84358E+00-6.13069E-01-7.93788E-01-3.73889E-01 2.99690E-02 4.35981E-02
 -1      3523 1.24854E+00-8.10466E-02-7.50292E-01-1.65115E-01 1.50768E-02 2.21152E-02
 -1      3524 1.20233E+00-5.96450E-02-7.87949E-01-1.91936E-01 4.26634E-03 1.60661E-02
 -1      3525 1.36806E+00-2.50037E-01-7.93833E-01-2.80837E-01-7.98369E-03 1.36989E-02
 -1      3526 1.05229E+00-3.28247E-01-8.66487E-01-4.77784E-01-7.56319E-02-5.67790E-02
 -1      3527 1.21819E+00-3.07488E-01-8.84932E-01-6.42812E-01-1.88378E-02 8.86962E-03
 -1      3528 1.51478E+00-3.46956E-01-7.92346E-01-2.70305E-01-4.82346E-03 3.45594E-02
 -1      3529 1.50413E+00-3.08197E-01-7.89401E-01-4.08091E-01 4.83051E-02 5.23450E-02
 -1      3530 7.97513E-01-2.59720E-01-9.45465E-01-7.52955E-01 2.56397E-02 3.26147E-02
 -1      3531 1.33342E+00-3.55008E-01-8.87933E-01-4.69482E-01-9.82232E-04 1.69329E-01
 -1      3532 1.13111E+00-1.19614E-01-8.30331E-01-4.30062E-01 4.10139E-02 5.81445E-02
 -1      3533 1.30028E+00-1.04109E-01-8.93885E-01-2.90058E-01 1.67155E-02 7.71231E-04
 -1      3534 7.16605E-01-3.11976E-01-9.42312E-01-5.83270E-01 2.39112E-02 1.34624E-02
 -1      3535 2.23395E+00-2.18303E+00-1.09218E+00-5.78305E-01 1.82415E-01-3.32466E-03
 -1      3536 2.10972E+00-7.44990E-01-7.98825E-01-3.90608E-01 8.38184E-02 1.70983E-01
 -1      3537 2.09845E+00-1.92670E+00-1.14678E+00-7.13917E-01 2.01577E-02 1.31534E-02
 -1      3538 1.74158E+00-9.06716E-01-9.55693E-01-7.08345E-01-1.22776E-02 3.52828E-02
 -1      3539 1.48071E+00-3.55448E-01-8.68440E-01-4.40882E-01-2.57907E-02 6.61233E-02
 -1      3540 1.94223E+00-9.07523E-01-8.59006E-01-3.35272E-01 7.13643E-02 5.39115E-02
 -1      3541 1.50084E+00-4.23636E-01-8.91754E-01-4.01031E-01 2.29896E-02 1.65851E-02
 -1      3542 8.59682E-01-6.93304E-02-8.51322E-01-5.50575E-01 4.35144E-02 7.39822E-03
 -1      3543 1.43919E+00-3.85680E-01-9.44409E-01-3.73599E-01-2.30410E-02 8.33405E-02
 -1      3544 1.50779E+00-6.34149E-01-9.48620E-01-6.47695E-01 4.38052E-02 1.13510E-02
 -1      3545 1.68361E+00-7.79199E-01-8.34665E-01-4.83076E-01-1.14746E-01 3.79683E-02
 -1      3546 1.10295E+00-1.16900E-02-8.26159E-01-1.60334E-01 6.96085E-05 5.14339E-02
 -1      3547 1.34188E+00-2.75483E-01-8.92849E-01-4.26363E-01-1.33708E-02 6.59975E-02
 -1      3548 1.44425E+00-4.96534E-01-9.75330E-01-8.08669E-01 1.41523E-02 5.77853E-02
 -1      3549 1.06851E+00-2.61121E-01-1.41090E+00-1.03806E+00 6.94097E-02 1.29450E-01
 -1      3550 1.07252E+00-3.67282E-02-7.69809E-02-8.55018E-02-2.65244E-02 1.94999E-01
 -1      3551 1.67329E+00-8.01311E-01-8.99176E-01-7.57512E-01 1.20539E-01 4.24649E-02
 -1      3552 9.05245E-01-2.31656E-01-1.94884E+00-8.30370E-01-7.80130E-02 2.94298E-01
 -1      3553 1.24071E+00-1.63665E-01-8.72995E-01-2.42891E-01 7.49505E-03 1.21433E-01
 -1      3554 1.54324E+00-7.27374E-01-1.89841E+00-3.84186E-01 3.25602E-02 7.30078E-01
 -1      3555 9.04930E-01-3.23325E-01-2.29820E+00-6.41480E-01-1.12531E-01 1.08975E+00
 -1      3556 1.15529E+00-5.46414E-01-1.67214E+00-4.53147E-01-1.20890E-01 1.06385E+00
 -1      3557 2.97592E+00-2.42123E+00-9.59540E-01-3.91649E-01-8.62535E-02 2.79436E-01
 -1      3558 1.44071E+00-8.41420E-01-1.18044E+00-5.97693E-01-5.11562E-02-1.52499E-01
 -1      3559 1.38232E+00-1.03028E+00-1.04814E+00-8.60441E-01-2.69647E-02 8.58443E-03
 -1      3560 1.78452E+00-5.16796E-01-1.24452E+00-6.38464E-01 1.17024E-01 1.02969E-01
 -1      3561 1.24081E+00-5.36662E-02-8.18974E-01-1.32145E-01 1.43265E-02 9.38283E-02
 -1      3562 1.19993E+00-4.04011E-02-7.79549E-01-1.53296E-01-3.30637E-03 2.57721E-02
 -1      3563 9.58968E-01-2.76846E-02-4.61650E-01-4.19407E-02-2.93460E-05 3.13872E-01
 -1      3564 1.01724E+00-2.33051E-02-6.36495E-01-6.09315E-02-1.05655E-02 3.70330E-01
 -1      3565 1.09036E+00-5.20700E-02-6.75604E-01-4.20329E-02-7.77599E-03 4.29303E-01
 -1      3566 1.02189E+00-3.05198E-02-4.46517E-01-5.85504E-02-7.84936E-03 3.91162E-01
 -1      3567 2.95710E+00-2.36309E+00-1.01154E+00-7.18757E-01-1.24800E-02 7.27474E-02
 -1      3568 1.11725E+00-1.45751E+00-2.45444E+00-8.62129E-01 8.92562E-02 6.30413E-01
 -1      3569 2.05746E+00-2.59998E+00-2.47772E+00-6.35134E-01 1.62483E-01 4.61000E-01
 -1      3570 9.48550E-01-6.00333E-01-1.62178E+00-1.11883E+00 1.25547E-01 4.81835E-01
 -1      3571 1.50878E+00-1.46906E+00-2.62207E+00-5.67908E-01-1.17347E-01 1.31656E+00
 -1      3572 1.38327E+00-2.64907E+00-1.60181E+00-1.52161E+00 2.32026E-01 1.42162E-01
 -1      3573 1.38664E+00-4.95718E-01-1.21462E+00-7.72253E-01-1.71421E-01-2.70160E-02
 -1      3574 1.06709E+00 4.69181E-03-1.22796E+00-3.09889E-01-6.75937E-02 2.35645E-01
 -1      3575 1.18222E+00-6.31905E-01-1.10096E+00-6.67800E-01-1.37857E-02 7.27798E-02
 -1      3576 1.33039E+00-5.62410E-01-1.12321E+00-8.70476E-01-1.09393E-02-7.33293E-02
 -1      3577 1.26622E+00-3.79584E-02-7.50720E-01-5.97849E-02-5.13900E-03 5.42745E-02
 -1      3578 1.17911E+00-5.00192E-01-1.69103E+00-7.05759E-01 8.95470E-02 5.14435E-01
 -1      3579 1.62566E+00-7.93377E-01-1.64895E+00-8.07798E-01-1.28841E-01 3.82902E-01
 -1      3580 9.65969E-01-3.12107E-01-1.74923E+00-7.17907E-01-6.45670E-02 1.69376E-01
 -1      3581 1.17169E+00-2.55492E-02-7.20484E-01-7.84968E-02 5.37190E-03 4.04045E-02
 -1      3582 6.21487E-01-9.61996E-01-1.16430E+00-1.12966E+00-2.10452E-02 1.66571E-01
 -1      3583 1.08797E+00-3.17658E-02-6.87642E-01-1.23953E-01-4.32054E-03 1.59959E-01
 -1      3584 1.03651E+00-1.50426E-02-5.73900E-01-4.43892E-02-2.62158E-03 1.63419E-01
 -1      3585 1.11190E+00-7.67302E-01-2.72842E+00-7.98200E-01-1.72008E-01 6.77710E-01
 -1      3586 3.01428E+00-6.02708E+00-2.25930E+00-5.19049E-01 5.36089E-01 3.66871E-01
 -1      3587 3.11828E+00-2.42204E+00-1.22771E+00-4.08702E-01 6.46509E-02 2.02977E-01
 -1      3588 1.36436E+00-2.48967E+00-1.69361E+00-4.53106E-01-3.40330E-01 1.44358E+00
 -1      3589 1.00751E+00-7.71868E-01-1.16716E+00-1.30190E+00-5.19563E-02 2.30625E-01
 -1      3590 2.40141E+00-2.53379E+00-1.26491E+00-8.40668E-01 2.00040E-01-1.95959E-01
 -1      3591 1.92052E+00-1.64183E+00-8.63932E-01-6.42491E-01 3.98337E-02 7.18134E-02
 -1      3592 8.20977E-01-1.13870E-02-6.63686E-02-1.71913E-02-1.20418E-02 5.94824E-02
 -1      3593 3.02836E+00-2.32486E+00-4.10976E+00-4.15579E-01-3.81843E-01 1.32402E+00
 -1      3594 1.03010E+00-3.95049E-02-5.13208E-01-8.02471E-02-4.56430E-03 1.22010E-01
 -1      3595 1.21458E+00-1.67643E+00-2.38962E+00-4.65291E-01-1.29237E-01 1.46187E+00
 -1      3596 8.43823E+00 4.88949E-01 1.50852E+00 3.71992E+00-9.65391E-01-8.89276E-02
 -1      3597 4.14078E+00-3.81351E+00-1.25647E+00-8.67410E-01 4.38848E-01 8.48101E-01
 -1      3598 7.79128E+00-4.73833E-01-1.59494E+00 2.99422E+00-1.15179E-01 6.57837E-01
 -1      3599 6.42046E+00-3.05636E+00-2.11084E-01 1.94541E+00-7.69054E-01 1.87160E-01
 -1      3600 3.98860E-01-6.54751E-01-1.28637E+00-1.38425E+00 6.20926E-02-1.76648E-01
 -1      3601 1.02532E+01 4.48840E+00 3.56888E+00 6.51371E+00 6.75443E-01 4.19531E-01
 -1      3602 2.92917E+00-8.31619E-01-7.74718E-01 1.35863E-01-9.64088E-03-1.51067E-02
 -1      3603 7.69812E-02-1.21837E+00-1.37717E+00-2.01088E+00 1.10645E-02-1.43011E-02
 -1      3604 1.11519E+00-2.50822E-02-7.96509E-01-8.26489E-02-2.89472E-03 3.07753E-01
 -1      3605 2.94823E+00 1.02801E-01-7.28459E-01 1.23480E+00 3.37303E-01-3.59985E-01
 -1      3606 9.34520E+00 9.85422E-01 3.70733E-02 4.73496E+00-8.00233E-02 8.03026E-01
 -1      3607 7.61369E-01-9.13570E-01-2.14041E+00-2.17341E-02-7.48150E-01 8.72314E-01
 -1      3608 3.16035E+00-2.54554E+00-5.10676E-01-1.00883E+00-3.80687E-01-3.32496E-01
 -1      3609 6.99814E+00-2.28022E+00-1.64758E+00 1.18983E+00-3.43430E-01 1.59342E-01
 -1      3610 4.15361E+00 9.45630E-01-1.53418E+00 1.82683E+00 4.15275E-01 1.53286E+00
 -1      3611 2.98491E+00-2.51620E+00-2.17652E+00 2.64052E-02-1.07754E-01 3.90814E-01
 -1      3612 3.53153E+00-3.19868E+00-2.02855E+00 2.47020E-02 4.95511E-02 3.47064E-01
 -1      3613 7.66205E+00-1.87383E+00 3.98598E-01 1.56595E+00-5.21912E-02 1.35403E-01
 -1      3614-5.11752E-01-4.03788E+00-3.62331E+00-3.83852E+00-3.62771E-01 1.69096E-01
 -1      3615 6.00982E+00-2.36281E+00-3.48343E-01 5.74975E-01 8.05539E-02-1.47541E-01
 -1      3616 3.69216E+00-3.03574E+00-9.30615E-01-7.05482E-02 6.89495E-02-1.70559E-01
 -1      3617 6.81193E-01-3.50363E+00-1.51719E+00-2.45426E+00-4.12133E-01-5.53847E-02
 -1      3618 7.75003E+00-3.06276E+00-1.58772E-01 3.61758E+00 8.87864E-01-8.27043E-02
 -1      3619 7.96165E+00 5.47755E-01 1.01838E+00 3.51425E+00 1.06063E+00 3.41057E-01
 -1      3620 7.05382E+00-5.61692E+00-1.66871E+00 1.54380E+00 1.75342E-01 5.62608E-01
 -1      3621 9.69186E+00-7.09203E-01 1.18174E+00 5.04353E+00 3.84055E-01-1.84004E-01
 -1      3622 1.46167E+00-1.12365E+00-1.35089E+00-6.54217E-01-2.64342E-02 2.74895E-01
 -1      3623 1.43409E+00-7.63840E-01-1.45382E+00-1.07301E+00 5.05283E-02 1.13396E-01
 -1      3624 1.78412E+00-4.19600E-01-1.10056E+00-3.20885E-01-1.52946E-02 2.07916E-01
 -1      3625 1.98574E+00-8.09234E-01-1.13421E+00-3.62642E-01 5.80057E-04 1.58120E-01
 -1      3626 6.44032E-01-3.57899E+00-2.21002E+00-2.73659E+00-3.83018E-02 2.44380E-01
 -1      3627 1.06043E+00-6.16180E-02-1.07771E+00-3.43510E-01-4.39582E-02 1.31682E-01
 -1      3628 1.48992E+00-1.21013E+00-1.37925E+00-6.80711E-01-1.24526E-01-2.69262E-02
 -1      3629 1.41092E+00-8.42435E-01-1.20946E+00-5.58611E-01 2.15940E-02 2.00993E-01
 -1      3630 3.84097E+00-6.84289E+00-2.50749E+00-1.36160E+00-1.39966E-01 4.13092E-01
 -1      3631 1.47690E+00-3.19146E-01-1.00355E+00-3.00485E-01-2.68465E-02 1.48980E-01
 -1      3632 1.07670E+00-3.04142E-01-1.12247E+00-4.65712E-01 4.80026E-02 1.82089E-01
 -1      3633 1.66280E+00-8.94625E-01-1.21193E+00-5.44916E-01-7.93143E-02 1.34546E-02
 -1      3634 1.60414E+00-4.41061E-01-9.69299E-01-4.24560E-01 1.05161E-01 1.09774E-01
 -1      3635 1.13257E+00-1.83590E+00-1.40344E+00-1.14140E+00 1.04027E-01 1.98805E-01
 -1      3636 9.91434E-01-3.54451E-01-1.31614E+00-9.62368E-01 1.20577E-01 3.08137E-01
 -1      3637 2.72570E+00-2.05695E+00-1.37242E+00-4.39962E-01 8.65061E-02 2.39511E-01
 -1      3638 1.96401E+00-3.20500E+00-1.75717E+00-1.01348E+00-6.86875E-02 1.84780E-01
 -1      3639 6.87499E+00 6.29326E-01 1.04717E-01 2.36510E+00 2.60021E-01 3.34067E-01
 -1      3640 5.34465E+00-3.99324E+00-1.12882E+00 2.19692E+00 8.84140E-01 7.55124E-01
 -1      3641 8.74862E+00-2.96586E+00 2.60349E-01 3.90045E+00-2.07345E-01-3.74936E-01
 -1      3642 4.22565E+00-9.57136E-01-8.34351E-01 5.85438E-01-8.69399E-01-2.92511E-02
 -1      3643 5.09461E+00-3.13802E+00-1.58759E+00 7.47220E-01-6.29648E-01 5.78555E-01
 -1      3644 1.13769E+01-1.74223E+00 6.85527E-01 6.36805E+00 6.72792E-01 1.98455E-01
 -1      3645 8.69223E+00-2.09968E+00-7.43011E-01 3.86315E+00 3.33508E-01 4.40148E-01
 -1      3646 2.37010E+00-1.22158E+00-1.58727E+00-7.64848E-01-8.25522E-02 4.14540E-01
 -1      3647 7.24067E+00-2.97215E+00-7.31954E-01 2.57443E+00-1.13460E-01 3.17218E-01
 -1      3648 2.68571E+00-4.82816E-01-1.97038E+00 3.16213E-01-9.16969E-01-6.01508E-01
 -1      3649 2.41730E+00-2.69622E+00-1.84219E+00-4.45863E-01 6.58156E-03 2.53435E-01
 -1      3650-5.34879E-01-1.43147E+00-1.99431E+00-1.39088E+00 3.64928E-01 5.97999E-01
 -1      3651 1.02663E+01 6.17220E-01 1.74570E+00 4.52639E+00-2.83358E-02 1.76193E-01
 -1      3652 5.26396E+00-5.79487E-02-6.94359E-02 1.64853E+00-1.91893E-01 5.26486E-01
 -1      3653 3.57196E-01-8.35229E-01-1.44572E+00-1.61868E+00 3.09870E-01 2.54439E-02
 -1      3654 5.83684E+00-2.38985E+00-4.69365E-01 1.05087E+00-1.85224E-01 2.29814E-01
 -1      3655 4.51289E+00-1.42525E+00 7.87557E-01 2.86674E-01-2.25843E-01-4.97962E-02
 -1      3656 6.17974E+00-8.33686E-01 1.69407E-01 1.33361E+00-5.17872E-01-2.37319E-02
 -1      3657 5.28477E+00-2.85306E+00-8.08856E-01 1.63984E+00-5.08299E-01 1.54302E-01
 -1      3658-6.29196E-01-1.19694E+00-1.27043E+00-1.65735E+00-4.65011E-02 2.01799E-01
 -1      3659 8.75956E+00-1.53324E+00 3.86578E-01 5.17599E+00-1.86467E-01 5.77176E-01
 -1      3660 1.62612E+00-5.70252E+00-3.10967E+00-3.53671E+00 2.65855E-01-1.14906E-02
 -1      3661 1.14087E+01 4.57622E+00 3.41109E+00 6.22992E+00-4.80342E-01-1.35625E-01
 -1      3662 3.31981E+00-2.65842E+00-1.15716E+00-3.05358E-01-2.03749E-01-7.59760E-02
 -1      3663 4.19215E+00-2.58409E+00-7.06958E-01 4.24985E-01 1.51687E-01 9.64154E-02
 -1      3664-1.49246E-01-7.41520E-01-6.21609E-01-1.01412E+00-3.64322E-01 2.12106E-01
 -1      3665-4.42549E-01-9.65113E-01-1.62022E+00-1.33411E+00 6.17765E-01 4.38437E-01
 -1      3666 7.50311E+00-1.78430E+00-2.18156E-02 2.34298E+00-5.18060E-01 5.24458E-01
 -1      3667 1.65746E+00 1.00406E-01-7.68158E-01-7.02521E-02 1.51571E-01 5.64551E-02
 -1      3668 8.80022E+00-1.07981E+00 1.13813E+00 2.66806E+00 1.30347E+00 1.46876E-01
 -1      3669 1.47854E+00-2.60093E+00-1.57575E+00-1.33536E+00-2.48180E-01-1.22900E-01
 -1      3670 2.32131E+00-4.27238E+00-1.73968E+00-2.40749E+00 2.26615E-01 2.68752E-01
 -1      3671 1.73175E+00-3.49537E+00-2.01594E+00-2.71841E+00-4.84156E-02 2.81543E-02
 -1      3672 7.45535E+00-1.38655E-01 7.91846E-01 2.26214E+00 4.21256E-01 2.32482E-01
 -1      3673 5.51931E-01-1.57606E-01-8.03806E-01-3.32823E-01-3.98584E-01 1.05756E-01
 -1      3674 1.60062E+00-5.92639E+00-1.92862E+00-3.25289E+00-2.00954E-01-3.67673E-03
 -1      3675 2.29721E+00-3.55123E+00-2.29475E+00-1.86325E+00-2.76471E-01-8.59792E-02
 -1      3676 2.39666E+00-1.53372E+00-9.06001E-01 2.73792E-01-4.67270E-01 3.59359E-01
 -1      3677 1.04064E+00-1.67781E-01-7.72558E-01-6.51658E-01 1.57409E-03-3.54457E-02
 -1      3678 1.34928E+00-6.28947E-01-1.04846E+00-8.70383E-01-1.68672E-01-2.21090E-01
 -1      3679 1.86413E+00-8.32228E-01-7.50358E-01-4.44429E-01 5.62829E-02 1.14730E-01
 -1      3680 1.21469E+00-7.29357E-02-7.62653E-01-1.43983E-01 6.90683E-04 2.95442E-02
 -1      3681 1.16895E+00-1.30877E-01-1.12101E+00-2.55589E-01 1.07232E-02 2.48174E-01
 -1      3682 1.05101E+00-4.76588E-01-1.10735E+00-5.15242E-01-2.85375E-02-1.92695E-02
 -1      3683 1.36039E+00-1.02867E+00-1.01275E+00-1.38785E+00-8.16099E-02 3.28167E-01
 -1      3684 1.13764E+00-1.29420E-01-9.05171E-01-2.28790E-01-1.20577E-02 1.25230E-01
 -1      3685 9.81644E-01-8.46326E-01-1.22760E+00-4.97307E-01-1.49026E-01 1.97001E-01
 -1      3686 7.77645E-01-5.76001E-02-2.50566E-01 1.57976E-02-1.04805E-02 8.23632E-02
 -1      3687 8.69979E-01-8.34227E-03-4.11044E-01-1.57500E-02 4.73144E-03 3.85551E-02
 -1      3688 1.10613E+00-3.20201E-02-9.45048E-01-6.16270E-02 1.11534E-03 3.61374E-01
 -1      3689 1.14101E+00-5.40833E-02-8.62632E-01-2.31083E-01-2.95962E-03 1.14118E-01
 -1      3690 6.64533E-01-4.52599E-01-2.01869E+00-1.02765E+00 8.38287E-02 2.70302E-01
 -1      3691 1.44738E+00-5.09413E-01-1.10160E+00-4.20475E-01-9.06100E-03 1.67939E-01
 -1      3692 9.82769E-01-2.96103E-02-5.34035E-01-7.93478E-02-9.27183E-03 2.76852E-01
 -1      3693 9.63222E-01-1.41172E-02-4.75795E-01-4.78233E-02-3.31145E-03 2.28775E-01
 -1      3694 6.51071E-01-2.38923E-02-3.32112E-01 1.99714E-02-6.70281E-03 4.30698E-02
 -1      3695 1.52799E+00-2.19253E+00-1.19570E+00-1.83285E+00-3.23879E-01-5.65716E-03
 -1      3696 1.14892E+00-4.98056E-02-9.81918E-01-2.02350E-01 1.53446E-02 2.03306E-01
 -1      3697 1.20376E+00-4.06969E-02-7.43567E-01-9.65745E-02 3.07974E-03-6.56577E-04
 -1      3698 6.90060E-01 1.26037E-02-1.01651E+00-1.60556E-01 2.54348E-02 8.43703E-01
 -1      3699 1.39815E+00-2.54608E-01-7.89516E-01-2.30870E-01 2.72164E-02 1.68749E-02
 -1      3700 1.16802E+00-5.69482E-02-7.49716E-01-6.48069E-02 4.28325E-03 1.94286E-01
 -1      3701 4.65148E-01-8.54471E-01-2.06217E+00-1.41826E+00-2.68226E-02 2.20907E-01
 -1      3702 9.10843E-01-3.46495E-02-3.94200E-01-4.72017E-02-3.40100E-03 9.74252E-02
 -1      3703 2.01104E+00-2.49117E+00-1.49385E+00-2.91417E-01 2.62721E-01 2.64984E-01
 -1      3704 1.10072E+00-1.21223E+00-1.23513E+00-7.36843E-01-8.94459E-02 1.49920E-01
 -1      3705 1.03334E+00-7.18451E-02-9.40742E-01-1.42679E-01-9.24056E-03 4.68882E-01
 -1      3706 9.49971E-01-4.79784E-02-7.94957E-01-1.00393E-01-5.52823E-03 5.81773E-01
 -1      3707 9.41998E-01-4.75307E-03-5.01123E-01-8.30363E-02-1.47505E-02 4.58486E-01
 -1      3708 1.00816E+00-3.17383E-02-2.22513E-01-6.83144E-02-3.26890E-02 3.11653E-01
 -1      3709 1.05571E+00-4.98486E-02-9.56210E-01-8.90155E-02-6.94636E-03 5.10798E-01
 -1      3710 9.90294E-01-1.63809E-02-6.99255E-01-5.10977E-02-1.76681E-03 4.81636E-01
 -1      3711 1.37008E+00-4.59178E-01-5.25937E-01-8.01367E-01-1.90162E-01-1.71473E-02
 -1      3712 1.28586E+00-3.56906E-01-1.63606E+00-4.21208E-01 2.11578E-02 7.45277E-01
 -1      3713 2.22774E+00-7.70741E-01-8.87700E-01-4.60175E-01-2.30491E-02 3.27278E-02
 -1      3714 1.10847E+00 4.04579E-02-7.14471E-01-1.85248E-01 6.34496E-02 1.72339E-02
 -1      3715 8.69641E-01-5.19742E-02-6.38566E-01-1.80626E-01-5.31456E-02 6.03833E-01
 -1      3716 9.46707E-01-6.89489E-02-3.93460E-01-9.79882E-02-1.87510E-02 4.64202E-01
 -1      3717-1.61070E-01-5.16358E-01-1.60196E+00-1.57157E+00-5.45972E-02-1.35105E-01
 -1      3718 1.39939E+00-3.48362E-01-8.33953E-01-3.34693E-01-2.68920E-03 6.00453E-02
 -1      3719 1.12997E+00-7.20969E-02-8.11163E-01-1.09278E-01-1.09397E-02 3.48939E-01
 -1      3720 1.02945E+00-1.69397E-02-6.54040E-01-6.34877E-02 7.88937E-03 3.31666E-01
 -1      3721 1.23182E+00-3.90701E-02-7.65959E-01-1.11618E-01-7.08856E-03 5.08381E-02
 -1      3722 2.99195E+00-4.58164E+00-1.90133E+00-2.10763E+00 2.36925E-01-1.65831E-01
 -1      3723 1.89912E+00-3.35592E+00-1.66636E+00-1.11043E+00-7.21932E-02 1.98046E-01
 -1      3724 2.44380E+00-2.96465E+00-1.89341E+00-1.21661E+00-4.14931E-02 3.66541E-01
 -1      3725 1.12918E+00-3.16845E-02-8.63580E-01-1.85603E-01 4.87081E-04 7.32269E-02
 -1      3726 1.33262E+00-7.29699E-02-7.91003E-01-1.07245E-01 9.21127E-03 7.78949E-02
 -1      3727 2.10838E+00-6.92134E+00-2.45514E+00-4.03010E+00 1.80505E-02 5.10439E-01
 -1      3728 9.27895E+00 1.79595E+00 1.38882E+00 4.34658E+00 4.98708E-01 1.72423E-01
 -1      3729 9.48666E-01-5.47991E-03-1.80518E-02-1.97671E-02-8.53181E-04 5.15033E-02
 -1      3730 2.41405E+00-2.36983E+00-1.09738E+00-8.28875E-01 1.69405E-01 1.12884E-01
 -1      3731 1.27233E+00-4.58892E-02-7.33360E-01-1.09860E-01-4.00262E-03 2.32639E-02
 -1      3732 1.16698E+00-3.83567E-02-7.50004E-01-1.11550E-01 6.80311E-03 3.44186E-02
 -1      3733 1.09348E+00-1.76371E-02-7.59249E-01-1.36169E-01 1.71412E-02 7.50162E-02
 -1      3734 1.45391E+00-3.09410E+00-1.87448E+00-1.63182E+00-3.45779E-01-4.60200E-04
 -1      3735 3.69475E+00-3.42240E+00-1.01119E+00-4.95847E-01 4.51488E-02 1.61640E-01
 -1      3736 5.55015E-01-2.00013E-02-7.77409E-02 6.68027E-03 6.43950E-03 1.20489E-02
 -1      3737 9.65913E+00 4.11990E+00 3.96746E-01 4.63878E+00 3.78195E-02 5.58267E-01
 -1      3738 1.08911E+00-2.81710E-02-5.78639E-02-4.58286E-02-1.55378E-02 1.23086E-01
 -1      3739 1.14062E+00-3.74973E-02-6.44556E-01-5.93159E-02-3.41917E-03 2.32977E-02
 -1      3740 1.51322E+00-2.43628E-01-2.98171E+00-2.78987E-01-1.40537E-01 1.17573E+00
 -1      3741 3.51939E+00-2.65152E+00-6.47681E-01-1.28422E-01 9.45406E-02 1.70478E-01
 -1      3742 3.57315E+00-2.34506E+00-9.51109E-01-4.07062E-01 1.06807E-01-2.61053E-02
 -1      3743 1.00613E+00-7.03669E-01-2.09323E+00-9.75782E-01 3.71614E-02 6.52430E-01
 -1      3744 8.44451E-01-6.82267E-03-2.69262E-01-1.35552E-01-4.42020E-02 3.33770E-01
 -1      3745 1.17771E+00-8.19771E-03-1.01017E+00-1.56583E-01 1.77082E-02 1.44446E-01
 -1      3746 1.26501E+00-4.03750E-01-8.78350E-01-5.18322E-01-1.16111E-03 2.86015E-03
 -1      3747 6.01459E-01-1.17760E+00-2.94283E+00-8.17782E-01-2.78144E-02 6.25507E-01
 -1      3748 2.19236E+00-3.80619E+00-2.10693E+00-8.55373E-01 7.04500E-03 3.12478E-02
 -1      3749 1.02920E+00-4.19339E-02-8.26840E-01-1.24585E-01-1.81839E-02 3.92617E-01
 -1      3750 5.99206E-01-8.85114E-01-2.04055E+00-1.39500E+00-3.20385E-01 4.16306E-01
 -1      3751 7.79918E-01-3.19663E-01-1.54918E+00-6.37782E-01-7.28055E-02 1.08434E+00
 -1      3752 1.25819E+00-2.90456E-01-1.53374E+00-3.53068E-01-3.21618E-02 3.55699E-01
 -1      3753 1.03645E+00-5.91693E-01-7.98042E-01-9.02785E-01-2.86858E-01-3.73770E-01
 -1      3754 9.83797E-01-1.50243E-02-5.45300E-01-5.84919E-02-1.75703E-03 2.06912E-01
 -1      3755 7.77896E-02-6.82876E-01-1.40622E+00-1.26513E+00-3.21387E-01 2.28886E-01
 -1      3756 2.93735E+00-2.94397E+00-1.21304E+00-4.89985E-01-6.40818E-02-4.30593E-01
 -1      3757 1.20105E+00-3.89232E-01-1.81104E+00-9.06753E-01-1.93169E-01 1.87924E-01
 -1      3758 1.34416E+00-5.38571E-01-1.22290E+00-9.47244E-01 2.77626E-01 1.09142E-01
 -1      3759 4.95280E-01-6.70947E-01-1.39108E+00-1.36963E+00-3.87334E-01-2.42281E-01
 -1      3760 1.48970E+00-2.27123E+00-1.03096E+00-2.12815E+00 5.74866E-01 4.07111E-01
 -1      3761 1.34336E+00-5.94732E-01-1.56834E+00-5.10793E-01 7.05805E-02 8.51101E-03
 -1      3762 3.24851E+00-1.68758E+00-1.18764E+00 6.66151E-01 2.17032E-01 2.97478E-01
 -1      3763 2.18704E+00-6.76372E-01-1.55632E+00-2.92316E-02 2.06627E-02 3.55042E-01
 -1      3764 1.02561E+00-5.41989E-01-1.20048E+00-1.05371E+00-2.70887E-01-9.37293E-02
 -1      3765 1.85893E+00-1.36345E+00-1.67227E+00-9.61461E-01-6.21704E-02-9.19902E-02
 -1      3766 2.94726E+00-1.74179E+00-1.62845E+00-5.20243E-01-6.90681E-02 3.94141E-01
 -1      3767 1.56298E+00 8.31449E-02-1.06385E+00-2.36783E-01 1.56889E-01 5.77549E-02
 -1      3768 1.69315E-01-1.10287E+00-2.02861E+00-2.38618E+00-6.85054E-02 9.95337E-02
 -1      3769 1.91182E+00-1.73949E+00-1.51444E+00-6.95444E-01-2.53195E-01 2.69115E-02
 -1      3770 2.33544E-01-6.85319E-01-1.27968E+00-1.34161E+00 6.01424E-01-9.59758E-02
 -1      3771 2.87883E+00 1.08334E-01-1.76367E-01 8.59126E-01 1.32318E-03 2.72830E-01
 -1      3772 1.08962E+00-2.31465E-01-1.03503E+00-4.93532E-01-4.21413E-02 1.04598E-01
 -1      3773 9.86288E-01-1.60908E+00-1.69517E+00-7.66228E-01 1.08664E-01 1.93862E+00
 -1      3774 2.28423E+00-1.86550E+00-1.34531E+00-9.61836E-01-3.26122E-01-1.87677E-01
 -1      3775-7.36736E-02-8.92377E-01-2.81891E+00-1.53096E+00 2.29915E-01 5.56869E-01
 -1      3776 2.13578E+00-1.82744E+00-9.72755E-01-5.51991E-01-1.03845E-01 1.18783E-01
 -1      3777 1.07912E+00-5.91491E-02-8.12618E-01-2.45851E-01-8.81787E-03 5.52134E-02
 -1      3778 1.44953E+00-6.00071E-01-1.70687E+00-4.76823E-01-6.09195E-02 6.28082E-01
 -1      3779 2.22557E+00-2.43077E+00-1.17915E+00-1.32164E+00 1.68479E-01 3.80610E-02
 -1      3780 8.17355E+00-2.10117E+00-3.61187E+00 4.11212E+00-9.20211E-03 2.47806E+00
 -1      3781 1.15658E+01-3.34180E+00 8.11613E-01 5.99317E+00-2.62555E-02 2.45586E-01
 -1      3782 1.01165E+00-3.91681E-02-2.20751E-01-6.19994E-02-2.52284E-02 2.64820E-01
 -1      3783 3.55882E+00-2.68815E+00-2.34760E+00 3.10286E-01-8.05710E-02 5.11981E-01
 -1      3784 2.62237E+00-2.12968E+00-1.29246E+00-8.23157E-02-2.59323E-02 1.36703E-01
 -1      3785 1.17030E+00-6.45951E-02-8.40183E-01-1.96765E-01 5.48682E-04 9.14950E-02
 -1      3786 2.24557E+00-1.99384E+00-5.91326E-01-6.77058E-01-5.25715E-02-1.27136E-02
 -1      3787 1.17484E+00-7.78921E-02-1.41954E+00-2.57713E-01-5.94256E-03 3.61798E-01
 -1      3788 1.18438E+00-5.17543E-01-1.68028E+00-8.83503E-01-8.01976E-02 3.00297E-01
 -1      3789 1.30953E+00-9.35075E-02-9.02108E-01-4.67461E-02-6.72083E-03 1.85699E-01
 -1      3790 1.16326E+00-4.66122E-02-6.69126E-01-6.48270E-02 1.73922E-03 3.84197E-02
 -1      3791 1.13975E+00-3.40221E-02-6.47543E-01-6.55348E-02 6.54193E-03 5.96225E-02
 -1      3792 1.71469E+00-5.77435E-01-1.46350E+00-4.44285E-01-6.12926E-02 4.52709E-01
 -1      3793 2.12438E+00-2.26115E+00-2.41374E+00-4.89693E-01-4.10669E-02 3.82781E-01
 -1      3794 8.83779E-01-4.63339E-01-8.14598E-01-4.55242E-01-1.39937E-01 8.75154E-01
 -1      3795 1.32438E+00-9.48639E-02-9.32766E-01-4.86784E-02-1.70708E-02 1.07942E-01
 -1      3796 7.55900E-01-6.62937E-01-1.86232E+00-1.28975E+00 5.33885E-01 1.84632E-01
 -1      3797 1.25287E+00-2.51047E-01-1.07433E+00-3.72868E-01-8.06521E-03 2.16961E-01
 -1      3798 1.36265E+00-2.64124E-01-1.14638E+00-5.92971E-01 6.05231E-02 1.63552E-01
 -1      3799 1.18456E+00-3.03006E-02-7.71637E-01-1.43575E-01-3.48188E-03 8.77656E-02
 -1      3800 2.39368E+00-7.16439E-01-1.10886E+00-5.42577E-01 4.97873E-02 2.14544E-01
 -1      3801 8.11377E+00-9.89882E+00-4.83748E-01 3.11015E+00 3.21298E-01-3.14998E-01
 -1      3802 1.70826E+01 3.04082E+01 1.34061E+01 1.02186E+01 8.75619E-01-4.61002E-03
 -1      3803 2.43930E+01 2.75430E+01 1.42833E+01 1.39059E+01-1.99419E+00-1.29970E-01
 -1      3804 3.63381E-01-6.05057E-03-3.73678E-01 1.50765E-02-3.22226E-03 8.77893E-03
 -1      3805 7.14882E-01-3.33467E-03-3.47170E-01 3.00064E-03-2.81867E-03 1.53425E-02
 -1      3806 4.14950E-01-3.48317E-02-3.17196E-01 6.54569E-02-1.03629E-02 3.65632E-02
 -1      3807 9.49080E+00 1.96049E+01-4.32990E-01 7.37195E+00 1.33502E+00 2.54341E+00
 -1      3808 6.05469E+00-5.89797E+00-2.22877E+00 2.64702E+00-5.34098E-01 2.04832E+00
 -1      3809 1.90329E+01 2.20529E+01 5.19770E+00 1.05797E+01 1.51955E+00 2.02106E+00
 -1      3810 7.62545E-01-1.70200E-02-2.04590E-02 3.81487E-04 2.75952E-03 2.56743E-02
 -1      3811 3.35060E-01-5.21258E-02-8.64882E-02 5.93161E-03-4.19391E-03-1.50337E-02
 -1      3812 3.82896E-01-2.01976E-03-1.93356E-01 5.03259E-02-9.05634E-04-2.88590E-03
 -1      3813 1.03426E+00-2.42801E-01-1.49924E+00-4.45831E-01 6.75076E-02 2.70519E-01
 -1      3814 1.04675E+00-8.84608E-01-1.55001E+00-5.68734E-01-4.33984E-01-4.36356E-01
 -1      3815 5.57652E+00-3.34657E-01-7.02299E-01 1.00727E+00-4.92127E-01-6.91831E-01
 -1      3816 1.18421E+00-2.58907E-01-9.82054E-01-3.87328E-01 3.74826E-03 1.13272E-01
 -1      3817 1.22435E+00-1.67199E-01-9.32445E-01-4.34420E-01 3.91528E-02 1.11872E-01
 -1      3818 9.20774E-01-2.62631E-01-1.04978E+00-5.29869E-01 1.73741E-01 3.12037E-01
 -1      3819 1.17334E+00-4.38374E-01-1.32552E+00-3.42274E-01 2.32237E-01 2.95791E-01
 -1      3820 1.39774E+00-2.65651E+00-1.45872E+00-1.25456E+00 1.06144E-01-5.09875E-01
 -1      3821 1.05345E+00-8.79397E-02-8.68466E-01-1.49451E-01 3.36056E-02 8.04975E-02
 -1      3822 1.42192E+00-1.32303E-01-8.74740E-01-2.68463E-01 4.99562E-02 1.09303E-01
 -1      3823 1.19653E+00-4.73187E-01-9.38349E-01-6.28557E-01-3.44162E-02 5.68217E-02
 -1      3824 1.21175E+00-3.48920E-02-7.61423E-01-9.42806E-02-1.90490E-03 2.41848E-02
 -1      3825 1.22867E+00-1.20047E-02-7.63638E-01-1.02318E-01 1.25191E-02 3.15617E-02
 -1      3826 1.20204E+00-8.80544E-02-8.03001E-01-1.56600E-01 3.01685E-03 1.63522E-02
 -1      3827 1.30750E+00-3.23846E-02-7.43216E-01-8.84137E-02 3.00137E-02 3.54978E-02
 -1      3828 1.15514E+00-4.01461E-01-8.54089E-01-3.94573E-01 2.36371E-02-5.61797E-02
 -1      3829 1.19968E+00-2.22916E-02-7.22921E-01-4.38533E-02 5.74077E-03 4.27068E-03
 -1      3830 1.24965E+00-8.50096E-03-7.19388E-01-5.65822E-02 1.19709E-02 1.54401E-02
 -1      3831 1.20238E+00-2.59530E-02-7.53502E-01-1.41118E-01 2.42951E-03 2.08351E-03
 -1      3832 1.16429E+00-1.92718E-02-6.80219E-01-3.21765E-02-7.02043E-04 1.87404E-02
 -1      3833 1.19382E+00-4.52805E-03-6.96269E-01-3.16881E-02 5.49698E-03 1.61393E-02
 -1      3834 1.21008E+00-3.34120E-02-6.94991E-01-7.05559E-02 5.94639E-03 2.42600E-03
 -1      3835 1.24979E+00-2.17474E-02-7.12327E-01-3.15177E-02-6.90783E-03 1.45215E-02
 -1      3836 1.21080E+00-1.30279E-02-7.41392E-01-8.72021E-02 1.41774E-02-2.37809E-03
 -1      3837 1.09338E+00-1.67122E-02-6.15591E-01-2.53708E-02 2.46366E-03 1.41178E-02
 -1      3838 1.13829E+00-1.19798E-03-6.42214E-01-2.87583E-02 1.03253E-02 2.41691E-02
 -1      3839 1.13921E+00-5.73576E-02-6.75871E-01-7.04530E-02-4.41505E-03 1.88498E-02
 -1      3840 9.86918E-01-1.08045E-02-4.90593E-01-2.45869E-02-3.31493E-03 2.04875E-02
 -1      3841 1.03818E+00 3.72079E-03-5.42255E-01-1.86403E-02 3.17083E-03 2.46173E-02
 -1      3842 1.04525E+00-1.27713E-02-5.60746E-01-3.64510E-02 3.47627E-03 3.71081E-02
 -1      3843 1.09595E+00-6.92640E-03-5.88859E-01-1.62490E-02 6.15551E-04 2.72012E-02
 -1      3844 1.08480E+00-4.69220E-02-6.47184E-01-3.89945E-02 8.45971E-04 2.82058E-02
 -1      3845 8.20560E-01-2.89439E-03-3.86915E-01-1.02767E-02 1.06769E-03 1.78248E-02
 -1      3846 9.20832E-01-6.01321E-03-4.40416E-01-1.76115E-02 2.93619E-03 1.64449E-02
 -1      3847 9.35426E-01-1.01418E-02-4.62888E-01-2.22257E-02 1.14472E-03 3.96004E-02
 -1      3848 7.63625E-01-2.08927E-02-3.72800E-01-6.09134E-04 2.27378E-04 4.45037E-02
 -1      3849 6.41999E-01-3.53449E-01-1.24989E+00-1.25693E-01 1.24884E-01 1.37679E+00
 -1      3850 5.83460E-01-4.49228E-01-8.22648E-01-3.35974E-01-2.60970E-01 4.67937E-01
 -1      3851 3.40058E+00-4.62104E-01-2.83624E+00 5.66026E-01 3.46107E-01 2.67475E+00
 -1      3852 1.08558E+00-2.64328E-01-4.10097E-01-2.59918E-01-1.77986E-01 3.64842E-01
 -1      3853 1.46481E+00-1.69093E-01-1.78659E-01-1.39253E-01-1.23442E-01 2.62506E-01
 -1      3854 1.36756E+00-2.50764E-01-5.37575E-01-7.48055E-02-4.30068E-01 4.20699E-01
 -1      3855 6.17405E-01-8.12974E-01-1.27999E+00-3.69826E-01-1.18767E-01 9.20753E-01
 -1      3856 2.05550E-01-2.50043E+00-1.60178E+00-9.67382E-01-3.01184E-01 1.88565E+00
 -1      3857 1.21589E+00-1.60349E-02-1.41625E-01-1.07133E-01-1.00365E-02 1.79909E-01
 -1      3858 1.18644E+00-1.57198E-02-8.61455E-02-9.73914E-02-3.62345E-02 1.47781E-01
 -1      3859 9.02461E-01-1.16819E-01-4.37292E-01-8.08814E-02-8.97682E-02 5.10073E-01
 -1      3860 1.24681E+00-1.86866E-02-7.62917E-02-8.28950E-02-3.04398E-02 1.36921E-01
 -1      3861 1.23284E+00-4.31270E-02-7.68903E-02-7.71572E-02-4.32225E-03 1.06162E-01
 -1      3862 1.22889E+00-3.46411E-02-1.19384E-01-5.46806E-02-3.20244E-02 1.96095E-01
 -1      3863 1.02213E+00-4.14402E-02-2.33654E-01-1.65233E-01-7.32492E-02 4.20137E-01
 -1      3864 7.20269E-01-1.02550E-01-3.43124E-01-1.51323E-01-3.19926E-02 4.29623E-01
 -1      3865 1.30683E+00 7.84990E-03-3.62625E-02-6.15518E-02-1.80291E-02 8.30459E-02
 -1      3866 1.23681E+00-1.20790E-02-3.19967E-02-3.10180E-02-2.29567E-02 8.49052E-02
 -1      3867 1.08264E+00-5.46743E-02-1.15232E-01-1.05946E-01-2.05816E-02 2.40432E-01
 -1      3868 1.21132E+00-7.29633E-03-4.08749E-02-2.49316E-02-1.03918E-02 9.21126E-02
 -1      3869 1.18798E+00-1.92347E-02-3.28558E-02-2.58580E-02-4.39579E-03 7.38342E-02
 -1      3870 1.22265E+00-1.08401E-02-8.87758E-02-1.64303E-02-1.31681E-02 1.39106E-01
 -1      3871 1.04186E+00-2.49851E-02-1.37232E-01-5.79700E-02-2.12083E-02 2.44185E-01
 -1      3872 1.00147E+00-3.67300E-02-1.88253E-01-7.49687E-02-3.00684E-02 2.77873E-01
 -1      3873 1.21886E+00 2.09588E-03-2.37803E-02-2.10997E-02-1.17603E-02 4.96052E-02
 -1      3874 1.17185E+00-1.20561E-02-2.03826E-02-1.40486E-02-1.33881E-02 5.07097E-02
 -1      3875 1.09096E+00-1.13046E-02-5.48617E-02-5.71271E-02-1.36121E-02 1.61327E-01
 -1      3876 1.11316E+00-4.08873E-03-2.47718E-02-1.39098E-02-4.79409E-03 5.43290E-02
 -1      3877 1.06802E+00-1.11686E-02-1.85112E-02-1.59998E-02-1.03577E-03 4.03008E-02
 -1      3878 1.15291E+00-4.97914E-03-4.10547E-02-9.04302E-03-1.14496E-02 7.80314E-02
 -1      3879 1.01734E+00-1.65559E-02-8.38403E-02-2.31866E-02-1.41368E-02 1.34873E-01
 -1      3880 1.01545E+00-6.43518E-02-1.19986E-01-3.35895E-02-1.59330E-02 1.48838E-01
 -1      3881 1.05335E+00 5.99426E-03-5.21547E-03-1.11779E-02-1.41651E-03 2.07465E-02
 -1      3882 9.54725E-01-2.59871E-03 1.26197E-03-7.43548E-03-2.65010E-03 2.88132E-02
 -1      3883 9.88041E-01-4.26626E-03-2.64691E-02-2.48652E-02-2.66551E-03 7.77647E-02
 -1      3884 8.91773E-01 6.83822E-04-4.78502E-02-1.99525E-02-6.89981E-03 5.83469E-02
 -1      3885 8.69191E-01 8.88490E-03-1.72278E-02-8.97211E-03-9.33751E-03 3.71098E-02
 -1      3886 7.05137E-01 2.03773E-02-4.81751E-02 5.08728E-04-1.00780E-02 3.29639E-02
 -1      3887 1.55610E+01 9.96208E+00 7.04758E+00 1.05724E+01 1.57095E+00 6.14447E-01
 -1      3888 1.68584E+01 1.09951E+01 6.10300E+00 1.14696E+01 5.89983E-01 6.92699E-01
 -1      3889 7.84234E+00-9.94060E-03 2.20882E-01 1.61320E+00-1.92952E-01-1.92847E-02
 -1      3890 1.83794E+01 1.13156E+01 7.79370E+00 1.49269E+01-4.42816E-01-4.03513E-01
 -1      3891 1.82215E+01 1.11233E+01 8.00121E+00 1.39341E+01-1.73092E+00-2.79611E-01
 -1      3892 3.84852E+00-2.80899E+00-9.47742E-02-1.13019E+00-1.89288E-01-2.31691E-01
 -1      3893 1.77378E+01 1.07017E+01 7.84122E+00 1.34013E+01 2.13795E+00 2.53477E-01
 -1      3894 1.80119E+01 1.15560E+01 8.36179E+00 1.42094E+01 1.06504E+00 7.28002E-01
 -1      3895 9.71248E+00 3.08830E+00 1.77519E+00 5.07557E+00 1.53472E-01-1.20676E-01
 -1      3896 1.66643E+01 1.15954E+01 6.88166E+00 1.23663E+01-1.78435E-01 3.50304E-01
 -1      3897 1.70590E+01 1.17930E+01 6.47263E+00 1.22941E+01 6.24207E-03 3.04197E-01
 -1      3898 2.84008E+00-5.70566E+00-6.54489E-01-1.68510E+00 3.60500E-02 2.25144E-01
 -1      3899 1.89140E+01 1.01063E+01 7.18112E+00 1.37796E+01-1.18486E+00-1.68789E-01
 -1      3900 1.70007E+01 8.11164E+00 6.73414E+00 1.17367E+01-2.39050E+00-1.32855E+00
 -1      3901 6.02912E+00-2.86819E+00-5.78230E-01 6.71501E-01 3.16582E-01 9.64022E-01
 -1      3902 1.72011E+01 1.72294E+01 9.07070E+00 1.41283E+01 2.36152E+00 5.00108E-01
 -1      3903 1.78670E+01 2.38552E+01 1.15878E+01 1.59118E+01-1.91752E-01-5.46032E-01
 -1      3904 9.13079E+00 1.99354E+00 1.51944E+00 4.12388E+00-8.27454E-01-1.05454E+00
 -1      3905 1.90289E+01 2.82949E+01 1.35357E+01 1.59277E+01 2.51438E-01-2.03525E-01
 -1      3906 1.70499E+01 2.02758E+01 9.83415E+00 1.32027E+01-6.52227E-01 1.82663E+00
 -1      3907 9.85466E+00 4.43732E+00 3.43226E+00 6.43152E+00 4.99069E-02-4.78349E-01
 -1      3908 1.51017E+01 4.53648E+00 4.96030E+00 1.07065E+01 4.77659E-01 2.01622E+00
 -1      3909 2.13973E+01 4.56930E+00 5.84608E+00 1.13000E+01 1.38563E-01-8.06357E-01
 -1      3910 5.46836E+00 6.28981E-01 9.21226E-01 1.99406E+00 8.46113E-01 1.56466E+00
 -1      3911 1.91946E+01 4.27256E+00 5.65984E+00 1.12428E+01-1.04031E+00-1.70902E+00
 -1      3912 1.91420E+01 1.29136E+01 8.13601E+00 1.46783E+01 9.68528E-01 2.95863E-01
 -1      3913 1.18061E+00 3.94892E-01-1.23744E+00 1.10154E+00-3.26926E-02-1.10021E+00
 -1      3914 1.60783E+01 1.18547E+01 6.86290E+00 1.14600E+01 6.95228E-01-4.75360E-01
 -1      3915 1.61303E+01 1.22879E+01 7.02393E+00 1.17337E+01 6.81781E-02-2.48019E-01
 -1      3916 5.30835E+00 9.38991E-02 1.22711E-01 1.63905E+00-5.41059E-01-2.44444E-01
 -1      3917 1.68066E+01 1.17246E+01 7.57491E+00 1.27839E+01-9.96699E-01-8.24690E-01
 -1      3918 1.57454E+01 1.37244E+01 8.06312E+00 1.25844E+01 4.18504E-01 6.13622E-01
 -1      3919 3.26330E+00-3.98588E+00-9.61479E-02-1.53532E+00 5.69372E-01-1.08143E-01
 -1      3920 1.53532E+01 1.30707E+01 8.10128E+00 1.21255E+01 1.36836E+00 9.44018E-01
 -1      3921 1.59831E+01 1.39717E+01 7.53595E+00 1.39129E+01 3.81815E-03-5.05733E-01
 -1      3922 9.08621E+00-8.18308E-01 2.24246E-01 2.15222E+00 3.06555E-01 3.52085E-01
 -1      3923 1.66887E+01 1.49543E+01 7.11662E+00 1.41210E+01-9.81123E-01-1.36354E+00
 -1      3924 1.83225E+01 1.37964E+01 8.17352E+00 1.33711E+01-1.26050E-01 6.34720E-01
 -1      3925 4.41407E+00-4.22738E+00-6.90899E-01-6.45197E-01-2.87627E-01-4.71765E-01
 -1      3926 1.70265E+01 8.11687E+00 7.13275E+00 1.11519E+01 6.65512E-01 1.10744E+00
 -1      3927 1.89820E+01 7.51383E+00 6.76613E+00 1.17319E+01 2.29681E-01 5.75167E-01
 -1      3928 4.58981E+00-1.72853E+00-6.18693E-01-7.71708E-01 2.55491E-01 8.16810E-01
 -1      3929 1.82980E+01 7.03717E+00 6.34680E+00 1.13772E+01-4.55160E-01-3.61794E-01
 -1      3930 1.44412E+01 7.29154E+00 6.36055E+00 1.00011E+01-1.25171E+00-9.82948E-01
 -1      3931 6.23825E-01-3.73946E+00-1.30627E+00-2.58481E+00 1.00527E-02 3.14682E-01
 -1      3932 1.82816E+01 1.78792E+01 1.00028E+01 1.34930E+01-3.57917E-01-3.49335E-01
 -1      3933 1.59410E+01 1.66042E+01 8.19058E+00 1.27519E+01-2.35839E+00-3.92516E-01
 -1      3934 5.62413E+00-9.31303E-01 1.85222E-01-2.19191E-01-1.05912E-01-3.66297E-01
 -1      3935 1.66112E+01 1.35910E+01 8.39169E+00 1.18315E+01 2.76481E+00 1.56143E+00
 -1      3936 1.72397E+01 2.20816E+01 9.86242E+00 1.42515E+01 1.44078E+00-2.56304E-01
 -1      3937 8.56587E+00 1.64836E+00 1.22415E+00 3.64978E+00 4.80501E-01 6.28972E-01
 -1      3938 1.56609E+01 2.24418E+01 9.74338E+00 1.32592E+01 6.71651E-02-3.34904E-01
 -1      3939 1.60168E+01 2.03768E+01 9.53283E+00 1.32512E+01-8.11826E-01 3.03574E-01
 -1      3940 7.57238E+00-4.00532E+00 3.09300E-02 3.07473E+00-4.86956E-01-9.79450E-01
 -1      3941 1.78468E+01 2.27060E+01 1.00654E+01 1.52363E+01-1.33496E+00 6.90679E-01
 -1      3942 1.70826E+01 1.38438E+01 8.03251E+00 1.42438E+01 1.57568E+00 7.02020E-01
 -1      3943 9.59408E+00-1.90276E-01 1.16002E+00 4.86759E+00 3.43733E-01 1.80022E-01
 -1      3944 1.67981E+01 1.35173E+01 7.63449E+00 1.36851E+01-7.28231E-01 1.22158E-01
 -1      3945 1.61338E+01 9.78573E+00 6.54460E+00 1.14216E+01-1.40193E+00 3.45185E-02
 -1      3946 3.94511E+00-1.45863E+00 1.74616E-01 3.95588E-01-1.43821E-01 3.77331E-01
 -1      3947 1.44008E+01 2.85367E+00 4.56784E+00 8.98183E+00 2.02555E-01 1.09688E+00
 -1      3948 1.20421E+01 4.63861E+00 4.56171E+00 8.74779E+00-1.18747E+00-2.36964E+00
 -1      3949 3.17260E+00 7.86993E-01-2.76444E-01 8.40848E-01 1.35680E-01 1.09624E+00
 -1      3950 1.72132E+01 2.13564E+01 9.96239E+00 1.23601E+01 1.53759E+00-1.56318E+00
 -1      3951 1.43588E+01 2.13912E+01 9.55806E+00 1.32964E+01 1.46549E+00 7.23259E-01
 -1      3952 5.92318E+00 6.93919E-01 3.13570E-01 2.41451E+00-2.77906E-01-1.57252E+00
 -1      3953 1.43649E+01 1.92246E+01 7.49433E+00 1.16288E+01-2.52428E-01 8.04236E-02
 -1      3954 1.45504E+01 1.86860E+01 7.91721E+00 1.16695E+01 1.30991E-01-7.77192E-02
 -1      3955 7.75252E+00-6.40943E+00-3.63819E-01 2.47931E+00 2.73205E-01 6.02016E-01
 -1      3956 1.38587E+01 1.91050E+01 8.73324E+00 1.25933E+01-8.73367E-01-7.37372E-01
 -1      3957 1.60245E+01 1.83932E+01 9.17690E+00 1.30837E+01-4.60436E-01 5.64733E-01
 -1      3958 7.77380E+00-6.84246E+00-9.79317E-01 2.40436E+00 1.11211E-01-6.68468E-01
 -1      3959 1.36273E+01 1.32961E+01 7.88448E+00 1.20045E+01 9.06007E-01 1.14644E+00
 -1      3960 1.45917E+01 1.42412E+01 7.94151E+00 1.25461E+01-9.77736E-01-8.89037E-01
 -1      3961 7.05925E+00 5.38434E-01 1.26373E+00 2.24910E+00-2.56783E-01 3.73671E-01
 -1      3962 1.82111E+01 2.25524E+01 1.06218E+01 1.52735E+01 1.53343E+00-2.46457E-01
 -1      3963 1.74052E+01 2.79871E+01 1.23105E+01 1.55482E+01 5.90400E-01 6.60038E-01
 -1      3964 7.86690E+00 2.06889E+00 1.60452E+00 3.38630E+00 3.29716E-02-2.15979E-01
 -1      3965 1.70059E+01 2.40229E+01 1.00094E+01 1.33386E+01-1.26777E+00 4.71926E-01
 -1      3966 1.67309E+01 1.52689E+01 7.50631E+00 1.09209E+01-2.61294E+00-2.25640E-01
 -1      3967 8.66760E+00-2.64496E+00 7.46827E-01 3.35266E+00 4.09838E-01 7.54413E-01
 -1      3968 1.16304E+01 4.84014E+00 4.18134E+00 8.52324E+00 5.14257E-01 1.13652E+00
 -1      3969 1.05321E+01 2.89123E+00 4.06652E+00 7.39240E+00-2.47188E-01-1.76512E+00
 -1      3970 3.11822E+00 2.35187E-01-2.40692E-01 6.70505E-01-3.28659E-01 4.42516E-01
 -1      3971 1.70618E+01 1.83811E+01 8.79624E+00 1.10252E+01 1.72698E+00-5.91786E-01
 -1      3972 1.62149E+01 2.84360E+01 1.12327E+01 1.30292E+01 6.92909E-01-5.44137E-02
 -1      3973 5.29171E+00 7.95264E-01 8.01001E-01 5.77154E-01-5.08617E-01-8.08828E-01
 -1      3974 1.57591E+01 2.71586E+01 1.13220E+01 1.35501E+01-1.38966E+00-8.03960E-02
 -1      3975 1.65260E+01 1.79703E+01 8.78796E+00 1.14061E+01-1.29523E+00 1.14193E+00
 -1      3976 9.50137E+00-2.73410E+00 1.38398E+00 3.66469E+00-1.33876E-01-1.96183E-02
 -1      3977 1.09620E+01 2.57943E+00 4.05621E+00 6.32358E+00 8.65132E-01 2.51892E+00
 -1      3978 1.53120E+01 1.82070E+00 3.75936E+00 7.56894E+00 3.82697E-01 3.21060E-01
 -1      3979 5.90100E+00 1.03796E+00 2.62876E-01 3.49324E-01 4.96683E-01 1.39711E+00
 -1      3980 1.69069E+01 2.93686E+00 4.48373E+00 8.07819E+00-2.95940E-01-2.33216E-01
 -1      3981 1.53988E+01 3.39933E+00 4.40031E+00 8.77836E+00-3.85332E-01-1.49364E+00
 -1      3982-9.79539E-01-4.66936E-01-1.52711E+00-1.15610E+00 1.26283E-02-7.86165E-02
 -1      3983 1.74320E+01 9.77653E+00 5.97524E+00 1.13878E+01 7.83652E-01-3.50918E-01
 -1      3984 1.84517E+01 1.31232E+01 7.53062E+00 1.33565E+01 9.09149E-01 4.45309E-02
 -1      3985 2.69307E+00 7.85877E-02-1.19455E+00-1.06558E-01-1.86131E-01-4.22728E-01
 -1      3986 2.00535E+01 1.30133E+01 7.95282E+00 1.46001E+01-6.36225E-01-1.22794E-01
 -1      3987 1.88743E+01 8.64065E+00 7.10983E+00 1.12501E+01-1.39618E+00 1.75912E-01
 -1      3988 6.37000E+00-3.04420E+00-7.84542E-02 1.29281E+00 1.33104E-01 6.19407E-01
 -1      3989 1.75909E+01 2.33539E+00 6.75082E+00 9.79021E+00 1.02909E+00 1.39338E+00
 -1      3990 1.66697E+01 4.63923E+00 6.14731E+00 1.00762E+01-1.66683E-01-1.72005E+00
 -1      3991 5.73571E+00 1.22275E+00 1.60598E+00 2.29194E+00 7.91521E-02 7.46245E-01
 -1      3992 1.58318E+01 1.05177E+01 5.97905E+00 1.09478E+01 3.06255E-01-6.55362E-01
 -1      3993 1.56766E+01 1.36965E+01 7.06293E+00 1.26787E+01-3.45042E-01-1.91509E-01
 -1      3994 4.63667E+00 3.28288E-02 2.52816E-01 1.02346E+00-7.95558E-03-1.02501E+00
 -1      3995 2.02629E+01 2.77835E+01 1.28781E+01 1.50333E+01 2.34304E+00 1.36145E-01
 -1      3996 1.88250E+01 3.48315E+01 1.46323E+01 1.57613E+01 8.95945E-02 3.75792E-01
 -1      3997 1.01588E+01 2.09621E+00 1.56088E+00 4.24016E+00-5.75535E-01 1.54779E-01
 -1      3998 1.82204E+01 2.94676E+01 1.28200E+01 1.40138E+01-8.09907E-01 4.25424E-01
 -1      3999 1.69743E+01 8.68979E+00 7.48346E+00 1.38238E+01 8.84126E-01 7.33265E-01
 -1      4000 1.15483E+01 1.72202E+00 3.38334E+00 5.20767E+00 2.77482E-01 2.00384E-01
 -1      4001 1.65512E+01 1.03944E+01 5.79120E+00 1.17117E+01-7.75113E-01-3.36518E-01
 -1      4002 1.66538E+01 1.15154E+01 5.87453E+00 1.14342E+01 3.93217E-01-6.45859E-02
 -1      4003 1.82904E+00-5.30543E+00-1.94885E+00-3.30435E+00 3.32029E-02-5.71649E-02
 -1      4004 1.80273E+01 1.13687E+01 7.43748E+00 1.40487E+01-4.21311E-01-8.33680E-01
 -1      4005 1.85132E+01 1.33833E+01 7.55353E+00 1.46765E+01-1.02639E+00 9.86072E-01
 -1      4006 1.45383E+00-5.52597E+00-1.66952E+00-2.70981E+00 1.16418E-01-3.75709E-01
 -1      4007 1.55458E+01 9.69210E+00 6.31613E+00 1.18167E+01 5.32152E-01 1.65910E+00
 -1      4008 1.34700E+01 9.92042E+00 6.54598E+00 1.04034E+01-3.39612E-01-3.27243E-01
 -1      4009 4.79099E+00-1.01063E+00-8.74989E-01 8.70105E-01-1.79969E-01 6.79356E-01
 -1      4010 1.66421E+01 1.64015E+01 8.96671E+00 1.35587E+01 9.97896E-01 1.49366E-01
 -1      4011 1.50925E+01 1.65767E+01 8.52792E+00 1.38417E+01 6.77180E-01 9.30382E-01
 -1      4012 5.30186E+00-5.49215E-01-1.78936E-02 5.18137E-01-2.41248E-02-1.82931E-01
 -1      4013 1.57752E+01 1.71586E+01 8.36267E+00 1.31921E+01-1.13592E+00 4.90530E-02
 -1      4014 1.70708E+01 1.16330E+01 6.97153E+00 1.15352E+01-1.84196E+00 8.03152E-02
 -1      4015 4.75704E+00-3.30554E+00 8.01611E-02-1.56385E-01-2.96630E-01 5.29645E-01
 -1      4016 1.47305E+01 3.33018E+00 3.60604E+00 9.11990E+00-2.73510E-01 9.52966E-01
 -1      4017 1.42079E+01 2.46027E+00 4.31493E+00 8.36007E+00-5.26315E-01-1.65848E+00
 -1      4018 3.89818E+00 3.55359E-01-8.96345E-01 2.25624E-01 2.04819E-01 8.94501E-01
 -1      4019 1.84228E+01 1.64982E+01 8.38687E+00 1.25396E+01 2.21559E+00 3.87081E-02
 -1      4020 1.78401E+01 2.62725E+01 1.12356E+01 1.52523E+01 1.03714E+00-2.05168E-01
 -1      4021 5.13889E+00 9.00337E-01 2.29442E-02 1.35008E+00-2.49919E-01-8.05040E-01
 -1      4022 1.81289E+01 2.93064E+01 1.29406E+01 1.65969E+01-9.25522E-01-6.28096E-01
 -1      4023 1.83956E+01 2.56839E+01 1.14961E+01 1.61029E+01-1.24686E+00 1.90609E-01
 -1      4024 8.82390E+00-4.33002E-02 2.05651E+00 3.64582E+00-4.07537E-01-5.74963E-01
 -1      4025 1.54069E+01 1.69388E+01 8.82098E+00 1.43429E+01 1.48651E+00 1.01574E-01
 -1      4026 1.65796E+01 1.14185E+01 7.58984E+00 1.36711E+01 1.15798E+00 1.39465E+00
 -1      4027 1.09219E+01 5.32138E+00 2.02629E+00 6.18776E+00 4.51721E-01 2.11172E-01
 -1      4028 1.70371E+01 1.24641E+01 6.94668E+00 1.25722E+01-4.46936E-01 7.62325E-02
 -1      4029 1.63448E+01 1.12900E+01 7.28576E+00 1.19616E+01-1.23273E+00-1.09934E+00
 -1      4030 1.80605E+00-5.67891E+00-1.31747E+00-2.68014E+00-2.79932E-01 6.29566E-01
 -1      4031 1.48703E+01 9.05130E+00 5.75853E+00 1.06714E+01 3.88101E-02 2.07516E-01
 -1      4032 1.32906E+01 5.81971E+00 4.12782E+00 9.09888E+00 6.55785E-01 1.54377E+00
 -1      4033 3.37611E+00-5.77515E+00-2.18120E+00-2.00414E+00 1.00770E+00 8.20055E-02
 -1      4034 1.61591E+01 1.19992E+01 6.43689E+00 1.15515E+01 7.20861E-01 2.67332E-01
 -1      4035 1.65793E+01 1.20981E+01 7.15960E+00 1.16543E+01-7.56528E-01-7.23007E-01
 -1      4036-5.22166E-02-8.15067E+00-4.11528E+00-3.92499E+00-1.74158E+00-1.82061E-02
 -1      4037 1.45393E+01 1.06162E+01 5.79414E+00 1.21343E+01-7.42710E-01-7.21967E-01
 -1      4038 1.52308E+01 6.51615E+00 4.56238E+00 1.06494E+01 1.59636E+00 2.21634E+00
 -1      4039 1.96956E+00-5.24844E+00-3.18899E+00-2.13268E+00 8.15088E-01-6.49812E-01
 -1      4040 1.50111E+01 6.39327E+00 5.46077E+00 1.05921E+01-6.85078E-02-5.04415E-02
 -1      4041 1.51807E+01 1.05741E+01 6.25497E+00 1.07142E+01-2.71169E-01 3.33768E-01
 -1      4042-5.83149E-01-4.53373E+00-2.03848E+00-3.10785E+00 3.52624E-01 3.99172E-01
 -1      4043 1.53766E+01 8.27589E+00 5.34413E+00 1.06281E+01 3.82234E-01 1.36844E-01
 -1      4044 1.84986E+01 8.31862E+00 6.15693E+00 1.17531E+01 4.02108E-01 2.33506E-01
 -1      4045 2.77094E+00-2.42059E+00-1.96608E+00-1.67309E+00-3.22432E-01 4.30208E-01
 -1      4046 1.77740E+01 8.33650E+00 6.04642E+00 1.30268E+01-4.77208E-01-3.52838E-01
 -1      4047 1.28589E+01 7.86538E+00 4.81911E+00 1.19333E+01-8.83030E-01-9.79415E-02
 -1      4048 8.29635E-01-3.34625E+00-1.31676E+00-2.21057E+00-3.42265E-01-3.12197E-01
 -1      4049 1.78641E+01 1.63223E+01 9.02745E+00 1.27216E+01 9.03933E-01 4.94458E-02
 -1      4050 1.48755E+01 6.61541E+00 4.97103E+00 1.07162E+01 1.33466E+00 1.99108E+00
 -1      4051 7.90665E+00 7.86334E-01 2.72503E-01 2.08636E+00 1.00180E-01 8.17992E-01
 -1      4052 1.81374E+01 1.40999E+01 7.25371E+00 1.26693E+01 4.14062E-01 5.63451E-01
 -1      4053 1.66175E+01 1.18208E+01 7.47816E+00 1.25701E+01-7.07260E-01-4.85399E-01
 -1      4054 2.69564E-01-9.27083E+00-3.97731E+00-3.99953E+00-1.69439E+00 1.37966E-01
 -1      4055 1.99034E+01 2.05691E+01 1.04999E+01 1.46467E+01 1.24832E-01 3.27363E-01
 -1      4056 1.68475E+01 1.59764E+01 7.32136E+00 1.22087E+01-1.49869E+00 2.60064E-01
 -1      4057 5.71937E+00-4.41385E+00-1.45562E+00-1.21967E+00 8.57118E-01 8.48382E-02
 -1      4058 1.28296E+01 6.07407E+00 4.43844E+00 9.16801E+00 7.71466E-01 1.32295E+00
 -1      4059 1.30637E+01 3.24203E+00 4.52455E+00 7.81342E+00-3.04106E-02-1.44962E+00
 -1      4060 3.05538E+00-2.68697E-01-9.83644E-01 2.65438E-02-1.53435E-01 5.82179E-01
 -1      4061 1.59324E+01 9.67791E+00 5.92179E+00 1.07032E+01 8.56694E-01-5.11831E-01
 -1      4062 1.63687E+01 1.18587E+01 6.79511E+00 1.30178E+01 1.02606E+00 4.20754E-01
 -1      4063 2.65946E+00 2.78608E-02-1.26651E+00-9.02564E-01-9.14933E-02-5.50544E-01
 -1      4064 1.70613E+01 1.42514E+01 7.43199E+00 1.31161E+01 9.04538E-02-4.73034E-04
 -1      4065 1.63506E+01 1.35538E+01 6.89212E+00 1.26921E+01-3.02346E-01-1.05937E-01
 -1      4066 2.88142E+00-4.97865E+00-1.65482E+00-1.92065E+00-5.48670E-01-2.45774E-01
 -1      4067 1.25396E+01 8.67818E+00 4.30837E+00 1.06448E+01-3.35481E-01-3.99265E-01
 -1      4068 1.03087E+01 7.83719E+00 4.51624E+00 9.77594E+00-5.14313E-01-5.79448E-01
 -1      4069 9.15974E-01-6.71522E+00-2.86792E+00-2.31229E+00 1.49191E+00-4.23594E-02
 -1      4070 1.73796E+01 2.35151E+01 1.06655E+01 1.49679E+01 6.73870E-01-8.16009E-02
 -1      4071 1.82749E+01 2.11349E+01 1.04019E+01 1.44148E+01-5.69566E-01 8.18056E-01
 -1      4072 8.80322E+00-7.22778E-01 5.12093E-01 3.22044E+00-3.28029E-01-2.35269E-02
 -1      4073 1.46480E+01 8.32894E+00 5.49544E+00 1.05600E+01 4.45119E-01 7.21043E-01
 -1      4074 1.89498E+01 8.82071E+00 5.65959E+00 1.18955E+01 5.18846E-01 2.14158E-01
 -1      4075 6.44499E+00-9.85981E-01-8.98594E-02 6.01363E-02 1.38356E-01 1.28331E+00
 -1      4076 2.04971E+01 9.21107E+00 7.01820E+00 1.41728E+01-5.51470E-01-1.10952E+00
 -1      4077 2.04393E+01 1.52253E+01 8.73741E+00 1.56886E+01 4.53495E-01 7.40528E-01
 -1      4078 2.57185E+00-3.27969E+00-1.38760E+00-1.50763E+00-1.26010E-01-5.06690E-01
 -1      4079 1.76797E+01 1.28504E+01 7.79995E+00 1.26805E+01 9.10754E-01 1.15383E+00
 -1      4080 1.67481E+01 1.34224E+01 7.06086E+00 1.25509E+01 2.99322E-02 1.12463E-01
 -1      4081 5.86617E+00-1.86188E+00-7.34989E-01 5.42003E-01 6.44841E-02 3.18276E-01
 -1      4082 1.59599E+01 1.11588E+01 6.67358E+00 1.35872E+01-5.56738E-01-6.40274E-01
 -1      4083 1.55482E+01 9.54517E+00 6.06276E+00 1.23632E+01-6.94738E-01 8.89084E-01
 -1      4084 1.68551E+00-5.39874E+00-1.97798E+00-1.83841E+00 8.90751E-01-8.85961E-02
 -1      4085 1.37567E+01 5.19327E+00 4.41158E+00 9.46136E+00 5.77131E-01 1.96464E+00
 -1      4086 1.48011E+01 5.98840E+00 4.04960E+00 9.98704E+00 3.91865E-01 5.88991E-01
 -1      4087 2.86795E+00-5.78459E-01-1.56494E+00 1.34723E-01 4.73332E-02 1.20593E+00
 -1      4088 1.45639E+01 5.68858E+00 4.13649E+00 1.06024E+01-8.58018E-01-8.28662E-01
 -1      4089 1.55596E+01 1.32750E+01 6.22033E+00 1.31066E+01 1.25004E+00-1.46169E-01
 -1      4090-1.26214E+00-1.28427E+00-2.69996E+00-1.32648E+00 2.43236E-01-1.63972E-01
 -1      4091 1.37909E+01 1.33950E+01 6.02491E+00 1.16205E+01 8.75865E-01 8.85709E-02
 -1      4092 1.20403E+01 1.29611E+01 6.52249E+00 1.09342E+01-1.41521E+00-1.41217E+00
 -1      4093 3.64232E+00-8.12799E-01-1.31700E+00 5.29439E-01-5.97951E-01-3.84925E-01
 -1      4094 1.71617E+01 2.35209E+01 1.01055E+01 1.38656E+01 1.09074E-01-1.10840E-01
 -1      4095 1.51970E+01 2.70228E+01 1.08700E+01 1.32448E+01-1.86639E-01 4.45534E-01
 -1      4096 5.02218E+00-9.90170E-01-6.81214E-02 1.05099E+00 5.08877E-01 1.15356E-01
 -1      4097 1.89972E+01 3.28486E+01 1.38292E+01 1.49096E+01 2.50083E-01-2.11382E-01
 -1      4098 1.57507E+01 2.17286E+01 9.22682E+00 1.42992E+01 7.72766E-01 9.84313E-01
 -1      4099 9.93965E+00-3.82452E-01 9.55983E-01 5.94283E+00 1.66892E-01 7.56981E-01
 -1      4100 1.31731E+01 1.86809E+01 7.03280E+00 1.14487E+01-5.78793E-01 2.47653E-01
 -1      4101 1.32270E+01 1.46517E+01 6.96129E+00 1.15013E+01-9.99628E-01-2.82329E-02
 -1      4102 7.74038E+00-6.84849E+00-1.59062E+00 2.93699E+00-3.15360E-01-1.21717E-01
 -1      4103 1.79443E+01 2.38736E+01 1.06717E+01 1.41207E+01-7.52172E-01 8.36673E-01
 -1      4104 1.81160E+01 1.60440E+01 7.57155E+00 1.27669E+01-1.29571E+00-2.82306E-01
 -1      4105 7.81907E+00-5.29498E+00-8.79988E-01 2.64180E+00 1.01999E-01 2.45518E-01
 -1      4106 1.47083E+01 4.87585E+00 4.36010E+00 1.00616E+01 4.16171E-01 3.75825E-01
 -1      4107 1.76442E+01 1.20442E+01 6.83312E+00 1.26691E+01 9.05148E-01 2.60428E-01
 -1      4108 3.33558E+00-1.00942E-01-1.48901E+00 6.50394E-01-1.47736E-01 3.60110E-01
 -1      4109 1.67877E+01 1.26345E+01 6.37211E+00 1.16689E+01 6.37329E-01-3.41426E-02
 -1      4110 1.79924E+01 1.29718E+01 6.41909E+00 1.27167E+01 5.14047E-01 1.81859E-01
 -1      4111 5.52719E+00-1.02120E+00-5.62002E-01 8.55478E-01-5.62948E-01 1.28537E-01
 -1      4112 1.81091E+01 9.73561E+00 6.13794E+00 1.32497E+01-8.03299E-01 8.37148E-01
 -1      4113 1.40836E+01 7.39417E+00 5.36115E+00 8.88771E+00-2.44071E+00-1.23854E+00
 -1      4114 5.40459E+00-2.16131E+00-9.09417E-01 1.31170E-01 6.63509E-01 1.03631E+00
 -1      4115 1.44693E+01 1.43005E+01 6.73766E+00 8.56020E+00 6.82546E-01 8.96167E-01
 -1      4116 1.45345E+01 1.65426E+01 6.47087E+00 8.46409E+00-1.96089E+00 1.25794E+00
 -1      4117 6.30399E+00 1.12309E+00 1.66831E-01 1.66475E+00 1.14402E-01 3.30661E-01
 -1      4118 1.66098E+01 2.15224E+01 9.60615E+00 9.37506E+00 4.21199E+00 1.30914E+00
 -1      4119 1.89256E+01 1.92243E+01 9.40880E+00 1.11633E+01-2.25318E+00-2.23414E+00
 -1      4120 6.62810E+00 1.86284E+00 3.41465E-01 3.57475E+00 5.14340E-01 4.51054E-01
 -1      4121 1.57612E+01 1.18470E+01 6.59324E+00 1.13541E+01 2.13028E+00 6.98619E-01
 -1      4122 1.80398E+01 1.22888E+01 7.17246E+00 1.37290E+01 6.04683E-01-4.33597E-04
 -1      4123 9.24765E+00 3.21766E+00 1.30902E+00 3.97557E+00-1.52212E-05-2.63716E-01
 -1      4124 1.78549E+01 1.22337E+01 6.86788E+00 1.38090E+01-1.63814E+00-4.62278E-01
 -1      4125 1.80083E+01 2.19283E+01 8.98927E+00 1.42738E+01 1.63307E+00-3.91440E-01
 -1      4126 5.57989E+00-5.72345E-01 1.94267E-02 9.96197E-01 3.79347E-02 6.35978E-02
 -1      4127 1.77540E+01 1.91434E+01 8.33346E+00 1.20341E+01 9.36303E-01 6.20968E-01
 -1      4128 1.64265E+01 2.06603E+01 8.03918E+00 1.20437E+01 2.93112E-01 1.32871E-01
 -1      4129 8.77013E+00-2.01312E+00-5.45337E-01 3.24350E+00 3.56841E-01 8.06821E-01
 -1      4130 1.62198E+01 2.19090E+01 9.04290E+00 1.34437E+01-8.21954E-01-5.06098E-01
 -1      4131 1.92935E+01 2.12992E+01 9.97074E+00 1.42181E+01-2.34241E-01 7.23714E-01
 -1      4132 7.98607E+00-4.43772E+00-9.92787E-01 2.46620E+00-2.18856E-01-2.60507E-01
 -1      4133 1.83402E+01 1.75293E+01 9.69200E+00 1.57453E+01 9.53330E-01 1.05912E+00
 -1      4134 1.84012E+01 1.72845E+01 8.44101E+00 1.51446E+01 2.80128E-02 3.93382E-01
 -1      4135 1.03116E+01 1.76485E+00 1.41408E+00 4.48242E+00-3.52408E-01 5.89446E-01
 -1      4136 1.34998E+01 8.45850E+00 4.59345E+00 9.55284E+00 8.80604E-01 1.52692E+00
 -1      4137 1.27406E+01 9.62874E+00 3.79006E+00 9.79456E+00 3.71103E-01 3.67437E-01
 -1      4138 5.81192E+00-1.73718E-01-8.10345E-01 1.02429E-01 8.90732E-01 6.99964E-01
 -1      4139 1.21107E+01 9.48699E+00 3.58543E+00 9.27197E+00-5.34184E-01 1.14075E-01
 -1      4140 1.20887E+01 8.00235E+00 4.16997E+00 8.74506E+00-1.04539E+00-1.02533E+00
 -1      4141-5.51199E-01-4.70373E+00-3.64993E+00-3.78574E+00 2.07128E-01 2.24240E-01
 -1      4142 1.40135E+01 1.14293E+01 4.77081E+00 1.08791E+01-7.93150E-01 3.00961E-01
 -1      4143 1.43196E+01 1.16309E+01 4.18252E+00 1.06944E+01 1.21333E-01 1.48919E+00
 -1      4144 2.17637E+00-2.25451E+00-2.53590E+00-2.21491E+00-2.94315E-01 1.06079E-01
 -1      4145 1.59090E+01 1.19905E+01 5.25191E+00 1.27113E+01-8.85930E-01 5.35649E-01
 -1      4146 1.57280E+01 2.70026E+00 3.72550E+00 9.53561E+00 4.50998E-01 1.62934E+00
 -1      4147 3.84740E+00-2.23308E-01-1.80705E+00 1.02525E+00 3.03497E-01 1.12234E+00
 -1      4148 1.49390E+01 2.58029E+00 2.85614E+00 8.10610E+00-6.79864E-02 1.02301E-01
 -1      4149 1.14997E+01 5.15172E+00 2.44940E+00 8.34080E+00-1.89669E-01-1.43263E+00
 -1      4150 1.05362E-01 3.57028E-01-1.97876E+00-4.80699E-01 1.97498E-01 1.02816E+00
 -1      4151 1.59348E+01 1.58795E+01 5.90425E+00 1.11148E+01 1.09578E+00-3.63664E-01
 -1      4152 1.51514E+01 2.15879E+01 7.24681E+00 1.27479E+01 7.67199E-01 2.92951E-02
 -1      4153 4.19199E+00 2.52714E-01-2.21438E+00-3.02002E-01-4.99795E-01-2.59287E-01
 -1      4154 1.43696E+01 2.09621E+01 7.79501E+00 1.35234E+01-1.30418E+00-4.55903E-01
 -1      4155 1.60550E+01 1.96382E+01 7.63735E+00 1.20921E+01-1.16390E+00 1.84920E+00
 -1      4156 5.64450E+00-5.59897E+00-1.59226E+00 4.64990E-01 3.22900E-01-8.43930E-02
 -1      4157 1.30444E+01 4.56438E+00 2.84637E+00 8.82472E+00 1.16340E+00 2.87726E+00
 -1      4158 1.67540E+01 4.64936E+00 2.17888E+00 9.34215E+00 5.45377E-02 3.93909E-01
 -1      4159 6.33095E+00 3.79966E-01-1.58705E+00 2.27029E+00 6.72694E-01 2.18770E+00
 -1      4160 1.60693E+01 5.40800E+00 2.80383E+00 8.64990E+00-8.41322E-01 5.16450E-01
 -1      4161 1.21381E+01 1.67686E+00 2.24641E+00 7.81810E+00-7.75596E-03 4.66787E-02
 -1      4162 1.10769E+00-8.12695E-01-3.04356E+00 3.64740E-02-3.39367E-01 6.05324E-01
 -1      4163 1.60296E+01 1.44720E+01 5.97538E+00 1.21918E+01 1.90098E+00 5.61440E-01
 -1      4164 1.55769E+01 1.92684E+01 7.00473E+00 1.45780E+01-9.40461E-01-2.31564E-01
 -1      4165 6.17081E+00 1.69128E+00-4.96735E-01 1.39014E+00-4.60819E-01-3.35577E-01
 -1      4166 1.59041E+01 2.11587E+01 7.26087E+00 1.32740E+01 7.93163E-02 3.01434E-02
 -1      4167 1.50349E+01 2.17410E+01 7.09058E+00 1.36191E+01 8.02378E-01 9.39186E-01
 -1      4168 9.42941E+00 3.95464E+00-1.32140E-01 5.07371E+00-3.29834E-01 3.43402E-01
 -1      4169 1.46540E+01 2.04955E+01 6.23658E+00 1.24500E+01-9.53725E-01 2.39018E-01
 -1      4170 1.58034E+01 1.66450E+01 5.68354E+00 1.16478E+01-1.02669E+00 8.81760E-01
 -1      4171 7.61623E+00-7.33722E-01-1.17744E+00 3.36389E+00 1.77347E-01 8.51967E-01
 -1      4172 1.17574E+01 7.35360E+00 1.90346E+00 8.85447E+00 4.29731E-01 1.38675E+00
 -1      4173 1.42501E+01 7.50513E+00 1.47121E+00 9.42183E+00 2.26856E-01 9.86060E-01
 -1      4174 5.17746E+00-3.03539E-01-2.57666E+00 2.19193E-01 1.10735E-01 1.16229E+00
 -1      4175 1.48459E+01 7.53111E+00 1.58061E+00 9.88069E+00-7.56149E-01 1.99023E-01
 -1      4176 1.36565E+01 9.08900E+00 1.59675E+00 9.85260E+00 4.24448E-01 1.60923E+00
 -1      4177 9.98879E-01-2.96644E+00-4.26499E+00-1.86543E+00 1.52029E-01 1.06388E+00
 -1      4178 1.38863E+01 8.46981E+00 1.43673E+00 9.27485E+00 5.17717E-01 1.89115E+00
 -1      4179 1.28244E+01 8.30560E+00 6.59839E-01 8.92858E+00-1.35372E+00 1.12984E+00
 -1      4180 2.92956E+00-2.36564E+00-3.83706E+00-8.01544E-01-4.23449E-01 2.09382E+00
 -1      4181 5.82198E+00 7.05083E-02-3.29469E+00 1.51492E+00 8.69168E-02 2.31526E+00
 -1      4182 7.10024E-01-2.69854E-02-2.92661E-01 3.40931E-02 5.44517E-03 6.11228E-02
 -1      4183 4.99544E-01-2.23303E-02-2.68103E-01 7.90362E-02-2.18876E-02 3.21780E-02
 -1      4184 6.39798E-01-7.53118E-03-1.70204E-01 2.79591E-02-2.09872E-02 4.74934E-02
 -1      4185 5.49482E-01-1.55361E+00-1.62673E+00-1.11805E+00 6.93753E-02 1.82591E-01
 -1      4186 3.12254E+00-2.86108E+00-1.33087E+00 1.23324E-01-5.38046E-01-2.19159E-01
 -1      4187 1.74358E+00-3.38462E-01-1.35459E+00-4.27544E-03 2.76805E-01 1.65622E-01
 -1      4188 9.12151E-01-1.94125E+00-1.18819E+00-2.87142E-01 1.62130E-01 5.97939E-01
 -1      4189 6.01757E-01-5.05774E+00-1.94359E+00-1.95447E+00-1.65802E-01-5.90506E-03
 -1      4190 7.40814E+00 7.82811E-01 7.90532E-01 2.29832E+00-3.41602E-01-4.01063E-01
 -1      4191 4.30644E+00-2.86809E+00-8.06912E-01 9.31563E-01 1.19925E-01 6.11987E-02
 -1      4192 3.80838E+00-3.22268E+00-1.05806E+00 9.57297E-03 1.34320E-02-4.19589E-01
 -1      4193 1.70431E+00-3.64849E+00-1.22874E+00-5.92380E-01 4.66045E-01 7.04641E-01
 -1      4194-1.80861E-01-4.70269E+00-1.94978E+00-1.43447E+00 1.05608E-02-4.98825E-02
 -1      4195 5.91403E-01-3.56096E+00-1.68030E+00-2.04681E+00 3.86099E-01-4.67619E-01
 -1      4196 1.43170E+00-3.69265E+00-2.14697E+00-1.55249E-01 3.48996E-01 2.14806E-01
 -1      4197 4.29113E+00-1.09056E+00-3.07254E-01 4.70926E-01-2.35249E-01-1.85713E-01
 -1      4198 9.61918E-01-3.60061E+00-2.07985E+00-1.77236E+00-3.09453E-01-3.61612E-01
 -1      4199 2.64459E+00-2.44244E+00-1.20502E+00-9.91099E-01-2.79337E-01-3.44069E-01
 -1      4200-1.06758E-01-7.43657E-01-1.44669E+00-1.25131E+00-8.72200E-02-2.66148E-01
 -1      4201 1.07724E+00-4.50085E-01-1.64285E+00-3.29793E-01-4.64461E-01 1.40144E-01
 -1      4202-4.61301E-01-8.23051E-01-1.58201E+00-1.14765E+00 1.16352E-01 1.07698E-01
 -1      4203-7.80585E-01-8.62005E-01-1.90990E+00-1.23872E+00-7.35962E-02-2.67743E-01
 -1      4204-2.63387E-02-6.24530E-01-1.53176E+00-1.44008E+00-1.67300E-01 4.44389E-02
 -1      4205 2.75018E+00-3.21643E-01-7.18198E-01 5.37082E-01-3.91336E-03-7.86564E-02
 -1      4206 4.91806E+00 8.38858E-01-1.83803E-01 1.67257E+00-1.00071E-01 7.97149E-02
 -1      4207 1.76599E+00-1.10717E+00-1.58495E+00-5.53432E-01 3.04351E-01 3.94474E-01
 -1      4208 5.81221E+00-6.36396E-01-2.62920E-01 1.72423E+00 1.67096E-01 7.74132E-01
 -1      4209 1.31118E+00-3.27574E+00-1.82660E+00-9.08681E-01-1.96542E-01 5.46926E-01
 -1      4210 8.01473E-01-1.36854E+00-2.59115E+00-1.00441E+00 3.43305E-02 3.09344E-01
 -1      4211-2.36516E-01-3.78288E+00-2.60964E+00-8.15324E-01-5.13611E-01-3.39622E-01
 -1      4212 3.68896E+00-2.35753E+00-1.84691E+00 6.54689E-01 1.31197E-01 2.11805E-01
 -1      4213 7.41159E-01-2.90480E+00-1.46359E+00-1.72336E-01 4.99108E-01-2.11339E-01
 -1      4214 2.44928E+00-1.93315E+00-1.64960E+00 1.11679E+00 3.03848E-01 4.55561E-01
 -1      4215 2.63993E+00-1.58545E+00-1.67087E+00-6.80816E-01-1.09605E-01 9.04213E-01
 -1      4216 2.93694E+00-2.81000E+00-1.69305E+00-4.76242E-01-1.50812E-01 2.29921E-01
 -1      4217 2.02364E+00-3.67584E-01-1.34450E+00 5.04932E-01 5.05830E-01 4.82949E-01
 -1      4218 3.13261E-01-6.20663E-01-1.76267E+00-1.53445E-01 1.74988E-01 4.50556E-01
 -1      4219 2.14912E+00-7.17777E-01-1.67355E+00-5.78260E-01-4.37007E-01-3.78849E-01
 -1      4220 5.08101E+00-4.56395E-01-2.72534E-01 1.11891E+00 3.70615E-01 5.39939E-01
 -1      4221 2.52042E+00-1.77817E-01-1.03421E+00-9.73136E-02 2.78387E-01 1.32901E-01
 -1      4222 3.09420E+00-3.18653E+00-6.31354E-01-1.20667E-01 6.26091E-02-1.51598E-01
 -1      4223 2.91889E+00 2.43337E-01-1.65772E+00 5.05381E-01 3.24695E-01 2.96155E-01
 -1      4224 1.56096E+00-2.63402E-01-1.54972E+00-4.66543E-02 5.21362E-02 4.65915E-01
 -1      4225 3.60766E+00-1.58174E+00-1.17565E+00 6.22598E-01-2.79355E-01 5.51134E-01
 -1      4226 4.42833E+00-1.00365E+00-1.05537E+00 8.04263E-01 9.52984E-02 1.41449E-01
 -1      4227 1.06289E+00-5.49157E-01-2.07030E+00-7.93544E-01-2.66657E-01-1.80990E-01
 -1      4228-2.22112E-01-8.91822E-01-9.37524E-01-7.05953E-01-5.92639E-02-4.43031E-01
 -1      4229 3.56399E+00 7.80849E-01-1.05765E+00 5.86278E-01-8.24903E-01-1.07433E+00
 -1      4230 1.32335E+00 4.00642E-02-1.50426E+00-2.09313E-01 3.80325E-01 4.79614E-01
 -1      4231-5.12286E-01-1.13518E+00-1.13042E+00-9.99801E-01 2.60592E-01 4.72320E-01
 -1      4232-4.37225E-02-9.34093E-01-1.50250E+00-1.60823E+00-1.27404E-01-3.73342E-02
 -1      4233 6.35160E-01-3.55131E+00-1.41603E+00-1.66397E+00-1.80284E-02-6.52472E-02
 -1      4234 2.54622E+00-2.38772E+00-1.30001E+00-2.47748E-01-9.64827E-02-2.00365E-03
 -1      4235 1.12158E+00-1.22278E+00-1.52548E+00-9.95497E-01-4.06685E-01-1.95153E-01
 -1      4236 3.60122E+00 5.96390E-01-6.37519E-01 6.78193E-01 1.37903E-01 1.63351E-01
 -1      4237 2.01036E+00 1.91135E-01-5.85943E-01 1.38028E-01 3.10630E-01 4.88499E-01
 -1      4238 3.88890E+00 5.54395E-01-6.20299E-01 1.10151E+00 3.34016E-01 1.74324E-01
 -1      4239 4.21606E+00 3.31615E-01-8.82658E-02 1.36788E+00 1.49398E-01 1.87886E-01
 -1      4240 5.12564E+00-2.03907E+00-1.77349E-01 8.36608E-01-4.13866E-01-4.71301E-01
 -1      4241 3.14382E+00-4.36257E+00-1.44738E+00 8.74978E-03-1.05461E-01-6.60825E-01
 -1      4242 1.43209E+00-4.62644E-01-8.84316E-01-2.93242E-01 4.93101E-01 3.69730E-01
 -1      4243 4.04736E+00-3.67650E+00-1.73380E+00 1.19610E+00 7.25535E-01 4.83236E-01
 -1      4244 1.71751E+00-3.19087E+00-2.74885E+00-1.27041E+00-1.31170E-01 4.28175E-01
 -1      4245 2.70957E+00-2.31356E+00-2.19983E+00-2.99176E-01-3.26770E-01 9.71527E-02
 -1      4246 4.46375E-01-3.19370E+00-3.14102E+00-1.25450E+00 2.64453E-01 4.90518E-01
 -1      4247 1.65945E-01-3.15418E+00-3.15952E+00-1.59846E+00-4.03545E-01 1.97194E-01
 -1      4248 1.18942E+00-1.39207E+00-2.98619E+00-5.66190E-01-4.97786E-01 4.35022E-01
 -1      4249-1.74107E-02-1.71745E+00-2.55110E+00-1.67623E+00 2.72018E-01 4.73993E-01
 -1      4250 2.81764E-01-8.09875E-01-2.38338E+00-1.20665E+00 2.16339E-01 5.07532E-01
 -1      4251-5.44876E-01-1.46492E+00-3.09204E+00-1.45241E+00 3.91881E-01 7.70589E-01
 -1      4252 1.48364E+00 9.05204E-02-2.19706E+00-4.38659E-01 1.47980E-01 1.14882E+00
 -1      4253 5.23230E-01-2.66409E+00-2.04769E+00-1.42302E+00 3.10440E-01-3.31225E-02
 -1      4254 1.42983E+00-2.23938E+00-1.50461E+00-7.84924E-01 3.70340E-01 6.73122E-01
 -1      4255 3.05609E+00-1.56099E+00-1.18840E+00 1.35149E-02 2.48160E-01 2.65247E-02
 -1      4256 1.52266E+00-2.68740E+00-1.86184E+00-1.31204E+00-9.26225E-02-3.38401E-01
 -1      4257 1.14937E+00-4.23046E+00-2.73614E+00-1.72518E+00 5.26687E-02-9.39149E-03
 -1      4258 4.38753E+00-2.99731E+00-6.52320E-01 3.90711E-01 1.89410E-01 3.39376E-01
 -1      4259 3.71813E+00-3.30412E+00-9.14291E-01-5.59851E-02 2.75107E-01 4.16481E-01
 -1      4260 2.35024E+00-2.19473E-01-1.59574E+00-1.13304E-01 8.46048E-01 1.98447E-01
 -1      4261 7.42307E-02-6.84103E-01-1.28960E+00-1.01455E+00 1.17725E-01 2.59083E-01
 -1      4262 9.80449E-01-4.10123E-01-1.26974E+00-1.02422E+00-4.65845E-01-4.52144E-01
 -1      4263 2.17270E+00-5.79145E-01-3.08420E+00 5.69193E-01 6.59321E-01 1.55870E+00
 -1      4264-6.70720E-01-1.48398E+00-3.48847E+00-6.19993E-01 1.01573E-01 7.91765E-01
 -1      4265-1.08153E+00-1.96631E+00-3.53895E+00-8.23222E-01-3.85008E-01 7.77341E-01
 -1      4266 4.73537E+00 1.05158E+00-1.59344E+00 1.31929E+00-3.58735E-01 4.36399E-01
 -1      4267 4.68493E+00 8.93231E-01-2.10961E+00 1.80774E+00-1.30739E-01 5.43658E-01
 -1      4268 1.05408E+00-4.51121E-01-2.97367E+00-3.89094E-01-1.33326E-01 8.17717E-01
 -1      4269 4.85154E+00 1.27345E+00-1.89988E+00 1.85654E+00 3.44352E-02 1.24856E+00
 -1      4270 3.66450E+00 5.91338E-01-2.08288E+00 1.11383E+00-2.68896E-01 7.57893E-01
 -1      4271-5.09406E-02-1.01566E+00-1.35515E+00-1.01214E+00-2.89359E-02-9.72938E-02
 -1      4272 8.51792E-01-2.56361E-01-1.31053E+00-5.61817E-01-3.13672E-01-7.58452E-01
 -1      4273 9.64269E-01-1.01575E+00-1.17134E+00-1.63402E+00-8.70246E-04 8.80344E-02
 -1      4274 2.81500E+00 3.77136E-01-7.20865E-01-9.51104E-02-2.18593E-01 1.03602E-01
 -1      4275 2.09343E+00-1.97585E-01-5.22159E-01-2.60412E-01-4.15695E-01 2.85009E-01
 -1      4276 1.89648E+00-5.78751E-02-2.50845E-01 2.70244E-01-3.23668E-01-7.31445E-01
 -1      4277 4.59281E+00 1.43586E+00 1.27417E-01 1.45647E+00-5.01473E-01-5.04224E-01
 -1      4278 4.96660E+00 1.31595E+00 7.30138E-01 1.82067E+00-1.40331E-01-3.74053E-01
 -1      4279 5.17421E+00 1.26068E+00 3.54562E-01 2.25762E+00 2.42126E-01 9.49134E-02
 -1      4280 1.22117E+00-7.59700E-01-9.38413E-01-5.58475E-01 1.23753E-01-4.22027E-01
 -1      4281 3.46514E+00 5.98382E-01-1.10541E+00 1.18064E+00 4.41580E-01 4.83066E-01
 -1      4282 2.27108E+00-3.18616E-01-9.99731E-01 2.25020E-01-2.48552E-01 2.56303E-01
 -1      4283 1.13779E+00-1.12286E+00-1.57950E+00-1.21776E+00 1.92919E-01 5.37500E-01
 -1      4284 3.05062E+00-8.70695E-01-1.02093E+00 1.66368E-01-9.68406E-02 3.57538E-01
 -1      4285 2.02366E+00-1.01619E+00-2.08816E+00-6.50582E-01 5.24487E-03 1.36496E-03
 -1      4286 3.66082E+00-6.64406E-01-1.26507E+00 8.23643E-01 1.76343E-03-6.59768E-02
 -1      4287 2.66255E-02-1.83186E+00-2.10352E+00-1.43586E+00-9.29396E-02 7.11195E-01
 -1      4288-7.11690E-02-4.52104E+00-2.60885E+00-1.22721E+00 3.48471E-01-1.14450E-01
 -1      4289 2.80374E+00-2.31691E+00-9.54964E-01 8.18800E-01 1.08824E+00 6.02926E-01
 -1      4290 1.42946E+00-1.52570E+00-1.38401E+00-3.85638E-01-1.38783E-01 2.49159E-01
 -1      4291-1.15819E-01-1.18824E+00-5.70029E-01-2.50062E-01 4.76168E-01 9.08276E-03
 -1      4292 7.64351E-01-1.55303E+00-1.50903E+00-3.88527E-01-7.61871E-01-1.48209E-01
 -1      4293 5.96090E-01-1.03999E+00-1.53827E+00 1.44656E-01 1.91818E-01 2.05115E-01
 -1      4294 4.25661E-01-1.07399E+00-9.20224E-01-1.32568E+00 9.53910E-03-2.13591E-02
 -1      4295 2.81745E+00-4.33072E-01-5.83196E-01-7.39206E-02-4.71844E-01-4.16129E-01
 -1      4296 1.54679E+00-6.01044E-01-8.34964E-01-2.27925E-01-1.22539E-01 2.30375E-01
 -1      4297 4.98601E+00 1.24481E+00 8.49805E-01 2.11820E+00-1.07390E-01 5.82080E-01
 -1      4298 5.96150E+00 1.30641E+00 1.13157E+00 2.44373E+00-6.44221E-02-6.68988E-01
 -1      4299 1.02059E+00-1.12493E+00-2.17953E+00-5.18729E-01-3.06109E-01 7.67675E-02
 -1      4300 2.36713E+00-8.78755E-01-1.20164E+00-4.59766E-01 2.11704E-01 3.93998E-01
 -1      4301 1.05485E+00-3.86082E+00-2.15754E+00-7.18085E-01-2.00803E-01 1.78920E-01
 -1      4302 4.02305E-01-5.36944E+00-2.56587E+00-1.34129E+00 1.84973E-01-1.05921E-01
 -1      4303-5.71808E-02-1.87473E+00-1.65522E+00-1.38369E+00 8.29945E-02 1.79294E-02
 -1      4304 1.00939E+00-4.67784E-02-1.79461E-01-4.30016E-02-1.57971E-02 2.22775E-01
 -1      4305 9.47183E-01-1.63799E-02-1.43079E-01-3.87719E-02-9.16105E-03 1.67738E-01
 -1      4306 9.06268E-01-2.77305E-02-1.81398E-01-4.39076E-02-1.01786E-02 1.83204E-01
 -1      4307 9.40075E-01-1.36264E-02-9.77720E-02-2.97694E-02-5.44541E-03 1.29614E-01
 -1      4308 9.33443E-01-7.64919E-03-6.98506E-02-2.61194E-02-1.90666E-04 9.35472E-02
 -1      4309 1.03334E+00 3.41981E-03-5.41310E-01-3.02038E-02-2.47153E-03 5.66841E-02
 -1      4310 1.06892E+00-1.35835E-02-5.91708E-01-3.79335E-02 9.23788E-04 6.00737E-02
 -1      4311 9.87563E-01-2.69206E-03-4.95847E-01-2.91544E-02-3.18884E-03 6.00528E-02
 -1      4312 1.02478E+00 6.31420E-03-5.18173E-01-2.65184E-02-5.20677E-03 8.23891E-02
 -1      4313 9.21907E-01-6.13446E-03-4.42260E-01-1.61951E-02-2.51476E-03 5.82654E-02
 -1      4314 9.27894E-01-5.79564E-02-3.61919E-01-5.91258E-02-2.93115E-02 3.96934E-01
 -1      4315 9.80045E-01-1.96903E-02-2.62076E-01-7.00291E-02-9.62996E-03 3.26106E-01
 -1      4316 9.47981E-01-3.27474E-02-3.49427E-01-7.48993E-02-2.69835E-02 3.61049E-01
 -1      4317 1.00998E+00-3.14180E-02-1.73758E-01-7.26479E-02-2.31773E-02 2.48055E-01
 -1      4318 1.06724E+00-2.95353E-02-1.35528E-01-6.08016E-02-1.18927E-02 1.88330E-01
 -1      4319 1.19425E+00-6.41111E-03-6.79760E-01-7.88493E-02-2.66453E-03 1.65182E-02
 -1      4320 1.19591E+00-3.83171E-02-7.05004E-01-8.74191E-02 7.77740E-03 3.71839E-02
 -1      4321 1.13597E+00-8.37314E-02-6.90727E-01-9.36918E-02 2.12700E-02 1.46526E-02
 -1      4322 1.16468E+00 4.97918E-03-6.71979E-01-7.36979E-02-2.67928E-03 3.95555E-02
 -1      4323 1.20909E+00-2.14006E-02-6.37414E-01-4.99161E-02-1.29602E-02 2.95695E-02
 -1      4324 1.09910E+00-3.62436E-02-7.52567E-01-1.39582E-01-4.21076E-03-6.80774E-03
 -1      4325 1.18054E+00-7.57580E-02-7.38775E-01-1.25021E-01-2.77922E-02 3.43728E-02
 -1      4326 1.21254E+00-4.09069E-02-7.58703E-01-1.50515E-01 1.37919E-02 1.12988E-02
 -1      4327 1.15273E+00-5.00343E-02-7.61047E-01-1.52282E-01-1.80616E-04-4.91810E-04
 -1      4328 1.19963E+00-5.91393E-02-7.58928E-01-1.25398E-01-1.26337E-03 1.70457E-02
 -1      4329 8.92376E-01-5.95778E-02-5.07962E-01-1.89425E-01-5.14722E-02 6.13424E-01
 -1      4330 9.72923E-01-3.35332E-02-4.14084E-01-1.75772E-01-2.21076E-02 4.72126E-01
 -1      4331 9.72957E-01-9.96546E-02-3.16293E-01-1.01196E-01-2.46832E-02 4.07186E-01
 -1      4332 1.03177E+00-3.21120E-02-2.13444E-01-8.73862E-02-1.03978E-02 3.37408E-01
 -1      4333 9.02398E-01-8.09792E-02-4.76722E-01-1.45259E-01-3.03941E-02 5.20682E-01
 -1      4334 5.00215E+00-5.00597E-01-1.40463E-01 9.71040E-01 1.30578E-01-7.09615E-02
 -1      4335 4.55577E+00 1.04891E-01-8.97292E-02 1.37953E+00 3.04462E-01-1.75684E-01
 -1      4336 2.80098E+00-3.12487E+00-4.67568E-01 6.77523E-01-2.07805E-01-3.87889E-01
 -1      4337 2.97479E+00-3.20780E+00-7.14902E-01-1.89243E-01 3.12846E-01 1.10555E+00
 -1      4338 1.17452E+00-2.76257E+00-1.34996E+00-9.50070E-01 5.36623E-01-2.36487E-01
 -1      4339 1.67433E+00-1.78625E+00-2.56505E+00-4.04854E-01-1.77270E-01 1.33033E+00
 -1      4340 1.46033E-01-2.57117E+00-3.57930E+00-9.24519E-01-2.92877E-02 1.49865E+00
 -1      4341 6.96298E-01-2.46038E+00-3.40751E+00-1.08393E+00-1.41560E-01 1.51469E+00
 -1      4342 2.35713E+00-1.12584E+00-2.98828E+00 3.34354E-01-2.02406E-01 1.10696E+00
 -1      4343 5.78216E-01-2.38060E+00-3.72997E+00-5.11610E-01 4.13710E-02 1.36092E+00
 -1      4344 2.02864E+00-8.91158E-01-2.69629E+00-3.94742E-01 7.97422E-04 4.78846E-01
 -1      4345 8.55940E-01-3.57411E+00-3.00041E+00-8.18274E-01 5.77453E-01 9.87173E-01
 -1      4346 5.30034E-01-3.93072E+00-3.39956E+00-6.00773E-01-4.84756E-01 5.60697E-01
 -1      4347 3.28726E+00-2.62636E+00-2.37278E+00 2.99678E-02-4.74914E-02 6.46062E-01
 -1      4348 6.53701E-02-3.27913E+00-3.06001E+00-1.66361E+00-2.58921E-02 1.41963E-01
 -1      4349 1.73262E+00-5.05579E+00-2.19993E+00-1.91326E-01 6.13608E-01 8.80586E-02
 -1      4350 7.13968E-01-3.74069E+00-1.68910E+00-1.07734E+00-2.78490E-02 1.52225E-01
 -1      4351 3.31866E+00-2.05356E+00-4.20961E-01-3.37475E-01-4.88717E-01-3.20375E-01
 -1      4352-5.32782E-01-3.43737E+00-1.91309E+00-1.12850E+00 1.49819E-01 3.06947E-01
 -1      4353-6.61157E-01-3.36328E+00-1.77394E+00-1.23989E+00-3.42582E-01-1.09865E-01
 -1      4354 1.57119E+00 1.46872E-01-7.97040E-01 3.18527E-02-1.53960E-01-5.78380E-02
 -1      4355 3.29591E+00 1.64465E-01-3.11241E-01 6.92759E-01-4.49525E-01-6.55410E-01
 -1      4356 3.88762E+00-8.70152E-01-2.11268E-01 2.20317E-01-1.86510E-01-1.79832E-01
 -1      4357 2.08548E+00-2.69403E+00-1.17756E+00-1.24086E+00-3.54269E-01 8.40703E-02
 -1      4358 1.38524E+00-7.49533E-01-1.27821E+00-1.22830E+00 1.20946E-02 2.67416E-01
 -1      4359 2.57605E+00 1.67323E+00-8.78425E-01 6.10304E-01 1.05703E-01 9.94979E-02
 -1      4360 2.67028E+00 2.27562E-01-1.29870E+00 3.46235E-01-2.91047E-01 3.93189E-01
 -1      4361 3.81829E-01-8.97908E-01-2.15900E+00-7.66568E-01-3.51679E-01 1.66393E-01
 -1      4362 5.13352E+00-2.14546E+00-1.76192E+00 1.63534E+00-4.33593E-01 3.49529E-01
 -1      4363 4.50725E+00 5.66091E-01-8.87076E-01 7.08965E-01-6.42194E-01-1.72025E-01
 -1      4364 1.64054E+00-2.95840E-01-1.82232E+00-4.04929E-01 3.33286E-01 6.11726E-01
 -1      4365 1.65539E+00-2.76942E-01-1.59542E+00 6.64593E-02 3.21185E-02 2.40322E-01
 -1      4366 3.87897E+00 4.84761E-01-3.08015E-01 7.42894E-01-1.11087E-01 4.78675E-01
 -1      4367 1.88938E+00-6.12829E-01-5.39155E-01-1.28156E-01-7.51289E-02 2.20418E-01
 -1      4368 1.03133E+00-6.19173E-01-6.21704E-01-1.01466E+00-1.89535E-01 3.34215E-02
 -1      4369 2.09682E+00-4.71772E-01-3.38171E-01 1.68303E-01 7.16173E-02-6.38527E-02
 -1      4370 3.90140E+00 3.53040E-01-1.01819E-01 6.40791E-01-3.67265E-01-4.75056E-01
 -1      4371 1.54628E+00-1.78861E+00-2.02542E+00-2.69025E-01 9.26614E-02 1.51445E+00
 -1      4372 6.80028E-01-9.77211E-01-1.57398E+00-4.69288E-01 8.07300E-02 1.01989E+00
 -1      4373 9.73193E-01-7.15625E-01-1.84836E+00-5.32677E-01-1.02212E-01 1.20090E+00
 -1      4374 5.79107E-01-5.51937E-01-1.30387E+00-5.63348E-01 8.84308E-02 9.38066E-01
 -1      4375 1.42802E+00-3.41284E-01-6.56423E-01-2.35319E-01-4.25668E-02 9.78516E-01
 -1      4376 5.81596E-01-2.90784E-01-6.62204E-01-3.15200E-01-1.36696E-01 5.25432E-01
 -1      4377 8.30133E-01-4.87256E-01-1.23293E+00-5.82127E-01-1.22438E-01 9.99383E-01
 -1      4378 9.84822E-01-8.28801E-01-1.01203E+00-8.12967E-01 8.72913E-02-2.69390E-02
 -1      4379 1.33325E+00-2.20542E+00-1.10132E+00-8.22267E-01 3.17435E-02-7.67641E-02
 -1      4380 1.03380E+00-4.20962E-01-8.63197E-01-6.68856E-01 3.81307E-03-5.06148E-02
 -1      4381 7.87976E-01-8.03926E-01-9.91031E-01-7.35534E-01-1.15662E-01-5.21255E-02
 -1      4382 1.20133E+00-2.59453E-01-7.53171E-01-6.30290E-01-5.11489E-02-8.87739E-02
 -1      4383 1.58733E-01-3.89269E+00-4.04122E+00-6.52242E-01-9.41900E-02 1.61083E+00
 -1      4384-6.41971E-02-3.96643E+00-2.91637E+00-1.37334E+00-5.60228E-01 1.89832E+00
 -1      4385 1.61997E+00-2.53534E+00-2.56723E+00-8.13329E-01 1.45529E-01 1.92623E+00
 -1      4386 2.40467E+00-2.99055E+00-8.37248E-01-1.27748E+00-4.88239E-01-9.28258E-02
 -1      4387 9.69793E-01-4.01719E+00-1.57739E+00-1.61504E+00 1.80544E-01-2.94283E-01
 -1      4388 1.99795E+00-3.31821E+00-1.50550E+00-1.21902E+00 1.42556E-01 1.07085E-01
 -1      4389 1.58919E+00-3.32182E+00-1.43551E+00-1.52214E+00 4.46666E-01-7.45587E-02
 -1      4390 9.66514E-01-4.37981E-02-2.53058E-01-6.16541E-02-3.13182E-03 2.55872E-01
 -1      4391 9.44991E-01-2.86835E-02-3.20517E-01-7.23287E-02-1.45198E-02 2.80731E-01
 -1      4392 1.00190E+00-5.77818E-02-1.67935E-01-4.55315E-02-1.13850E-02 2.19949E-01
 -1      4393 9.58485E-01-4.92620E-02-3.11520E-01-7.27750E-02-1.77207E-02 3.00661E-01
 -1      4394 9.57169E-01-3.10639E-02-4.38837E-01-4.64974E-02-1.23271E-02 3.33224E-01
 -1      4395 9.65481E-01 1.58656E-03-3.33500E-01-3.73423E-02 3.54288E-03 2.81049E-01
 -1      4396 9.28127E-01-1.80794E-02-2.95219E-01-5.21895E-02-1.08398E-02 2.35003E-01
 -1      4397 9.07994E-01-2.14801E-02-2.33581E-01-3.04766E-02-4.89544E-03 1.79962E-01
 -1      4398 9.67917E-01 8.40938E-03-3.88953E-01-4.30988E-02-6.20452E-03 2.59197E-01
 -1      4399 9.56631E-01-2.53357E-02-5.28837E-01-5.96844E-02-1.08936E-02 3.60288E-01
 -1      4400 9.66771E-01-3.35776E-02-5.51246E-01-5.31161E-02-3.82825E-04 3.39231E-01
 -1      4401 1.01596E+00-1.25043E-02-5.38494E-01-5.64895E-02-1.45330E-02 3.82383E-01
 -1      4402 1.09154E+00-3.57731E-02-6.42249E-01-3.90397E-02-6.59943E-03 4.13490E-01
 -1      4403 9.78380E-01-2.17270E-02-4.19778E-01-7.40056E-02-2.44723E-02 3.54050E-01
 -1      4404 1.05856E+00 4.84017E-03-5.54198E-01-5.14428E-02-7.62264E-03 4.19189E-01
 -1      4405 1.00693E+00-5.86828E-02-3.29323E-01-6.30007E-02-2.21298E-02 3.23471E-01
 -1      4406 8.73090E-01-3.68075E-02-2.80268E-01-4.21559E-02-1.69274E-02 1.93173E-01
 -1      4407 8.65640E-01-1.26334E-02-1.88492E-01-3.10909E-02-2.03237E-03 1.51909E-01
 -1      4408 8.59786E-01-2.88264E-02-1.45009E-01-1.58568E-02-1.15990E-02 1.02853E-01
 -1      4409 8.96339E-01 6.49333E-03-9.55296E-02-1.90695E-02-3.59405E-03 1.00716E-01
 -1      4410 9.36114E-01-2.43193E-03-3.67370E-01-4.29752E-02-2.78161E-03 2.05795E-01
 -1      4411 8.94327E-01-2.59041E-03-3.11745E-01-4.88176E-02 1.82188E-03 1.65996E-01
 -1      4412 9.28141E-01-1.44860E-02-4.07962E-01-5.15873E-02 2.60767E-03 2.34885E-01
 -1      4413 9.52880E-01-3.94535E-03-4.34691E-01-4.73085E-02-4.49910E-03 1.99668E-01
 -1      4414 9.75408E-01-3.28709E-02-5.04264E-01-5.86255E-02-2.50528E-03 2.92257E-01
 -1      4415 9.60636E-01-1.37604E-02-4.24514E-01-6.23792E-02 5.00214E-03 2.47368E-01
 -1      4416 9.76375E-01-3.19722E-02-5.00119E-01-4.87529E-02-4.19477E-03 2.56147E-01
 -1      4417 1.05683E+00-3.08200E-02-6.22815E-01-4.42322E-02 2.53450E-03 7.53302E-02
 -1      4418 1.08002E+00-3.50559E-02-6.39301E-01-4.51442E-02 1.94201E-03 5.39626E-02
 -1      4419 1.13602E+00-2.79843E-02-6.42898E-01-2.31231E-02 7.53683E-04 3.54309E-02
 -1      4420 1.21059E+00-2.51401E-02-6.44075E-01-4.93112E-02 1.04505E-02 4.31265E-02
 -1      4421 1.05557E+00-2.06857E-02-5.96996E-01-3.87184E-02-7.56049E-04 1.08605E-01
 -1      4422 1.11301E+00-5.90346E-02-6.45242E-01-7.83987E-02-2.06748E-03 1.00145E-01
 -1      4423 1.06277E+00-3.41807E-02-6.27131E-01-3.84875E-02 2.05527E-03 9.19429E-02
 -1      4424 1.15429E+00-4.54037E-02-6.53751E-01-6.17442E-02 2.70617E-03 8.11102E-02
 -1      4425 1.01683E+00-6.84272E-03-4.81307E-01-3.22147E-02-1.06624E-02 1.06972E-01
 -1      4426 1.02530E+00 3.91365E-04-5.39330E-01-4.53953E-02 1.37473E-03 1.05950E-01
 -1      4427 1.03377E+00-1.15821E-02-5.67705E-01-8.42711E-02-1.65540E-03 1.18528E-01
 -1      4428 1.12050E+00-5.35724E-02-6.68753E-01-8.74230E-02-1.11739E-02 1.14847E-01
 -1      4429 1.21464E+00-4.20054E-03-6.57953E-01-8.12543E-02-7.76940E-04 1.00641E-01
 -1      4430 1.15935E+00-5.58773E-02-7.24332E-01-1.08494E-01 1.14005E-02 9.01141E-02
 -1      4431 1.17340E+00-1.22584E-02-6.81088E-01-1.12056E-01 1.94288E-03 8.69976E-02
 -1      4432 1.16617E+00-3.79368E-02-7.14598E-01-1.17563E-01-4.83164E-03 8.22595E-02
 -1      4433 1.16548E+00-3.18867E-02-6.89908E-01-1.00502E-01 1.19099E-02 7.20449E-02
 -1      4434 1.13869E+00-5.21835E-02-6.81515E-01-8.46981E-02-2.44749E-03 5.88738E-02
 -1      4435 9.36794E-01 3.61927E-03-4.32364E-01-1.60414E-02 7.05097E-03 1.05842E-01
 -1      4436 9.60460E-01-6.53582E-02-4.65589E-01-5.39559E-02-6.42973E-03 1.11453E-01
 -1      4437 8.71402E-01-1.68281E-02-4.10315E-01-2.57137E-02 8.41329E-03 8.05834E-02
 -1      4438 1.08857E+00-5.52281E-02-6.48756E-01-8.49856E-02-9.17125E-03 1.42957E-01
 -1      4439 1.14316E+00-4.91662E-02-6.88868E-01-1.10599E-01 4.64240E-03 1.39910E-01
 -1      4440 1.04457E+00-3.56162E-02-6.10430E-01-5.23613E-02-1.18905E-04 1.32720E-01
 -1      4441 1.05165E+00-2.27648E-02-6.32622E-01-5.49701E-02-4.60916E-03 1.46133E-01
 -1      4442 1.02683E+00 1.79995E-03-5.44364E-01-5.98566E-02-5.03303E-03 1.37920E-01
 -1      4443 1.15991E+00-6.15165E-02-7.46246E-01-1.08799E-01 6.11814E-03 1.00050E-01
 -1      4444 1.17018E+00-6.62823E-02-7.51172E-01-1.24846E-01-1.43160E-03 7.59452E-02
 -1      4445 1.13938E+00-7.65834E-02-7.57799E-01-1.02141E-01-9.57729E-03 1.40696E-01
 -1      4446 1.17919E+00-3.12539E-02-7.90315E-01-1.34678E-01 9.50213E-04 1.30905E-01
 -1      4447 1.15815E+00-5.98045E-02-7.49425E-01-1.21404E-01-2.84204E-03 1.07826E-01
 -1      4448 1.16884E+00-2.67464E-02-7.35390E-01-1.26554E-01-1.74226E-02 9.78636E-02
 -1      4449 1.13369E+00-1.11281E-02-7.16794E-01-1.32831E-01-4.99498E-03 1.44276E-01
 -1      4450 1.18591E+00-5.27274E-02-7.28270E-01-1.02848E-01 2.19025E-03 6.75730E-02
 -1      4451 1.19306E+00-1.06643E-02-7.33811E-01-1.06458E-01-1.54177E-02 5.11879E-02
 -1      4452 1.18260E+00-7.16881E-02-7.45067E-01-1.11864E-01-7.72630E-03 6.65773E-02
 -1      4453 1.22460E+00-5.58439E-02-7.40567E-01-9.66265E-02-8.63562E-04 5.43332E-02
 -1      4454 1.22572E+00-7.41968E-02-7.88008E-01-1.04049E-01-8.37144E-04 5.87464E-02
 -1      4455 1.26084E+00-8.94619E-02-7.92934E-01-1.12880E-01-4.17904E-03 1.30662E-01
 -1      4456 1.36906E+00-2.30662E-02-7.71806E-01-1.22799E-01 7.12873E-03 1.07791E-01
 -1      4457 1.16983E+00-8.47242E-02-8.50245E-01-1.67868E-01 2.82511E-02 1.04499E-01
 -1      4458 1.22058E+00-1.33729E-02-7.98051E-01-1.78185E-01 7.56861E-04 8.85911E-02
 -1      4459 1.41517E+00-8.47879E-02-8.09694E-01-6.46744E-02 9.38527E-03 8.73060E-02
 -1      4460 1.23447E+00-7.64658E-02-7.69080E-01-6.60786E-02-1.05163E-02 9.50306E-02
 -1      4461 1.29658E+00-9.15039E-02-7.66370E-01-1.19375E-01-1.69467E-02 4.66702E-02
 -1      4462 1.18639E+00-1.36354E-01-8.39665E-01-2.21971E-01-2.67921E-02 1.19420E-01
 -1      4463 1.25414E+00-5.64510E-02-7.75463E-01-1.16329E-01-1.74023E-02 1.03450E-01
 -1      4464 1.16677E+00-8.48182E-02-8.10062E-01-1.17648E-01-4.23709E-03 1.21601E-01
 -1      4465 1.31111E+00-7.71157E-02-7.91062E-01-1.33401E-01-1.27149E-03 1.40062E-01
 -1      4466 1.14583E+00-6.91805E-02-7.74276E-01-7.70515E-02 1.34335E-02 1.21653E-01
 -1      4467 1.11590E+00-1.11259E-01-8.07169E-01-8.14494E-02 5.71688E-03 1.48563E-01
 -1      4468 1.19784E+00-1.35017E-02-7.03245E-01-7.62956E-02-1.08611E-02 1.71156E-01
 -1      4469 1.25771E+00 1.36023E-02-7.66800E-01-1.18495E-01 9.52301E-03 3.04691E-02
 -1      4470 1.34407E+00-5.71191E-02-7.55393E-01-6.09715E-02-9.02982E-04 5.61006E-02
 -1      4471 1.19050E+00-5.52898E-02-7.83667E-01-9.46896E-02 1.84152E-02 3.75098E-02
 -1      4472 1.03532E+00-1.07267E-01-8.06426E-01-1.54122E-01-1.29230E-02 7.02722E-02
 -1      4473 1.18258E+00-3.33420E-02-7.41427E-01-1.77460E-01 3.51084E-03 8.23915E-02
 -1      4474 1.30242E+00-4.69701E-02-7.64539E-01-8.91905E-02-3.51668E-03 7.47158E-02
 -1      4475 1.17879E+00-5.20563E-02-8.25905E-01-2.02272E-01 1.53928E-02 3.70191E-02
 -1      4476 1.20302E+00-1.03642E-01-8.01002E-01-1.18412E-01-1.28035E-02 8.08130E-02
 -1      4477 1.13501E+00-7.51369E-02-8.76916E-01-2.13744E-01-9.05955E-03 1.54598E-01
 -1      4478 1.09663E+00-1.22212E-01-8.84295E-01-1.88027E-01 2.68917E-05 1.33138E-01
 -1      4479 1.14879E+00-1.08839E-01-8.83950E-01-2.36544E-01 2.38168E-03 1.25311E-01
 -1      4480 1.11163E+00-1.06910E-01-8.51343E-01-2.09302E-01 1.57102E-02 1.33583E-01
 -1      4481 1.13114E+00-6.86231E-02-8.58062E-01-2.07739E-01-7.37151E-03 1.07405E-01
 -1      4482 1.12289E+00-9.27921E-02-8.11966E-01-6.82125E-02-1.29022E-03 1.77059E-01
 -1      4483 1.21509E+00-5.37905E-02-8.09083E-01-1.29865E-01 1.23716E-02 1.67510E-01
 -1      4484 1.23439E+00 3.08451E-02-8.40093E-01-1.30853E-01-7.17544E-03 1.83148E-01
 -1      4485 1.17908E+00 1.46260E-03-8.43023E-01-1.32602E-01-2.15365E-02 1.36698E-01
 -1      4486 1.17054E+00-6.10743E-02-8.96349E-01-1.30635E-01-2.67343E-03 1.18361E-01
 -1      4487 1.18391E+00-5.72480E-02-8.77903E-01-2.14156E-01-9.26125E-03 1.55956E-01
 -1      4488 1.19981E+00-7.46565E-02-9.08296E-01-2.22137E-01-1.62329E-02 1.35276E-01
 -1      4489 1.22744E+00-4.66279E-02-7.48255E-01-5.03880E-02 7.29275E-03 1.94548E-01
 -1      4490 1.11918E+00-9.75726E-02-8.16974E-01-7.03408E-02 4.78211E-03 2.01742E-01
 -1      4491 1.07199E+00-2.05916E-02-6.82976E-01-5.93812E-02-4.04638E-03 1.77324E-01
 -1      4492 1.11645E+00-2.96678E-02-7.11375E-01-2.90565E-02-7.26608E-03 2.03166E-01
 -1      4493 1.07698E+00-4.43791E-02-7.18432E-01-5.53792E-02 5.23408E-03 1.93391E-01
 -1      4494 1.20076E+00-4.54145E-02-8.72689E-01-1.38598E-01-1.72727E-02 2.03731E-01
 -1      4495 1.20703E+00-2.17447E-02-8.76235E-01-1.36437E-01 1.40700E-02 1.72925E-01
 -1      4496 1.22717E+00-6.28916E-02-8.35872E-01-7.78766E-02 3.94134E-03 1.93464E-01
 -1      4497 1.15913E+00-8.05813E-02-8.69149E-01-9.64218E-02-1.09815E-02 1.97425E-01
 -1      4498 1.12492E+00-3.09958E-02-7.93724E-01-5.47716E-02-8.43403E-03 1.89737E-01
 -1      4499 1.20179E+00-9.06056E-02-9.29331E-01-1.58458E-01 1.43886E-02 1.78457E-01
 -1      4500 1.19502E+00-7.81602E-02-9.23209E-01-1.17911E-01-7.51705E-03 1.52964E-01
 -1      4501 1.38570E+00-5.84692E-02-9.08111E-01-1.14482E-01 1.17071E-02 1.23256E-01
 -1      4502 1.23232E+00-9.58986E-02-9.23875E-01-7.67417E-02 3.78594E-03 1.26701E-01
 -1      4503 1.26777E+00-1.44054E-01-9.09695E-01-1.69927E-01 5.05630E-03 1.23796E-01
 -1      4504 1.19786E+00-1.01725E-01-9.27658E-01-9.40935E-02-2.51221E-02 1.08072E-01
 -1      4505 1.43042E+00-1.01541E-01-9.05310E-01-7.76104E-02-4.27790E-02 8.07980E-02
 -1      4506 1.16959E+00-6.68742E-02-8.83562E-01-9.38750E-02-1.82565E-03 2.35073E-01
 -1      4507 1.22712E+00-7.90224E-02-9.05576E-01-1.01885E-01 4.07661E-03 2.02977E-01
 -1      4508 1.29627E+00-5.88964E-02-9.08785E-01-9.50755E-02 4.16330E-03 2.13463E-01
 -1      4509 1.29897E+00-6.60509E-02-8.84184E-01-8.94959E-02-9.98841E-04 1.74360E-01
 -1      4510 1.17022E+00-4.01339E-02-9.45396E-01-1.56590E-01 1.68070E-02 1.62599E-01
 -1      4511 1.25019E+00-5.12991E-02-9.71414E-01-2.02167E-01 3.96772E-03 1.95281E-01
 -1      4512 1.09354E+00-1.05721E-01-9.67065E-01-1.00114E-01 1.31891E-02 1.65674E-01
 -1      4513 1.16578E+00-4.10963E-02-8.23589E-01-9.00199E-02 1.97230E-04 2.38595E-01
 -1      4514 1.15164E+00-6.04193E-02-8.72951E-01-1.23978E-01-1.29269E-03 2.42677E-01
 -1      4515 1.11389E+00-3.28745E-02-7.84104E-01-5.54969E-02 4.68647E-03 2.27187E-01
 -1      4516 1.10635E+00-3.53241E-02-7.73782E-01-4.80103E-02-5.59014E-03 2.58563E-01
 -1      4517 1.11402E+00-2.99246E-02-7.40100E-01-4.65785E-02-6.34475E-03 2.17872E-01
 -1      4518 1.14858E+00 1.75796E-02-8.50984E-01-7.83370E-02 4.55311E-04 2.43351E-01
 -1      4519 1.16992E+00-4.80964E-02-9.21000E-01-1.02541E-01 3.72545E-03 2.45453E-01
 -1      4520 1.13616E+00-8.75441E-02-9.93194E-01-9.54474E-02-1.03538E-02 2.39438E-01
 -1      4521 1.19605E+00-9.71465E-02-9.65899E-01-1.64848E-01-1.02561E-02 2.29575E-01
 -1      4522 1.08727E+00-2.39231E-01-1.08361E+00-2.75107E-01-8.84551E-04 1.81500E-01
 -1      4523 1.05826E+00-1.41614E-01-1.04067E+00-2.14650E-01 2.98580E-02 2.54989E-01
 -1      4524 1.15103E+00-1.07341E-01-9.58296E-01-9.51345E-02-2.49395E-02 1.93208E-01
 -1      4525 1.22568E+00-3.69675E-02-9.50206E-01-1.57296E-01-1.18635E-02 2.19725E-01
 -1      4526 1.23404E+00-5.24805E-02-1.05007E+00-2.24655E-01 2.95431E-02 3.07295E-01
 -1      4527 1.13464E+00-3.90447E-02-7.99083E-01-9.23115E-02-5.99416E-03 2.70510E-01
 -1      4528 1.13840E+00 5.61632E-03-8.50347E-01-8.38908E-02 9.59469E-04 2.85945E-01
 -1      4529 1.08177E+00-1.25428E-02-7.10263E-01-4.02967E-02-1.05222E-03 2.66214E-01
 -1      4530 1.08229E+00-6.61840E-02-7.67134E-01-7.79999E-02-8.74589E-03 2.69021E-01
 -1      4531 1.09576E+00-4.11650E-02-7.47714E-01-6.82112E-02-8.02413E-03 2.76594E-01
 -1      4532 1.14791E+00-7.73013E-02-9.91687E-01-9.96963E-02-1.41381E-03 2.73024E-01
 -1      4533 1.29387E+00-1.00012E-01-1.01920E+00-1.33337E-01-1.64695E-02 2.53908E-01
 -1      4534 1.12134E+00-2.59687E-02-9.30209E-01-9.80427E-02-4.84599E-04 3.05636E-01
 -1      4535 1.14855E+00-8.74688E-02-1.00216E+00-1.29476E-01-1.21287E-03 3.10112E-01
 -1      4536 1.10772E+00-1.39657E-02-8.56829E-01-1.06759E-01-4.15649E-03 3.33002E-01
 -1      4537 1.08584E+00 1.66152E-02-6.57224E-01-3.35916E-02-2.80822E-03 2.48776E-01
 -1      4538 1.05346E+00 4.23606E-03-6.42990E-01-6.77553E-02-3.83814E-03 2.62514E-01
 -1      4539 1.08381E+00-3.55940E-04-6.91568E-01-3.10071E-02-3.64651E-03 2.17304E-01
 -1      4540 1.05533E+00 9.28922E-03-6.27868E-01-5.54934E-02-4.50379E-03 2.21488E-01
 -1      4541 1.11251E+00-1.51581E-01-1.11287E+00-2.40372E-01 6.13326E-03 2.54269E-01
 -1      4542 1.20852E+00-6.43910E-02-1.04982E+00-1.96512E-01 7.27181E-03 2.69513E-01
 -1      4543 1.21768E+00-3.84464E-02-1.04457E+00-2.01106E-01 2.74899E-02 2.28339E-01
 -1      4544 1.26465E+00-1.81881E-02-1.01380E+00-1.63959E-01-2.53192E-03 1.90075E-01
 -1      4545 1.21253E+00-1.43826E-02-9.93096E-01-2.11430E-01-4.59635E-02 1.01461E-01
 -1      4546 1.09112E+00-1.24699E-01-1.04029E+00-1.54088E-01-7.13902E-04 3.12781E-01
 -1      4547 1.23704E+00-1.17911E-01-1.07835E+00-1.75100E-01 3.90667E-03 3.00635E-01
 -1      4548 1.10914E+00-1.30260E-01-1.16124E+00-3.67288E-01 3.13276E-03 2.84188E-01
 -1      4549 1.16465E+00-8.78757E-02-1.10133E+00-2.81628E-01-7.57421E-03 3.03670E-01
 -1      4550 1.07898E+00-1.54842E-01-1.16085E+00-3.51350E-01 1.72942E-02 3.15862E-01
 -1      4551 1.18628E+00-1.47717E-01-1.12428E+00-2.58195E-01 2.51938E-03 2.58831E-01
 -1      4552 1.18251E+00-1.90722E-01-1.18373E+00-2.60371E-01 9.07252E-03 2.21221E-01
 -1      4553 1.10561E+00-4.12603E-02-9.49189E-01-9.78875E-02-5.46049E-03 3.26701E-01
 -1      4554 1.09389E+00-9.42064E-02-1.03016E+00-1.16925E-01-1.64133E-02 3.38482E-01
 -1      4555 1.12299E+00-3.20601E-02-8.06792E-01-9.56801E-02 4.48799E-03 3.36984E-01
 -1      4556 1.10300E+00 8.08641E-03-8.59794E-01-1.19833E-01-3.89778E-03 3.31443E-01
 -1      4557 1.12407E+00 2.84003E-02-8.62728E-01-6.81654E-02-1.16864E-02 3.46250E-01
 -1      4558 1.36002E+00-1.74712E-01-1.17938E+00-1.82684E-01 2.57099E-02 4.22425E-01
 -1      4559 1.13554E+00-3.22935E-01-1.32593E+00-4.01581E-01 3.96415E-02 2.54506E-01
 -1      4560 1.00523E+00-1.00216E-01-1.11502E+00-1.66068E-01-9.27416E-04 3.77533E-01
 -1      4561 1.33660E+00-2.15576E-01-1.09727E+00-1.77051E-01-3.80136E-02 2.72464E-01
 -1      4562 1.05612E+00-7.18563E-02-1.03808E+00-1.21430E-01 2.54175E-02 3.89522E-01
 -1      4563 1.03236E+00-1.69088E-01-1.09430E+00-3.54246E-01-2.76295E-02 1.35850E-01
 -1      4564 1.06940E+00-1.55972E-01-1.02206E+00-3.18916E-01-7.98118E-03 1.73438E-01
 -1      4565 1.05266E+00-1.37777E-01-9.83565E-01-2.10376E-01-2.99690E-02 1.99647E-01
 -1      4566 1.56020E+00-4.36057E-01-8.57826E-01-2.04303E-01 6.78932E-03 6.97052E-02
 -1      4567 1.21131E+00-1.54198E-01-9.34543E-01-1.62480E-01 7.07730E-03 1.47025E-01
 -1      4568 1.19402E+00-6.77364E-01-1.04385E+00-2.84353E-01-4.50979E-02 7.01637E-02
 -1      4569 1.36945E+00-6.05643E-01-9.54864E-01-3.24920E-01-2.35822E-02 4.07768E-02
 -1      4570 1.16020E+00-5.97903E-01-1.12113E+00-2.56461E-01 2.68232E-02 1.61270E-01
 -1      4571 1.66722E+00-5.01347E-01-9.95959E-01-3.90967E-01-1.45245E-02 1.41042E-01
 -1      4572 1.05483E+00-2.50665E-01-1.13241E+00-1.32033E-01-3.44600E-02 8.61631E-02
 -1      4573 1.11801E+00-2.66145E-01-1.31650E+00-3.17859E-01 4.59831E-02 2.32796E-01
 -1      4574 1.06932E+00-1.81987E-01-1.27849E+00-3.47621E-01-5.18487E-03 1.69084E-01
 -1      4575 1.25058E+00-2.79124E-01-1.32851E+00-2.14173E-01-9.93109E-02 1.93480E-01
 -1      4576 1.05735E+00-3.52029E-01-1.27897E+00-3.33671E-01-8.75463E-02 2.53032E-01
 -1      4577 1.12883E+00-2.39521E-01-1.20859E+00-3.33507E-01-9.45794E-03 2.59501E-01
 -1      4578 1.36859E+00-2.06840E-01-1.10159E+00-2.09570E-01-8.02731E-03 4.34416E-01
 -1      4579 1.16943E+00-4.00763E-01-1.24987E+00-3.54690E-01-1.32204E-02 3.23154E-01
 -1      4580 1.07383E+00-5.78509E-01-1.51075E+00-3.29516E-01-8.10755E-02 2.42044E-01
 -1      4581 1.12882E+00-6.56967E-01-1.44232E+00-3.64396E-01 8.78801E-02 3.42979E-01
 -1      4582 1.09612E+00-2.13665E-01-1.30140E+00-3.44353E-01 5.95739E-03 2.60713E-01
 -1      4583 1.01714E+00-8.17157E-02-1.26600E+00-2.78531E-01-4.03211E-02 2.25415E-01
 -1      4584 1.07607E+00-2.14769E-01-1.36148E+00-2.69363E-01 1.87766E-01 2.60043E-01
 -1      4585 1.06627E+00-6.04651E-02-1.13843E+00-1.77719E-01-5.24044E-02 3.54314E-01
 -1      4586 1.24433E+00-6.25625E-02-1.22931E+00-1.44780E-01-1.31117E-02 3.21687E-01
 -1      4587 1.01578E+00-1.14612E-01-1.08482E+00-1.61522E-01-2.28857E-02 3.74409E-01
 -1      4588 1.04867E+00-5.14895E-02-1.06912E+00-1.31690E-01-1.86396E-02 3.96186E-01
 -1      4589 1.07416E+00-3.67570E-02-9.49318E-01-9.89214E-02 6.98558E-03 3.82606E-01
 -1      4590 1.26999E+00-6.94635E-02-1.25829E+00-1.37017E-01 4.71393E-03 4.48427E-01
 -1      4591 1.27611E+00-1.30256E-01-1.36905E+00-2.29110E-01 8.35136E-03 3.68082E-01
 -1      4592 1.15784E+00-9.97654E-02-1.40779E+00-2.22060E-01 4.01621E-02 3.73303E-01
 -1      4593 1.21820E+00-9.44402E-02-1.38863E+00-2.64428E-01-3.67405E-02 3.61032E-01
 -1      4594 1.52543E+00-9.06592E-02-1.38455E+00-2.58182E-01-1.12511E-01 2.88790E-01
 -1      4595 1.22862E+00-2.15061E-01-1.38223E+00-2.77280E-01-1.12680E-02 3.69836E-01
 -1      4596 1.24019E+00-1.67746E-01-1.38055E+00-2.61771E-01 3.65059E-02 3.85829E-01
 -1      4597 1.07067E+00-3.15539E-02-1.15796E+00-1.61259E-01-5.47907E-03 4.49613E-01
 -1      4598 1.23205E+00-1.11375E-01-1.20259E+00-1.01422E-01-1.95190E-02 4.54102E-01
 -1      4599 1.03726E+00-6.16507E-02-1.05699E+00-1.42853E-01-7.21427E-03 4.52534E-01
 -1      4600 1.03834E+00-6.74814E-02-1.05808E+00-1.60892E-01-2.93050E-03 4.51869E-01
 -1      4601 1.11264E+00-5.30003E-02-9.43852E-01-1.26132E-01-1.67341E-02 4.53000E-01
 -1      4602 1.02607E+00-1.10672E-01-1.25752E+00-1.72714E-01-5.65340E-03 4.45247E-01
 -1      4603 1.11643E+00-1.47402E-01-1.27492E+00-1.51316E-01-1.68704E-03 4.94394E-01
 -1      4604 1.29059E+00-2.46043E-01-1.39601E+00-2.25896E-01-1.19852E-01 2.86652E-01
 -1      4605 1.22456E+00-3.57203E-01-1.40927E+00-1.73228E-01 5.63598E-02 5.35683E-01
 -1      4606 1.15210E+00-2.17963E-01-1.42248E+00-3.25581E-01 1.10402E-02 4.28254E-01
 -1      4607 1.03058E+00-2.67366E-01-1.44055E+00-3.14527E-01 7.97292E-02 4.39920E-01
 -1      4608 1.52056E+00-2.47393E-01-1.49279E+00-5.18204E-01 3.15945E-02 3.91321E-01
 -1      4609 9.88413E-01-6.96093E-02-1.19167E+00-1.60183E-01-8.13398E-03 5.04204E-01
 -1      4610 1.02531E+00-1.06080E-01-1.30097E+00-1.95424E-01 7.66012E-04 4.91242E-01
 -1      4611 1.04948E+00-4.42464E-02-1.06758E+00-1.26835E-01-4.70428E-03 4.62558E-01
 -1      4612 9.93439E-01-4.53813E-02-1.06781E+00-1.34515E-01-5.37937E-03 5.43258E-01
 -1      4613 1.05577E+00-5.33937E-02-9.45763E-01-1.10067E-01-1.66249E-02 4.72120E-01
 -1      4614 1.09007E+00-1.26778E-01-1.31029E+00-1.40949E-01 6.65237E-04 5.63571E-01
 -1      4615 1.37237E+00-1.15912E-01-1.40145E+00-2.17351E-01 1.06153E-03 5.09301E-01
 -1      4616 1.21702E+00-3.01248E-02-1.48706E+00-3.49438E-01-1.23620E-02 5.16864E-01
 -1      4617 1.24802E+00-3.01600E-02-1.42023E+00-3.34519E-01-1.51472E-02 4.23337E-01
 -1      4618 1.11110E+00-2.51607E-01-1.57121E+00-4.62807E-01-1.19252E-01 3.90642E-01
 -1      4619 9.78890E-01 6.40684E-03-1.14314E+00-1.21558E-01 6.07142E-03 5.53796E-01
 -1      4620 1.03728E+00-4.82533E-02-1.26856E+00-9.03601E-02 6.93089E-03 6.03048E-01
 -1      4621 9.89697E-01-4.85060E-02-1.02663E+00-1.50316E-01-1.72637E-02 5.42605E-01
 -1      4622 9.99592E-01-7.02252E-03-1.00181E+00-1.11968E-01-7.67844E-03 5.46342E-01
 -1      4623 1.03674E+00-6.17776E-02-9.25149E-01-1.04006E-01-6.08521E-03 5.38213E-01
 -1      4624 8.09846E-01-1.17872E-01-1.27095E+00-1.26482E-01 3.05499E-02 6.54465E-01
 -1      4625 1.42369E+00-3.30026E-01-1.31671E+00-2.24208E-01 1.64233E-02 6.28127E-01
 -1      4626 1.12048E+00-6.26943E-01-1.62928E+00-3.76696E-01 3.68723E-02 6.06564E-01
 -1      4627 1.13068E+00-7.00077E-01-1.59519E+00-3.09818E-01-9.05690E-03 5.91605E-01
 -1      4628 1.29099E+00-5.33299E-01-1.56319E+00-2.89600E-01-1.28195E-02 5.54912E-01
 -1      4629 1.06835E+00-3.06628E-01-1.59285E+00-4.87628E-01 2.45117E-02 4.23184E-01
 -1      4630 1.57730E+00-5.08106E-01-1.68853E+00-3.46268E-01-1.05433E-02 6.05498E-01
 -1      4631 8.81794E-01-3.09681E-02-1.05287E+00-1.30001E-01-7.09550E-03 6.16811E-01
 -1      4632 9.54811E-01-1.79420E-01-1.18118E+00-2.40052E-01-5.25014E-02 5.15546E-01
 -1      4633 9.44893E-01-9.59724E-03-9.50896E-01-1.10579E-01 1.88121E-03 5.94526E-01
 -1      4634 9.13382E-01-7.97350E-02-8.95346E-01-1.33720E-01-2.02762E-02 6.04235E-01
 -1      4635 1.00546E+00-4.59501E-02-8.44355E-01-1.01572E-01-1.49213E-02 5.55164E-01
 -1      4636 1.00854E+00-4.44553E-02-1.19888E+00-2.06298E-01-2.79799E-02 6.82865E-01
 -1      4637 9.13643E-01-1.95652E-01-1.41973E+00-2.40228E-01-4.19044E-02 5.90696E-01
 -1      4638 8.05338E-01-2.86054E-01-1.58569E+00-2.85985E-01-2.27594E-03 6.78482E-01
 -1      4639 1.07294E+00-3.30259E-01-1.59337E+00-3.66432E-01-5.94293E-02 5.79492E-01
 -1      4640 1.56886E+00-3.23615E-01-1.68939E+00-3.56223E-01-5.36124E-02 6.35754E-01
 -1      4641 1.03085E+00-7.71107E-02-9.75936E-01-1.80589E-01-3.40998E-02 6.58946E-01
 -1      4642 8.37290E-01-1.23009E-01-1.13949E+00-1.81646E-01-1.09867E-02 7.41244E-01
 -1      4643 8.82452E-01-7.94265E-02-8.42343E-01-1.22304E-01-9.24160E-03 6.10408E-01
 -1      4644 8.53590E-01-1.27857E-01-7.87928E-01-1.50736E-01-4.82244E-04 5.80386E-01
 -1      4645 9.40094E-01-4.14861E-02-6.96675E-01-9.57820E-02 1.56100E-02 5.67304E-01
 -1      4646 6.24771E-01-2.39974E-01-1.07531E+00-2.58880E-01-1.21209E-03 7.47908E-01
 -1      4647 9.12885E-01-1.75088E-01-1.34723E+00-2.36228E-01 3.04380E-02 8.57757E-01
 -1      4648 1.62666E+00-4.07131E-01-1.38109E+00-1.37035E-01-1.22096E-01 7.40116E-01
 -1      4649 1.17154E+00-1.80117E-01-1.54910E+00-1.05074E-01-2.89229E-02 7.41978E-01
 -1      4650 1.53748E+00-4.35608E-01-1.79950E+00-2.26802E-01-6.48212E-02 6.04927E-01
 -1      4651 9.28062E-01-2.33429E-01-1.59909E+00-1.52254E-01-3.30711E-02 6.69095E-01
 -1      4652 1.52395E+00-4.47251E-01-1.62723E+00-3.14187E-01 1.20518E-01 9.00281E-01
 -1      4653 1.01190E+00-5.68823E-02-8.09953E-01-9.31243E-02-1.47440E-02 4.41750E-01
 -1      4654 1.07232E+00-4.32272E-02-8.24444E-01-7.85531E-02-1.00702E-02 4.11122E-01
 -1      4655 1.09704E+00-6.20199E-02-8.82478E-01-1.14861E-01-2.60041E-02 3.95450E-01
 -1      4656 1.01525E+00-6.59118E-02-7.76732E-01-8.43907E-02 4.43132E-03 4.08449E-01
 -1      4657 1.12967E+00 2.69671E-02-8.43700E-01-7.45781E-02-9.88951E-03 3.84379E-01
 -1      4658 9.84227E-01-3.23219E-02-6.99528E-01-9.76740E-02-4.49358E-03 4.98712E-01
 -1      4659 9.91821E-01 1.71187E-02-6.33414E-01-8.80592E-02-7.66887E-03 5.19126E-01
 -1      4660 9.68062E-01-5.97321E-02-7.98674E-01-6.73677E-02-1.61371E-03 5.15495E-01
 -1      4661 9.75101E-01-1.62169E-02-6.17156E-01-6.31133E-02-1.04144E-02 4.71323E-01
 -1      4662 1.00230E+00-4.64272E-02-8.36579E-01-6.97245E-02-6.39867E-03 4.99688E-01
 -1      4663 9.29842E-01-4.22648E-01-1.34788E+00-7.27241E-01 2.04273E-01 1.34763E-01
 -1      4664 1.20712E+00-2.07864E-01-1.16037E+00-6.30808E-01 1.23064E-01 1.87881E-01
 -1      4665 1.67848E+00-3.35200E-01-1.08833E+00-2.85728E-01 7.35960E-02 3.13275E-01
 -1      4666 1.02161E+00-1.74731E-01-1.01569E+00-3.48868E-01 2.95690E-02 2.82004E-01
 -1      4667 1.27239E+00-3.90860E-01-9.68357E-01-4.07090E-01-7.63437E-02-9.57348E-03
 -1      4668 1.11791E+00-2.37664E-01-1.23308E+00-6.56906E-01 2.82732E-02 1.26613E-01
 -1      4669 1.37139E+00-2.88234E-01-1.16607E+00-3.71072E-01-2.69707E-02 1.57930E-01
 -1      4670 1.00485E+00-2.18998E-01-1.12177E+00-2.02150E-01-2.82801E-02 1.81593E-01
 -1      4671 5.18984E+00 9.86687E-01 3.31988E-01 9.55544E-01-4.12802E-01 2.39938E-01
 -1      4672 1.78578E+00-3.25091E-01-1.42186E+00 4.90987E-01-5.33113E-01-2.04870E-01
 -1      4673 2.21752E+00-4.22670E-01-9.41824E-01-2.77337E-01 1.34001E-01 3.95934E-01
 -1      4674-3.94877E-01-1.18184E+00-1.28150E+00-7.61624E-01-1.24524E-01-2.73048E-01
 -1      4675 8.88437E-01-3.72675E-01-1.49666E+00-5.39081E-01 3.00442E-02 2.44679E-01
 -1      4676 9.77213E-01-4.88667E-01-1.71664E+00-6.00635E-01 1.03540E-02 2.70237E-01
 -1      4677 8.12463E-01-3.05769E-01-1.69983E+00-4.91712E-01 6.85290E-02 3.20714E-01
 -1      4678 8.51404E-01-3.90452E-01-1.64688E+00-6.19392E-01 3.42330E-02 2.69921E-01
 -1      4679 1.20162E+00-2.85865E-01-1.42257E+00-3.39703E-01 1.23659E-02 3.55084E-01
 -1      4680 8.75831E-01-3.86132E-01-1.73197E+00-5.65098E-01-3.57470E-02 2.86157E-01
 -1      4681 1.08078E+00-3.20186E-01-1.51161E+00-2.81210E-01-1.19557E-02 3.48430E-01
 -1      4682 1.00582E+00-2.10767E-02-5.66935E-01-7.36940E-02 4.21283E-04 2.64008E-01
 -1      4683 1.03816E+00 6.67052E-03-6.07408E-01-7.27761E-02-3.93083E-03 2.85080E-01
 -1      4684 1.05930E+00-1.84918E-02-6.83213E-01-6.98101E-02 2.44294E-03 3.01583E-01
 -1      4685 1.08796E+00-3.18432E-02-7.36541E-01-6.65022E-02 3.60624E-03 3.22693E-01
 -1      4686 1.00653E+00-1.43985E-02-5.95503E-01-7.62601E-02-5.97744E-03 3.03366E-01
 -1      4687 1.03942E+00 4.56841E-03-5.95869E-01-5.20197E-02-7.63196E-03 2.01086E-01
 -1      4688 1.00403E+00-2.39784E-02-5.71788E-01-5.60153E-02-1.04102E-02 2.22789E-01
 -1      4689 9.85165E-01-3.57186E-02-5.40398E-01-5.22105E-02-6.18284E-03 2.33997E-01
 -1      4690 9.80495E-01-1.55788E-02-5.08006E-01-4.99273E-02 3.03155E-03 2.19990E-01
 -1      4691 1.59184E+00-2.85980E-01-1.19743E+00-8.97819E-02-4.86333E-02 1.81109E-01
 -1      4692 2.22171E+00-6.41349E-01-1.12799E+00-1.67762E-01 1.79443E-01 4.27986E-01
 -1      4693 1.19855E+00-2.01278E-01-1.27094E+00-1.91235E-01-7.70946E-03 2.76250E-01
 -1      4694 2.42728E+00-1.26692E+00-1.25457E+00-9.97241E-02 1.67270E-02 4.20301E-01
 -1      4695 1.19346E+00-1.70308E-01-1.28591E+00-1.96830E-01-4.68368E-02 2.26549E-01
 -1      4696 5.81973E-01-6.05520E-01-1.60128E+00-7.92452E-01-9.49517E-02 9.70052E-02
 -1      4697 4.80405E-01-4.97399E-01-1.43738E+00-6.98551E-01-3.58759E-02 1.69877E-01
 -1      4698 1.13810E+00-8.99713E-01-1.49517E+00-6.75172E-01-1.34570E-01 1.09021E-01
 -1      4699 2.53541E+00-6.37289E-01-1.22349E+00-5.61141E-01 6.13448E-02 3.01470E-01
 -1      4700 7.41356E-01-7.44484E-01-1.56515E+00-8.06178E-01 3.26311E-01 1.30243E-01
 -1      4701 1.23115E+00-5.52283E-01-1.40596E+00-8.38540E-01-7.19242E-03 1.40919E-01
 -1      4702 1.62042E+00-2.44329E-01-1.16913E+00-7.86196E-01-8.01508E-02 5.39520E-02
 -1      4703 2.69041E+00-4.36332E+00-2.56374E+00 3.66270E-01-5.75398E-02-2.22166E-01
 -1      4704 1.64322E+00-3.94276E+00-2.08563E+00-1.02351E+00-2.82626E-01 1.56133E-01
 -1      4705 6.40306E-01-4.31439E+00-2.63132E+00-1.28062E+00 3.11965E-01 2.40689E-01
 -1      4706 1.16117E+00-6.81519E-01-1.76170E+00-5.22128E-01-4.62733E-04 3.94210E-01
 -1      4707 1.06290E+00-4.67270E-01-1.87474E+00-3.60793E-01 9.13357E-03 4.87510E-01
 -1      4708 1.85724E+00-6.51614E-01-1.83599E+00-3.71107E-01-4.03603E-02 3.22636E-01
 -1      4709 9.52395E-01-6.22859E-01-1.78660E+00-4.83267E-01-5.95861E-02 3.00349E-01
 -1      4710 1.30104E+00-8.36110E-01-1.79128E+00-6.48129E-01 8.40108E-02 4.55344E-01
 -1      4711 9.50164E-01-3.64238E-01-1.62127E+00-5.16982E-01-1.25609E-03 3.67840E-01
 -1      4712 1.21872E+00-3.76169E-01-1.63421E+00-6.34885E-01-3.71183E-02 5.66835E-01
 -1      4713 9.03958E-01-3.60683E-01-1.92329E+00-7.27968E-01-1.00507E-01 4.60775E-01
 -1      4714 8.67621E-01-5.84303E-01-1.87588E+00-8.60239E-01-1.34787E-01 3.88618E-01
 -1      4715 9.68922E-01-4.78449E-01-2.04795E+00-6.54540E-01-1.58721E-02 7.41617E-01
 -1      4716 1.15728E+00-3.31841E-01-1.99041E+00-8.76504E-01 7.26375E-02 6.00899E-01
 -1      4717 8.03753E-01-6.77274E-01-1.99766E+00-8.57511E-01-8.98044E-02 6.93961E-01
 -1      4718 1.24971E+00-1.06113E+00-2.27824E+00-5.36512E-01 3.59040E-02 6.62505E-01
 -1      4719 1.23983E+00-6.87912E-01-2.29972E+00-5.24132E-01 2.35964E-02 6.05008E-01
 -1      4720 9.34865E-01-6.88181E-01-2.10613E+00-7.25485E-01 1.46120E-01 6.86387E-01
 -1      4721 1.18482E+00-2.33643E-01-1.81368E+00-5.94144E-01 9.49910E-03 6.65054E-01
 -1      4722 2.25964E+00-8.97221E-01-2.03657E+00-3.24871E-01-1.67491E-01 2.52444E-01
 -1      4723 4.66872E-01-1.24210E+00-2.35404E+00-9.12685E-01-1.62858E-02 4.56661E-01
 -1      4724 7.73905E-01-1.38713E+00-2.44916E+00-1.04834E+00 3.61324E-02 6.39268E-01
 -1      4725 9.49854E-01-4.59416E-01-1.93657E+00-7.75129E-01-2.50566E-02 5.13214E-01
 -1      4726 9.99278E-01-3.39057E-01-1.87775E+00-6.92738E-01-1.19965E-01 5.83394E-01
 -1      4727 1.16070E+00-4.61466E-01-1.63328E+00-7.01198E-01 1.22424E-01 4.70461E-01
 -1      4728 1.17900E+00-4.35572E-01-1.66862E+00-6.11998E-01-1.41350E-01 3.71167E-01
 -1      4729 1.30960E+00-3.51178E-01-1.66978E+00-6.24425E-01 1.74953E-02 4.99348E-01
 -1      4730 1.02247E+00-1.92735E-01-1.62612E+00-4.80777E-01-6.56179E-02 3.09209E-01
 -1      4731 1.33821E+00-1.65238E-01-1.45973E+00-3.70293E-01 1.63962E-02 4.61403E-01
 -1      4732 1.26844E+00-7.70492E-02-1.54946E+00-5.05037E-01-7.56684E-02 4.12268E-01
 -1      4733 1.38964E+00-2.12489E-01-1.65657E+00-8.10090E-01-8.77260E-02 2.08491E-01
 -1      4734 1.48401E+00-2.36458E-01-9.39205E-01-2.85066E-01 5.20521E-02 1.92001E-01
 -1      4735 1.12634E+00-1.57432E-01-9.52207E-01-2.33479E-01 5.37907E-03 1.21802E-01
 -1      4736 1.12608E+00-2.07625E-01-9.34105E-01-2.51867E-01-8.21057E-03 1.13764E-01
 -1      4737 9.77095E-01-9.16801E-01-1.18329E+00-6.31214E-01-1.07950E-01-1.02598E-02
 -1      4738 7.15548E-01-9.03966E-01-1.16408E+00-6.97371E-01 1.34135E-01 1.19237E-01
 -1      4739 1.18836E+00-3.85084E-01-1.06856E+00-3.88478E-01 1.00198E-01 7.47927E-02
 -1      4740 1.21229E+00-1.95670E-01-9.33732E-01-4.40367E-01-2.65607E-03 1.11928E-01
 -1      4741 1.06096E+00-4.13488E-01-1.12672E+00-4.03867E-01 1.48668E-01 1.82299E-01
 -1      4742 1.30244E+00-2.96221E-01-1.09034E+00-6.70626E-01-2.59966E-02 4.72845E-02
 -1      4743 1.23578E+00-6.79223E-01-1.20458E+00-7.31884E-01 2.80855E-01 3.58633E-01
 -1      4744 1.96017E-02-1.18250E+00-1.39711E+00-1.09983E+00-3.09257E-02 1.74267E-01
 -1      4745 8.68515E-01-1.19180E+00-1.42053E+00-9.05425E-01 9.95631E-02 1.95816E-01
 -1      4746 8.10738E-01-4.20625E-01-1.15151E+00-6.14199E-01-1.27841E-01 3.36637E-02
 -1      4747 3.36002E-01-9.73953E-01-1.20806E+00-1.20980E+00-2.98417E-02-1.35242E-01
 -1      4748 1.09649E+00-6.49321E-01-1.24717E+00-6.58964E-01-1.09858E-01 1.26814E-01
 -1      4749 2.62435E+00-2.55568E+00-1.85354E+00-4.73551E-01 1.02780E-01-9.26794E-02
 -1      4750 9.48711E-01-3.88505E+00-1.91936E+00-1.27902E+00 3.29108E-02 1.10877E-01
 -1      4751 1.07352E+00-2.96051E+00-1.60000E+00-7.74468E-01-2.54145E-01 6.19655E-01
 -1      4752 3.23111E+00-1.43422E+00-7.86908E-01-4.79856E-01 2.22317E-01 1.75443E-01
 -1      4753 1.30663E+00-1.34825E-01-9.74648E-01-3.47378E-01-4.54959E-02 1.69556E-01
 -1      4754 1.37644E+00-1.75250E-01-9.14919E-01-2.26378E-01 1.21022E-02 1.31505E-01
 -1      4755 1.35353E+00-1.13676E-01-8.61316E-01-1.40253E-01 8.30536E-03 8.41644E-02
 -1      4756 1.15524E+00-1.57126E-01-9.16557E-01-2.46514E-01-2.35788E-03 1.14643E-01
 -1      4757 1.08604E+00-2.75218E-01-1.08402E+00-4.80727E-01-3.97556E-02 8.32545E-02
 -1      4758 9.89190E-01-2.86486E-01-1.03625E+00-4.97986E-01-8.29283E-02 3.99540E-02
 -1      4759 8.27652E-01-4.75753E-01-1.07403E+00-5.63974E-01 8.85731E-02 1.59431E-01
 -1      4760 9.13188E-01-4.28385E-01-1.21650E+00-3.99699E-01 2.08341E-02 1.95871E-01
 -1      4761 1.06713E+00-2.54490E-01-1.06402E+00-5.85560E-01 7.11699E-02-1.35010E-01
 -1      4762 1.26437E+00-6.43298E-01-9.68891E-01-5.54090E-01 6.28208E-03-9.50452E-02
 -1      4763 1.42492E+00-9.79118E-02-1.03505E+00-5.33171E-01-3.65204E-02 2.03931E-02
 -1      4764 1.29586E+00-5.19572E-01-1.00024E+00-5.44244E-01 3.50068E-03 2.19750E-01
 -1      4765 1.51656E+00-3.49110E-01-9.20235E-01-1.07346E-01-5.15316E-02 8.18179E-03
 -1      4766 1.46687E+00-3.70040E-01-8.27969E-01-1.69604E-01 7.74755E-02 1.80468E-01
 -1      4767 1.28170E+00-1.49095E-01-8.31703E-01-1.04324E-01-2.77622E-02 1.15817E-02
 -1      4768 1.08891E+00-1.16466E-01-8.61904E-01-1.98928E-01-1.59275E-02 8.80199E-02
 -1      4769 3.48821E+00 5.54260E-01-2.55980E-01 9.87438E-01 9.38003E-02 7.11975E-02
 -1      4770 6.69436E+00 1.23834E+00 7.39204E-01 2.54558E+00-2.04950E-01 4.34054E-01
 -1      4771 4.85367E+00 8.97898E-01 2.86737E-02 2.03545E+00 2.08469E-01 3.81813E-02
 -1      4772 1.17397E+00-7.54764E-01-1.06816E+00-7.85127E-01 1.14835E-01 2.12903E-01
 -1      4773 1.20875E+00-6.85678E-01-1.00604E+00-6.07246E-01-2.59241E-02 8.41444E-02
 -1      4774 1.37259E+00-1.08741E+00-1.07076E+00-8.70090E-01-5.19243E-02-5.42411E-02
 -1      4775 1.58511E+00-5.97588E-01-1.02580E+00-5.84552E-01 6.62354E-02 2.50084E-01
 -1      4776 2.71474E+00-4.98390E-01-7.47338E-01-4.19974E-01 3.59941E-02 9.53457E-02
 -1      4777 2.01621E+00-3.87257E-01-8.73313E-01-5.33239E-01-4.57208E-02 3.21566E-01
 -1      4778 4.95998E-01-1.18584E+00-1.25456E+00-1.16852E+00-1.04788E-01-5.36739E-02
 -1      4779 1.35938E+00-1.92972E-01-8.76630E-01-2.69797E-01 1.21329E-02 7.39995E-02
 -1      4780 1.26169E+00-5.60171E-01-9.15645E-01-5.99123E-01 2.63399E-02 8.39630E-02
 -1      4781 1.20100E+00-4.20198E-01-9.50383E-01-5.46266E-01-7.47825E-02 3.04495E-02
 -1      4782 1.09471E+00-3.14948E-01-1.00153E+00-6.98179E-01 4.96946E-02 1.26328E-01
 -1      4783 1.35721E+00-7.60084E-01-1.02604E+00-6.50643E-01-4.62051E-02-6.74971E-03
 -1      4784 1.14436E+00-5.46101E-02-9.11001E-01-1.99695E-01 1.59096E-02 1.22064E-01
 -1      4785 1.21392E+00 1.31330E-02-8.46688E-01-1.45852E-01 1.48346E-02 8.08524E-02
 -1      4786 1.12641E+00-1.73180E-01-9.31367E-01-1.99988E-01-4.00449E-03 1.40229E-01
 -1      4787 1.06371E+00-1.57136E-01-8.83481E-01-2.26279E-01-2.43794E-02 8.73075E-02
 -1      4788 1.25856E+00 6.91615E-03-8.08284E-01-1.54991E-01 1.00430E-02 6.61253E-02
 -1      4789 2.09513E+00-5.38064E-01-1.35794E+00-7.55347E-01 1.31001E-01 3.81247E-01
 -1      4790 1.59992E+00-1.02986E+00-1.60823E+00-5.19525E-01 2.84184E-02 6.57007E-02
 -1      4791 1.56719E+00-1.40374E-01-1.22949E+00-4.52252E-02-6.95696E-02 1.77616E-01
 -1      4792 9.08973E-01-7.44212E-02-5.66620E-01-1.17922E-01-3.30110E-02 5.12744E-01
 -1      4793 9.01000E-01-8.32255E-02-5.93861E-01-1.63470E-01-1.02953E-02 5.62666E-01
 -1      4794 7.72627E-01-1.09372E-01-7.29082E-01-1.85095E-01-4.33551E-02 6.18824E-01
 -1      4795 7.82097E-01-1.43423E-01-9.12322E-01-2.25712E-01-7.27667E-02 6.72650E-01
 -1      4796 1.00332E+00-3.38700E-02-5.12614E-01-6.62559E-02-1.20768E-02 5.06622E-01
 -1      4797 1.01821E+00-6.20713E-02-4.05178E-01-6.07992E-02-3.22881E-02 4.11388E-01
 -1      4798 1.02110E+00 4.54479E-04-3.17143E-01-7.48846E-02-3.38238E-02 3.98990E-01
 -1      4799 1.16449E+00-6.18445E-01-1.46580E+00-4.01558E-01-2.88118E-02 9.36449E-01
 -1      4800 1.10256E+00-8.95172E-01-1.81970E+00-5.65223E-01-1.58662E-01 9.61215E-01
 -1      4801 7.95047E-01 4.97679E-03-1.09656E+00-1.87492E-01-5.54732E-02 7.40780E-01
 -1      4802 9.18887E-01-1.28563E-01-1.48648E+00-1.54493E-01 4.43662E-02 8.69617E-01
 -1      4803 8.10018E-01 1.49071E-02-8.22115E-01-1.88533E-01-1.30478E-02 7.31740E-01
 -1      4804 1.05134E+00-4.70472E-01-2.01457E+00-8.30519E-01-4.00563E-02 9.24757E-01
 -1      4805 7.52860E-01-6.48965E-01-2.13055E+00-6.18979E-01 1.55677E-02 9.50618E-01
 -1      4806 8.86534E-01-4.52701E-01-2.31307E+00-8.72634E-01 2.29267E-02 7.52052E-01
 -1      4807 8.57025E-01-2.61603E-01-2.02081E+00-6.30593E-01-4.45976E-02 6.66092E-01
 -1      4808 9.77656E-01-3.53832E-01-2.09844E+00-6.81498E-01-1.26450E-01 5.86973E-01
 -1      4809 1.16323E+00-1.01165E-01-1.99108E+00-6.71142E-01-2.84326E-02 1.03353E+00
 -1      4810 8.59899E-01-5.59406E-01-2.42667E+00-8.24094E-01-1.26004E-01 9.59046E-01
 -1      4811 1.29629E+00-2.21683E-01-1.74350E+00-4.05646E-01 4.09911E-02 1.15108E+00
 -1      4812 1.15195E+00-1.75784E-01-1.91971E+00-5.22219E-01 2.06099E-03 1.22113E+00
 -1      4813 5.96362E-01-1.29730E-01-1.36113E+00-2.14788E-01 1.42716E-03 1.02427E+00
 -1      4814 6.73488E-01-3.25819E-01-1.33514E+00-4.52185E-01 5.74088E-02 3.28481E-01
 -1      4815 1.30987E+00-4.86973E-02-1.18738E+00-2.38550E-01 2.82246E-02 2.38349E-01
 -1      4816 1.28704E+00-1.14198E-01-1.14757E+00-2.04197E-01 1.57799E-02 2.35949E-01
 -1      4817 8.89095E-01-2.41572E-01-1.16449E+00-4.48744E-01 3.97100E-02 4.17413E-01
 -1      4818 1.01165E+00-1.23549E-01-1.33070E+00-2.35312E-01-7.68214E-02 2.30818E-01
 -1      4819 2.09469E+00-1.06555E+00-1.02961E+00-6.25626E-01-3.98229E-01-1.13686E-01
 -1      4820 2.01810E+00-4.01666E-01-1.15839E+00-1.97286E-01 1.44370E-01 4.99000E-01
 -1      4821 1.64265E+00-1.29068E+00-1.19424E+00-7.02196E-01-2.37968E-01 9.39126E-02
 -1      4822 1.47340E+00-1.18894E+00-1.44618E+00-9.39066E-01 3.21212E-02 1.00610E-01
 -1      4823 1.48905E+00-1.00961E+00-1.50584E+00-6.77783E-01 7.08698E-02 1.08809E-01
 -1      4824 2.01010E+00-1.77642E+00-1.28346E+00-6.38604E-01 3.02206E-02 1.23363E-01
 -1      4825 2.18494E-01-1.11324E+00-1.43366E+00-9.42100E-01 3.61457E-02 2.46407E-01
 -1      4826 8.44876E-01-4.67670E-01-1.28669E+00-5.60900E-01 2.08258E-01 2.21803E-01
 -1      4827 7.99878E-01-9.63368E-01-1.56031E+00-9.07705E-01 6.14313E-02 1.14279E-01
 -1      4828 1.22203E+00-5.40681E-02-1.03977E+00-3.60613E-01-9.82462E-03 2.58183E-01
 -1      4829 1.23399E+00-1.27459E-02-1.01886E+00-2.93921E-01-2.29588E-02 1.74414E-01
 -1      4830 1.27182E+00-7.40271E-02-1.02886E+00-2.81031E-01-5.68991E-03 2.96416E-01
 -1      4831 1.18464E+00-2.80840E-01-1.12337E+00-4.34546E-01-3.10670E-02 2.36695E-01
 -1      4832 1.15874E+00-1.77336E-01-1.08284E+00-3.29296E-01-8.68974E-02 1.21105E-01
 -1      4833 1.32636E+00-1.87226E-01-9.65625E-01-2.24941E-01-4.28243E-02 6.91366E-02
 -1      4834 1.21549E+00-1.93950E-01-1.01557E+00-2.10177E-01 3.58128E-02 2.08281E-01
 -1      4835 1.07450E+00-9.04570E-02-9.55632E-01-1.90500E-01 1.15606E-02 1.67709E-01
 -1      4836 1.67535E+00-7.52024E-01-1.17212E+00-3.96825E-01-1.28927E-01 1.47545E-01
 -1      4837 1.26316E+00-6.46186E-01-1.21432E+00-5.16117E-01-2.29123E-03 2.24129E-01
 -1      4838 1.49403E+00-4.24283E-01-1.04312E+00-3.54030E-01 2.43166E-02 1.70948E-01
 -1      4839 1.17217E+00-1.03849E-01-1.04072E+00-1.92252E-01 1.19352E-02 9.56893E-02
 -1      4840 1.24475E+00-1.06771E-01-1.09642E+00-1.26447E-01-3.83181E-03 9.70629E-02
 -1      4841 1.10263E+00-2.83424E-01-1.16686E+00-4.03179E-01 4.44760E-02 1.22142E-01
 -1      4842 1.40274E+00-3.51771E-01-1.26706E+00-4.42820E-01-3.63109E-02 3.48482E-01
 -1      4843 1.42822E+00-1.83360E-01-1.18378E+00-1.92158E-01-2.12401E-02 1.46429E-01
 -1      4844 1.21865E+00-9.00461E-02-1.10667E+00-1.56822E-01 1.07309E-02 1.77654E-01
 -1      4845 1.56001E+00-7.07389E-01-1.31870E+00-4.42116E-01-2.11252E-02 2.91578E-01
 -1      4846 2.22389E+00-3.82101E-01-1.00708E+00-6.15400E-01-3.76213E-02 2.30852E-01
 -1      4847 1.21345E+00-7.22953E-01-1.42396E+00-6.93288E-01 3.02124E-03 1.89666E-01
 -1      4848 9.99121E-01-7.24621E-01-1.35781E+00-7.14208E-01-9.46809E-02 1.86297E-01
 -1      4849 2.03348E+00-3.66327E+00-2.35758E+00-4.01925E-01 5.49701E-01 2.87568E-01
 -1      4850 7.99336E-01-1.13118E+00-1.73076E+00-1.38962E+00-1.26998E-01 3.90017E-02
 -1      4851 1.73130E+00-2.32601E-01-2.10528E+00-5.71992E-01 3.02243E-01 1.77146E-01
 -1      4852 6.15456E-01-1.19311E+00-1.51371E+00-1.24074E+00 1.62893E-01 5.17257E-01
 -1      4853 1.11789E+00-2.08997E+00-1.66717E+00-4.72599E-01 8.35409E-02 3.85187E-01
 -1      4854 4.88033E-01-2.42929E+00-2.18406E+00-5.69003E-01-4.97667E-02 4.62686E-02
 -1      4855 1.61546E-01-1.75397E+00-2.05561E+00-9.47873E-01 2.81899E-01 2.92280E-02
 -1      4856 6.89926E-01-1.08148E+00-1.81657E+00-1.13820E+00 1.19420E-01 2.50616E-01
 -1      4857 2.08642E+00-3.16098E+00-1.98956E+00-4.89763E-01-1.27196E-01-3.77998E-01
 -1      4858 2.52837E+00-1.15229E+00-1.28607E+00-1.56256E-01-1.55258E-01 9.72904E-02
 -1      4859 7.00674E-01-2.58866E+00-2.29718E+00-7.80002E-01-1.22949E-01-3.16837E-02
 -1      4860 2.31093E+00-2.23673E+00-1.71350E+00-5.41562E-01 2.78006E-01 3.45246E-01
 -1      4861 4.05711E-01-1.35140E+00-2.01067E+00-1.63831E+00 4.44847E-01 2.98358E-01
 -1      4862 1.47071E+00-1.19776E+00-1.86794E+00-1.42358E+00-7.83326E-02-1.46771E-02
 -1      4863 1.85097E+00-1.81574E+00-1.74326E+00-7.63261E-01-9.29066E-02-2.22080E-01
 -1      4864 2.91650E-01-1.42135E+00-2.02435E+00-2.01886E+00-1.84122E-01 1.87094E-01
 -1      4865 1.27895E+00-3.03855E-01-1.80816E+00-2.10401E-01-6.91459E-02 1.77231E-01
 -1      4866 1.46813E+00-1.00539E+00-1.47789E+00-8.22341E-01 2.31331E-01 6.30156E-01
 -1      4867 1.19687E+00-7.71088E-01-1.62199E+00-1.06173E+00 1.68891E-01 4.31727E-01
 -1      4868 1.16965E+00-7.48091E-01-1.64126E+00-1.11560E+00-4.30268E-02 3.87389E-01
 -1      4869-1.01445E-01-5.47558E-01-2.05562E+00-8.14664E-01-1.65960E-01 9.61950E-02
 -1      4870 1.80369E-01-6.02561E-01-2.02027E+00-8.79385E-01 2.04384E-01 5.89886E-01
 -1      4871 1.20365E+00-1.75124E-01-1.53683E+00-4.14590E-01-5.71704E-02 2.73219E-01
 -1      4872 2.02874E+00-4.67223E-01-1.64411E+00-3.78202E-01-1.69957E-03 2.21110E-01
 -1      4873 2.62262E+00-7.96751E-01-1.63077E+00-1.11490E-01-2.35156E-01 7.12497E-02
 -1      4874 2.01618E+00-1.31393E+00-1.64564E+00-5.64075E-01 5.37521E-01 1.22185E+00
 -1      4875 1.80804E+00-4.44434E-01-1.13546E+00-6.20305E-01-1.48815E-01 4.79937E-01
 -1      4876 1.32410E+00-1.87425E+00-1.96984E+00-5.58176E-01-4.60031E-02 2.21247E-01
 -1      4877 1.78847E+00-4.59210E-01-2.31608E+00-6.96392E-01-1.81728E-02 6.56797E-01
 -1      4878 9.60150E-01-5.58198E-01-2.57984E+00-4.81875E-01-5.45045E-03 5.02970E-01
 -1      4879 7.70737E-01-5.30762E-01-2.62628E+00-5.56658E-01-1.67243E-01 8.10152E-01
 -1      4880 1.01282E+00-8.07727E-01-2.60797E+00-9.97769E-01-1.55863E-01 9.79046E-01
 -1      4881-3.91655E-02-1.33256E+00-3.22668E+00-1.27208E+00-1.48764E-01 8.31207E-01
 -1      4882 9.17399E-01-6.32202E-01-2.18214E+00-8.50889E-01-2.92307E-02 6.60349E-01
 -1      4883 1.31738E-01-1.13689E+00-2.98591E+00-1.00049E+00-2.74674E-01 4.02473E-01
 -1      4884 8.46904E-01-1.72049E+00-2.55452E+00-8.97466E-01 1.72384E-01 8.24722E-01
 -1      4885 2.71772E+00-4.77117E-01-2.43661E+00-2.53932E-01-3.61408E-01 2.83436E-01
 -1      4886 1.20117E+00-2.60318E-02-7.47422E-01-8.19589E-02 5.12142E-03 4.50620E-02
 -1      4887 1.18106E+00 1.54781E-02-7.04537E-01-9.93765E-02 3.17489E-03 5.85528E-02
 -1      4888 1.11271E+00-6.06091E-02-7.02595E-01-9.19042E-02-2.74038E-02 5.71909E-02
 -1      4889 1.17976E+00-4.91070E-02-7.68321E-01-9.24325E-02 1.94572E-02 4.61849E-02
 -1      4890 1.18583E+00-4.09599E-02-7.29561E-01-8.24961E-02 1.13296E-02 2.73932E-02
 -1      4891 1.11130E+00-1.70604E-02-7.53403E-01-1.17353E-01 1.80567E-02 3.39191E-02
 -1      4892 1.10696E+00-4.63795E-02-7.74448E-01-1.26494E-01 1.36636E-02 4.79187E-02
 -1      4893 1.10012E+00-4.11800E-02-7.79336E-01-1.17138E-01 8.16087E-03 7.13769E-02
 -1      4894 8.27034E-01-4.71014E-02-3.18283E-01-3.38512E-02-6.52331E-04 1.21699E-01
 -1      4895 8.20625E-01-4.59796E-02-2.37815E-01-1.09944E-02-1.60365E-02 1.29068E-01
 -1      4896 7.55193E-01-1.89886E-02-1.81291E-01 1.93625E-02-2.54300E-02 8.79325E-02
 -1      4897 1.00157E+00-3.02441E-02-4.57411E-01-5.00513E-02 8.03527E-04 1.40379E-01
 -1      4898 9.82885E-01-1.44927E-02-4.88647E-01-5.12256E-02-5.70770E-03 1.75668E-01
 -1      4899 9.72654E-01-3.70890E-03-4.64815E-01-4.93893E-02-2.34221E-03 1.90212E-01
 -1      4900 1.01306E+00-1.71240E-02-5.58731E-01-5.57137E-02-4.00222E-03 1.86275E-01
 -1      4901 9.29359E-01-2.74750E-02-3.84104E-01-4.85772E-02-1.36953E-02 1.16180E-01
 -1      4902 8.07350E-01-5.71016E-02-3.24815E-01-2.50719E-02-2.92336E-03 7.76257E-02
 -1      4903 1.17924E+00-6.77850E-02-7.39128E-01-8.62442E-02 2.13090E-03 4.21473E-02
 -1      4904 1.19774E+00-5.08005E-02-7.37754E-01-1.08212E-01-1.41195E-02 2.16661E-02
 -1      4905 1.20488E+00-1.17900E-02-7.45852E-01-1.22532E-01 3.29238E-03 2.35680E-02
 -1      4906 1.22671E+00-3.98526E-02-7.54409E-01-1.33558E-01 6.55583E-04 1.91664E-02
 -1      4907 1.05789E+00-1.19526E-03-6.12120E-01-4.65413E-02-4.33036E-03 1.80389E-01
 -1      4908 9.06637E-01-5.16527E-01-2.07577E+00-7.90814E-01 5.52963E-02 3.44748E-01
 -1      4909 6.30358E-01-4.95161E-01-2.02517E+00-8.15830E-01-1.48853E-01 9.08271E-02
 -1      4910 6.14143E-01-1.14127E+00-2.26761E+00-9.01835E-01-2.04131E-01 1.38880E-01
 -1      4911 7.33641E-01-1.55380E+00-2.38169E+00-8.40850E-01 1.22048E-01 5.11617E-01
 -1      4912 1.02116E+00-6.83300E-01-2.08659E+00-8.10116E-01-5.11765E-02 3.34218E-01
 -1      4913 9.28425E-01-4.10750E-01-1.90869E+00-9.36552E-01-9.76097E-02 2.58467E-01
 -1      4914 2.13024E+00-6.35638E-01-1.59969E+00-6.07467E-01 4.25643E-02 3.96609E-01
 -1      4915 1.21787E+00-7.89781E-01-1.68958E+00-7.09631E-01 4.08484E-02 3.87808E-01
 -1      4916 6.59257E-01-8.06565E-01-2.01412E+00-1.06845E+00 5.07555E-02 6.21412E-01
 -1      4917 9.80492E-01-7.04038E-01-1.97508E+00-9.91356E-01-3.25541E-01 3.51544E-01
 -1      4918-2.84639E-01-1.99027E+00-2.83352E+00-1.41884E+00 4.50235E-02 4.29029E-01
 -1      4919 1.11109E+00-6.47135E-01-1.72789E+00-1.14412E+00 2.20636E-01 8.46160E-01
 -1      4920 6.90576E-01-7.33816E-02-6.88531E-01-1.75690E-01-3.47327E-03 7.29633E-01
 -1      4921 4.25908E-01-3.44436E-01-6.85200E-01-3.40129E-01-6.90027E-02 6.88863E-01
 -1      4922 4.60823E-01-2.09448E-01-9.74317E-01-3.09313E-01 1.29579E-02 9.08704E-01
 -1      4923 1.25514E+00-1.88847E-01-8.00272E-01-1.65725E-01-9.31873E-02-1.19058E-01
 -1      4924 1.67794E+00-3.87710E-01-7.66763E-01-2.12199E-01 9.91697E-02 1.44848E-01
 -1      4925 1.05640E+00-4.34476E-01-9.25650E-01-5.60765E-01 1.67285E-01 2.90869E-02
 -1      4926 1.24985E+00-2.50036E-01-7.63114E-01-5.00678E-01 2.00962E-02-9.12749E-03
 -1      4927 1.26426E+00 1.50869E-02-7.57553E-01-1.58983E-01-1.00369E-02-2.97218E-02
 -1      4928 1.24543E+00-2.24383E-01-8.34423E-01-2.41271E-01-8.23436E-02-2.10735E-02
 -1      4929 1.23282E+00 6.54891E-03-7.77030E-01-1.81063E-01-4.03390E-04-4.04867E-02
 -1      4930 1.30327E+00 4.89052E-02-7.34439E-01-1.75135E-01-2.21372E-03 8.69033E-03
 -1      4931 1.21457E+00-9.67868E-02-7.70691E-01-1.47540E-01-5.30403E-03 1.53481E-02
 -1      4932 1.17505E+00-5.55016E-02-7.59858E-01-2.35656E-01 5.73019E-02 2.89736E-02
 -1      4933 1.14715E+00-3.35414E-02-7.99552E-01-2.04228E-01-1.18420E-01-3.41301E-02
 -1      4934 9.90570E-01-7.67301E-01-1.13675E+00-6.62700E-01 9.00785E-02-9.72881E-02
 -1      4935 9.14624E-01-4.45669E-01-8.36801E-01-6.74997E-01-4.40701E-02-8.33490E-02
 -1      4936 1.61124E+00-8.51930E-01-9.67802E-01-4.38890E-01 1.05428E-02 1.38719E-01
 -1      4937 2.01845E+00-5.77773E-01-9.12703E-01-5.70882E-01-1.02040E-01-1.58388E-01
 -1      4938 1.60695E+00-3.58921E-02-5.88141E-01-5.02107E-02 5.92006E-02 1.41495E-01
 -1      4939 1.24145E+00-1.23801E-01-7.89464E-01-2.28059E-01 1.13907E-02 7.21867E-02
 -1      4940 1.32403E+00-2.03764E-02-7.34934E-01-1.88527E-01 2.47609E-02 7.09635E-02
 -1      4941 1.24457E+00-1.41178E-01-8.19395E-01-3.45284E-01-2.08124E-02 5.29369E-02
 -1      4942 1.12033E+00-1.65581E-01-8.00154E-01-2.92866E-01-1.22368E-02 2.99220E-02
 -1      4943 9.37241E-01-1.60471E-01-8.47066E-01-2.31408E-01 6.22946E-02 4.64401E-02
 -1      4944 1.17142E+00-8.84194E-02-7.95498E-01-1.19860E-01 2.42339E-02 2.94432E-02
 -1      4945 1.03707E+00-2.09853E-01-8.37049E-01-1.74764E-01 1.55313E-02 3.07987E-02
 -1      4946 1.23293E+00-5.71003E-02-7.51633E-01-1.38382E-01-5.33625E-04 2.05147E-02
 -1      4947 1.26872E+00-9.19538E-03-7.32260E-01-1.00804E-01-2.23029E-03 1.98142E-02
 -1      4948 1.12141E+00-4.09496E-01-9.35158E-01-4.21676E-01-7.20452E-02-2.28234E-02
 -1      4949 1.38653E+00-2.64001E-01-8.38434E-01-5.13629E-01-5.29270E-02-4.94772E-02
 -1      4950 1.44397E+00-2.85265E-01-7.98715E-01-3.00459E-01 1.75808E-02-1.97908E-02
 -1      4951 1.25686E+00-3.05461E-01-8.49272E-01-3.99729E-01-1.94707E-02 9.71385E-03
 -1      4952 1.12313E+00-2.15450E-01-8.63069E-01-1.66519E-01 1.61899E-02 6.51684E-02
 -1      4953 1.35632E+00 6.05648E-02-7.76946E-01-5.96856E-01-1.85377E-02 3.93914E-02
 -1      4954 1.15118E+00 1.36919E-02-8.41027E-01-5.67426E-01-2.41407E-02-4.99060E-02
 -1      4955 8.83607E-01-7.00776E-01-8.55117E-01-6.45018E-01-1.31120E-01-2.16760E-02
 -1      4956 7.60286E-01-7.60614E-01-9.92285E-01-5.27620E-01-1.20103E-01-2.10363E-01
 -1      4957 2.43155E+00-6.15804E-01-9.78881E-01-2.01865E-01 3.08073E-01 2.37680E-01
 -1      4958 8.93168E-01-3.14281E-01-9.80195E-01-2.09013E-01 3.50261E-02 8.19050E-02
 -1      4959 1.17298E+00-7.76200E-02-8.14689E-01-1.75439E-01 9.49012E-02 5.18020E-02
 -1      4960 1.33927E+00-4.84485E-01-8.67479E-01-3.38356E-01-3.69150E-02 2.35135E-02
 -1      4961 1.23738E+00-3.23908E-01-8.42356E-01-5.32173E-01 6.93764E-02 1.36237E-03
 -1      4962 9.60808E-01-1.71836E-01-8.14804E-01-6.17651E-01-9.51981E-03-7.27540E-03
 -1      4963 1.11286E+00-1.46594E-01-8.81033E-01-7.70238E-01 1.56063E-02 1.27744E-01
 -1      4964 1.04181E+00-1.37182E-01-8.99133E-01-6.51743E-01 3.25219E-02 8.17694E-02
 -1      4965 1.52609E+00-3.52072E-01-8.00563E-01-2.29877E-01-1.00816E-02-2.01040E-04
 -1      4966 1.27084E+00-4.65125E-01-8.72911E-01-3.17642E-01 5.64112E-02 3.27205E-02
 -1      4967 1.25244E+00-1.81537E-02-7.51863E-01-9.62303E-02 5.27176E-03 7.58654E-02
 -1      4968 1.12438E+00-1.23996E-01-8.05593E-01-1.42979E-01 5.66442E-02 1.40497E-01
 -1      4969 1.18186E+00-4.13372E-02-7.59329E-01-1.26430E-01 2.08097E-02 3.15116E-02
 -1      4970 1.18995E+00-2.03062E-01-8.95201E-01-5.12076E-01 2.01299E-03 1.22106E-01
 -1      4971 9.75939E-01-2.17930E-01-8.24953E-01-5.56923E-01 2.07619E-02 4.59563E-02
 -1      4972 1.45869E+00-8.74365E-02-7.90595E-01-4.59501E-01 6.38239E-02 1.10985E-01
 -1      4973 1.02600E+00-2.61691E-01-8.86998E-01-4.93695E-01 1.22894E-03 1.81239E-01
 -1      4974 1.24089E+00-4.70922E-02-7.96993E-01-2.25067E-01 4.77285E-02-6.61874E-03
 -1      4975 1.32655E+00-4.27316E-01-8.99232E-01-4.19515E-01 9.66151E-03 9.66113E-02
 -1      4976 1.23988E+00-3.26698E-01-7.49380E-01-4.46848E-01-4.41697E-02-1.13128E-01
 -1      4977 7.34812E-01-8.41522E-01-1.24964E+00-8.53145E-01 3.13887E-02 1.12736E-01
 -1      4978 7.43329E-01-7.24628E-01-9.77779E-01-7.16768E-01 1.25853E-01 3.91932E-02
 -1      4979 2.34671E+00-8.07802E-01-7.78608E-01-2.05702E-01-2.89778E-01-2.32796E-01
 -1      4980 1.33215E+00-2.25702E-01-8.94460E-01-3.05805E-01-8.00256E-02-1.75617E-01
 -1      4981 2.86227E+00-1.81508E+00-9.09982E-01-2.52690E-01 1.07893E-01 4.08632E-01
 -1      4982 1.07931E+00-1.04575E-01-8.65051E-01-2.90970E-01 1.72006E-02-3.23346E-02
 -1      4983 1.45920E+00-2.28616E-01-8.48248E-01-3.19180E-01 9.51310E-03 5.10758E-03
 -1      4984 9.46319E-01-8.16215E-01-1.13733E+00-6.04466E-01-1.09608E-01-9.08586E-02
 -1      4985 9.12607E-01-1.01072E+00-1.24607E+00-7.01324E-01 4.64775E-02 1.10124E-01
 -1      4986 2.12035E+00-8.29186E-01-8.92799E-01-4.45517E-01 2.08070E-01 1.03342E-01
 -1      4987 1.19046E+00-6.77297E-02-8.18702E-01-1.95291E-01 4.60156E-02 2.67025E-03
 -1      4988 1.07996E+00-6.73133E-02-9.05552E-01-2.03398E-01 3.46144E-02 8.24391E-02
 -1      4989 1.18981E+00-5.28255E-02-7.82252E-01-2.03911E-01 2.02633E-02-4.19260E-03
 -1      4990 1.25568E+00-4.21457E-02-7.99039E-01-1.44698E-01-1.92432E-02 5.13642E-02
 -1      4991 1.29211E+00-4.57836E-02-7.54560E-01-1.71162E-01-2.28916E-02-2.60275E-02
 -1      4992 1.19134E+00-5.34568E-01-1.07246E+00-4.59283E-01 5.00693E-02 9.78320E-02
 -1      4993 1.99536E+00-6.80793E-01-8.29057E-01-5.33090E-01-1.88755E-01-4.72513E-02
 -1      4994 1.48195E+00-1.77863E-01-9.24406E-01-3.41600E-01-1.15662E-03 6.49272E-02
 -1      4995 1.12377E+00-6.49983E-01-1.09014E+00-6.41804E-01 4.87812E-02 2.00958E-02
 -1      4996 1.07811E+00-1.47674E-01-9.68432E-01-1.43139E-01 1.99596E-02 1.56977E-01
 -1      4997 7.34936E-01-2.78390E-01-1.03047E+00-4.86685E-01 1.02584E-01 1.31070E-01
 -1      4998 1.27104E+00-4.13540E-01-7.15466E-01-1.25006E-01-2.80008E-01-1.77903E-01
 -1      4999 3.16777E+00-3.42817E+00-1.47672E+00-3.22917E-01 6.83199E-02-5.37425E-01
 -1      5000 2.04736E-01-8.83634E-01-1.23516E+00-8.79579E-01 2.24538E-01 1.07109E-01
 -1      5001 8.46998E-01-7.07752E-01-1.08920E+00-6.66653E-01 1.44217E-02-2.02944E-02
 -1      5002 1.71575E+00-2.29249E+00-1.10592E+00-5.45523E-01-3.77909E-01-1.36857E-01
 -1      5003 1.44283E+00-6.42722E-01-1.34328E+00-1.11504E+00 5.62526E-01 2.98969E-01
 -1      5004 1.91141E+00-6.12007E-01-6.75880E-01-9.24152E-01-3.71763E-02 1.18124E-01
 -1      5005 2.88950E+00-2.73777E+00-5.38935E-01 2.25830E-02 6.26539E-01 3.88762E-01
 -1      5006 1.34791E+00-3.35625E+00-1.46891E+00-8.39398E-01-2.09412E-01-2.25750E-01
 -1      5007 1.82264E+00-4.96342E-01-7.55644E-01-1.07821E+00 2.73151E-02 9.75157E-02
 -1      5008 1.88672E+00-3.40026E-02-7.88489E-01-1.11038E+00-3.55355E-02 1.47789E-01
 -1      5009 2.31631E+00-8.12942E-01-8.24774E-01-4.15437E-01 4.20696E-02 8.75164E-02
 -1      5010 1.32140E+00-1.05616E-01-7.49732E-01-5.30124E-02 6.94928E-02-1.04632E-02
 -1      5011 1.55774E+00-2.82803E-01-8.51862E-01-1.07619E+00 1.67714E-01 4.86429E-02
 -1      5012 1.08707E+00-4.05569E-01-1.13134E+00-1.01754E+00-1.69302E-01-3.66027E-01
 -1      5013 8.16470E-01-2.88798E+00-1.66249E+00-1.54518E+00-1.88775E-01-1.26382E-01
 -1      5014 1.19819E+00-1.05278E+00-1.28309E+00-8.06819E-01-4.00499E-03 3.10944E-01
 -1      5015 1.09045E+00-8.05203E-01-1.20365E+00-1.46858E+00 3.22211E-01-1.31972E-01
 -1      5016 8.98560E-01-2.68364E+00-1.40683E+00-1.72720E+00 2.57719E-01 3.36730E-01
 -1      5017 1.20946E+00-2.77768E+00-9.25724E-01-2.32976E+00-2.33467E-01 3.87859E-02
 -1      5018 1.60537E+00-6.59754E-01-8.49888E-01-4.16520E-01 4.67864E-02 7.45359E-02
 -1      5019 2.03462E+00-8.79535E-01-8.73378E-01-4.35832E-01 8.69529E-02-1.21008E-01
 -1      5020 6.24114E-01-1.09708E+00-1.17587E+00-8.81837E-01 7.56717E-02-2.69178E-02
 -1      5021 1.10305E+00-1.12566E+00-1.28286E+00-1.04771E+00-9.09491E-02 8.36726E-02
 -1      5022 1.27545E+00-4.18291E-01-1.28747E+00-1.31098E+00-7.59934E-02 5.10935E-02
 -1      5023 1.43610E+00-5.17881E-01-1.07695E+00-1.11913E+00-1.50916E-01 7.12793E-03
 -1      5024 1.22006E+00-5.93158E-01-6.92045E-01-5.36349E-01 9.98417E-03 6.08054E-02
 -1      5025 1.68046E+00-5.56560E-01-7.80443E-01-4.29572E-01-3.57105E-02 4.71950E-02
 -1      5026 1.18546E+00-4.38020E-01-8.80396E-01-3.41453E-01 4.53900E-04 7.03672E-02
 -1      5027 1.27462E+00-4.45893E-01-7.97286E-01-3.56377E-01-1.96286E-02 6.52158E-02
 -1      5028 1.22173E+00-1.20995E-01-8.49805E-01-1.92773E-01 7.03310E-02 1.53419E-01
 -1      5029 1.33732E+00-6.56461E-02-8.96090E-01-5.16954E-01 2.01713E-02 1.37446E-02
 -1      5030 9.56513E-01-2.43240E-01-9.00188E-01-6.23946E-01-9.16050E-02 1.47243E-01
 -1      5031 8.25838E-01-4.75625E-01-1.07494E+00-5.22363E-01-9.51961E-02 9.82486E-03
 -1      5032 8.65710E-01-1.52625E+00-1.37446E+00-6.52663E-01 1.66214E-01 2.24973E-01
 -1      5033 1.72636E+00-7.34938E-01-7.94860E-01-6.55834E-01 3.56073E-01 2.98860E-01
 -1      5034 7.15199E-01-1.12929E+00-1.01912E+00-8.04786E-01 1.03013E-01 3.29224E-02
 -1      5035 1.48901E+00-3.16510E-01-1.06239E+00-3.19469E-01 4.13226E-02 4.42562E-02
 -1      5036 1.38616E+00-8.64961E-02-9.18606E-01-4.88642E-01 3.64053E-02 8.49940E-02
 -1      5037 1.01079E+00-2.08457E-01-9.78001E-01-1.76663E-01-1.02377E-02-5.79264E-02
 -1      5038 9.81620E-01-1.82243E-01-9.87365E-01-2.67662E-01 2.16072E-03 1.01650E-01
 -1      5039 1.02891E+00-1.02472E-01-8.65981E-01-2.51941E-01-7.09582E-02-3.20583E-03
 -1      5040 1.42499E+00-6.31642E-01-9.39222E-01-3.95171E-01 3.21670E-02 9.38202E-02
 -1      5041 1.05576E+00-3.55056E-01-9.78300E-01-5.87704E-01 1.06346E-01 3.13150E-03
 -1      5042 1.80178E+00-4.11022E-01-8.87513E-01-6.48002E-01 8.13283E-02-2.87006E-01
 -1      5043 1.17046E+00-3.37371E-01-1.04694E+00-3.24202E-01-2.86928E-02-9.26573E-02
 -1      5044 5.32119E-01-6.53590E-01-1.15414E+00-4.75724E-01-2.27416E-02-1.18990E-01
 -1      5045 3.21725E+00-2.82924E+00-1.21584E+00-3.94036E-01-2.59552E-02 4.33307E-01
 -1      5046 2.35505E+00-7.97323E-01-9.56341E-01-2.40790E-01-2.49632E-01-4.46020E-01
 -1      5047 1.51447E+00-3.32666E-01-8.07617E-01-2.99475E-01-6.34077E-02 3.41558E-02
 -1      5048 1.41548E+00-4.44053E-01-9.11862E-01-4.40879E-01 1.26347E-02-5.48643E-02
 -1      5049 1.13230E+00-1.50638E-02-8.50588E-01-1.69827E-01-3.20778E-03 5.63246E-02
 -1      5050 9.52641E-01-2.05270E-01-9.63472E-01-2.63976E-01-1.07628E-02 8.10336E-02
 -1      5051 1.16234E+00-1.38907E-01-8.99195E-01-1.54457E-01-1.75493E-02 7.96154E-02
 -1      5052 8.58958E-01-7.39128E-01-1.22305E+00-7.55427E-01-3.86928E-03 1.05982E-01
 -1      5053 1.18554E+00-5.40212E-01-1.00632E+00-8.64992E-01-4.58990E-02 2.71489E-01
 -1      5054 1.48949E-01-1.46544E+00-1.65016E+00-1.19619E+00-3.88611E-02 2.57563E-01
 -1      5055 1.06756E+00-4.45257E-01-1.01164E+00-6.23009E-01-3.19242E-02 7.76790E-02
 -1      5056 1.16587E+00-8.84537E-01-1.23786E+00-8.24577E-01 6.70781E-02 1.30176E-01
 -1      5057 1.10176E+00-8.96178E-01-1.09833E+00-8.94350E-01-2.28410E-01 7.15495E-02
 -1      5058 1.02449E+00-6.46364E-01-1.22813E+00-9.92859E-01-1.85589E-02 2.24910E-02
 -1      5059 1.02058E+00-2.30240E-01-9.18956E-01-3.12535E-01-1.82109E-02 4.29113E-02
 -1      5060 1.15769E+00-1.61172E-03-8.18719E-01-1.98680E-01-1.26088E-02 2.08058E-02
 -1      5061 1.25734E+00 9.54979E-03-8.03705E-01-1.50254E-01 1.66181E-02 5.75795E-02
 -1      5062 3.46704E-01-3.62647E-01-1.29148E+00-1.11269E+00 1.09054E-01 1.34399E-01
 -1      5063 1.10044E+00-1.25110E-01-1.03955E+00-1.02354E+00-1.20526E-01 1.57843E-01
 -1      5064 1.55350E+00-3.54489E-01-9.85373E-01-8.07291E-01-2.37292E-03-1.50128E-01
 -1      5065 1.14865E+00-5.33032E-01-1.11177E+00-6.85760E-01 2.99532E-02-7.88517E-02
 -1      5066 1.19919E+00 3.60486E-02-9.50254E-01-1.26382E+00-9.83056E-03-4.11803E-02
 -1      5067 4.10914E-01-4.47246E-01-1.43102E+00-1.41039E+00-1.65785E-01-1.15656E-01
 -1      5068 8.59275E-01-1.09995E+00-1.69706E+00-8.78005E-01 1.80987E-01 1.82958E-01
 -1      5069 1.28168E+00-4.49816E-01-1.49419E+00-7.56148E-01 1.43755E-01 1.86040E-01
 -1      5070 2.59593E+00-2.57845E+00-1.62661E+00-1.69098E-01 2.30760E-01 2.62860E-01
 -1      5071 2.30129E+00-4.61634E-01-6.10045E-01-1.29530E-01-3.03412E-02 1.87537E-01
 -1      5072 1.29436E+00-3.87212E-01-1.02338E+00-5.43847E-01-8.63622E-03-1.15392E-01
 -1      5073 8.57763E-01-3.40923E-01-1.25039E+00-5.08383E-01 3.11711E-02 4.26698E-02
 -1      5074 1.76383E+00-1.08346E+00-2.14409E+00-6.90452E-01 1.02722E-01 5.69270E-01
 -1      5075 1.33757E+00-7.90417E-01-2.10923E+00-6.80702E-01 4.12979E-02 2.37041E-01
 -1      5076 2.45043E+00-2.17261E+00-2.24351E+00-3.43611E-01 3.14096E-02 1.72010E-01
 -1      5077 1.07709E+00-1.04592E+00-2.24665E+00-6.97756E-01 3.63972E-02 3.27950E-01
 -1      5078 9.12726E-01-1.03588E+00-2.32884E+00-6.36760E-01-1.04479E-01 1.22736E+00
 -1      5079 1.04697E+00-3.83994E-01-2.31478E+00-6.30552E-01 6.67030E-02 1.23444E+00
 -1      5080 1.10719E+00-3.24482E-01-2.80091E+00-3.89870E-01 1.73881E-01 1.43179E+00
 -1      5081 9.57051E-01-4.20347E-01-2.70938E+00-4.85686E-01-9.73179E-02 1.12048E+00
 -1      5082 6.59828E-01-6.54965E-01-1.69713E+00-6.52886E-01-2.48838E-01 1.03771E+00
 -1      5083 9.50950E-01-7.95794E-01-2.11482E+00-5.77499E-01-2.03738E-01 1.05780E+00
 -1      5084 1.22699E+00-4.19167E-01-1.05682E+00-3.76308E-01-1.89855E-01 8.45417E-01
 -1      5085 1.94271E+00-3.92471E+00-9.24663E-01-3.96492E-01-2.20051E-01 6.02966E-01
 -1      5086 3.97540E+00-1.66656E+00-7.80370E-01 7.36060E-01-2.49386E-01 6.62090E-02
 -1      5087 5.07397E-02-1.45434E+00-1.23955E+00-9.26956E-01-1.29472E-01 4.27473E-01
 -1      5088 6.77500E-01-1.98198E-01-1.60739E+00-4.14958E-01 2.71325E-01 3.26114E-01
 -1      5089 1.02561E+00-7.83891E-01-1.10025E+00-1.49859E-01-1.71581E-02 1.40106E-01
 -1      5090 9.19552E-01-1.08932E+00-1.20201E+00-3.01701E-01-3.77181E-03 2.61032E-01
 -1      5091 3.80044E+00-2.48822E+00-7.56702E-01 6.76634E-01 6.01707E-01 6.07514E-01
 -1      5092 1.21492E+00-5.78444E-02-7.63015E-01-1.70568E-01 1.01192E-02 1.28549E-01
 -1      5093 1.20299E+00-9.12222E-02-8.14538E-01-1.48054E-01-3.22490E-03 1.99932E-02
 -1      5094 9.99116E-01-1.75162E-02-6.37970E-01-5.50532E-02 8.87420E-04 3.38743E-01
 -1      5095 9.77137E-01-3.03916E-02-5.53244E-01-4.99223E-02 1.34918E-03 3.15525E-01
 -1      5096 1.04448E+00-1.95049E-02-7.25272E-01-8.62580E-02-9.61069E-03 3.85680E-01
 -1      5097 1.09152E+00-5.68894E-02-7.26915E-01-5.74342E-02 1.47802E-02 3.50706E-01
 -1      5098 1.12746E+00-4.50617E-02-7.12813E-01-6.14900E-02-1.38630E-02 3.43137E-01
 -1      5099 1.03310E+00-6.35807E-02-8.40769E-01-1.34910E-01-2.96259E-02 3.75093E-01
 -1      5100 1.00611E+00 1.68925E-02-5.70947E-01-4.70864E-02 5.50275E-03 4.54763E-01
 -1      5101 1.02850E+00-1.63530E-02-6.81438E-01-5.27227E-02-1.75763E-02 4.48789E-01
 -1      5102 9.99761E-01-4.60970E-02-8.27393E-01-8.27272E-02-6.18313E-03 4.64881E-01
 -1      5103 9.67345E-01-1.29180E-02-4.88474E-01-6.96798E-02-1.47279E-02 4.31303E-01
 -1      5104 2.95019E+00-2.49676E+00-8.05320E-01-7.33698E-01 2.63997E-01 1.21675E-01
 -1      5105 1.69301E+00-2.64955E+00-1.03429E+00-6.13847E-01-1.06989E-01 1.23271E-01
 -1      5106 1.15917E-01-1.45985E+00-2.89726E+00-1.18545E+00-2.41581E-01 7.01073E-02
 -1      5107 3.52867E+00-3.87626E+00-2.07821E+00 4.27238E-01-2.83029E-01 3.38662E-01
 -1      5108 3.11275E+00 6.04303E-01-7.61220E-01 8.19049E-01 5.91692E-02 5.81579E-01
 -1      5109 4.17076E-01-1.29821E+00-1.69553E+00-1.04926E+00-5.37959E-01-3.39724E-01
 -1      5110 2.02288E+00-2.58599E+00-1.31416E+00-1.03526E+00 6.45645E-01 4.88551E-01
 -1      5111 1.27142E+00-3.66650E-01-1.13015E+00-5.77234E-01-7.44965E-02 4.21608E-01
 -1      5112 1.37119E+00-4.30583E-01-1.11970E+00-7.17302E-01-1.73790E-01 7.89238E-02
 -1      5113 1.65979E+00-4.34589E-01-1.23440E+00-9.04255E-01 4.45348E-02 1.76105E-01
 -1      5114-3.05773E-01-1.20179E+00-1.64464E+00-1.15885E+00 3.09322E-01-6.18617E-02
 -1      5115 7.22135E-01-4.74465E-01-1.33410E+00-1.14221E+00 1.70063E-01-3.67266E-02
 -1      5116 1.09758E+00-3.60992E-01-9.20623E-01-5.67603E-01-4.50842E-02-8.85310E-02
 -1      5117 1.67862E+00-2.64294E-01-8.28064E-01 2.61756E-01 5.45616E-02-1.03946E-01
 -1      5118 8.05458E-01-6.33456E-01-1.06245E+00-1.37000E+00-6.24412E-02 3.65160E-01
 -1      5119 4.25190E+00 5.28628E-01-2.41410E-01 8.11235E-01 3.23553E-01 6.78159E-02
 -1      5120 1.24438E+00-4.01854E-02-7.30190E-01-1.18361E-01 7.93631E-03 2.49507E-02
 -1      5121 1.21537E+00-2.66618E-02-7.55306E-01-8.64296E-02-1.38123E-02 6.39873E-02
 -1      5122 1.35421E+00-7.12183E-01-1.56990E+00-8.38863E-01-1.14988E-01 3.85226E-01
 -1      5123 6.10252E-01-7.77236E-01-2.13048E+00-1.02523E+00 1.21363E-01 2.70076E-01
 -1      5124 7.29854E-01-8.39202E-01-1.91388E+00-1.25348E+00-3.14632E-02 2.31149E-01
 -1      5125 4.46527E-01-1.16381E+00-2.10263E+00-1.22029E+00-1.50550E-01 1.52389E-01
 -1      5126 8.19766E-01-4.95104E-01-1.77920E+00-1.23296E+00-2.43291E-02 2.75000E-01
 -1      5127 5.97666E-01-8.10908E-01-1.80493E+00-1.10758E+00 1.01012E-01 3.77978E-01
 -1      5128 1.26250E+00-3.78523E-01-1.61916E+00-6.38457E-01-1.66824E-02 6.90016E-03
 -1      5129 6.99574E-01-5.81165E-01-1.95461E+00-1.14193E+00-1.05047E-01 2.93600E-01
 -1      5130 6.32641E-01-1.19158E+00-2.52456E+00-6.51040E-01-2.44980E-01 2.55477E-01
 -1      5131 2.33542E-01-3.02290E+00-1.48716E+00-1.42004E+00-7.34671E-02-1.46595E-01
 -1      5132 9.32960E-01-8.90478E-01-9.05707E-01-6.75406E-01-1.80885E-01-7.32777E-02
 -1      5133 1.92176E+00-9.20424E-01-9.58234E-01-5.26241E-01-4.53983E-01-3.52263E-01
 -1      5134 2.85607E+00-1.79659E+00-6.52020E-01-7.06968E-02 5.85782E-01 5.36195E-01
 -1      5135 1.68324E+00-3.31902E-01-1.13743E+00-1.54378E-02 2.78074E-01 1.08907E-01
 -1      5136 8.71365E-01-3.12943E-01-9.61025E-01-2.26804E-01 3.51748E-02-1.35954E-01
 -1      5137 7.15296E-01-1.08172E+00-1.31822E+00-1.10953E+00-4.28024E-01-5.39732E-02
 -1      5138 6.66389E-01-6.52922E-01-1.01385E+00-1.12100E+00-2.01950E-01-2.40533E-01
 -1      5139 7.32914E-01-7.43504E-01-1.07302E+00-1.06963E+00 6.82346E-02-1.94308E-01
 -1      5140 1.18853E+00-4.45527E-01-1.15517E+00-1.09655E+00-7.99695E-02-1.51951E-01
 -1      5141 7.26121E-01-9.43009E-01-9.37497E-01-9.91199E-01-2.75967E-03-2.39327E-01
 -1      5142 1.49817E+00-7.63934E-01-1.26158E+00-1.25424E+00-7.79207E-02 3.66845E-01
 -1      5143 2.50534E+00-2.51490E-01-3.57518E-01 8.47166E-02 7.57934E-01 1.31701E+00
 -1      5144 2.24295E+00-1.01730E+00-1.10056E+00-2.42017E-01-1.72459E-01 3.75197E-02
 -1      5145 2.13801E+00-7.69699E-01-6.04002E-01-3.06094E-01 2.27202E-02 2.52991E-01
 -1      5146 1.56458E+00-1.28199E+00-9.64891E-01-2.44893E-01 1.33148E-01 1.15773E-01
 -1      5147 6.15936E+00-1.38094E+00-1.37948E+00 2.20424E+00 7.13227E-01 4.39472E-01
 -1      5148 2.27012E+00-2.30816E+00-5.25539E-01-1.22686E+00 2.15874E-01 4.42287E-01
 -1      5149 2.53336E+00-1.39554E+00-6.46110E-01-3.91075E-01 5.23078E-01 3.36234E-01
 -1      5150 3.10357E-01-1.10637E+00-1.89199E+00-1.23861E+00 3.84642E-01 2.60014E-01
 -1      5151 1.33252E+00-1.71961E-01-1.53183E+00-1.18227E+00 1.94343E-01-8.84022E-02
 -1      5152 1.64018E+00-5.51925E-01-1.21722E+00-6.43677E-01-4.70899E-02 2.84889E-01
 -1      5153 9.66885E-01-9.93412E-01-1.31103E+00-1.22217E+00 5.42289E-02 1.36148E-01
 -1      5154 1.13279E+00-1.01653E+00-1.34108E+00-1.08538E+00-6.59682E-02 1.08052E-01
 -1      5155 9.00871E-01-1.61844E+00-1.96074E+00-1.38461E+00 1.58763E-02 1.26802E-01
 -1      5156 1.57087E+00-1.19610E+00-1.33528E+00-7.02073E-01 3.25859E-02-3.62570E-02
 -1      5157 1.06190E+00-2.97829E-01-1.15080E+00-2.60444E-01 2.15124E-02 1.34330E-01
 -1      5158 1.01477E+00-1.58774E+00-1.64577E+00-8.67642E-01 4.61387E-02 8.70673E-02
 -1      5159 8.48172E-01-3.78215E+00-2.53625E+00-1.15700E+00 2.39500E-01 4.32176E-01
 -1      5160 4.12666E-01-3.38151E+00-2.09414E+00-1.36541E+00-1.49901E-01 1.16385E-01
 -1      5161-3.79613E-01-2.97359E+00-2.20193E+00-1.23692E+00-1.14025E-01 1.68496E-01
 -1      5162 1.07867E+00-2.11013E+00-1.38580E+00-3.66114E-01-6.44386E-01-6.47569E-01
 -1      5163 2.28609E+00-2.22680E+00-1.58464E+00-7.47159E-01-4.56906E-01-1.87873E-01
 -1      5164 1.06274E+00-4.82922E-01-1.24912E+00-2.17791E-01-1.56905E-01 1.09560E-01
 -1      5165 9.17870E-01-2.81372E-01-1.20423E+00-3.88560E-01-5.85306E-02 1.41715E-01
 -1      5166 1.00000E+00-4.51936E-01-1.17510E+00-4.41769E-01-5.21064E-02 1.07397E-01
 -1      5167 2.60865E+00-1.29152E+00-1.12267E+00-1.55284E-01-2.40769E-01 1.86110E-02
 -1      5168 1.82832E+00-1.20507E+00-1.24046E+00-3.34866E-01 2.33498E-01 4.15023E-01
 -1      5169 2.27052E+00-2.01125E+00-1.49003E+00-7.63368E-01-9.99467E-02 2.27010E-02
 -1      5170 1.19479E+00-1.91658E+00-1.83555E+00-7.42967E-01-1.48274E-01-1.55257E-02
 -1      5171 1.05517E-01-2.98098E+00-2.20773E+00-1.28775E+00-4.09747E-01-4.26560E-02
 -1      5172 1.06641E+00-3.49786E+00-2.06931E+00-1.12657E+00 1.23019E-01 6.92727E-01
 -1      5173 1.22809E+00-5.36575E-01-1.17792E+00-4.74716E-01 8.36788E-02 1.90174E-01
 -1      5174 9.43701E-01-4.34671E-01-1.22322E+00-4.30120E-01 2.80767E-03 2.29386E-01
 -1      5175 1.71943E+00-9.86864E-01-1.22110E+00-5.62237E-01-3.11602E-02 3.80893E-02
 -1      5176 1.07357E+00-5.40919E-01-1.15996E+00-4.33121E-01 1.37689E-01 8.03154E-02
 -1      5177 6.66611E-02-2.62534E+00-1.97682E+00-1.78617E+00-1.36854E-01-3.02262E-03
 -1      5178 1.94239E-01-2.30214E+00-1.96386E+00-1.57183E+00-1.69135E-01 2.17371E-01
 -1      5179 2.25441E+00-3.60916E+00-1.87649E+00-1.70537E-01 1.62261E-01 6.90808E-01
 -1      5180 2.69496E+00-1.09111E+00-9.40811E-01 3.63546E-02-2.34303E-01-7.33379E-02
 -1      5181 8.14401E-01-1.61827E+00-1.61827E+00-8.51583E-01-1.63454E-01 1.65538E-01
 -1      5182 2.79198E+00-2.56446E+00-1.43252E+00-5.05933E-01-8.25767E-01-2.75420E-01
 -1      5183 1.12216E+00-2.84878E-01-1.11464E+00-5.48723E-01-3.30581E-02 9.11658E-02
 -1      5184 1.47342E+00-1.82801E-01-1.01293E+00-4.46299E-01-3.98120E-05 1.17670E-01
 -1      5185 1.25251E+00-6.48947E-01-9.98976E-01-3.82762E-01-1.11022E-04 8.64372E-02
 -1      5186 1.09460E+00-4.44134E-01-9.78980E-01-4.52841E-01 1.75576E-02 1.52831E-01
 -1      5187 2.03736E+00-6.73522E-01-8.54314E-01-9.38746E-02 2.21210E-01 1.47111E-01
 -1      5188 4.12220E-01-1.01805E+00-1.46992E+00-1.13425E+00 1.33083E-01-7.40470E-02
 -1      5189 6.26553E-01-8.66908E-01-1.42186E+00-9.81628E-01 1.06358E-01 3.46033E-01
 -1      5190 1.04233E+00-3.29390E-01-1.53958E+00-4.97109E-01-4.03833E-02 8.39680E-02
 -1      5191 1.10269E+00-1.00384E+00-2.45759E+00-1.77482E-01-3.75928E-02 2.52131E-01
 -1      5192 1.41106E+00-9.20207E-01-1.44569E+00-2.37880E-01-3.74947E-02 7.27416E-01
 -1      5193 3.52310E-01-7.58794E-01-2.41869E+00-1.61193E+00-2.86692E-01-1.66610E-01
 -1      5194-6.95539E-01-1.88110E+00-2.41199E+00-1.75365E+00 1.36575E-01 2.58713E-01
 -1      5195 1.09108E+00-5.13204E-01-1.21850E+00-5.64816E-01 3.21589E-01 3.37826E-01
 -1      5196 7.46008E-01-3.38693E-02-3.70062E-01-1.31038E-02 6.46243E-03 8.04055E-02
 -1      5197 7.80245E-01 1.26977E-01-7.14351E-02 3.52364E-01-6.84135E-02-7.97000E-02
 -1      5198 6.18842E-01 1.42839E-01-1.26151E-01 3.73506E-01-4.08231E-04-4.85018E-03
 -1      5199 1.18447E+00 2.39808E-01 8.26123E-02 5.22188E-01-2.67625E-02-2.35095E-02
 -1      5200 2.80375E-01 1.01027E-01-2.89783E-01 2.08302E-01 6.63645E-03-5.37638E-03
 -1      5201 3.25552E-01 4.25083E-02-2.38357E-01 2.26763E-01-5.42410E-03 4.11572E-02
 -1      5202 1.35048E+00 2.98306E-01 1.62550E-01 4.97483E-01 1.31866E-02 1.05282E-02
 -1      5203 3.38423E-01 1.11486E-01-8.46873E-02 2.47018E-01-8.17557E-02-8.66845E-02
 -1      5204 1.20971E+00 2.14655E-01-9.80846E-04 4.90045E-01-4.70101E-02-1.49984E-01
 -1      5205 4.61351E-01 1.09844E-01-1.72965E-01 2.36592E-01-3.27385E-02-5.75691E-02
 -1      5206 1.35340E+00 1.66373E-01 1.06547E-01 3.90122E-01-8.39181E-02-8.48863E-02
 -1      5207 1.03112E+00 2.26733E-01 3.08516E-02 3.36051E-01-2.73397E-02 5.50126E-03
 -1      5208 5.20127E-01-3.13117E-02-9.67963E-03 2.69092E-01 1.53587E-02 5.30461E-02
 -1      5209-9.65243E-01 4.31333E-02-3.42436E-01-9.64129E-02-2.91309E-02 1.01663E-02
 -1      5210-4.50402E-01-5.17351E-02-1.76678E-01-2.25189E-01-8.57249E-03-2.99344E-03
 -1      5211 1.85549E+00 7.74277E-02 1.80208E-01-6.56279E-02 1.77782E-02 1.70729E-02
 -1      5212 6.93600E-01-4.09621E-02 6.03555E-03 3.46850E-01-1.43624E-02-4.38668E-03
 -1      5213-9.02386E-01 2.89235E-02-1.98626E-01-4.47033E-02-2.75757E-02 5.61818E-02
 -1      5214 1.71132E+00 4.62756E-03 2.54275E-01-1.38947E-02 1.89519E-02 2.42590E-03
 -1      5215-6.12390E-01-1.60396E-01-1.59836E-01-3.46920E-01-2.37927E-02-8.68551E-03
 -1      5216 1.68032E+00-1.21631E-02 2.62872E-01-3.77902E-02 5.14336E-03-2.79666E-02
 -1      5217 1.91940E+00 6.84087E-02 3.18618E-01 1.37974E-01 1.63161E-02 1.84274E-02
 -1      5218 2.00810E+00 1.61319E-01 3.45475E-01 2.27817E-01 1.15428E-02 1.51294E-03
 -1      5219-1.89687E-01 4.15932E-03-6.21899E-02-9.22284E-02 2.24113E-03 8.85165E-03
 -1      5220-6.18856E-01 1.24438E-02-2.31018E-01-1.19006E-01 1.78024E-02 4.19554E-02
 -1      5221-2.08539E-01 6.34173E-02-1.97065E-02-9.74425E-02-7.08889E-03-5.63574E-03
 -1      5222 2.04388E+00 7.72218E-02 1.39203E-01 1.44616E-01-1.64332E-02-5.52235E-02
 -1      5223 1.74801E+00-2.32508E-02 8.05013E-02-4.15117E-02 9.14261E-03 5.79645E-02
 -1      5224 2.14367E+00 1.72615E-01 3.05969E-01 2.14471E-01-8.69210E-04-1.56366E-02
 -1      5225-6.44721E-01 2.74486E-02-5.72866E-02-1.49151E-01-4.01988E-02-1.00743E-01
 -1      5226-2.27253E-01-5.66768E-03 1.22930E-02-1.18660E-01-1.17327E-02-3.33065E-02
 -1      5227-3.03834E-01 3.45301E-02-8.13706E-03-1.13690E-01-6.85821E-03 1.65093E-03
 -1      5228 1.14843E-01 2.14657E-02-1.29343E-01 2.63945E-01 4.33270E-02-1.58515E-02
 -1      5229 1.23297E+00-4.45809E-02 1.63480E-01 1.30241E-01-2.68168E-02-2.32542E-02
 -1      5230 1.42622E+00 5.57432E-02 2.18012E-01 1.14817E-01 7.31888E-03-1.84348E-02
 -1      5231-9.19964E-01-4.68615E-02-3.70243E-01-6.57276E-02-1.30541E-02 9.58635E-03
 -1      5232-7.30525E-01-6.61902E-02-3.67011E-01 7.03425E-02-2.67500E-02 7.28535E-03
 -1      5233-2.73149E-01 2.07346E-02-2.20549E-01 1.76827E-01-8.87268E-03 3.89791E-02
 -1      5234-7.74550E-01-1.06376E-01-3.08490E-01-1.99258E-01-2.95050E-02-2.77551E-03
 -1      5235 1.26365E+00-3.13610E-03 8.11186E-02 6.82720E-02 1.75234E-02 8.42802E-02
 -1      5236 1.88565E-01 7.64655E-02-2.26148E-03 2.72853E-01-3.37872E-02 9.78513E-02
 -1      5237 1.37306E+00 2.36999E-02 1.26464E-01 8.13727E-02 2.29070E-02 5.18610E-02
 -1      5238-8.00636E-01-3.97665E-02-1.34339E-01 6.67115E-02 5.37343E-03 8.22437E-02
 -1      5239-9.40185E-01-8.07455E-02-1.37112E-01-9.57333E-02 1.32131E-02-1.91322E-02
 -1      5240-3.82145E-01 2.42901E-03-1.49810E-01 1.42746E-01-1.40428E-02 2.05121E-02
 -1      5241-6.24375E-01 3.74862E-02-1.03920E-01-1.39696E-01-1.42437E-02-5.93774E-03
 -1      5242 1.77302E+00 6.82007E-02 2.29290E-01-2.93891E-02 1.98154E-02 4.17831E-02
 -1      5243-4.74117E-01-8.90940E-02-1.60862E-01-2.79011E-01-1.78951E-02 2.14291E-02
 -1      5244 6.94688E-01-1.15830E-02 3.90940E-03 3.43819E-01-2.13318E-02 2.96052E-02
 -1      5245-3.55291E-01 8.13923E-02-2.07525E-01 1.51494E-01 3.09241E-03 1.90567E-02
 -1      5246-9.52301E-01 5.76903E-02-2.84325E-01-7.23126E-02-3.24577E-02 2.04582E-02
 -1      5247 1.32256E+00 5.96705E-02 1.56483E-01 1.14430E-01-1.13083E-02 6.88772E-02
 -1      5248-7.53060E-01-7.26812E-02-2.28388E-01-2.67480E-01-7.01953E-04 1.57637E-02
 -1      5249 4.76290E-02 5.86044E-02-5.56295E-02 2.55615E-01-2.99041E-02 5.76797E-03
 -1      5250 7.92729E-02 1.22242E+00 2.37330E-01-2.42633E-01 4.20830E-04-2.81658E-02
 -1      5251 6.37750E-03-3.64108E-01-9.45215E-02-9.95557E-02-5.52820E-02 4.44849E-03
 -1      5252 6.44908E-02 4.68169E-01 6.25361E-02-1.54602E-01 2.06176E-02-1.58674E-02
 -1      5253-3.10717E-02 2.56020E-01-4.72472E-03-2.45883E-02 4.69735E-02-7.46758E-03
 -1      5254-5.21352E-02-3.70141E-01-1.37110E-01-1.87089E-01-1.80660E-02 8.95509E-03
 -1      5255 2.52194E-02-3.67814E-01-1.39311E-01-9.62427E-02-1.53785E-02-9.27863E-03
 -1      5256-4.71555E-02-2.10500E-01-6.72398E-02-9.74712E-02-1.31429E-02 9.11647E-05
 -1      5257 3.32766E-02-2.17632E-01-1.70615E-02-5.03386E-02-8.62931E-03 7.59641E-03
 -1      5258-2.01582E-02 1.48503E-01-3.38541E-02-4.58389E-02-4.37419E-04 3.68737E-03
 -1      5259-1.76891E-02 4.76548E-01 5.51643E-02-4.87919E-02-2.92228E-02 1.08993E-02
 -1      5260-1.15788E-02 1.90861E-01-2.86605E-02-6.43500E-02 2.01014E-02-8.50169E-03
 -1      5261 1.30290E-02-2.45447E-01-1.11964E-02-7.11131E-02-2.20519E-03-2.48302E-03
 -1      5262 1.89068E-02-4.27127E-01-8.58189E-02-4.48224E-02-4.31515E-02 1.09038E-02
 -1      5263 1.42237E-01-2.19387E-01 1.49728E-02-4.15330E-02-2.23180E-02 9.84825E-03
 -1      5264-3.79940E-02 4.04211E-01-4.07021E-03-4.01748E-02 5.96697E-02-1.38195E-02
 -1      5265-4.74317E-02 3.75453E-02-3.46105E-02-5.16269E-03 1.08931E-02 7.94933E-03
 -1      5266-2.19054E-02 7.14999E-02-5.61954E-02-1.65125E-02 2.18174E-02-4.39824E-03
 -1      5267 5.45791E-02 8.39412E-01 1.96104E-01 2.74015E-01-2.58397E-02 2.76580E-02
 -1      5268-5.43447E-03-1.21663E-01-1.10107E-01 1.40456E-01 1.61703E-02-7.33415E-03
 -1      5269-1.21232E-01-2.83551E-01-1.61494E-01-2.58529E-04 3.00114E-03 6.89900E-03
 -1      5270 3.17845E-02 8.82520E-01 1.74335E-01-1.03793E-01-1.44511E-02-1.92788E-02
 -1      5271 6.59394E-03 1.36857E+00 3.19166E-01-6.41736E-02-1.71764E-02-2.40635E-02
 -1      5272 1.26763E-01 1.13475E+00 2.09737E-01 1.01871E-01-8.45881E-03-2.56194E-02
 -1      5273 6.06456E-02 7.04186E-01 1.14672E-01-1.61240E-01 1.32543E-02-1.86434E-02
 -1      5274 5.76446E-03-1.48729E-01-8.62811E-02 1.14475E-01-7.71198E-02 2.06473E-03
 -1      5275 3.69711E-02 8.15903E-01 1.02854E-01 2.68893E-01-6.19306E-02-4.93229E-02
 -1      5276-1.22900E-01-2.45379E-01-1.32156E-01 5.01394E-02-6.37774E-02 7.88817E-03
 -1      5277-5.00057E-03 1.35302E+00 1.74394E-01-4.65520E-02-2.57287E-03-1.03710E-02
 -1      5278 3.47833E-02 8.94288E-01 8.41160E-02-1.04234E-01 5.15651E-02 6.26745E-03
 -1      5279-2.74436E-02 6.10467E-01 5.90247E-02-3.81073E-02 5.89189E-02-7.25858E-03
 -1      5280-2.65765E-02-3.57531E-01-1.18088E-01-1.47182E-01-3.93708E-02 1.34257E-02
 -1      5281 1.20493E-02 3.86998E-01 2.03436E-02-6.59962E-02 5.16363E-02-1.89697E-02
 -1      5282 6.77175E-02 4.66127E-02 5.46774E-02 1.45495E-01-8.90535E-04-3.07425E-02
 -1      5283-1.46650E+00-1.68937E-02-5.51072E-02-2.56711E-03 1.09046E-02-3.97039E-02
 -1      5284-1.92962E+00-3.24698E-02-6.05105E-02-1.37855E-02 7.73011E-03 2.43544E-02
 -1      5285-6.98193E-01-1.75200E-02 1.16750E-02-8.60981E-02 8.37383E-04 6.90777E-02
 -1      5286-1.48440E+00-3.51809E-02-4.57312E-02-7.12961E-02 4.01258E-03 6.44703E-02
 -1      5287-9.19064E-01 7.09573E-02-4.47961E-02 8.04731E-02 1.84726E-02-4.61253E-02
 -1      5288-1.82834E+00-1.35240E-02-4.42840E-02-1.15357E-02 8.13261E-03-1.73643E-02
 -1      5289-3.48008E-02 1.04309E-03 7.11902E-02-1.58914E-03 1.73979E-03 3.60832E-02
 -1      5290 2.17443E-01 6.36445E-02 4.23483E-02-8.41455E-02-1.14478E-02-6.16079E-03
 -1      5291 2.46200E-01 1.82710E-02 6.62631E-02-6.13596E-02-3.49341E-03-1.70625E-02
 -1      5292 8.56882E-02-3.80993E-02-3.16818E-02-2.42401E-02 5.75130E-03-9.46803E-03
 -1      5293 1.07291E-01-5.78206E-02-3.28697E-02-3.72353E-02-8.71001E-03-1.72631E-03
 -1      5294 3.64936E-02 2.16147E-02 1.02516E-01 3.01064E-02-9.01834E-04 9.15380E-03
 -1      5295-9.34003E-02 1.25438E-02 9.48488E-02-6.58476E-03-5.23887E-03 1.89170E-02
 -1      5296 1.67354E-02 1.86899E-02 6.16343E-02 2.73205E-02-1.55457E-03 2.21266E-02
 -1      5297 9.99008E-02 1.11114E-02-7.87478E-03-2.54946E-02-7.18413E-03 1.45917E-02
 -1      5298 2.36852E-01 1.58974E-02 1.05049E-02-5.22558E-02-7.58725E-03 9.61924E-03
 -1      5299-8.65286E-02 1.65167E-02 4.95391E-02-8.81470E-03 3.16739E-03 4.40212E-02
 -1      5300 1.87364E-02 1.82985E-02 2.79218E-02 3.16863E-02 3.24893E-03 1.36449E-02
 -1      5301-4.79448E-02 1.55958E-02 6.92593E-02 5.88370E-02-1.27419E-02 4.55083E-03
 -1      5302 2.54313E-01 2.45060E-02 1.11272E-01 2.37724E-02-6.20263E-03-6.55974E-03
 -1      5303 2.59785E-01 1.65451E-01 1.04551E-01 3.67260E-02-2.85872E-03-1.16973E-02
 -1      5304-1.07722E+00-1.80747E-02-9.21352E-02 3.03229E-02 8.89041E-03-1.53822E-02
 -1      5305-6.05701E-01-6.29578E-03-2.40246E-02 5.69145E-02 1.72399E-02-1.21911E-03
 -1      5306-3.02041E-01 1.39370E-01 3.75819E-02 1.43919E-01 4.97390E-03-3.98242E-02
 -1      5307-1.60576E+00-5.62483E-03-7.50793E-02 4.10933E-03 1.90614E-03-1.92589E-02
 -1      5308-1.38071E+00-2.57890E-02-9.47454E-02-3.53531E-03 5.93031E-03-1.40202E-02
 -1      5309-1.22083E+00-2.74125E-02-7.57511E-02 3.02777E-02 1.18806E-02-5.39654E-02
 -1      5310-1.94393E+00-3.87166E-02-9.26905E-02-1.69212E-03 2.37028E-03-1.17347E-02
 -1      5311-1.77001E+00-2.59733E-03-6.14996E-02 1.32310E-03 1.57523E-03-9.43430E-03
 -1      5312-1.67711E+00-2.29451E-02-6.56870E-02-5.15265E-03 9.54369E-03-2.95610E-02
 -1      5313-1.88971E+00-4.63279E-02-9.85403E-02-1.87079E-02 4.20517E-03 1.33669E-02
 -1      5314-1.97249E+00-3.90937E-02-9.59180E-02-7.35491E-03-1.78380E-03 1.72669E-02
 -1      5315-1.97662E+00-4.04129E-02-7.58341E-02-1.94761E-02 8.08555E-03 4.96733E-03
 -1      5316-1.29637E+00-2.12120E-02-4.80468E-02-4.72366E-02 1.09336E-02 2.68396E-02
 -1      5317-1.65636E+00-3.13249E-02-7.97095E-02-4.85410E-02-8.81243E-04 3.48752E-02
 -1      5318-1.78037E+00-3.80897E-02-7.08617E-02-4.34989E-02 4.80193E-03 5.07024E-02
 -1      5319-4.29053E-01-3.63279E-03 5.64374E-02-4.74200E-02 9.25272E-04 1.94860E-02
 -1      5320-9.12327E-01 6.77644E-03-1.49800E-02-6.09233E-02-6.81027E-03 1.35799E-02
 -1      5321-1.10584E+00-4.57649E-02-7.75358E-03-8.18361E-02 1.63297E-03 7.02531E-02
 -1      5322-3.28268E-01 1.98415E-02 4.70658E-02-3.88738E-02-1.97996E-03 5.57673E-02
 -1      5323 2.49154E-01 1.66690E-02 4.45044E-02 1.39531E-02 4.89496E-03-3.46492E-02
 -1      5324-6.88233E-02 1.32494E-02 2.87482E-02 5.88122E-02 2.06558E-03-7.03717E-02
 -1      5325-6.21173E-01-8.64306E-03-9.34922E-03 5.64059E-02-1.55764E-02-9.55428E-02
 -1      5326-1.05475E+00-1.96834E-02-3.09915E-02 3.35769E-02-3.26906E-03-5.62218E-02
 -1      5327-1.37887E+00-1.85891E-02-3.87180E-02 5.97613E-03 6.51550E-03-3.97775E-02
 -1      5328-1.56915E+00-3.60585E-03-2.46124E-02 3.03541E-03 4.04251E-03-3.01472E-02
 -1      5329-1.73182E+00-3.31151E-03-1.42228E-02 8.26684E-04 4.81855E-03-2.06162E-02
 -1      5330-1.90249E+00-3.36838E-02-3.79318E-02-2.98973E-03 2.69176E-03-5.40280E-03
 -1      5331-1.93341E+00-3.81943E-02-3.31901E-02-4.91262E-03 8.88675E-03 8.57367E-03
 -1      5332-1.87613E+00-4.56353E-02-4.46060E-02-3.28582E-02 1.60853E-03 2.89530E-02
 -1      5333-1.62302E+00-2.83205E-02-2.25415E-02-5.61649E-02 3.52620E-03 5.26297E-02
 -1      5334-1.30537E+00-3.39439E-02-2.42776E-02-5.15834E-02-4.46629E-03 7.86089E-02
 -1      5335-8.98853E-01 6.96999E-03-4.71495E-03-5.77891E-02 9.81028E-03 9.69028E-02
 -1      5336-4.39129E-01-5.59036E-03 1.92860E-02-3.57543E-02-4.71928E-03 8.08753E-02
 -1      5337-9.47680E-03-2.33274E+00-6.03833E-02-8.28317E-02-9.32727E-02-7.43621E-03
 -1      5338-6.36770E-03-7.76830E-01 3.61692E-02-6.36144E-02-8.68663E-02-1.97589E-03
 -1      5339 2.05400E-02-1.34150E-01 8.70529E-02-2.11106E-03-4.95744E-02 3.62991E-03
 -1      5340-3.91898E-02-3.02624E+00-8.16085E-02-5.01242E-02-5.63169E-02-1.05046E-02
 -1      5341-3.00406E-02-3.08441E+00-1.75825E-01-3.92482E-02-4.13564E-02-1.25159E-02
 -1      5342-1.77972E-02-3.27458E+00-2.29672E-01-1.66681E-02-2.28036E-02-8.54890E-04
 -1      5343-3.04361E-02-3.02335E+00-2.00831E-01-1.66139E-02-1.46892E-02-1.45684E-02
 -1      5344-1.00562E-02-3.28477E+00-1.75291E-01-3.29190E-02-1.86167E-02-4.63228E-03
 -1      5345 1.86351E-02-1.49322E-01 1.10765E-01-1.49851E-02-3.45448E-02 3.25645E-03
 -1      5346 3.00741E-02 3.36118E-02 1.18805E-01 2.46538E-02-2.17814E-02-9.15601E-03
 -1      5347 1.75712E-02 1.87660E-02 7.93536E-02 2.00557E-02-3.61018E-02-7.20604E-03
 -1      5348-4.18924E-02-2.91203E+00-5.42814E-02-1.51138E-02-7.73808E-02-5.68607E-03
 -1      5349-2.32817E-02-3.21522E+00-4.98847E-02-1.50169E-02-2.69577E-02-9.57288E-04
 -1      5350-1.05401E-02-3.26748E+00-1.26133E-01-4.82259E-02-2.41532E-02-8.41502E-03
 -1      5351 3.11082E-02 1.77774E-02 4.71851E-02 2.65910E-02-1.08202E-02 7.58858E-03
 -1      5352 2.96592E-02-1.45259E-01 6.01179E-02-1.23001E-02-4.14043E-02 1.20032E-03
 -1      5353 1.01229E-02-1.17791E+00 1.87870E-02-9.28330E-02-5.73764E-02 1.32280E-02
 -1      5354-5.78678E-03-5.22837E-01 7.70287E-02-3.14359E-02-4.23317E-02-3.85134E-03
 -1      5355 1.25290E-02-4.57843E-01 4.80734E-02-1.94016E-02-6.96230E-02 7.06024E-03
 -1      5356-8.87987E-04-2.62810E+00-1.34106E-01-4.40786E-02-3.93990E-02 6.97938E-03
 -1      5357 6.09513E-03-1.93415E+00-4.75480E-02-9.30622E-02-5.46580E-02-1.57369E-02
 -1      5358 7.31025E-03-1.56291E+00-2.84534E-03-1.15843E-01-1.04815E-01-7.11200E-03
 -1      5359-5.29016E-02-2.74393E+00-1.29083E-01-6.31583E-02-7.01402E-02-9.48520E-03
 -1      5360-1.09359E-02-5.24478E-01 1.99847E-02-2.45370E-02-7.35318E-02 4.72257E-03
 -1      5361 1.18107E-02-1.13848E+00 1.69481E-02-1.30095E-01-8.06269E-02-1.90622E-02
 -1      5362 6.48580E-03-1.94096E+00-1.63488E-02-1.26114E-01-9.06700E-02 1.33262E-02
 -1      5363 1.76491E-02-2.61579E+00-4.02488E-02-2.16755E-02-9.20630E-02-1.56916E-02
 -1      5364-3.79595E-02-2.69938E+00-8.35698E-02-4.44251E-02-7.91263E-02-1.27680E-02
 -1      5365-4.19219E-02-3.08569E+00-1.30686E-01-6.96198E-02-5.07218E-02-5.67759E-03
 -1      5366 9.77035E-01 1.16826E+00 3.03764E-01 7.46457E-01 1.03066E-01 7.25973E-02
 -1      5367 1.41416E+00 1.06538E+00 5.44169E-01 7.61214E-01-8.31716E-03 3.13539E-02
 -1      5368 1.84614E+00 8.30736E-01 3.63144E-01 8.68131E-01-5.91939E-02-3.05519E-02
 -1      5369 1.40780E+00 1.26849E+00 6.24651E-01 1.09850E+00 1.53969E-02-1.69578E-02
 -1      5370 5.13470E-01 1.17871E+00 3.91763E-01 6.84316E-01-7.67595E-03 1.24919E-03
 -1      5371 5.39827E-01 1.23725E+00 3.73994E-01 8.38829E-01 2.64439E-02-4.53884E-03
 -1      5372 2.07960E+00 6.06435E-01 6.53352E-01 9.44115E-01-9.85121E-03-8.31990E-03
 -1      5373 2.21465E+00 7.14354E-01 6.54120E-01 9.27386E-01-2.32323E-02 5.80775E-03
 -1      5374 4.19316E-01 8.98811E-01 2.18111E-01 5.66517E-01 2.36725E-01 1.40177E-01
 -1      5375 9.42352E-01 1.29860E+00 1.64202E-01 9.37355E-01 8.70992E-02 1.39246E-01
 -1      5376 4.85732E-01 1.11462E+00 2.91383E-01 8.12398E-01 1.71351E-01-1.17724E-03
 -1      5377 1.68183E+00 9.90208E-01 2.41659E-01 1.09192E+00-4.81418E-03 7.21053E-02
 -1      5378 1.95408E+00 5.25342E-01 3.10880E-01 8.23574E-01-7.22881E-02-1.67798E-01
 -1      5379 2.00382E+00 5.55910E-01 4.22238E-01 8.03284E-01-3.45585E-02-3.18340E-02
 -1      5380 1.78346E+00 1.27471E+00 4.61420E-01 1.00409E+00-1.07211E-02 3.62842E-02
 -1      5381 1.16231E+00 1.07914E+00 4.16920E-01 7.18326E-01 1.07357E-01 6.94810E-02
 -1      5382 1.92876E+00 1.00218E+00 5.41251E-01 8.98667E-01-6.18834E-02-2.90463E-02
 -1      5383-5.14972E-01-6.00055E-01-2.67478E-01 6.62027E-01 6.51683E-02-1.32538E-01
 -1      5384-8.11848E-01-8.37384E-01-5.46770E-01 5.47276E-01-2.52208E-03 4.27612E-03
 -1      5385-7.38148E-01-7.12474E-01-2.73554E-01 5.27011E-01-1.58527E-02 6.92433E-03
 -1      5386-3.04735E-01-7.31637E-01-4.06073E-01 4.34564E-01 1.93695E-02 4.81237E-03
 -1      5387-9.52330E-01-9.23630E-01-6.44919E-01 6.96355E-01-3.02261E-02-1.17049E-02
 -1      5388-6.19098E-01-5.87866E-01-3.79461E-01 5.46775E-01-1.02220E-01 3.22899E-02
 -1      5389-3.06546E-01-3.37885E-01-3.14323E-01 3.83892E-01-9.53729E-03 1.86122E-02
 -1      5390-2.85840E-01-5.09389E-01-3.53891E-01 6.07726E-01 2.92167E-02 2.53668E-03
 -1      5391 1.36314E-01-2.80412E-01-1.50160E-01 5.50067E-01 4.58512E-02-2.62672E-01
 -1      5392-8.73003E-01-7.46705E-01-2.19163E-01 7.18163E-01 7.33829E-02-8.96998E-02
 -1      5393 6.81680E-02-3.13882E-01-1.29533E-01 6.25460E-01 2.85553E-02-1.65917E-01
 -1      5394-7.21537E-01-8.86836E-01-1.74014E-01 6.09592E-01 2.64932E-02 5.31939E-02
 -1      5395-2.99515E-01-4.16090E-01-1.37427E-01 3.76325E-01-1.67625E-01 4.40883E-02
 -1      5396-5.39915E-01-3.41955E-01-1.91133E-01 5.19420E-01-9.26351E-02 5.22352E-03
 -1      5397-1.04144E+00-9.34134E-01-4.23042E-01 7.60275E-01 5.42962E-02-6.47384E-02
 -1      5398-7.37954E-01-8.30408E-01-4.61472E-01 6.97142E-01 6.11008E-02-6.72161E-02
 -1      5399-9.63944E-01-8.76719E-01-5.07834E-01 5.72896E-01-3.11639E-02 2.98243E-02
 -1      5400 5.09296E-01 1.52036E+00 2.44040E-01 1.63794E+00-1.49017E-01-4.13438E-02
 -1      5401 1.20807E+00 1.17997E+00 5.50455E-01 1.81704E+00-1.88133E-03 1.28231E-03
 -1      5402 1.66323E+00 5.26479E-01 3.29882E-01 1.52333E+00-6.31016E-03 4.96848E-02
 -1      5403 1.99861E+00-7.85937E-02 4.72757E-01 1.32729E+00-2.74568E-02-1.21480E-02
 -1      5404 1.29195E+00 1.12326E+00 6.23738E-01 1.91662E+00 1.18929E-02-2.81557E-03
 -1      5405 1.71379E+00 2.86046E-01 4.38478E-01 1.45085E+00 4.32123E-02 5.03984E-02
 -1      5406-1.06444E-02 1.53983E+00 3.53158E-01 1.29614E+00 1.98187E-03 1.48833E-02
 -1      5407 1.83006E-01 1.48224E+00 3.62535E-01 1.37329E+00-5.50621E-02 2.88796E-03
 -1      5408-1.58289E-01 1.36842E+00 1.30393E-01 1.16350E+00-2.06154E-01-5.78643E-02
 -1      5409 8.20265E-01 1.65889E+00 2.50421E-01 1.95398E+00-1.32632E-01-5.40500E-02
 -1      5410-1.79724E-01 1.45122E+00 1.70638E-01 1.15774E+00-1.77151E-01 1.94675E-03
 -1      5411 1.46276E+00 7.30485E-01 1.79994E-01 1.78074E+00 1.63154E-02-4.66623E-02
 -1      5412 1.91703E+00-2.94951E-01 2.42988E-01 1.08008E+00 8.05416E-02 1.76985E-01
 -1      5413 1.64703E+00 4.55843E-02 2.61395E-01 1.16934E+00 2.15771E-02 7.10713E-02
 -1      5414 1.41158E+00 1.35461E+00 4.68689E-01 1.86285E+00-6.32621E-02 4.92000E-02
 -1      5415 8.04572E-01 1.33853E+00 3.91376E-01 1.68542E+00-1.36172E-01-3.10449E-02
 -1      5416 1.67733E+00 1.03529E+00 5.48091E-01 1.78343E+00-1.04032E-02 7.03547E-02
 -1      5417 6.90183E-02-1.05458E+00-1.29326E-01-1.50405E-01-8.62082E-02 1.11787E-01
 -1      5418-6.50362E-01-1.15841E+00-4.60008E-01-2.60365E-01-1.31092E-02-2.12903E-03
 -1      5419-1.05393E+00-1.30828E+00-4.17050E-01-1.88421E-02 3.93181E-03-1.54308E-02
 -1      5420-1.10257E+00-1.03659E+00-6.45941E-01 1.24903E-01 1.67396E-02-2.25825E-03
 -1      5421-8.63722E-01-1.23755E+00-5.85387E-01-1.55685E-01 2.01594E-02-1.03613E-02
 -1      5422-1.06666E+00-1.06554E+00-5.72053E-01 1.50922E-01 3.71100E-02-4.63367E-02
 -1      5423-5.20364E-02-1.00996E+00-3.05416E-01-1.23857E-01 1.00180E-02 1.00147E-02
 -1      5424-1.76892E-02-1.10923E+00-3.22872E-01-1.27467E-01-2.00369E-02 3.66537E-03
 -1      5425-1.00560E+00-1.31436E+00-2.69321E-01-5.03405E-02-6.60824E-02 4.86176E-02
 -1      5426-1.12962E+00-8.48134E-01-3.50847E-01 2.08902E-01 1.70355E-01-8.40117E-02
 -1      5427-1.15163E+00-9.16405E-01-4.25743E-01 2.25206E-01 9.79100E-02-1.08100E-02
 -1      5428 3.26208E-01-1.07418E+00-1.25030E-01 3.94019E-04-6.71872E-02 2.51497E-01
 -1      5429-3.82247E-01-1.01644E+00-6.24307E-02-2.93130E-01-1.41807E-01 1.10993E-01
 -1      5430 6.04794E-01-8.90387E-01-3.62061E-02 1.86947E-01-1.19899E-02 1.39123E-01
 -1      5431-6.16606E-01-1.17567E+00-3.02559E-01-9.69513E-02-1.04026E-01 7.78461E-02
 -1      5432-8.51195E-01-1.27800E+00-4.64874E-01-1.11885E-01 3.91289E-02-4.87459E-02
 -1      5433-2.99301E-01-1.11043E+00-3.05000E-01-2.20128E-01-4.26214E-02 5.23611E-02
 -1      5434 4.76991E+00 4.40092E+00-9.89105E-02-1.30384E+00 7.19026E-02-1.55540E-01
 -1      5435 2.96388E+00 1.85878E+00-2.30360E-03-6.13812E-01 1.25248E-02-5.55488E-02
 -1      5436 1.87408E+00 6.81691E-01-7.36656E-03-5.35482E-01 1.18996E-02-3.05173E-02
 -1      5437 2.10224E+00 3.00439E-03 1.43598E-02 3.29759E-01-1.44404E-02-1.42187E-02
 -1      5438 3.68076E+00-8.48489E-02 2.02581E-02 8.77394E-01-1.09222E-01-1.47459E-02
 -1      5439 1.89153E+00 1.68512E+01-4.93735E-01-9.27597E-01 1.14777E+00-2.57795E-01
 -1      5440 1.28411E+00-2.02564E-02 1.38401E-02 2.45816E-01-1.45940E-02-1.43089E-03
 -1      5441 1.22349E+00-5.93362E-02 1.70501E-03-4.48451E-01 4.71081E-03-2.15267E-02
 -1      5442 3.71749E+00 2.83806E+00-1.13904E-02-8.35500E-01 8.22551E-03-4.78291E-02
 -1      5443-9.20280E-01 1.92164E-01 1.17694E-02-1.02807E-01 1.82391E-03-4.22540E-04
 -1      5444 6.67681E+00 3.33167E-01 1.61964E-01 4.70898E+00-3.77520E-01 1.96927E-02
 -1      5445 2.18233E+00 7.37400E+00-2.17288E-01 4.72665E+00 5.90722E-02 2.91739E-01
 -1      5446 2.16516E-01 8.44826E-02-3.33750E-02 8.31540E-01 5.33744E-04-5.69406E-02
 -1      5447 2.92246E-04 4.01247E-01 3.49742E-02 9.37422E-01-1.32030E-02 1.63579E-03
 -1      5448 2.43097E-02 1.80836E-01-5.77363E-04 8.05614E-01-2.88385E-03-2.08212E-03
 -1      5449 2.10635E-01 3.86340E-01-3.00111E-03 7.94056E-01 1.32890E-04 2.43222E-03
 -1      5450 5.69262E-02-1.09912E+00 1.60868E-02-7.77264E-01-5.91376E-03-1.12012E-02
 -1      5451-4.98863E-01-3.87335E-02-3.09776E-03-7.25506E-01-1.26171E-03 3.99502E-03
 -1      5452-1.17640E-01 4.04123E-01 1.50046E-03 6.40741E-01 1.74640E-04-1.16736E-03
 -1      5453 1.40335E-01 6.80712E-01 4.52451E-03 7.17970E-01 4.62244E-03 9.91525E-03
 -1      5454 6.07800E-01 4.16722E-01 3.17580E-04 7.66650E-01-8.18598E-03 6.17887E-03
 -1      5455 4.65614E-01 9.08244E-01 1.27392E-02 8.63830E-01 8.17451E-03 2.58440E-02
 -1      5456-5.94924E-02 1.08093E+00 4.17004E-03 5.23085E-01 1.14788E-02 7.87276E-03
 -1      5457 1.12632E-01 1.61470E+00-1.56873E-02 6.94109E-01 2.03479E-02 1.10241E-02
 -1      5458-2.57441E-01 1.45987E+00 1.36050E-03 7.18538E-02 2.74165E-02 8.27990E-03
 -1      5459-1.47649E-01 2.04010E+00 8.82594E-04-9.61575E-02 3.52250E-02 2.54525E-03
 -1      5460-2.42685E-01 1.36606E+00-6.90778E-03-5.85147E-01 3.48484E-02 1.02437E-03
 -1      5461 1.35934E-01 2.29679E+00 4.87099E-03 6.17179E-01 4.17819E-02 2.79073E-02
 -1      5462 1.63769E-01 1.40963E+00-1.01176E-02-9.49591E-01 2.08023E-02-2.32324E-02
 -1      5463-4.73031E-02 7.62551E-01 1.89708E-02-1.01519E+00 1.32246E-02-1.04268E-02
 -1      5464-3.64346E-01 7.74082E-01 5.28065E-03-7.68693E-01 1.32449E-02-3.50565E-03
 -1      5465-3.96575E-01 9.70317E-01 3.70376E-03 4.43929E-02 1.26520E-02 1.53499E-03
 -1      5466 1.05602E+00 4.15972E-01-3.27301E-03 8.69579E-01-9.28071E-03 6.40168E-03
 -1      5467 9.75578E-01 1.40337E-01 6.89549E-03 5.46293E-01-8.09000E-03 4.47823E-04
 -1      5468-1.81579E-01 2.54174E-01-3.47811E-03-1.05649E+00 1.11621E-02-1.03864E-02
 -1      5469-3.77348E-01 1.34837E-01 2.52621E-03 4.90288E-01 3.61967E-03-3.41217E-03
 -1      5470 1.57074E+00 3.56988E-04 3.91511E-03 2.32421E-01-1.03719E-02-6.95778E-03
 -1      5471 8.32809E-01 1.03059E+00 2.17880E-02 1.08593E+00 1.33103E-02 1.68019E-02
 -1      5472 4.94083E-01 4.39740E-01-6.57304E-04-1.07185E+00 2.38122E-02-3.42668E-02
 -1      5473 4.13624E-01-1.10636E+00 5.89365E-03-3.97573E-01 1.60910E-03-1.91802E-02
 -1      5474 1.08476E+00-9.19887E-02 1.11873E-02 2.36464E-01-3.66261E-03 4.67804E-03
 -1      5475 1.47361E+00 3.73959E-01 9.20890E-03 9.11893E-01-1.84888E-02 3.30747E-02
 -1      5476 1.35509E+00 1.11348E+00 6.31660E-03 1.39151E+00 9.70299E-03 5.40480E-02
 -1      5477 1.91149E+00 1.66348E-01 1.77991E-02 8.00761E-01-1.88005E-02 2.13973E-02
 -1      5478 2.91846E-01 2.23159E+00 2.26444E-03-7.42401E-01 4.67117E-02-2.32072E-02
 -1      5479 1.93332E-01 3.46610E+00-2.08504E-02 1.03455E-01 3.65823E-02 3.02869E-02
 -1      5480 9.10335E-01 1.31261E+00-1.47079E-02-1.08542E+00 2.19833E-02-8.90780E-03
 -1      5481 2.36446E+00-4.78941E-02 3.16363E-02 4.14425E-01-5.22768E-02-3.91514E-03
 -1      5482 2.45916E+00 2.45365E-01 3.35331E-02 1.14387E+00-3.58031E-02-1.36141E-02
 -1      5483 2.81967E+00 7.67153E-01 4.45103E-04 1.82164E+00-3.28897E-02 5.61830E-02
 -1      5484 2.10252E+00 1.37569E+00-1.69169E-02 1.92756E+00-9.41151E-03 6.44065E-02
 -1      5485 1.02674E+00 3.28526E+00-6.55880E-03 2.21345E+00 1.52959E-02 2.31037E-02
 -1      5486 1.01004E+00 2.29324E+00-3.82092E-03 1.67987E+00 2.74385E-02 7.09966E-02
 -1      5487-2.02044E-01 1.93545E-01-5.95663E-02 6.52644E-01 4.37344E-02 1.84598E-03
 -1      5488 1.09916E+00 2.01884E+00-8.71459E-03-1.06363E+00 3.66835E-02-3.12134E-02
 -1      5489 3.93171E-01 3.20727E-01 9.20196E-03 5.27459E-01-7.32167E-04 4.25815E-03
 -1      5490 9.02102E-01 9.25409E-02-7.92826E-03 1.99751E-01-2.77256E-03-4.74114E-03
 -1      5491 3.00606E-01 4.06453E-01-1.45035E-02 1.33899E-01 1.27027E-02 1.44979E-02
 -1      5492-4.80246E-01 3.00479E-01 5.12977E-04-8.66702E-01-2.58843E-03-2.09308E-03
 -1      5493 2.18887E+00 1.04233E+00 7.72778E-03-5.76948E-01 6.18982E-03-2.15881E-02
 -1      5494 4.05775E-01-5.58814E-01 1.98305E-02 4.54193E-02-8.64761E-03 7.96465E-03
 -1      5495 1.93862E+00 8.18662E+00-1.53764E-01-1.63922E+00 3.14712E-01-2.79946E-01
 -1      5496 2.30323E-01 7.87120E+00-3.81193E-02 1.64602E+00 1.79625E-01 3.06033E-02
 -1      5497 1.30833E+00 6.00421E+00-1.18018E-01-9.96572E-01 2.02761E-01-9.06346E-02
 -1      5498 1.80712E+00 5.02987E-03 1.67286E-02 2.79827E-01-2.47711E-02-1.22728E-03
 -1      5499-1.27457E-01-5.65119E-01 2.27147E-03-8.28744E-01-5.95434E-03 1.67521E-02
 -1      5500-5.68817E-01 6.15798E-01 5.25804E-03-4.17681E-01 9.56639E-03-3.77449E-03
 -1      5501 2.13650E-01 5.53763E+00-6.54281E-02 7.70150E-01 1.03956E-01 6.76876E-03
 -1      5502 1.34129E+00 4.52461E+00-1.07462E-02-1.14849E+00 7.24415E-02-4.92237E-02
 -1      5503 2.43211E-01 4.41164E+00 1.75421E-02 3.11042E-01 5.58313E-02 2.14874E-02
 -1      5504 8.33730E-01 3.61570E+00-1.29352E-02-7.80588E-01 7.98274E-02-2.47471E-02
 -1      5505-8.42024E-01 1.38908E-01 7.73991E-03-5.23831E-01 2.59009E-03-6.18712E-03
 -1      5506-2.97585E-01 3.17258E-02 1.90163E-03 4.29446E-01 7.75211E-03-7.36887E-03
 -1      5507 8.35597E-01-5.11029E-01-2.76845E-03-4.37959E-01 5.12025E-03-7.43284E-03
 -1      5508 3.98828E-01-5.20801E-01 2.01017E-03-8.89290E-01 4.06307E-03-1.24339E-02
 -1      5509 3.33784E+00 2.26460E+00-5.67405E-04-6.91903E-01 1.56161E-02-4.73092E-02
 -1      5510 2.35672E+00 2.69512E+00-4.11354E-02-1.22901E+00 2.68167E-02-1.01316E-01
 -1      5511 2.20786E+00 2.00102E+00-1.24349E-02-1.00689E+00 3.08819E-02-2.39596E-02
 -1      5512 1.54093E+00 3.18312E-01 8.42901E-04-5.08673E-01 3.46013E-03-1.61644E-02
 -1      5513 4.26908E+00 3.47726E+00-1.44353E-02-1.02471E+00 1.67487E-02-4.12338E-02
 -1      5514 2.97194E+00 2.69654E+00-5.47132E-02 3.33166E+00 3.87321E-02 3.17906E-01
 -1      5515 2.84180E+00 3.98668E+00 3.56618E-03-1.46076E+00 4.86510E-02-1.48126E-01
 -1      5516 1.34321E+00 9.38569E-02-3.98457E-03 5.91060E-01-1.43883E-02-6.54971E-03
 -1      5517-5.15838E-01 3.29073E-01-4.32220E-04 3.01893E-01 2.91428E-03 3.88584E-04
 -1      5518 3.10819E+00 6.30627E-02 3.46807E-02 8.52375E-01-8.02784E-02-1.04877E-03
 -1      5519 1.02420E+00 4.70223E-01 6.65501E-04-9.18573E-01 1.11074E-02-1.65025E-02
 -1      5520 4.65804E+00 3.64442E-01 1.15279E-01 2.42806E+00-1.13557E-01 1.11657E-01
 -1      5521-9.48191E-01 5.74430E-02 4.25731E-03 1.96274E-01 4.43396E-03 1.39162E-03
 -1      5522 2.03400E+00 6.77651E-01 9.80668E-03 1.36666E+00-3.02617E-02 4.48147E-02
 -1      5523 5.85964E-01 2.11279E+00 1.32352E-02 1.22708E+00 3.22697E-02 1.57070E-02
 -1      5524 2.57641E+00 1.44741E+00-9.51795E-03-6.14605E-01 2.43049E-02-3.00581E-02
 -1      5525-2.45504E-01 6.84916E-01 2.78838E-03 4.27451E-01 4.85655E-03 2.80760E-03
 -1      5526 9.12568E-01 1.46920E-01 3.99303E-02-3.38488E-02 4.13164E-02 3.91973E-02
 -1      5527 2.77975E+00 3.17485E+00-4.44530E-02-1.21891E+00 5.33341E-02-1.02649E-01
 -1      5528 1.56347E+00 1.18998E+00-6.34938E-03-9.57520E-01 8.52254E-03-3.28697E-02
 -1      5529 1.25167E-01 1.32123E-01-3.74322E-03-1.09638E+00 1.24409E-02-1.10328E-02
 -1      5530 1.09888E-01-1.92407E+00 1.95616E-02-2.67697E-01-6.40755E-03-9.42400E-03
 -1      5531 8.05471E-01-7.91525E-02 4.21783E-03-8.04015E-01 5.58544E-03-6.50058E-03
 -1      5532 1.18508E-01-3.20289E-02 2.73232E-02-4.76581E-01-7.14526E-03-4.93945E-02
 -1      5533 5.28056E+00 5.77782E+00-1.66991E-01-1.96403E+00 1.53599E-01-3.14710E-01
 -1      5534 4.16943E-01 1.73039E+00-1.03899E-02 1.03515E+00 4.16498E-03 2.17517E-03
 -1      5535 4.33125E-01 2.90796E+00-1.05073E-02-7.05233E-01 3.63467E-02-2.11542E-02
 -1      5536-5.27168E-01 5.67911E-01-5.06290E-03 3.91970E-02 5.77450E-03 1.81462E-03
 -1      5537-1.91495E-01-1.85882E-01-7.77162E-03-4.02636E-01-7.02939E-03 4.84117E-03
 -1      5538-7.75502E-01 2.42919E-03 5.20884E-03 2.93974E-01 5.24354E-03-2.76360E-03
 -1      5539-2.36320E-01 3.52408E-01 2.78436E-02 5.25427E-01-3.51317E-02 6.10289E-02
 -1      5540 2.19900E+00 1.33185E-01 6.15454E-03 7.76441E-01-3.04156E-02 1.88156E-02
 -1      5541 3.00859E+00 5.01256E+00-5.30479E-02-1.62973E+00 1.17678E-01-1.22353E-01
 -1      5542 1.19022E+00-2.58614E-02 1.59816E-02 3.96792E-01-6.09747E-03-4.97936E-03
 -1      5543 1.17038E+00-1.43295E-01 3.10208E-02 1.78716E-01-1.30893E-02-3.04498E-02
 -1      5544 3.55407E-01 2.43396E-01 9.63893E-04 1.22559E-01-4.83696E-02 3.31434E-02
 -1      5545 2.44660E-01-5.45521E-02-1.51359E-02-1.88212E-01-2.04328E-02 2.85940E-02
 -1      5546 4.74851E-01 4.83128E-02-1.65637E-02 5.21318E-01 4.07110E-02 7.21040E-02
 -1      5547-4.06008E-01 1.07973E+00 4.45943E-03-3.42132E-01 1.57452E-02-3.37378E-03
 -1      5548 1.54231E+00 5.70972E-02 2.63961E-03 5.23667E-01-2.08712E-02 7.04528E-03
 -1      5549 1.72434E-01-3.40437E-02 4.93492E-03-2.57980E-01-1.37294E-02-2.52687E-03
 -1      5550 1.70999E-01-8.92128E-02 2.09692E-02 6.24521E-01-1.16574E-02-4.32380E-03
 -1      5551-6.00945E-01 9.36675E-03 3.21517E-03-2.10815E-01-9.03309E-03-8.61415E-02
 -1      5552 1.87422E+00 1.66308E+00-3.62014E-03-9.85831E-01 2.62019E-02-3.63579E-02
 -1      5553 3.90514E-01 3.45267E+00-1.62291E-02 1.05021E+00 5.80658E-02 3.14547E-02
 -1      5554 1.33296E+00 2.59283E+00-2.37537E-02-1.10286E+00 6.82088E-02-4.86157E-02
 -1      5555-2.92531E-02-3.02579E-01 4.20182E-03-1.07828E+00 3.45714E-03-4.50660E-03
 -1      5556-1.30325E-01 2.45700E-02-1.26126E-03 6.10086E-01 7.81453E-03-1.08328E-02
 -1      5557 1.41733E+00 7.45520E-01-4.55257E-03-8.43799E-01 2.17540E-02-2.47352E-02
 -1      5558-2.56696E-01-6.34184E-02-8.21757E-03-1.00378E+00-3.14328E-03 9.56503E-03
 -1      5559 1.56267E-01 2.87344E+00-2.82347E-02 8.13906E-01 3.69018E-02 9.00420E-03
 -1      5560 8.54674E-02 2.80007E+00-1.03106E-02 2.70983E-03 4.46088E-02-7.77176E-04
 -1      5561 9.21283E-01 2.02702E-01-1.99482E-02-4.45966E-02 3.62349E-02-1.86524E-02
 -1      5562 7.15436E-01-3.44879E-01-1.28005E-02 5.64962E-01 4.98633E-02-2.13796E-02
 -1      5563 1.68706E-01-1.36177E+00 7.87093E-03-6.09576E-01 5.43224E-03-1.08432E-02
 -1      5564 6.23959E-01 9.10105E-01-1.55857E-02-1.04330E+00 3.49457E-02-3.07930E-02
 -1      5565 1.87675E-01-1.76790E+00 1.14127E-02-1.46393E-01 3.93168E-03 5.48947E-03
 -1      5566 5.34802E-02-2.54020E+00 2.74002E-02-1.08846E-01-7.66155E-03-9.42653E-03
 -1      5567 4.87275E-02-2.34775E+00 1.15664E-02-1.87672E-01-1.20957E-02-7.09279E-03
 -1      5568 9.68102E+00 2.74097E+01 2.59907E-01 6.18915E-02 1.15515E+00-7.34302E-02
 -1      5569 5.01430E+00 1.16827E+01-1.66506E-01-2.42524E+00 7.65664E-01-3.55865E-01
 -1      5570 5.20622E+00 1.06428E+01-3.16491E-01 4.12621E+00 1.76362E+00-2.44827E-01
 -1      5571 1.29311E+00-2.37356E-02 2.41161E-02 2.82894E-01 2.62140E-02-6.59209E-02
 -1      5572 6.70973E-01-7.63910E-02-4.90019E-02 1.90530E-01-3.54511E-02-4.56674E-03
 -1      5573 7.14581E-01-1.38529E-02 1.31292E-02 1.68850E-01-1.50084E-02 1.08117E-02
 -1      5574 1.03162E+00-3.19497E-02 1.30378E-02 1.38896E-01 3.92078E-03 1.34479E-02
 -1      5575 1.12687E+00-1.40779E-01 6.81394E-03 2.21584E-01-4.37781E-03-1.98336E-02
 -1      5576 1.22346E+00-3.50849E-02-4.96055E-02 1.35798E-02 4.09932E-02 4.29317E-02
 -1      5577 1.39944E+00 1.85722E-01 3.85084E-02 1.36649E-01-3.42386E-02-6.46095E-02
 -1      5578 8.35774E-01 1.77024E-01-9.79913E-04-6.71081E-04 3.22073E-02 3.09571E-02
 -1      5579 1.49481E+00 2.33554E-01 1.94532E-02 1.70870E-01 3.06359E-02-7.27718E-02
 -1      5580 1.13628E+00 5.86496E-02 3.81620E-02 5.32324E-02-6.45699E-03-3.13885E-02
 -1      5581 5.63503E-02-1.19251E-02 1.60630E-02-1.12989E-01 9.70927E-03-6.94680E-03
 -1      5582-2.32664E-01 5.35637E-03 1.07481E-02-2.13208E-01-1.64866E-02 3.72143E-02
 -1      5583 2.15126E-01-1.81205E-01 1.86308E-02-3.09760E-02-2.63074E-02 3.29764E-02
 -1      5584 5.79445E-02 2.61341E-02 9.67090E-03-1.20054E-01 1.05972E-02 3.45501E-03
 -1      5585 7.56292E-02 2.83665E-01 1.13858E-02-2.13024E-01-1.29584E-03-2.23350E-02
 -1      5586 2.00047E-01-5.74978E-02-8.04901E-03-1.27065E-01-1.01836E-02 2.42690E-03
 -1      5587-9.11413E-02-9.37944E-02-3.86340E-02-1.38812E-01-3.08075E-03 8.27266E-04
 -1      5588-2.27033E-01-5.98467E-02-8.88407E-03-2.29613E-01 1.90031E-03 1.87325E-03
 -1      5589-5.96655E-02-2.49516E-01-1.94774E-02-2.37235E-01 9.17465E-03-8.63657E-03
 -1      5590-3.23223E-01 5.57145E-01-7.21171E-03 5.02465E-01 5.72117E-02-6.81275E-02
 -1      5591 1.09446E-01 3.20206E-02-6.49361E-02 5.65809E-01 1.39484E-01 7.57557E-02
 -1      5592 5.21702E-02 4.36759E-01 3.96361E-02 4.95653E-01-2.61132E-02-4.27502E-03
 -1      5593-2.26448E-01 6.87534E-01 9.55953E-02-3.08405E-02-3.46901E-02-4.61470E-02
 -1      5594-7.25525E-01 2.75003E-02-3.20817E-02 1.96160E-01 1.44626E-01-1.13888E-01
 -1      5595 7.71212E-01 6.01369E-01-3.75400E-04 6.89005E-01 9.72579E-02 6.46894E-02
 -1      5596-7.43032E-01-5.91619E-01-3.26670E-03-2.64687E-01 6.16767E-03 1.88820E-03
 -1      5597 4.66690E-01 1.21802E-01 3.26532E-03 6.25238E-01-4.53457E-02-8.72776E-02
 -1      5598-1.03170E-01 1.55708E-01 5.11256E-02 2.33162E-01-2.78910E-02 3.40317E-02
 -1      5599 9.83216E-01 2.31314E-01-2.40376E-02 5.16281E-01-5.02831E-02-9.90925E-02
 -1      5600 7.48746E-01-1.70186E-01-2.84003E-03 5.72258E-01-1.14815E-02-1.66251E-01
 -1      5601 4.71889E-01-7.35075E-02-3.77528E-02 5.50627E-01 2.23956E-02 5.42646E-02
 -1      5602 8.91811E-01 5.63755E-01-3.72806E-02 5.28070E-01-2.24764E-02-1.71736E-02
 -1      5603-1.97419E-01-6.06389E-01-7.77929E-02 5.91329E-01 5.36104E-02-4.52748E-02
 -1      5604-1.89673E-01 4.00102E-01 6.26353E-02 3.80148E-01-1.28423E-01 1.32243E-02
 -1      5605-4.18953E-01-2.37712E-01 9.31515E-03 5.59763E-01-6.54622E-02 8.98832E-02
 -1      5606 6.10381E-01 5.68481E-01-2.03792E-02 1.29714E+00-5.96338E-02-3.69359E-02
 -1      5607-2.43607E-01 3.86291E-01-5.63746E-02 8.10588E-01-9.34180E-02-4.49757E-02
 -1      5608 1.40332E-01 1.89265E-01 8.24042E-03 1.02488E+00-2.01071E-02-2.93124E-02
 -1      5609-2.00601E-01 5.32915E-01-1.67634E-02 8.05786E-01-5.94701E-02 5.04151E-03
 -1      5610-1.16520E-01 4.26683E-01 4.12952E-02 7.43861E-01-1.31064E-02 3.19663E-02
 -1      5611 4.18177E-01-4.24574E-01-1.38438E-01 6.44814E-01 7.04614E-03 5.37679E-02
 -1      5612 3.18890E-01 3.05397E-01-1.05574E-01 1.07635E+00 2.02670E-02-3.89809E-02
 -1      5613 4.80515E-02-8.38102E-01 2.98974E-03-1.87214E-01-2.81269E-02-1.72022E-02
 -1      5614 6.63135E-01-8.07850E-01 1.84337E-02 1.71248E-01 4.41435E-02 5.44447E-02
 -1      5615 7.40532E-01-3.93452E-01 2.55990E-02 6.03876E-01-1.13062E-02 6.44034E-03
 -1      5616-9.63270E-02 5.11690E-02-6.77596E-02 7.05588E-01 1.67514E-02-3.81175E-03
 -1      5617 3.79833E-01-3.24380E-01 5.02313E-02 3.78768E-01-4.56355E-02-2.56528E-02
 -1      5618 5.76549E-01-9.54873E-01 6.63676E-03-2.21264E-01 2.27533E-03-1.62781E-03
 -1      5619 3.45084E-01-1.34987E+00 9.74580E-03-1.98742E-01 5.74621E-03-7.96593E-03
 -1      5620 2.59648E-01-1.51288E+00 5.34147E-03-3.40070E-01 3.26714E-04-1.18550E-02
 -1      5621 9.97391E-01-4.10749E-01 8.69570E-03-2.33828E-01 7.44153E-03-8.16082E-03
 -1      5622 7.79358E-01-6.67283E-01 7.80738E-03-2.14018E-01 5.83158E-03-9.95967E-03
 -1      5623 6.17799E-01-8.12488E-01-6.38425E-03-4.31929E-01 3.62353E-03-1.54074E-03
 -1      5624 1.40628E+00 1.24323E-02 6.68955E-03-2.45315E-01 5.81145E-03-6.81282E-03
 -1      5625 1.18613E+00-2.01848E-01 1.13615E-02-2.22737E-01 7.41626E-03-1.86665E-02
 -1      5626 1.00228E+00-2.90366E-01-1.47076E-02-4.42584E-01 7.23850E-03-1.07429E-02
 -1      5627 1.72864E+00 3.69533E-01 3.75663E-03-2.76844E-01 5.28685E-03-4.49981E-03
 -1      5628 1.55703E+00 1.84226E-01 5.71733E-03-2.51302E-01 7.47767E-03-9.20156E-03
 -1      5629 1.38338E+00 1.24016E-01-7.14840E-03-4.87581E-01 5.46344E-04-8.34211E-03
 -1      5630 2.10359E+00 7.24419E-01 7.93350E-03-2.97045E-01 6.66407E-03-1.26034E-03
 -1      5631 1.90814E+00 5.35259E-01 1.25655E-02-2.67919E-01 9.57887E-03-1.53085E-02
 -1      5632 1.66531E+00 4.98872E-01-8.17217E-03-5.25190E-01 1.14136E-02-1.93245E-02
 -1      5633 2.43362E+00 1.07857E+00 1.25148E-02-3.18248E-01 1.37504E-02-2.21855E-03
 -1      5634 2.25025E+00 8.91459E-01 8.83768E-03-2.89722E-01 1.34843E-02-1.21249E-02
 -1      5635 2.02870E+00 8.47119E-01-1.44181E-02-5.63919E-01 2.43095E-03-1.60657E-02
 -1      5636 2.80233E+00 1.48857E+00 1.94610E-02-3.47949E-01 1.51295E-02-1.96076E-02
 -1      5637 2.61704E+00 1.27593E+00 1.18992E-02-3.08461E-01 1.81901E-02-2.36255E-02
 -1      5638 2.32749E+00 1.22907E+00-1.90735E-02-5.93056E-01 1.60645E-02-3.86899E-04
 -1      5639 3.22783E+00 1.87155E+00 1.34295E-02-3.57307E-01 2.46651E-02-5.23837E-03
 -1      5640 2.98926E+00 1.65336E+00 9.26967E-03-3.17656E-01 2.32189E-02-3.32651E-02
 -1      5641 2.73329E+00 1.64203E+00-1.50721E-02-6.09699E-01 1.73021E-02-3.89614E-02
 -1      5642 3.63384E+00 2.33127E+00 2.24338E-02-3.81944E-01 1.02401E-02-1.36946E-02
 -1      5643 3.40259E+00 2.05598E+00 1.37826E-02-3.40486E-01 2.38741E-02-3.00546E-02
 -1      5644 3.12112E+00 2.06321E+00-3.23129E-02-6.62519E-01 3.31235E-03-2.43857E-02
 -1      5645 4.12690E+00 2.87204E+00 5.31886E-03-4.78118E-01 3.16632E-02 1.22817E-02
 -1      5646 3.81538E+00 2.56092E+00-1.15250E-02-4.07999E-01 1.49688E-02-2.72847E-02
 -1      5647 3.50066E+00 2.53746E+00 1.44324E-03-7.72511E-01 7.36044E-03-3.36268E-02
 -1      5648 4.71594E+00 3.53918E+00 1.30075E-02-5.83568E-01 5.72417E-03 3.96899E-03
 -1      5649 4.39298E+00 3.16157E+00 9.25469E-03-4.97374E-01 2.81330E-02-2.73075E-02
 -1      5650 3.94446E+00 3.16215E+00-2.32355E-02-9.24432E-01 1.27297E-02-8.27084E-03
 -1      5651 5.47956E+00 4.47322E+00 1.02208E-03-8.20128E-01 1.68507E-02 2.17273E-04
 -1      5652 5.06541E+00 3.99554E+00 2.63381E-02-6.51574E-01 4.04370E-02-2.33663E-02
 -1      5653 4.33975E+00 3.90993E+00-7.67157E-02-1.16317E+00 6.05983E-02-9.22316E-02
 -1      5654 6.56188E+00 5.57683E+00 2.97211E-02-1.30301E+00-3.76842E-02-6.84979E-02
 -1      5655 5.96981E+00 5.18047E+00 9.48550E-02-8.83272E-01 1.08512E-01-2.11744E-02
 -1      5656 4.91398E+00 4.92312E+00-1.75836E-01-1.50975E+00 9.94592E-02-1.44577E-01
 -1      5657 7.16969E+00 8.45624E+00 1.84941E-01-1.74173E+00 4.25667E-01-8.01031E-02
 -1      5658 4.86439E+00 8.56710E+00-4.83065E-01-2.33811E+00 1.61119E-02-2.58529E-01
 -1      5659 5.22227E+00 4.94399E-01 6.39641E-01 1.47353E+00 1.29551E-01-7.75496E-02
 -1      5660 5.41387E+00-1.09499E+00 2.10667E-01 3.30313E+00-8.23187E-01 4.18578E-02
 -1      5661 4.12761E+00 1.13613E+01 3.81007E-01 5.67489E+00 8.75358E-01 5.41160E-02
 -1      5662 3.61899E+00 1.59841E-01 1.76371E-01 8.97846E-01 3.30542E-02 2.44678E-02
 -1      5663 3.84168E+00 3.66367E-01 2.07531E-01 1.11837E+00 9.72763E-02-2.81720E-02
 -1      5664 5.37252E+00 2.44445E-01 5.29184E-01 3.14754E+00 3.38207E-01-3.73809E-02
 -1      5665 2.69787E+00 1.00589E-02 8.82475E-02 3.85543E-01-3.40591E-02-1.52386E-02
 -1      5666 2.83649E+00-2.31198E-02 3.04158E-02 4.25189E-01-3.50633E-02-4.86176E-02
 -1      5667 4.00634E+00 2.09123E-01-2.55567E-02 1.48072E+00-1.06907E-01 1.18505E-01
 -1      5668 2.27819E+00 8.20057E-03 2.08326E-02 3.37968E-01-9.99707E-03 2.57336E-02
 -1      5669 2.44531E+00 6.30439E-02 4.17970E-02 4.10232E-01 6.46980E-03 2.19425E-03
 -1      5670 3.39320E+00-1.01143E-01 3.13374E-02 8.70013E-01-8.25443E-02-2.30486E-02
 -1      5671 1.95875E+00-4.73911E-03 3.80652E-02 1.88889E-01-1.12712E-02 1.00120E-03
 -1      5672 2.01670E+00-4.53311E-03-3.28254E-03 1.83552E-01-8.73194E-03-1.11322E-02
 -1      5673 2.60763E+00-4.98586E-02 1.62665E-02 5.64284E-01-4.71084E-02-5.94650E-03
 -1      5674 1.72665E+00 3.98012E-03 1.34167E-02 1.39782E-01-1.75507E-03 2.14616E-03
 -1      5675 1.78936E+00 1.81940E-02 1.78958E-02 1.68158E-01 3.03161E-04-7.89329E-03
 -1      5676 2.22345E+00 3.05989E-04-3.36764E-03 3.72842E-01-4.45529E-02-1.37631E-03
 -1      5677 1.56193E+00 4.62657E-04 2.65582E-02 1.27775E-01-5.48964E-03 2.64588E-03
 -1      5678 1.63950E+00 1.74091E-03 2.50425E-03 1.27027E-01 8.12632E-04-6.06339E-03
 -1      5679 1.95325E+00-1.13781E-02 1.45051E-02 3.01443E-01-8.35298E-03-1.75150E-02
 -1      5680 1.36049E+00 2.00850E-03 4.99048E-03 1.01263E-01-1.75837E-03 9.36196E-04
 -1      5681 1.43151E+00 1.23702E-02 7.66426E-03 1.21160E-01 7.14906E-05-4.01013E-03
 -1      5682 1.68879E+00 7.63253E-04 3.93900E-03 2.50022E-01-2.20613E-02 2.34978E-03
 -1      5683 1.12071E+00-9.57870E-03 1.50110E-02 1.22419E-01-1.98384E-03 5.15192E-03
 -1      5684 1.24616E+00-1.54017E-03-1.90787E-03 1.18908E-01-2.15835E-04-6.13923E-03
 -1      5685 1.43042E+00-1.39156E-02 5.68443E-03 2.34489E-01-7.74581E-03-1.01158E-02
 -1      5686 1.17346E+00-3.74539E-02 1.64660E-02 2.44505E-01-1.06045E-02 5.10365E-03
 -1      5687 1.21703E+00-1.34902E-01 2.60193E-02 3.53094E-01 3.06994E-02-1.73971E-03
 -1      5688 7.93179E-01-1.50023E-01 9.73901E-03 2.16917E-01 5.31798E-02 6.57625E-04
 -1      5689-2.17755E-01 7.77802E-02 2.76712E-02-4.33946E-03-1.88885E-02-2.86490E-03
 -1      5690 3.70203E-01 1.11046E-01 2.22638E-02-9.86648E-02-3.89721E-02 2.33291E-02
 -1      5691 1.90449E-01-2.21110E-01-4.79436E-02 3.37460E-01-3.94930E-04 4.34464E-02
 -1      5692 4.30705E-01 2.79179E-02-6.39553E-04 1.44558E-01 8.23458E-03 2.62515E-02
 -1      5693 7.93470E-02 2.86426E-01-3.25782E-02-3.04169E-01-1.38091E-02-1.30513E-02
 -1      5694-5.34075E-02 6.72586E-01-1.33727E-02-1.79416E-01-1.85493E-02-5.13168E-02
 -1      5695-2.18584E-01 5.24392E-03-8.20070E-03-4.09624E-01 4.16046E-03-8.78007E-02
 -1      5696 1.46232E-01-7.32732E-02-2.96570E-02-3.73060E-01-3.52846E-02-3.65363E-04
 -1      5697-1.62399E-01-1.75818E-02-2.82709E-05 3.44590E-01 8.33136E-03 1.56443E-02
 -1      5698 1.56389E-01-1.06084E-01-1.73990E-02 2.24949E-01-4.62735E-03-2.07952E-03
 -1      5699 3.11099E-01-1.86456E-01 1.02982E-02 1.99462E-02 3.56679E-03 1.98336E-02
 -1      5700 3.09698E-01-2.73698E-01 1.64405E-02-1.40787E-01-3.94531E-03 1.82107E-02
 -1      5701-6.32257E-01 7.50663E-02-1.25580E-03 3.44416E-01 3.12667E-02-7.32648E-03
 -1      5702-2.60022E-01 5.32949E-02 1.07147E-02 4.24237E-01 1.21287E-02-3.55228E-03
 -1      5703-1.18890E+00 1.70317E-03 1.53206E-02 1.49944E-01-1.69867E-03-7.66640E-03
 -1      5704-9.90186E-01 1.98478E-03 4.65855E-03 1.59917E-01 2.86933E-03-9.45288E-03
 -1      5705-7.38937E-01 2.67367E-02-3.39618E-03 2.34934E-01 6.76923E-03-1.61690E-02
 -1      5706-2.36124E-01 9.60616E-02-7.69003E-03 5.07946E-01 3.07665E-02-4.66359E-04
 -1      5707-5.39789E-01 1.27220E-02 2.41148E-03 3.65500E-01 5.84183E-03-8.82555E-04
 -1      5708-1.36941E+00 3.02948E-02 4.38822E-03 9.49117E-02 3.99731E-03 1.59305E-03
 -1      5709-1.26388E+00 2.51763E-02 1.00161E-02 1.17902E-01 1.15498E-03-1.86095E-03
 -1      5710-8.82404E-01 1.97015E-02-2.47059E-03 2.53407E-01 3.16666E-03 6.49056E-04
 -1      5711-1.27038E+00 8.92449E-02 7.59999E-03-1.01809E-01 3.04179E-03 9.27808E-03
 -1      5712-1.33807E+00 7.92535E-02 1.39074E-02-3.25579E-02 4.94325E-03 2.47902E-03
 -1      5713-9.70775E-01 1.18705E-01 1.47412E-03 6.20243E-02-2.67510E-04 1.22420E-03
 -1      5714-9.47341E-01 5.38608E-02 1.28406E-02-3.25701E-01-6.08133E-03 1.74320E-03
 -1      5715-1.22218E+00 7.42565E-02 1.51955E-02-2.74769E-01 3.50611E-03 6.65883E-03
 -1      5716-9.24326E-01 1.55233E-01-2.69034E-03-3.25045E-01 1.24854E-03 2.92080E-03
 -1      5717-4.20612E-01-5.18184E-02-5.37544E-03-4.02804E-01-1.20915E-02-1.09806E-02
 -1      5718-7.61154E-01-3.55295E-03-1.57323E-03-4.36205E-01 5.12066E-03-4.49504E-03
 -1      5719-6.75872E-01 4.23015E-02 1.21254E-02-6.52865E-01-2.85478E-03-5.58275E-03
 -1      5720-3.50493E-01-9.91070E-02 8.17840E-04-5.78020E-01-9.81042E-03 5.46087E-03
 -1      5721-4.27855E-02-1.03226E+00 3.97330E-03-5.10387E-01-2.09668E-02-6.31198E-05
 -1      5722-8.35199E-02-4.57811E-01 1.32794E-02-4.17326E-01-4.21611E-03 2.09722E-02
 -1      5723-1.51859E-01-3.80983E-01 7.51833E-03-6.24330E-01 6.51086E-04 1.04306E-02
 -1      5724 4.83751E-02-1.92832E+00 3.30668E-03-4.17556E-01-1.08629E-02-2.98831E-03
 -1      5725 1.74621E-02-1.35671E+00-6.06920E-03-4.81395E-01-1.95198E-02 2.64026E-03
 -1      5726-1.48309E-02-7.98201E-01 1.08330E-02-8.49343E-01-1.92028E-02-9.07155E-03
 -1      5727 7.60139E-02-2.02526E+00 8.81712E-03-3.68078E-01 1.53367E-04-4.08691E-04
 -1      5728 9.18318E-02-1.25550E+00-4.01520E-04-6.98363E-01 7.02013E-03-3.44416E-03
 -1      5729 1.46000E-01-1.62786E+00 1.76352E-02-4.40513E-01-7.93431E-05-1.54515E-02
 -1      5730 7.48484E-01 3.60839E-01-5.80843E-02 3.40589E-01 6.08931E-03-1.25698E-02
 -1      5731-1.27762E-01-5.65310E-02-2.68500E-02 2.50753E-01-1.11705E-02 2.21308E-02
 -1      5732 5.33666E-01 2.26775E-01-7.80312E-03 7.42473E-02 1.53174E-02 2.55820E-02
 -1      5733 1.74084E-01-2.28766E-01 6.74005E-02 2.04093E-01 4.50553E-02-9.80404E-03
 -1      5734 3.77987E-02 4.42794E-01 2.59309E-02 3.07145E-01-1.89839E-02 2.99698E-02
 -1      5735 1.55783E-01 2.80744E-01 4.73906E-02 6.92540E-01 4.00500E-02 3.89972E-02
 -1      5736-1.27832E-01-5.48107E-01 6.88376E-02-3.88544E-01 2.65266E-02-4.50684E-02
 -1      5737 2.39966E-01-4.57385E-01-2.79580E-02-2.32221E-01 6.08470E-02 3.42802E-04
 -1      5738 3.57768E+00 6.10449E+00-1.04864E-01-1.69239E+00 1.57613E-01-2.41072E-01
 -1      5739 3.81889E+00 7.38637E+00 4.10601E-02-2.11752E+00 2.50907E-01-4.56500E-01
 -1      5740 2.52644E+00 6.25604E+00-1.53027E-01-1.72120E+00 1.94815E-01-2.08358E-01
 -1      5741 3.95234E+00 4.74444E+00-3.50899E-02-1.59334E+00 7.76807E-02-1.63994E-01
 -1      5742 3.64330E+00 4.18434E+00-1.77061E-02-1.38490E+00 8.70949E-02-8.18159E-02
 -1      5743 2.86091E+00 2.50708E+00-5.42598E-03-1.03061E+00 2.04688E-02-8.00602E-02
 -1      5744 2.65698E+00 2.22973E+00-2.65235E-02-9.53020E-01-1.21833E-02-5.57316E-02
 -1      5745 2.20732E+00 2.33236E+00-3.43293E-02-1.11191E+00 7.84997E-03-5.28772E-02
 -1      5746 2.56606E+00 1.93603E+00-1.34660E-02-8.51489E-01 1.95668E-02-4.80954E-02
 -1      5747 2.43314E+00 1.70339E+00-1.03240E-02-8.29324E-01 3.27159E-02-2.61417E-02
 -1      5748 1.89675E+00 1.12388E+00 4.35889E-03-8.00057E-01 7.76412E-03-3.00734E-02
 -1      5749 1.76083E+00 9.22129E-01-2.20475E-03-7.50631E-01-2.28169E-03-2.61854E-02
 -1      5750 1.62516E+00 7.35257E-01-9.72196E-03-7.08185E-01 1.04270E-02-3.62421E-02
 -1      5751 1.48271E+00 5.31935E-01-2.52036E-03-6.79691E-01 1.76418E-02-2.44057E-02
 -1      5752 1.49530E+00 9.73790E-01 3.31423E-03-9.02665E-01 7.95970E-03-2.71976E-02
 -1      5753 2.41445E+00 1.16687E-01 4.32051E-02 7.26002E-01-2.28466E-02-6.37202E-03
 -1      5754 2.53387E+00 1.38499E-01 2.79146E-02 8.21010E-01-4.89190E-02 3.35815E-02
 -1      5755 2.20162E+00 6.85508E-02 2.09329E-02 5.70247E-01-8.39139E-03-1.65437E-02
 -1      5756 2.38772E+00 2.05199E-01 2.56510E-02 9.53351E-01-1.80867E-02-1.74723E-02
 -1      5757 2.03567E+00 8.96570E-02 2.83853E-02 5.26309E-01-3.58301E-02 5.82697E-03
 -1      5758 3.79364E+00 1.14974E+00 8.17451E-02 2.39863E+00 5.53333E-02 7.32992E-02
 -1      5759 3.43084E+00 8.43270E-01 1.35196E-02 2.17741E+00-3.45444E-02 4.21787E-02
 -1      5760 4.05003E+00 2.01278E+00 2.30527E-01 3.35905E+00-7.98148E-02 1.35155E-01
 -1      5761 4.91573E+00 5.89110E+00 2.83668E-01 5.87531E+00-3.71584E-01 2.27687E-01
 -1      5762 1.41048E+00 1.12766E+01-2.52277E-01 3.03911E+00 6.80255E-01-1.91696E-04
 -1      5763 9.81565E-01 8.09093E+00-3.71320E-01 1.44251E+00-1.78799E-01 6.62297E-02
 -1      5764 2.09814E+00 1.06157E+01-1.52318E-01-1.52826E+00 2.72313E-01-2.00224E-01
 -1      5765 1.42765E+00 2.09989E-02 7.49042E-03 3.71008E-01-2.33936E-02-2.14716E-03
 -1      5766 1.57464E+00 2.01454E-02 6.38570E-03 3.88786E-01-7.58330E-03-9.02992E-03
 -1      5767 1.15305E+00-5.91416E-02 7.19962E-03 3.03717E-01-7.67271E-03-3.75210E-03
 -1      5768 1.24002E+00-1.72126E-02 2.31536E-02 3.41909E-01-1.34216E-02 4.27710E-03
 -1      5769 1.34972E+00 2.67043E-02 4.99373E-03 4.13193E-01-2.51084E-02-8.47269E-03
 -1      5770 1.25876E+00 4.35233E-02 1.11130E-02 4.93529E-01-9.56510E-03-1.13288E-02
 -1      5771 1.45138E+00 8.16555E-02 5.88627E-03 5.59609E-01-2.25223E-02 6.46817E-03
 -1      5772 1.00720E+00-7.31982E-02 6.57955E-04-6.39853E-01 5.74889E-03-1.71107E-02
 -1      5773 8.57531E-01-2.96191E-01 3.39653E-03-6.32226E-01 5.92697E-03-8.56505E-03
 -1      5774 1.30913E+00 4.20024E-01 5.82102E-03-7.47857E-01 1.47998E-02-1.33779E-02
 -1      5775 1.16073E+00 1.97755E-01 6.10591E-03-7.00196E-01 2.94857E-03-7.17890E-03
 -1      5776 9.19688E-01 1.98228E-01 1.21704E-02-8.64190E-01 3.34110E-03-9.98681E-03
 -1      5777 3.33145E+00 3.03742E+00 6.84806E-03-1.10528E+00 1.47664E-02-7.96349E-02
 -1      5778 3.06840E+00 2.64948E+00-2.98628E-02-9.70391E-01 3.16559E-02-9.50904E-02
 -1      5779 3.57674E+00 3.79440E+00 9.88223E-03-1.36682E+00 2.21659E-02-5.73600E-02
 -1      5780 3.22076E+00 3.30303E+00-2.28716E-02-1.18478E+00 1.84350E-02-9.91432E-02
 -1      5781 2.71812E+00 3.56713E+00-3.04923E-02-1.38212E+00 7.05286E-02-1.01488E-01
 -1      5782-7.28221E-01 4.27930E-01 1.59044E-02-2.45441E-01 1.01442E-02-1.69304E-03
 -1      5783-6.79436E-01 3.73155E-01 3.89243E-03-4.80538E-01 9.18900E-03 1.36780E-03
 -1      5784-5.69639E-01 5.84394E-01-6.26287E-03-1.78743E-01 9.08723E-03 1.47786E-03
 -1      5785-7.27380E-01 3.77837E-01 1.99646E-04-3.93030E-02 2.66860E-03-3.97302E-03
 -1      5786-7.07985E-01 2.92512E-01 1.47955E-02 8.57836E-02 6.28788E-04 1.43132E-03
 -1      5787-7.28146E-01 1.84124E-01-1.38334E-03 2.52458E-01 1.39239E-04 4.58996E-03
 -1      5788-5.28838E-01 4.43079E-01-4.80853E-03 1.72961E-01 5.19660E-03 2.32523E-03
 -1      5789 3.69951E+00 2.93958E+00-1.49531E-01 4.01360E+00-1.20475E-01 2.08895E-01
 -1      5790 9.01187E-01 7.73273E+00-1.93297E-01 2.89225E+00 1.21634E-01 2.22697E-01
 -1      5791 9.55069E-01 8.06910E+00-2.06407E-01 1.23216E-01 2.18281E-01-1.27528E-01
 -1      5792 2.37019E+00 3.93127E+00-1.35279E-01 4.04752E+00 4.41234E-02 1.25546E-01
 -1      5793 2.04826E+00 6.11656E+00 3.27327E-01 3.02175E+00-1.11108E-02 1.30171E-01
 -1      5794 1.02244E-01 1.09817E-01-8.64505E-03 8.83086E-01-3.24944E-04-1.41816E-02
 -1      5795 3.46680E-02 2.41679E-01 1.93534E-03 8.79352E-01-1.21880E-02 9.56755E-03
 -1      5796 8.61578E-02 7.45362E-02-8.31119E-03 7.58744E-01 3.86462E-03-1.31307E-02
 -1      5797-3.89307E-02 9.76892E-02 5.93209E-04 7.18785E-01 1.30201E-03-9.26190E-03
 -1      5798 2.89895E-02 5.00438E-02-9.44299E-03 6.38829E-01-1.46567E-02-2.16575E-02
 -1      5799-1.88584E-01 1.85469E-02 4.00522E-03 5.16819E-01 1.74978E-03-5.92173E-03
 -1      5800 1.31033E-01 2.98553E-01 6.05552E-03 8.17942E-01-5.43240E-03-3.06015E-03
 -1      5801 1.25533E-01 3.73791E-01 7.36110E-03 8.48247E-01-3.47618E-03 2.07355E-03
 -1      5802 2.91031E-01 3.49744E-01-4.36975E-03 6.77769E-01-2.33633E-04 1.37830E-02
 -1      5803 1.48594E-01 3.84843E-01 1.73658E-02 7.24598E-01-6.46643E-03 5.39540E-03
 -1      5804 8.42681E-02 3.81022E-01 1.58292E-02 5.44662E-01-2.87118E-02 1.77343E-02
 -1      5805-3.55542E-02 2.90703E-01 2.73663E-03 7.35529E-01 1.98740E-03-1.20101E-03
 -1      5806 4.70504E-02 3.83269E-01-2.84493E-03 7.34421E-01 2.09111E-03-8.38410E-04
 -1      5807-1.59163E-01 1.56352E-01 4.67222E-04 6.53745E-01 1.70906E-03-4.31538E-03
 -1      5808-2.38908E-01 2.56814E-01 9.90215E-04 5.71750E-01 3.21453E-03-2.99918E-03
 -1      5809-2.67635E-01 6.84272E-02-2.15719E-03 5.59143E-01 9.79068E-03-5.44134E-03
 -1      5810 1.50485E-02 5.44791E-01 3.44675E-03 6.76220E-01-1.44653E-03 5.19475E-03
 -1      5811 1.99382E-01 5.28779E-01 6.89940E-03 7.77300E-01 1.23423E-03 5.04361E-03
 -1      5812 3.60306E-01 5.46847E-01 1.16805E-03 7.71200E-01 5.64329E-03 8.85312E-03
 -1      5813 4.01256E-01 4.15139E-01 2.19817E-03 7.76533E-01-5.88170E-03 7.28024E-03
 -1      5814 5.46841E-01 3.70563E-01 1.24778E-02 6.47504E-01-6.57208E-03-6.13611E-04
 -1      5815 5.57685E-02-6.85338E-01 1.99501E-02-9.57133E-01-1.55039E-02-4.44194E-03
 -1      5816-9.49969E-02-4.46026E-01-1.59292E-02-9.65069E-01-9.46125E-03 4.56843E-03
 -1      5817 1.83681E-01-8.32237E-01 3.93043E-04-8.55262E-01-4.26939E-03 7.77591E-04
 -1      5818 1.75923E-01-4.00205E-01 7.18811E-04-1.00486E+00 4.44838E-03 3.93796E-03
 -1      5819 2.92164E-01-9.35696E-01 9.60494E-03-7.45242E-01 2.79332E-03-1.24865E-02
 -1      5820-4.94765E-01 1.05201E-01 4.65084E-03-7.97625E-01-6.13929E-03 1.86329E-02
 -1      5821-6.49852E-01 2.52307E-01 9.62875E-03-6.97846E-01 4.17267E-03 1.28367E-02
 -1      5822-3.75717E-01-5.51427E-02-1.73824E-03-8.61454E-01-1.81377E-03 2.03492E-02
 -1      5823-3.58433E-01 1.05794E-01-8.75923E-03-9.31430E-01-7.76384E-03 2.56103E-03
 -1      5824-2.81008E-01-2.73176E-01 5.14649E-03-7.72183E-01-9.42343E-03 2.25042E-02
 -1      5825-1.85013E-01-3.01579E-01-3.51638E-03-9.40768E-01-1.06428E-02 1.10470E-02
 -1      5826-1.75652E-01 5.55555E-01 6.47537E-03 5.37923E-01 2.19310E-03 1.11988E-03
 -1      5827-6.05189E-02 7.00100E-01 4.62606E-03 5.69937E-01 6.12952E-03 1.08180E-02
 -1      5828-4.47101E-01 2.36677E-01-1.27286E-03 4.02084E-01 6.93920E-04-2.48203E-04
 -1      5829-3.06383E-01 3.79732E-01 2.94319E-03 4.69997E-01 1.37775E-03-6.31561E-03
 -1      5830-3.87283E-01 4.96810E-01-2.58161E-03 3.60360E-01 3.84931E-03-1.11372E-03
 -1      5831 2.98523E-01 7.80243E-01 6.81371E-03 7.87128E-01 3.89682E-03 2.12019E-02
 -1      5832 5.64763E-01 6.34860E-01 1.01145E-02 8.31991E-01 3.92797E-03 1.81228E-02
 -1      5833 7.19868E-02 9.14480E-01 1.48694E-02 6.29019E-01 6.44387E-03 9.49013E-03
 -1      5834 1.74900E-01 1.01409E+00 8.42135E-03 6.94744E-01 9.77340E-03 1.48232E-02
 -1      5835-1.59341E-01 8.69081E-01-5.58564E-03 4.71412E-01 4.59737E-03 8.53968E-03
 -1      5836 7.64760E-01 6.63594E-01 5.10769E-03 8.99775E-01 3.91304E-03 9.32067E-03
 -1      5837 8.20688E-01 4.04144E-01-6.55233E-03 8.15955E-01-8.17549E-03 3.82487E-03
 -1      5838 1.03482E+00 2.80471E-01 1.46649E-02 7.09669E-01-3.85089E-03-9.41854E-03
 -1      5839 7.91262E-01 2.88170E-01-1.57338E-03 6.62668E-01-1.12457E-02 8.40585E-04
 -1      5840 6.83326E-01 2.17359E-01 2.75245E-03 5.21034E-01-4.84436E-03-2.63575E-03
 -1      5841 2.82439E-02 1.32072E+00-2.86512E-03 6.07261E-01 9.84286E-03 8.67828E-03
 -1      5842 3.40411E-01 1.31235E+00 1.16298E-02 8.10745E-01 9.13609E-03 1.63825E-02
 -1      5843 4.49826E-01 1.34212E+00-5.59811E-03 9.10013E-01 1.75069E-02-1.44399E-03
 -1      5844 6.45392E-01 9.55422E-01 1.10914E-02 9.93194E-01 1.25652E-02 1.36299E-02
 -1      5845 9.80580E-01 7.12091E-01 1.42401E-02 9.96051E-01 4.16764E-03 2.17345E-02
 -1      5846-1.65437E-01 1.26430E+00 3.49928E-03 3.24129E-01 1.88477E-02 8.85966E-03
 -1      5847-8.71524E-02 1.59701E+00 1.66447E-03 3.72493E-01 2.75266E-02 3.41307E-03
 -1      5848-2.36606E-01 1.05891E+00 4.97572E-03 2.84632E-01 1.14874E-02 2.45346E-03
 -1      5849-3.40614E-01 1.19018E+00-1.46754E-02 5.48668E-02 1.33003E-02-2.13745E-04
 -1      5850-3.20567E-01 8.40774E-01 5.94679E-03 2.50780E-01 2.88873E-03 3.38201E-03
 -1      5851-1.82435E-01 1.78934E+00 1.54297E-02-6.77143E-03 2.33496E-02-5.44899E-03
 -1      5852-3.48825E-02 1.87189E+00-7.10291E-03 3.26774E-01 5.35605E-02 3.76301E-03
 -1      5853 1.54173E-02 2.18298E+00 9.28277E-03 2.40159E-01 5.56715E-02 3.00720E-02
 -1      5854 1.00484E-01 1.88799E+00-1.37685E-02 6.72569E-01 2.93244E-02 1.11882E-02
 -1      5855 2.51171E-01 1.97803E+00-2.24007E-03 8.64539E-01-2.82210E-03 2.26925E-03
 -1      5856 2.48810E-01 1.67056E+00 5.98565E-04 8.37434E-01-5.06600E-03 9.59962E-03
 -1      5857 6.75580E-01 1.44202E+00 2.67520E-02 1.08594E+00 8.77417E-03 1.93488E-03
 -1      5858-2.92307E-01 1.40177E+00-1.13498E-02-2.55549E-01 3.10002E-02 9.02589E-03
 -1      5859-2.08921E-01 1.75028E+00 5.60153E-03-3.65619E-01 2.92992E-02 4.97516E-03
 -1      5860-3.21493E-01 1.29244E+00 3.28485E-03-1.44948E-01 2.27515E-02 3.72979E-03
 -1      5861-3.31524E-01 1.23239E+00 2.98659E-03-4.69451E-01 2.55512E-02-7.16951E-04
 -1      5862-3.96805E-01 1.03634E+00 7.59551E-03-1.41176E-01 2.07679E-02-3.07008E-04
 -1      5863-1.19681E-02 1.48533E+00 2.44983E-02-7.73699E-01 1.81389E-02-3.24375E-03
 -1      5864-1.56546E-02 1.78655E+00-2.78867E-03-5.73367E-01 3.25526E-02-2.47957E-02
 -1      5865-5.51877E-02 2.34780E+00-9.44866E-03-3.99456E-02 1.85061E-02 1.95444E-02
 -1      5866 1.52837E-01 2.64981E+00 2.41797E-02 3.43567E-01 4.31936E-02 1.53369E-02
 -1      5867 2.22600E-01 1.79547E+00-2.34068E-03-8.48913E-01 1.93767E-02-2.41367E-02
 -1      5868 3.66151E-02 2.16945E+00 9.78474E-03-4.04611E-01 3.97889E-02-1.94391E-02
 -1      5869 1.89909E-01 2.50409E+00-1.45443E-02-4.03453E-01 4.36668E-02-1.36861E-02
 -1      5870-1.40897E-01 1.05733E+00 6.74296E-03-8.18870E-01 2.94489E-02-3.47888E-03
 -1      5871 7.43660E-02 1.08631E+00 1.70585E-02-9.68938E-01 1.49482E-02-5.22326E-03
 -1      5872-3.01030E-01 1.04766E+00-4.11156E-03-6.77340E-01 1.59442E-02-2.57086E-03
 -1      5873-1.94214E-01 8.15882E-01 2.51593E-02-9.10608E-01 1.20694E-02-6.68152E-04
 -1      5874-3.88549E-01 9.31053E-01 5.48585E-05-5.69009E-01 4.65730E-03-8.65252E-03
 -1      5875 2.87296E-01 2.23665E+00 8.55846E-03 9.50164E-01 1.86003E-02-3.76619E-03
 -1      5876 4.56189E-01 1.88322E+00-1.91795E-02 1.11143E+00 1.82547E-02-4.24431E-03
 -1      5877 1.26555E-01 2.51923E+00-3.16208E-02 7.48867E-01 1.42418E-02 1.14052E-03
 -1      5878 3.87522E-01 2.53970E+00 3.98102E-03 1.06956E+00 3.01492E-02 1.64384E-02
 -1      5879 1.41602E-01 2.89083E+00-8.73976E-04 4.01901E-01 3.42220E-02-1.52999E-02
 -1      5880 2.08329E-01 6.30925E-01 1.36779E-02-1.05223E+00 1.39680E-02-2.90744E-02
 -1      5881 3.95210E-01 9.34748E-01 5.97609E-03-1.04085E+00 4.49830E-03-2.16574E-02
 -1      5882 5.66874E-01 6.68896E-01-1.22702E-02-1.06121E+00 1.02078E-02-2.26335E-02
 -1      5883 4.17919E-01 1.16142E+00-9.21792E-03-9.97224E-01 2.48909E-02-2.43485E-02
 -1      5884 5.22500E-01 1.40025E+00-1.62388E-02-1.04090E+00-6.33686E-03-5.58129E-03
 -1      5885 6.11445E-01 1.76393E+00-2.43747E-03-9.65821E-01 2.16055E-02-3.34947E-03
 -1      5886 7.78581E-01 1.13472E+00 1.16103E-02-1.06063E+00 2.85376E-02-1.49079E-02
 -1      5887-2.74220E-01 5.14386E-01 1.08151E-03-9.42313E-01 9.96027E-03-1.00010E-02
 -1      5888-1.13759E-01 5.04279E-01 1.01612E-02-1.04680E+00 4.64483E-04-6.78474E-03
 -1      5889-3.60319E-02 1.98326E-01 4.94080E-03-1.08934E+00 1.52152E-02-1.67550E-02
 -1      5890 7.40086E-02 4.62121E-01 1.27975E-02-1.08581E+00 3.52153E-03-1.75783E-02
 -1      5891 3.09681E-01 2.98374E-01-4.84574E-03-1.07712E+00 1.89316E-02-2.53771E-02
 -1      5892-4.33649E-01 5.19934E-01-8.97608E-03-8.27180E-01 9.62885E-03-7.27941E-03
 -1      5893-3.28755E-01 3.03363E-01-2.09263E-03-9.65544E-01 5.02872E-03-1.48144E-02
 -1      5894-4.62512E-01 7.41732E-01 1.30576E-02-5.88347E-01 1.56289E-02-4.77668E-03
 -1      5895-5.49756E-01 4.60768E-01-2.95825E-05-6.66816E-01 3.27320E-03-1.75183E-04
 -1      5896-4.94068E-01 8.42515E-01-6.19649E-04-3.83074E-01 9.22994E-03-8.18147E-03
 -1      5897-4.73606E-01 8.22542E-01 1.46423E-02-1.94503E-01 1.88798E-02 7.77322E-04
 -1      5898-4.66656E-01 7.69020E-01 2.58150E-03 4.59179E-02 7.06572E-03 3.14077E-03
 -1      5899-3.84846E-01 6.55245E-01 4.10765E-03 2.35188E-01-2.02517E-03-9.09480E-04
 -1      5900 1.19342E+00 2.45513E-01-9.76524E-03 7.24705E-01-1.43130E-02-7.56438E-04
 -1      5901 1.17183E+00 1.07635E-01 3.25423E-03 5.70785E-01-9.86212E-03-1.04375E-02
 -1      5902 1.14954E+00 6.74835E-01 7.38134E-03 1.02128E+00 7.41941E-03 3.25883E-02
 -1      5903 1.26237E+00 3.96200E-01-9.57217E-03 8.92495E-01-2.12127E-02 2.99150E-02
 -1      5904 1.40177E+00 2.36530E-01-5.15771E-03 7.38124E-01-1.66058E-02 1.85898E-02
 -1      5905 9.37771E-01 9.64986E-02-3.28228E-03 3.73486E-01-2.27306E-03 2.54478E-03
 -1      5906 6.45599E-01 2.29069E-01-3.61741E-03 3.43654E-01-3.54634E-03-2.89474E-03
 -1      5907 1.09293E+00 5.36920E-02 1.31356E-02 4.63810E-01-4.56165E-03-7.41063E-03
 -1      5908 1.08421E+00 1.08676E-02 1.08195E-02 3.03281E-01-5.97413E-03-1.11147E-02
 -1      5909-2.23768E-01 8.37075E-02-1.73107E-02-1.02208E+00 7.44772E-03 1.87360E-04
 -1      5910-9.23069E-02-3.30042E-02 2.10899E-03-1.07652E+00 1.85053E-02-1.29779E-02
 -1      5911 2.50680E-02-1.07347E-01 2.98733E-03-1.09196E+00 1.29186E-02-1.22931E-04
 -1      5912-1.55465E-01-1.66609E-01 1.73990E-03-1.04700E+00 3.97543E-04 1.70424E-03
 -1      5913-6.48958E-01 1.14926E-01 6.88731E-03 3.28455E-01 3.28838E-03-6.42618E-03
 -1      5914-5.60187E-01 6.04182E-02 2.87991E-03 3.99774E-01 7.55962E-03-1.02729E-02
 -1      5915-4.43414E-01 2.12953E-02 4.93374E-03 4.39447E-01 9.18890E-03-6.56424E-03
 -1      5916 1.77344E+00 6.10332E-02 1.33736E-02 4.93691E-01-1.92701E-02 2.00352E-02
 -1      5917 1.86350E+00 1.01534E-01 2.57607E-02 5.45923E-01-2.98843E-02 2.51729E-02
 -1      5918 1.71177E+00 9.88286E-02-1.39129E-03 6.34303E-01-1.38521E-02 7.71690E-03
 -1      5919 1.11850E+00 1.10023E+00 1.48101E-02 1.22176E+00 6.14689E-03 4.17533E-02
 -1      5920 1.48865E+00 7.31969E-01 1.91985E-02 1.16718E+00 1.00067E-02 3.32161E-02
 -1      5921 8.61500E-01 1.50640E+00 2.32683E-03 1.23811E+00 5.38424E-03 2.46088E-02
 -1      5922 4.66955E-01-5.83615E-02 5.08357E-03-9.91947E-01 1.25749E-02-2.32243E-02
 -1      5923 2.59432E-01-1.86200E-01-2.93041E-03-1.00606E+00-2.84641E-03-6.23248E-03
 -1      5924 6.01428E-01-2.97912E-01 5.81707E-03-8.59185E-01-1.69997E-04 2.34697E-03
 -1      5925 6.68476E-01 1.91629E-01 4.18563E-03-9.58130E-01 1.50743E-02-4.77189E-03
 -1      5926 7.62632E-01 4.78843E-01 1.74366E-02-1.02109E+00 8.32582E-03-1.53835E-02
 -1      5927 8.18529E-01 6.86493E-01-6.08370E-03-9.87977E-01 2.24766E-02-2.68569E-02
 -1      5928 6.27273E-01-5.10782E-01 2.03485E-03-6.87714E-01-2.19359E-03-2.91795E-03
 -1      5929 4.16468E-01-8.16718E-01 6.64432E-03-6.45320E-01 2.52657E-03-1.53739E-02
 -1      5930 2.97998E-01-1.24465E+00 8.93517E-03-5.05362E-01-9.72166E-04-2.06711E-02
 -1      5931 1.17676E+00-8.85719E-02 5.50256E-03 2.89679E-01-1.38555E-02-1.90956E-02
 -1      5932 1.70000E+00 5.91497E-01 7.05788E-03 1.15965E+00 1.47009E-02 1.75236E-02
 -1      5933 1.71443E+00 2.86671E-01 1.71337E-02 8.84933E-01-1.29372E-02 6.90124E-03
 -1      5934 1.52159E+00 1.83365E-01-4.25411E-03 7.14101E-01-1.90153E-02 2.34681E-02
 -1      5935 1.74674E+00 9.62421E-01 4.74402E-02 1.39984E+00-1.56408E-02 4.30290E-02
 -1      5936 1.96474E+00 3.75341E-01 2.26670E-02 1.07690E+00-1.31159E-03 4.17062E-02
 -1      5937 1.19422E+00 1.65308E+00 8.51129E-03 1.57083E+00 1.57369E-02 4.25561E-02
 -1      5938 1.56296E+00 1.38987E+00-4.97657E-02 1.62279E+00-6.78412E-02 4.74809E-02
 -1      5939 9.54261E-01 1.55985E+00-2.15900E-03 1.31781E+00 2.02637E-02 3.14456E-02
 -1      5940 8.81732E-01 2.28551E+00 3.68617E-02 1.44249E+00 2.56925E-02 5.15902E-02
 -1      5941 2.08124E+00 1.68306E-01 2.91475E-02 7.99176E-01-3.93362E-02 3.01369E-02
 -1      5942 2.13484E+00 3.74826E-01 1.83932E-02 1.07382E+00-1.36820E-02 4.70408E-02
 -1      5943 9.79403E-01 1.63880E+00-1.90935E-02-1.07380E+00 2.00205E-02-2.18328E-02
 -1      5944 6.91159E-01 2.21890E+00 2.70274E-02-9.35902E-01 3.59026E-02-1.62776E-02
 -1      5945 7.85722E-01 2.47370E+00-7.11609E-03-9.17807E-01 8.33060E-03-2.99450E-02
 -1      5946 3.56373E-01 2.58342E+00 1.75133E-02-7.30799E-01 1.36610E-02 1.53826E-04
 -1      5947 2.67430E-01 2.97340E+00 1.28843E-02-3.30378E-01 7.73033E-03 7.20566E-03
 -1      5948 1.80565E-01 3.89798E+00-1.28943E-02 2.32531E-01 4.46284E-02 3.73769E-02
 -1      5949 4.83795E-01 3.68415E+00 1.28227E-02-3.43941E-01 4.60073E-02-1.70266E-02
 -1      5950 5.53459E-01 4.07014E+00 2.87595E-02-3.31346E-01 6.27604E-02-2.28471E-02
 -1      5951 3.38059E-01 3.98053E+00 1.45433E-02 7.38079E-01 8.99017E-03 2.11925E-02
 -1      5952 2.54908E-01 3.47419E+00 3.50999E-03 5.53789E-01 7.83642E-03 3.29190E-02
 -1      5953 3.17072E-01 3.17916E+00-1.75596E-02-3.23867E-01 5.17270E-02 9.64598E-03
 -1      5954 6.16874E-01 3.21381E+00-2.71519E-02-7.11960E-01 6.88644E-02-3.78895E-02
 -1      5955 1.01214E-01 3.08560E+00-3.42441E-02 7.21916E-02 3.70875E-02 2.49237E-02
 -1      5956 2.51676E-01 3.09360E+00-2.07935E-02 9.11597E-01 5.15654E-02 3.49586E-02
 -1      5957 1.81020E-01 3.19604E+00-2.09162E-02 4.89671E-01 1.68894E-02 3.16007E-02
 -1      5958 1.22780E+00 1.28334E+00-1.88088E-03-1.03435E+00 5.98482E-03-3.42640E-02
 -1      5959 1.36409E+00 1.59324E+00-1.11874E-02-1.01294E+00 2.21530E-02-3.62346E-02
 -1      5960 1.01466E+00 8.95566E-01 4.10362E-03-1.00542E+00 2.46606E-02-1.18645E-02
 -1      5961 1.22517E+00 6.16358E-01 2.32244E-03-8.81742E-01 1.31413E-02-1.08956E-02
 -1      5962 1.18140E+00 1.03221E+00-9.56208E-03-9.69961E-01 3.10519E-02-1.51668E-02
 -1      5963 2.57536E+00 5.29956E-01 3.86587E-02 1.45246E+00-5.40694E-02 1.43650E-02
 -1      5964 2.71656E+00 2.76565E-01 7.65753E-02 1.06466E+00-3.92170E-02 2.96994E-02
 -1      5965 3.15527E+00 4.89801E-01 4.64493E-02 1.46297E+00-4.29975E-02-6.78635E-03
 -1      5966 2.26252E+00 7.08259E-01-1.25646E-02 1.51721E+00-1.26006E-02 1.29598E-02
 -1      5967 2.53777E+00 1.14465E+00 3.72191E-02 1.96243E+00-4.97230E-02 4.27626E-02
 -1      5968 2.37329E+00 5.76955E-01 6.10232E-02 1.31405E+00-2.66941E-02-1.08373E-02
 -1      5969 2.06128E+00 9.04701E-01-6.80536E-02 1.63147E+00-4.39330E-02 3.21244E-02
 -1      5970 1.75517E+00 2.33028E+00 2.46891E-02 2.18401E+00-2.36465E-03 1.12791E-02
 -1      5971 2.03305E+00 1.93722E+00-2.04176E-02 2.18634E+00-2.80122E-02 6.36572E-02
 -1      5972 1.71884E+00 3.24995E+00-4.34275E-03 2.77033E+00 5.60762E-02 2.27290E-01
 -1      5973 2.89821E+00 1.61923E+00-6.08921E-02 2.43218E+00-2.74992E-02 1.71870E-01
 -1      5974 1.46075E+00 1.87818E+00-4.76830E-03 1.85663E+00 1.37973E-02 8.19670E-02
 -1      5975 1.12986E+00 2.74318E+00 3.54710E-02 1.91590E+00 1.06028E-02-1.19056E-02
 -1      5976 7.20524E-01 2.91307E+00 1.15520E-02 1.43557E+00 7.48069E-02 2.29796E-02
 -1      5977 6.92508E-01 3.58638E+00 1.41454E-02 1.57525E+00 1.91321E-03 7.70370E-03
 -1      5978 6.49176E-01 4.60708E+00 4.11571E-02 1.67213E+00 1.25083E-02 3.68658E-02
 -1      5979 5.11731E-01 4.00575E+00-2.66696E-04 1.26516E+00-3.45221E-02 3.13811E-02
 -1      5980 2.24730E-01 4.90348E+00-3.31597E-02 5.52101E-01 7.00717E-02 4.25512E-02
 -1      5981 1.17681E+00 4.55129E+00-1.17842E-01 2.27608E+00-1.77412E-03 1.67531E-01
 -1      5982 5.57035E-01 2.66091E+00-1.59460E-02 1.22281E+00 5.14127E-02 3.84828E-02
 -1      5983 1.67721E+00 1.39140E+00-2.35939E-02-9.66700E-01 2.15911E-02-2.26482E-02
 -1      5984 1.51282E+00 1.88288E+00-1.86797E-03-1.05007E+00 3.56009E-02-2.33765E-02
 -1      5985 1.17690E+00 2.30042E+00-5.11258E-02-1.06024E+00 4.19947E-02-3.70479E-02
 -1      5986 8.78498E-01 2.82215E+00-3.00411E-02-9.19790E-01 4.86065E-02-5.58739E-02
 -1      5987 1.64582E+00 2.10653E+00-1.28273E-02-1.08196E+00 5.87249E-02-4.34864E-02
 -1      5988 5.80480E-01 2.41265E-01-1.08125E-02 1.62171E-01 8.94922E-03 3.61269E-03
 -1      5989 3.15414E-01 3.81878E-01 3.73672E-03 3.35651E-01 1.22160E-02 1.07552E-02
 -1      5990 9.07607E-01 1.42818E-01-1.15905E-02 8.26849E-02 1.03883E-02-8.95801E-03
 -1      5991 5.55114E-01 3.05970E-01-6.65444E-04 1.85496E-02 4.59042E-02-1.39270E-02
 -1      5992 1.04102E+00-1.73912E-02 1.08357E-02 1.59802E-01 3.64586E-03-2.54718E-02
 -1      5993 2.23630E+00 1.57605E+00 5.22720E-03-8.48073E-01 2.00637E-02-1.47860E-02
 -1      5994 2.02784E+00 1.32929E+00 2.94261E-03-7.77642E-01 1.59892E-02-3.50440E-02
 -1      5995 9.86347E-01 6.77422E+00-2.48776E-02 2.86574E-02 1.60705E-01-3.11847E-02
 -1      5996 1.44136E+00 6.68390E+00-1.31309E-01-1.18578E+00 2.23821E-01-1.20325E-01
 -1      5997 2.02089E+00 5.68856E+00-2.17037E-02-1.29311E+00 1.09559E-01-1.13157E-01
 -1      5998-9.76719E-02 6.00492E+00-1.23384E-01 1.14296E+00 1.06358E-01 4.80504E-02
 -1      5999 8.86673E-01 6.03906E+00-3.49587E-02-1.02541E-01 1.62012E-01-3.11583E-02
 -1      6000 8.41287E-01 5.15255E+00-4.56321E-02-2.25917E-01 1.04400E-01-5.53802E-03
 -1      6001 1.16092E+00 5.04075E+00-9.10386E-02-9.63643E-01 1.38635E-01-9.84005E-03
 -1      6002 2.17769E+00 4.28626E+00 1.88644E-02-1.33398E+00 6.85986E-02-1.03955E-01
 -1      6003 2.11209E+00 4.93124E+00-2.73088E-02-1.22709E+00 1.11843E-01-1.39765E-01
 -1      6004 2.92134E+00 4.43584E+00-4.92784E-02-1.54631E+00 7.77169E-02-1.02348E-01
 -1      6005 7.94743E-01 4.66821E+00 4.17401E-02-3.88249E-01 5.44022E-02 4.08644E-03
 -1      6006 9.84250E-01 4.00467E+00-1.14092E-02-9.51478E-01 2.47559E-02-2.07818E-02
 -1      6007 1.54145E+00 3.24361E+00-2.05428E-02-1.05262E+00 6.53594E-02-5.52456E-02
 -1      6008 2.01249E+00 3.51040E+00-3.28640E-02-1.25873E+00 1.86453E-02-8.66949E-02
 -1      6009 2.55487E+00 2.85819E+00-8.70416E-02-1.21309E+00 2.22167E-02-9.10534E-02
 -1      6010 2.02650E+00 3.76718E+00-3.91720E-02-1.26118E+00 5.49000E-02-1.01901E-01
 -1      6011 1.15601E+00 3.10406E+00-1.76910E-03-9.84001E-01 6.95123E-02-3.32468E-02
 -1      6012 1.80268E+00 2.64580E+00 1.80905E-02-1.17036E+00 2.88751E-02-5.52420E-02
 -1      6013 1.77117E+00 2.31588E+00 3.64938E-03-1.07233E+00 4.59798E-02-2.79289E-02
 -1      6014 2.03866E+00 1.81990E+00-1.62285E-03-1.01925E+00 2.81579E-02-5.41304E-03
 -1      6015 8.32285E-01 2.92877E+00 1.11972E-01 6.55487E-01 1.92198E-01 1.30882E-01
 -1      6016 1.39319E+00 3.81922E+00 4.92490E-01 9.91552E-01 6.72359E-02 6.39317E-02
 -1      6017 1.36760E+00 3.93774E+00 1.49960E-01 1.06342E+00 2.55173E-01 2.32516E-01
 -1      6018 1.75640E+00 4.53878E+00 5.70693E-01 1.33697E+00 1.36204E-01 1.66814E-01
 -1      6019 2.06647E+00 5.50592E+00 1.14836E+00 1.34469E+00 3.75346E-02 4.36783E-02
 -1      6020 2.08800E+00 5.11562E+00 9.39637E-01 1.65394E+00 9.78943E-02 1.17308E-01
 -1      6021 1.62588E+00 5.53539E+00 2.11087E-01 1.38412E+00 3.63367E-01 3.45983E-01
 -1      6022 2.93586E+00 7.48002E+00 1.97176E+00 2.58611E+00 4.91859E-02-1.72532E-02
 -1      6023 2.27171E+00 6.20885E+00 7.63489E-01 1.65433E+00 2.05868E-01 2.82243E-01
 -1      6024 2.34646E+00 6.67757E+00 1.13480E+00 1.77503E+00 1.30700E-01 2.32431E-01
 -1      6025 2.36398E+00 6.28440E+00 1.41308E+00 1.75236E+00 4.76789E-02 6.34384E-02
 -1      6026 2.68824E+00 7.11121E+00 1.48934E+00 1.96220E+00 1.02727E-01 1.66202E-01
 -1      6027 2.80086E+00 7.92030E+00 1.90182E+00 2.37574E+00 2.62150E-02 1.09735E-01
 -1      6028 2.76074E+00 8.12139E+00 2.02843E+00 2.10308E+00 3.67569E-02 1.17330E-01
 -1      6029 1.33885E+00 2.53385E+00 1.60458E-01-8.72135E-01 1.36904E-01-6.86397E-02
 -1      6030 2.24238E+00 6.98242E+00 2.25952E-01 1.90062E+00 4.52433E-01 4.87051E-01
 -1      6031 2.63860E+00 4.56673E+00 7.56955E-01-9.78711E-01 1.38415E-01-8.70281E-03
 -1      6032 2.43206E+00 4.10389E+00 7.89077E-01-9.63836E-01 6.83741E-02-1.02484E-02
 -1      6033 2.94274E+00 7.43537E+00 1.99085E+00 2.67352E+00 2.81561E-02 2.93929E-02
 -1      6034 1.78613E+00 7.46887E-01-5.65183E-02 1.02356E+00 3.10991E-02 1.95197E-01
 -1      6035 2.83812E+00 7.57992E+00 1.06337E+00 2.70064E+00 1.93501E-01 4.13641E-01
 -1      6036 2.44218E+00 1.07201E+00-3.05459E-02 1.31141E+00 4.91871E-02 3.21871E-01
 -1      6037 2.60287E+00 4.33970E+00 3.79333E-01-9.88417E-01 2.60604E-01-7.74298E-02
 -1      6038 3.61684E+00 8.43418E+00 2.39640E+00 3.22394E+00 5.33431E-02 1.48055E-02
 -1      6039 3.60698E+00 9.16783E+00 2.72013E+00 3.29149E+00 5.50508E-02 2.15223E-04
 -1      6040 3.20656E+00 7.75719E+00 1.57238E+00 2.92434E+00 7.94102E-02 2.34641E-01
 -1      6041 3.21066E+00 9.59483E+00 1.93917E+00 2.36178E+00 1.06941E-01 3.07585E-01
 -1      6042 3.61397E+00 8.55114E+00 2.01524E+00 3.51364E+00 7.90825E-02 2.43698E-01
 -1      6043 3.21615E+00 1.03634E+01 2.57986E+00 2.70492E+00 2.20757E-02 1.07971E-01
 -1      6044 3.74046E+00 6.46183E+00 1.25323E+00-1.12134E+00 1.72393E-01 6.70450E-02
 -1      6045 2.88423E+00 1.22229E+00-4.47462E-02 1.53481E+00 6.36087E-02 4.55565E-01
 -1      6046 3.63382E+00 9.73960E+00 2.59156E+00 3.55576E+00 6.49305E-02 1.56842E-01
 -1      6047 2.84353E+00 1.15190E+00 1.64424E-01 1.55043E+00 2.11118E-02 9.10515E-02
 -1      6048 3.46417E+00 1.02558E+01 2.90892E+00 2.77138E+00-2.64177E-03 4.25463E-02
 -1      6049 3.30860E+00 1.51877E+00 3.21354E-01 1.84732E+00 5.31017E-02 1.36838E-01
 -1      6050 3.61752E+00 6.15906E+00 1.72702E+00-1.09057E+00 4.56907E-02 2.07173E-02
 -1      6051 3.62952E+00 1.63405E+00 2.69337E-01 2.09567E+00 3.52041E-02 2.55639E-01
 -1      6052 4.30445E+00 8.06390E+00 2.47189E+00-1.26042E+00 4.38313E-02 3.22429E-02
 -1      6053 2.63611E+00 4.40218E+00 1.19363E-01-9.99689E-01 3.68679E-01-1.70822E-01
 -1      6054 3.17950E+00 7.95675E+00 9.85846E-01 3.08813E+00 2.25130E-01 5.50826E-01
 -1      6055 3.86129E+00 1.43899E+00 4.67677E-01 2.04413E+00 3.46415E-02 8.62422E-02
 -1      6056 3.68221E+00 6.10791E+00 1.57549E+00-1.14351E+00 7.44952E-02 4.52119E-02
 -1      6057 3.89208E+00 6.62802E+00 1.06420E+00-1.18422E+00 2.31069E-01 5.42398E-02
 -1      6058 2.95961E+00 1.45536E+00-5.57167E-02 1.75289E+00 2.18697E-02 5.65608E-01
 -1      6059 4.07409E+00 6.82121E+00 1.69962E+00-1.16677E+00 1.12684E-01 6.10205E-02
 -1      6060 3.75695E+00 1.16945E+01 3.18146E+00 2.45633E+00 1.13264E-01 7.87593E-02
 -1      6061 3.67533E+00 6.16670E+00 1.79610E+00-1.12316E+00 1.84902E-02 9.01673E-03
 -1      6062 3.95376E+00 1.05086E+01 3.17703E+00 3.79628E+00 1.58752E-02 4.20278E-03
 -1      6063 3.99468E+00 9.09263E+00 2.57655E+00 3.73976E+00 5.18382E-02 1.19608E-01
 -1      6064 3.93923E+00 1.22469E+01 3.65805E+00 2.57797E+00 2.66734E-02-4.45405E-02
 -1      6065 2.00728E+00 2.18388E+00 1.04718E-01-9.28940E-01 1.75830E-01-1.70206E-01
 -1      6066 4.21002E+00 2.03051E+00 5.59252E-01 2.53714E+00 1.61786E-02 1.72986E-01
 -1      6067 4.55116E+00 2.43150E+00 3.25841E-01 2.95320E+00 3.64522E-02 4.52129E-01
 -1      6068 4.24648E+00 1.11323E+01 3.43601E+00 4.09988E+00 5.39383E-02-4.91560E-02
 -1      6069 2.51185E+00 9.74944E+00 3.35992E-01 1.86359E+00 6.10824E-01 5.81380E-01
 -1      6070 4.08839E+00 1.08050E+01 2.41093E+00 3.75389E+00 7.49057E-02 4.08092E-01
 -1      6071 3.81566E+00 7.86033E+00 1.05162E+00-1.17412E+00 2.81612E-01 9.87198E-02
 -1      6072 4.82162E+00 8.84400E+00 2.63724E+00-1.58290E+00 5.65186E-02 5.93404E-02
 -1      6073 4.34491E+00 1.02442E+01 3.08140E+00 4.78244E+00 7.54149E-02 1.52150E-01
 -1      6074 4.70578E+00 9.75303E+00 2.15800E+00 4.77380E+00 1.43188E-01 4.82131E-01
 -1      6075 4.17111E+00 1.30631E+01 3.41780E+00 1.10930E+00 7.57947E-02 2.37754E-01
 -1      6076 4.74050E+00 8.38859E+00 2.23361E+00-1.48239E+00 1.00727E-01 1.04123E-01
 -1      6077 3.68389E+00 1.42140E+00 4.32892E-01 1.90404E+00-1.00045E-02 3.69031E-02
 -1      6078 4.36721E+00 1.25819E+01 3.82207E+00 7.07870E-01 3.28896E-02 8.74053E-02
 -1      6079 2.60521E+00 5.60160E-01-8.87711E-02 1.05868E+00 2.94985E-02 2.15878E-01
 -1      6080 3.92839E+00 1.24232E+01 3.08386E+00 2.55010E+00 8.14679E-02 2.69644E-01
 -1      6081 4.91614E+00 1.10246E+01 3.61379E+00 4.93230E+00-4.81496E-03 2.48069E-02
 -1      6082 4.63888E+00 8.73706E+00 2.66343E+00-1.24618E+00 5.23751E-02 8.76384E-02
 -1      6083 4.73047E+00 9.13512E+00 2.93888E+00-1.09973E+00 2.40686E-02 5.27300E-02
 -1      6084 3.22422E+00 1.10595E+01 1.48577E+00 2.49034E+00 2.86817E-01 5.72030E-01
 -1      6085 4.78969E+00 1.35068E+00 7.00959E-01 2.39919E+00-8.45974E-03 4.82843E-02
 -1      6086 4.16582E+00 1.36440E+01 2.84414E+00 1.78933E+00 1.57047E-01 3.34529E-01
 -1      6087 4.77643E+00 1.35971E+01 3.89675E+00 2.88107E-01 8.04859E-02 1.96218E-01
 -1      6088 4.33924E+00 1.37170E+01 4.21323E+00 2.62974E+00 4.30138E-02 8.73990E-02
 -1      6089 3.61056E-01 1.05271E+00-2.47051E-02 6.37058E-01 6.24613E-02 6.92497E-02
 -1      6090 5.16458E+00 1.36628E+01 4.49707E+00-1.00958E+00-6.52773E-02 9.08601E-04
 -1      6091 5.02147E+00 9.44533E+00 3.19775E+00-1.41790E+00 1.70410E-02 1.41243E-02
 -1      6092 5.86097E+00 8.97221E+00 2.50154E+00-1.69319E+00 1.21099E-01 1.33715E-01
 -1      6093 3.67884E+00 6.51512E+00 1.92717E-01-1.39566E+00 4.88511E-01-2.15947E-01
 -1      6094 4.59595E+00 1.36272E+01 4.26091E+00 2.89116E+00-6.51561E-02-2.95916E-02
 -1      6095 5.16104E+00 2.77640E+00 1.09714E+00 3.60491E+00 2.95814E-02 9.64452E-02
 -1      6096 5.29041E+00 7.83690E+00 2.62377E+00-1.63899E+00 4.15031E-02 4.49793E-02
 -1      6097 3.92552E+00 4.69662E+00 1.34328E+00-1.17346E+00 4.75696E-02-1.01823E-02
 -1      6098 3.94377E+00 1.40508E+00 1.56449E-01 2.10943E+00 4.80782E-02 3.56232E-01
 -1      6099 5.57808E+00 1.81556E+00 1.01930E+00 2.87578E+00 3.44822E-02 9.44419E-02
 -1      6100 5.81490E+00 6.90195E+00 1.97769E+00 5.16926E+00 8.87595E-02 3.44905E-01
 -1      6101 4.60943E+00 1.83848E+00 8.20319E-01 2.64118E+00-4.00536E-02 6.69087E-02
 -1      6102 5.24827E+00 8.45008E+00 2.93614E+00-1.77004E+00 2.63857E-02 2.13336E-02
 -1      6103 6.53255E-01 6.78026E-02-3.79020E-02-8.48361E-01 5.12634E-02-9.89755E-02
 -1      6104 4.69372E+00 2.80347E+00 4.36743E-02 3.21290E+00 8.39120E-02 8.50296E-01
 -1      6105 2.58909E+00 2.53504E+00 5.26621E-02-9.16742E-01 2.08895E-01-2.58468E-01
 -1      6106 4.60614E+00 1.25051E+01 3.60358E+00 4.35119E+00 8.76869E-02 2.29795E-01
 -1      6107 5.27067E+00 1.55608E+00 6.45086E-01 2.78822E+00-7.20535E-03 2.50938E-01
 -1      6108 5.28736E+00 1.26960E+01 4.11363E+00-1.19048E+00 4.53361E-02 2.43398E-02
 -1      6109 6.84155E+00 6.67936E+00 2.39566E+00 5.77712E+00 2.15418E-02 2.82560E-01
 -1      6110 3.40168E+00 3.50076E+00 9.33070E-01-1.06345E+00 3.19371E-02-2.55714E-02
 -1      6111-5.02255E-03 1.51725E+00-2.55210E-02-2.68923E-01 1.17246E-01 1.30733E-03
 -1      6112 5.19120E+00 1.43613E+01 4.52866E+00 1.28341E-01 6.57158E-02 6.28713E-02
 -1      6113 3.63540E+00 4.12711E+00 7.24377E-01-1.11786E+00 1.42540E-01-7.03193E-02
 -1      6114 5.70736E+00 1.37066E+01 4.67393E+00-1.41041E+00 1.11450E-01 5.52567E-04
 -1      6115 5.13383E+00 9.36020E+00 2.13274E+00-1.76126E+00 1.50993E-01 1.88050E-01
 -1      6116 4.49933E+00 5.06754E+00 1.39394E+00-1.25274E+00 7.68557E-02 8.62785E-03
 -1      6117 6.02189E+00 9.86836E+00 3.54507E+00-1.90342E+00-8.89249E-03 5.49138E-02
 -1      6118 1.65194E+00 2.13682E-01-1.51034E-01 5.81316E-01 5.52428E-03 9.37331E-02
 -1      6119 5.11915E+00 1.08263E+01 3.52645E+00 4.63813E+00 3.20176E-02-3.97750E-02
 -1      6120 9.60690E-01 1.51207E-01-4.76241E-02 4.44879E-01-1.60564E-02 5.80213E-02
 -1      6121 4.68930E+00 1.57234E+01 4.88141E+00 1.82515E-01 4.62982E-02-1.54273E-02
 -1      6122 3.06850E+00 2.90688E+00 5.39797E-01-9.72593E-01 8.78956E-02-8.92918E-02
 -1      6123 2.14976E+00 1.48539E+00 1.32963E-01-7.73961E-01 8.56837E-02-1.37126E-01
 -1      6124 4.98982E+00 1.51580E+01 4.25669E+00 2.91242E+00 7.60983E-02 1.48695E-01
 -1      6125 4.31811E+00 1.43948E+00-1.49403E-02 2.24746E+00 7.18937E-02 5.88803E-01
 -1      6126 5.68213E+00 1.49504E+01 4.35651E+00-3.22287E-01 1.13248E-01 1.81540E-01
 -1      6127 4.56832E+00 1.11102E+01 1.25070E+00-1.30170E+00 5.60130E-01 2.06806E-01
 -1      6128 4.81327E+00 1.49582E+01 4.44460E+00 2.83862E+00-3.71510E-02 1.22606E-01
 -1      6129 6.95334E+00 8.89046E+00 3.53405E+00 6.49966E+00 4.48223E-02-7.02049E-02
 -1      6130 4.69772E+00 1.59655E+01 4.69474E+00 2.26563E+00-3.77337E-02 1.66106E-01
 -1      6131 5.90060E+00 1.07042E+01 3.42267E+00-1.79738E+00 8.65084E-02 9.50498E-02
 -1      6132 1.33536E+00 6.96589E-01-1.85515E-02-7.47115E-01 9.26736E-02-1.76165E-01
 -1      6133 7.11188E+00 5.30058E+00 2.19526E+00 5.42254E+00 9.81128E-02 2.08818E-01
 -1      6134 5.60524E+00 1.09361E+01 3.68736E+00 5.20010E+00-8.81632E-02 2.36661E-01
 -1      6135 4.76640E+00 1.18696E+01 3.74884E+00 5.57985E+00 2.45329E-01 1.81588E-01
 -1      6136 5.40962E+00 9.66529E+00 1.71745E+00-1.73615E+00 2.56315E-01 1.71497E-01
 -1      6137 5.54629E+00 1.54467E+00 9.81381E-01 2.82965E+00 9.95371E-03 1.00700E-01
 -1      6138 7.16809E+00 1.12984E+01 3.92363E+00-2.01898E+00 7.00887E-02 1.26764E-01
 -1      6139 4.91162E+00 1.55213E+01 4.18509E+00-4.17925E-01 3.84674E-02 3.09566E-01
 -1      6140 8.04083E+00 6.77029E+00 2.98017E+00 6.21082E+00 8.29340E-02 1.96574E-01
 -1      6141 1.98876E+00 2.21088E-01-6.55879E-02 6.29032E-01-6.40638E-02 2.70812E-01
 -1      6142 1.36432E+00 1.53406E-01-5.20563E-02 4.81315E-01-3.16682E-02 1.33258E-01
 -1      6143 4.72907E+00 1.35862E+00 2.54719E-01 2.10281E+00 7.48450E-02 3.62074E-01
 -1      6144 5.60289E+00 1.67908E+00 9.84837E-01 2.69371E+00-3.87677E-02 1.21493E-01
 -1      6145 3.72494E+00 2.67690E+00 6.74867E-01 2.65958E+00 4.84904E-02 1.62508E-01
 -1      6146 6.99012E+00 1.25153E+01 4.52808E+00 6.87989E+00 1.03125E-02-6.82335E-02
 -1      6147 5.41875E+00 1.52427E+00 7.73422E-01 2.68265E+00 4.38087E-02 1.07170E-01
 -1      6148 3.49924E+00 1.18047E+01 1.24738E+00 3.79210E+00 2.64072E-01 7.65049E-01
 -1      6149 4.26075E+00 1.39297E+01 2.70284E+00 1.98274E+00 2.37133E-01 5.05740E-01
 -1      6150 4.54491E+00 5.14192E+00 3.96427E-01-1.29612E+00 3.12292E-01-2.22767E-01
 -1      6151 8.07804E+00 6.87881E+00 2.81449E+00 5.81211E+00 9.05368E-03 3.54082E-01
 -1      6152 6.71266E+00 2.79714E+00 6.17580E-01 4.02691E+00 2.89386E-02 6.56321E-01
 -1      6153 1.12183E+00 3.87010E+00 3.55664E-01 1.85704E-01 1.40157E-01 6.81169E-02
 -1      6154 4.71148E-01 2.06581E+00 2.72996E-02 4.54931E-01 8.93343E-02 5.01355E-02
 -1      6155 1.58580E+00 2.42316E+00 1.78747E-01 1.38747E+00 1.00836E-01 1.61182E-01
 -1      6156 6.84793E-01 2.81370E+00 1.87622E-02-3.38913E-01 2.59955E-01-1.23432E-02
 -1      6157 6.06194E+00 1.26383E+01 4.25102E+00-1.65093E+00 3.81448E-02 8.55112E-02
 -1      6158 5.33142E+00 1.54332E+01 4.73875E+00-1.13662E+00-1.16480E-02 1.21790E-01
 -1      6159 5.38357E+00 2.57347E+00-2.33932E-02 3.76364E+00 8.42176E-02 1.08078E+00
 -1      6160 1.94497E+00 5.21903E+00 6.43186E-01-2.99053E-01 2.11508E-01 7.15355E-02
 -1      6161 7.02909E+00 4.60866E+00 2.37104E+00 4.72574E+00-3.87392E-03 2.02569E-02
 -1      6162 1.09739E+00 1.64818E+00 2.08979E-03 1.06835E+00 1.18863E-01 2.06467E-01
 -1      6163 6.51634E+00 1.34278E+01 4.75162E+00-2.08209E+00 4.14707E-02 9.18274E-02
 -1      6164 2.74848E+00 2.24524E-01-2.64356E-01 6.95022E-01-6.58921E-03 3.90542E-01
 -1      6165 6.52268E+00 7.52681E+00 2.38711E+00-1.64491E+00 7.59055E-02 9.32884E-02
 -1      6166 5.69064E+00 6.26371E+00 2.38986E+00-1.46822E+00 9.92486E-03 4.73315E-03
 -1      6167 6.11717E+00 1.27524E+01 3.23666E+00-1.90166E+00 1.11286E-01 3.12770E-01
 -1      6168 6.21464E+00 1.42269E+01 4.68925E+00 5.96060E+00 1.57692E-01 2.96067E-01
 -1      6169 6.49074E+00 2.02838E+00 1.17827E+00 3.40708E+00 2.86755E-02 2.03996E-01
 -1      6170 2.80818E+00 2.17399E+00 4.14510E-01-8.38963E-01 4.72152E-02-6.19859E-02
 -1      6171 4.22137E+00 1.03612E+01 2.22649E+00 7.40023E+00 7.72176E-02 4.75811E-01
 -1      6172 4.55122E-01 1.64973E+01 3.74728E+00 3.39402E+00 1.72167E-02-2.01529E-01
 -1      6173-2.25904E-01 5.11532E-01-1.41594E-02 4.31111E-01 2.51926E-02 1.66859E-02
 -1      6174 2.19703E+00 6.40044E+00 1.32488E+00-8.62565E-02 6.84788E-02 6.54351E-02
 -1      6175 3.74890E+00 1.26269E+01 3.78588E+00 6.32614E+00-1.64212E-01 8.15556E-02
 -1      6176 2.58378E+00 1.98496E-01-1.58018E-01 6.46213E-01 2.15618E-03 4.62843E-02
 -1      6177 6.28066E+00 1.64514E+01 5.49990E+00-1.60279E+00 8.39278E-02 1.31338E-01
 -1      6178 5.16374E+00 1.61605E+01 5.24921E+00-1.02981E+00 1.28485E-02-5.74291E-02
 -1      6179 7.26014E+00 1.02430E+01 3.87961E+00-2.04856E+00-1.53547E-02 4.70122E-02
 -1      6180 2.06428E+00 1.22560E+01-1.45868E-01 2.84992E-01 9.44239E-01 4.24054E-01
 -1      6181 3.64016E+00 3.48925E+00 2.71622E-01-9.59772E-01 2.00015E-01-2.34456E-01
 -1      6182 7.34233E+00 2.74008E+00 1.76845E+00 4.15567E+00-7.58059E-02 7.25153E-02
 -1      6183 6.87015E+00 2.20913E+00 8.37900E-01 3.67627E+00-2.70572E-03 3.47799E-01
 -1      6184 3.16579E+00 1.97590E-01-1.83524E-01 7.99516E-01 1.88257E-02 2.30349E-01
 -1      6185 4.07677E+00 3.30022E-01 1.36561E-01 1.10811E+00 2.40761E-02 1.09138E-01
 -1      6186 1.99874E+00 5.92838E+00 1.04205E+00 3.58302E-01 1.05798E-01 9.97698E-02
 -1      6187 3.81678E+00 1.69532E+01 4.12114E+00 1.93073E+00-5.60645E-02 1.94568E-01
 -1      6188 1.85913E+00 1.15810E+00 7.46312E-03-6.55373E-01 1.04925E-01-2.29257E-01
 -1      6189 6.48472E+00 7.78808E+00 2.83475E+00-1.69476E+00 6.07777E-02 6.90296E-02
 -1      6190 8.43584E+00 1.19439E+01 4.87642E+00 7.83147E+00-7.14082E-02-5.41528E-02
 -1      6191 1.48137E+00 1.68857E+01 2.36149E+00 2.19323E+00 6.39853E-01 7.92543E-01
 -1      6192 5.22678E+00 5.38781E+00 1.47191E+00-1.20291E+00 9.75609E-02-3.87683E-03
 -1      6193 3.10536E+00 2.59666E+00 2.48030E-01-8.16255E-01 1.39598E-01-2.15758E-01
 -1      6194 2.24295E+00 3.23486E+00 2.58566E-01 1.93726E+00 1.63571E-01 3.20106E-01
 -1      6195 1.44918E+00 1.45129E+00 3.74350E-02 1.15963E+00 3.63482E-02 7.27311E-02
 -1      6196 2.12073E+00 1.92655E+01 5.07141E+00 2.56425E+00-1.36210E-02 2.62266E-02
 -1      6197 4.98544E+00 1.40532E+01 4.33913E+00 7.29014E+00-1.46776E-01 1.54662E-01
 -1      6198 8.75287E-01 3.01537E+00 2.10031E-01-2.69652E-01 9.86380E-02 4.00913E-03
 -1      6199 2.90802E+00 1.93951E+01 5.41612E+00 1.63311E+00-1.62236E-03-3.00701E-02
 -1      6200 9.12579E+00 5.72617E+00 3.22403E+00 6.14449E+00-6.43377E-02-6.63358E-03
 -1      6201 6.29106E+00 1.14995E+00 1.05795E+00 2.85464E+00 3.75630E-02 8.25863E-02
 -1      6202 7.33955E+00 2.77954E+00 5.26651E-01 4.05270E+00 1.33947E-01 8.96100E-01
 -1      6203 4.30891E+00 3.96992E+00 1.26675E+00-1.01604E+00 4.57851E-02-1.95307E-02
 -1      6204 5.51707E+00 8.95282E+00 3.96461E-01-1.79988E+00 6.38362E-01-2.46166E-01
 -1      6205 6.90586E+00 9.02625E+00 3.14678E+00-1.94860E+00 6.70161E-02 9.02213E-02
 -1      6206 5.77323E-01 1.53384E+00-1.06996E-02-8.46238E-01 1.59092E-01-9.41096E-02
 -1      6207 3.44369E+00 1.85694E+01 4.74085E+00 1.93013E+00 2.27934E-01-1.20428E-01
 -1      6208 1.77131E+00 8.18042E-02-2.19613E-01 3.51527E-01-6.95708E-03 2.08661E-01
 -1      6209 7.36978E+00 2.55951E+00 1.57984E+00 4.14541E+00 4.13704E-02 1.42632E-01
 -1      6210 1.56909E+00 1.95978E+01 5.10513E+00 2.86120E+00-8.51129E-03 6.78276E-02
 -1      6211 5.13991E+00 5.24558E+00 1.88710E+00-1.16536E+00-2.02021E-04-6.18133E-03
 -1      6212 2.51656E+00 4.05198E+00 6.95919E-01 2.20859E+00 8.03351E-02 1.66712E-01
 -1      6213 7.00432E+00 1.00057E+01 3.78248E+00-2.09898E+00 1.00279E-02 6.43682E-02
 -1      6214 1.24646E-01 4.24317E-01-7.33961E-03 6.98964E-01-1.97312E-02 1.35324E-02
 -1      6215 6.60633E+00 1.64504E+01 5.65384E+00-1.43168E+00 2.56101E-02-5.78974E-02
 -1      6216-9.50706E-03 6.04093E-01-3.23539E-02-8.78830E-01 6.88701E-02-4.26668E-02
 -1      6217 7.13491E+00 8.00170E+00 3.31165E+00-1.75216E+00 2.95448E-02 1.13553E-02
 -1      6218 8.15121E+00 3.44693E+00 1.89421E+00 4.59212E+00-4.32722E-02 2.36034E-01
 -1      6219 6.43802E-01 1.16000E+00-2.13280E-02-9.20752E-01 8.57781E-02-6.67881E-02
 -1      6220 2.40788E+00 1.86307E+01 5.04828E+00 2.64113E+00 1.93967E-01 3.07530E-01
 -1      6221 6.75967E+00 1.42237E+01 5.18313E+00-2.29986E+00-2.85195E-02 1.09005E-01
 -1      6222 6.86096E+00 1.95382E+00 1.49671E+00 3.09957E+00-2.94592E-02 3.49340E-02
 -1      6223 2.48643E+00 1.79964E+01 4.44858E+00 2.81221E+00 1.99302E-02 3.32577E-01
 -1      6224 2.34722E+00 1.05180E-01-2.90071E-01 4.80584E-01-1.58165E-03 2.75368E-01
 -1      6225 2.00682E+00 1.93890E+01 4.49349E+00 3.15612E+00 8.71967E-02 4.60575E-01
 -1      6226 1.63665E+00 4.40909E+00 7.25655E-01-3.70954E-01 4.41793E-02 7.55906E-03
 -1      6227 6.00326E+00 1.68382E+01 4.54578E+00-1.35217E+00 3.11253E-01-5.99965E-02
 -1      6228 9.44970E+00 6.26032E+00 2.96938E+00 6.67843E+00-4.77261E-02 1.01389E-01
 -1      6229 6.34421E+00 7.09767E+00 1.93395E+00-1.65097E+00 1.05032E-01 6.80207E-02
 -1      6230 5.32662E+00 5.14356E+00 1.82373E+00-1.13473E+00 4.05423E-02 1.68702E-03
 -1      6231 4.16940E+00 3.61975E+00 1.02032E+00-9.31812E-01 5.36119E-02-4.11636E-02
 -1      6232 8.24147E+00 8.71529E+00 3.84890E+00 6.87285E+00-8.36617E-02-1.21495E-02
 -1      6233 7.16341E+00 1.11340E+01 4.06249E+00-2.11025E+00 2.11091E-02 9.31236E-02
 -1      6234 8.22553E+00 2.07887E+00 1.81349E+00 3.93168E+00 9.73136E-02 1.30073E-01
 -1      6235 4.64774E+00 4.44551E+00 7.36219E-01-1.06680E+00 1.43420E-01-1.21031E-01
 -1      6236 6.06287E+00 6.32513E+00 2.55696E+00-1.31830E+00 7.84646E-03 9.88109E-03
 -1      6237 5.44011E+00 5.14655E+00 2.00366E+00-1.07949E+00 9.19848E-03 1.60408E-02
 -1      6238 1.01229E+00 1.52244E+01 9.92251E-01 2.59687E+00 4.69313E-01 1.00183E+00
 -1      6239 3.19752E+00 4.14253E+00 1.01578E+00 2.80295E+00 1.87100E-02 1.12039E-01
 -1      6240-2.24239E-01 1.32744E-01 1.47546E-04 5.44861E-01 8.32986E-03-1.40714E-02
 -1      6241 3.15230E+00 3.73756E-01-1.92145E-01 1.00330E+00-9.06723E-02 6.06065E-01
 -1      6242 7.54738E+00 1.02779E+01 4.18459E+00-2.15306E+00-4.19785E-02-8.74446E-03
 -1      6243 2.27141E+00 1.02263E-01-2.20655E-01 5.33826E-01 8.61446E-03 1.44276E-01
 -1      6244 3.77163E+00 2.78457E-01 8.28904E-02 8.70787E-01 1.79884E-02 5.59293E-02
 -1      6245 2.77554E+00 1.68751E-01-1.74342E-01 5.51791E-01 5.25547E-03 6.27688E-02
 -1      6246 8.95837E+00 1.38373E+01 5.51483E+00-2.61169E+00 5.07451E-02 8.79217E-02
 -1      6247 3.67566E+00 3.16718E+00 6.33122E-01-8.70550E-01 9.45203E-02-1.04819E-01
 -1      6248 6.02308E+00 1.16107E+00 2.29692E-01 2.61634E+00 5.84881E-02 4.88945E-01
 -1      6249 2.69951E+00 1.39496E+01 3.85229E+00 8.53657E+00-5.57016E-02-9.64608E-02
 -1      6250 7.58291E+00 3.49477E+00 1.15350E+00 4.52494E+00 8.21162E-02 5.88903E-01
 -1      6251 2.77660E+00 1.53951E+01 3.74455E+00 8.83109E+00 7.39156E-02-9.81590E-03
 -1      6252 2.83418E+00 2.01706E+00 2.54971E-01-7.20197E-01 8.94125E-02-1.68074E-01
 -1      6253 3.50063E+00 3.37590E+00 5.10235E-02-9.10303E-01 2.11143E-01-3.20899E-01
 -1      6254 8.01505E+00 2.04320E+00 1.63254E+00 3.71437E+00 7.09905E-02 1.01867E-01
 -1      6255 6.30471E+00 1.30642E+00 1.02897E+00 2.72033E+00-1.73222E-02 1.17779E-01
 -1      6256 1.46419E+00 5.33504E-01 2.28374E-03-6.78264E-01 3.67371E-02-9.81219E-02
 -1      6257-4.41632E-01 7.25543E-01-1.79003E-02-9.98484E-02 4.88830E-02 9.57602E-03
 -1      6258 6.78790E+00 1.70339E+01 5.42831E+00-1.75396E+00-5.01129E-03 2.70082E-01
 -1      6259 3.83976E+00 1.66280E+01 3.43796E+00 5.76313E+00 4.87750E-01 2.38372E-01
 -1      6260 7.61003E+00 1.63558E+01 5.51924E+00-2.19547E+00-4.89143E-03 1.94412E-01
 -1      6261 1.73187E+00 2.73929E+00 3.39606E-01 1.48394E+00 3.58460E-02 4.86588E-02
 -1      6262 4.41281E+00 3.78599E+00 1.30720E+00-9.11776E-01 3.96748E-03-1.54822E-02
 -1      6263 8.01518E+00 9.98618E+00 3.38661E+00-1.99461E+00 1.10393E-01 1.87805E-01
 -1      6264 1.66594E+00 2.36154E+00 6.31016E-03 1.64076E+00 1.41756E-01 3.44034E-01
 -1      6265 3.41596E+00 3.10121E-01-3.51245E-01 8.17223E-01 1.41449E-02 5.05995E-01
 -1      6266 8.92978E+00 1.48840E+01 5.21462E+00-2.61270E+00 4.29132E-02 1.72346E-01
 -1      6267 7.50674E+00 8.95598E+00 3.75831E+00-1.89814E+00 3.36554E-02 4.66591E-02
 -1      6268 7.78454E+00 1.29054E+01 4.90446E+00 7.94994E+00 1.86078E-02-3.03347E-01
 -1      6269 6.32068E+00 7.69164E+00 1.02356E+00-1.86474E+00 2.76762E-01-5.27999E-02
 -1      6270 1.05709E+00 5.41481E-01-6.31410E-02 7.58834E-01 1.52152E-02 7.32545E-02
 -1      6271 6.39622E+00 6.66146E+00 2.68108E+00-1.41274E+00 4.65239E-03 4.75515E-02
 -1      6272 6.33384E+00 1.58662E+01 6.04226E+00 7.77868E+00-1.89341E-01 6.32436E-01
 -1      6273 7.08157E+00 1.73372E+01 5.82030E+00-2.51343E+00 7.59294E-02-7.18028E-02
 -1      6274 2.15507E+00 2.21602E+01 6.19429E+00 2.77751E+00-8.96783E-02 3.17896E-02
 -1      6275 5.13320E+00 7.93504E-01 8.56511E-02 1.68657E+00 3.24766E-02 3.75578E-01
 -1      6276 1.80060E+00 2.10379E+01 5.32826E+00 3.13421E+00 1.01125E-01 2.49013E-01
 -1      6277 2.96245E+00 2.03404E+01 5.58566E+00 8.68961E-01 1.32412E-01 3.25692E-01
 -1      6278 2.40994E+00 2.22284E+00 2.93089E-01 1.78349E+00 7.06340E-02 1.67721E-01
 -1      6279 8.71101E+00 6.17071E+00 3.04514E+00 6.23863E+00 6.14435E-02 1.68686E-01
 -1      6280 5.11661E+00 5.26012E+00 8.15526E-01-1.22245E+00 1.80976E-01-1.04228E-01
 -1      6281 2.22500E+00 4.48982E+00 7.63555E-01-8.74556E-01 1.18549E-01 9.52766E-03
 -1      6282 4.78776E+00 4.29846E+00 1.15122E+00-9.96294E-01 6.95463E-02-4.33371E-02
 -1      6283 8.58167E-01 6.95921E-01-1.89572E-02 8.16462E-01 2.75005E-02 1.13682E-01
 -1      6284 7.27249E-01 2.62086E+00 2.98333E-04 8.64431E-01 2.04017E-01 1.59230E-01
 -1      6285 4.79872E+00 5.81753E-01 1.49581E-01 1.57897E+00 9.95261E-03 2.64614E-01
 -1      6286 4.93575E-01 2.47315E+00 4.37201E-02-1.90637E-01 1.61725E-01 4.49541E-03
 -1      6287 1.89505E-01 1.65258E+00-1.61034E-02 3.80456E-01 1.27399E-01 6.75552E-02
 -1      6288 7.83917E+00 1.01839E+01 3.63040E+00-2.09861E+00 7.90882E-02 1.38191E-01
 -1      6289 1.58917E+00 5.29755E+00 2.82742E-01 8.31932E-02 3.47239E-01 1.44927E-01
 -1      6290 6.27197E+00 6.60910E+00 2.61289E+00-1.35054E+00 9.32792E-03 2.71022E-02
 -1      6291 6.63357E+00 9.80653E-01 1.12102E+00 2.79232E+00-6.12480E-02 4.96504E-02
 -1      6292 5.93432E+00 5.96655E+00 2.19399E+00-1.28554E+00 4.38884E-02 1.67323E-02
 -1      6293 4.09804E+00 4.05920E-01 1.34298E-01 1.10619E+00 1.11086E-02 1.20479E-01
 -1      6294 2.80489E+00 1.62624E-01-2.10539E-01 6.08990E-01 2.05562E-02 1.87572E-01
 -1      6295 1.72859E+00 2.87449E+00 3.64711E-01-9.22089E-01 5.50574E-02-2.15079E-02
 -1      6296 7.86482E+00 1.23466E+01 4.92374E+00-2.24922E+00-2.94527E-02 4.85917E-02
 -1      6297 1.76974E+00 1.98780E+01 4.53469E+00 3.11834E+00 1.06640E-01 3.16350E-01
 -1      6298 5.87745E+00 1.28554E+01 3.38787E+00 7.22623E+00 1.35138E-01 1.44096E-01
 -1      6299 2.17192E+00 7.80287E-02-6.99744E-02 5.40028E-01-8.70596E-02 2.84492E-01
 -1      6300 7.83351E-01 1.45895E+00-2.47615E-02 9.06935E-01 8.68846E-02 1.23954E-01
 -1      6301 2.90012E+00 1.80055E+01 3.54174E+00 4.14966E+00 1.48374E-01 4.63745E-01
 -1      6302 9.39849E+00 1.50903E+01 5.44789E+00 8.04806E+00-1.62355E-01 4.89850E-01
 -1      6303 4.51289E+00 5.23315E+00 1.19786E+00 3.78776E+00 6.35880E-02 3.78086E-01
 -1      6304 6.37519E+00 6.93845E+00 2.43333E+00-1.52150E+00 5.08041E-02 7.25859E-02
 -1      6305 2.44716E+00 6.85712E+00 3.03340E-01-5.32411E-01 4.68341E-01 7.49477E-02
 -1      6306 8.95611E+00 1.42746E+01 5.47865E+00-2.70977E+00 6.04791E-02 9.81245E-02
 -1      6307 5.40032E+00 8.26222E-01 3.11971E-01 2.14795E+00 5.29358E-02 3.53711E-01
 -1      6308 4.68951E+00 2.12474E+01 6.10940E+00 2.61176E+00 1.15659E-01 8.46772E-02
 -1      6309 1.37597E+00 2.16773E+01 5.91636E+00 2.32636E+00 9.13395E-02 2.70067E-01
 -1      6310 4.55305E+00 1.97293E+01 5.56536E+00 9.27206E-01 7.03898E-02 3.35125E-01
 -1      6311 7.19843E-01 1.50960E+01 4.12516E+00 8.18079E+00-3.84671E-02 1.16378E-01
 -1      6312 2.97678E+00 2.03545E+00 4.65012E-01-6.72404E-01 1.63424E-02-3.95798E-02
 -1      6313 1.17124E+00 3.69688E-03-1.66013E-01 2.90246E-01-8.85347E-03 5.74597E-02
 -1      6314 3.65430E+00 2.62970E-01 7.64549E-02 7.67026E-01-6.85147E-03 2.56163E-02
 -1      6315 7.05308E+00 7.93897E+00 1.98370E+00-1.72562E+00 1.36425E-01 6.60367E-02
 -1      6316 4.00961E+00 1.58662E+01 4.47283E+00 8.74128E+00-3.01926E-01 2.57324E-01
 -1      6317 6.92640E+00 1.42286E+01 5.43414E+00 9.48509E+00 5.48333E-01 2.24578E-02
 -1      6318 1.17596E+01 5.02676E+00 3.52755E+00 6.31837E+00 2.73806E-01 3.08623E-01
 -1      6319 1.68913E+00 5.34447E+00 9.59024E-01 2.88473E-01 5.78530E-02 5.30453E-02
 -1      6320 6.86159E+00 1.62733E+01 3.07176E+00-2.65498E+00 2.50218E-01 3.06538E-01
 -1      6321 7.51394E+00 1.13654E+01 2.33812E+00-2.25279E+00 2.12785E-01 2.45152E-01
 -1      6322 3.56304E+00 2.07871E+01 6.41047E+00 1.04833E+00 1.37497E-01-9.78142E-03
 -1      6323 8.37098E+00 1.38579E+01 5.39908E+00-2.63113E+00 4.18376E-02 2.91622E-02
 -1      6324 7.72220E+00 8.70347E+00 3.57723E+00-1.88287E+00 5.52134E-03 7.46742E-02
 -1      6325 2.76138E+00 6.32266E-02-2.03493E-01 4.91401E-01-1.27708E-03 4.40117E-02
 -1      6326 7.79822E+00 1.13180E+01 4.51502E+00-2.32039E+00-1.42472E-02 3.99722E-02
 -1      6327 1.05226E+01 5.14578E+00 3.62287E+00 5.76145E+00-5.97049E-03 2.12603E-01
 -1      6328 1.21423E+00 3.33781E+00 1.76804E-01-5.18797E-01 2.16672E-01-1.62419E-02
 -1      6329 8.99333E+00 1.38288E+01 5.24932E+00-2.44358E+00-1.05835E-02 1.69765E-01
 -1      6330 3.64791E+00 4.29971E+00 9.54483E-01 3.18564E+00 1.13130E-01 2.68755E-01
 -1      6331 5.59026E+00 5.44603E+00 1.40696E+00-1.18323E+00 8.92273E-02-9.53855E-03
 -1      6332 9.42828E+00 1.48065E+01 5.58114E+00-3.02697E+00 5.66949E-02 1.91485E-01
 -1      6333 5.09756E+00 4.51451E+00 1.69492E+00-9.63527E-01 1.68190E-02-1.46759E-02
 -1      6334 2.52924E+00 4.00931E+00 8.42564E-01 2.19229E+00 4.05930E-02 7.21871E-02
 -1      6335 1.16262E+00 3.39345E+00 3.03950E-02-5.83999E-01 3.32595E-01-6.63907E-02
 -1      6336 1.29004E+00 1.95229E+00 2.38480E-03-9.17427E-01 1.88606E-01-1.51176E-01
 -1      6337 2.91800E+00 1.81721E-01-3.44567E-01 6.11874E-01-5.94597E-02 5.94606E-01
 -1      6338 1.08464E+01 5.24617E+00 3.70702E+00 6.02462E+00 1.29607E-01 6.41402E-02
 -1      6339 9.05774E+00 3.73609E+00 2.49006E+00 5.07953E+00 8.51982E-02 7.11775E-02
 -1      6340 3.27772E-01-1.08028E+00-4.26455E-02-5.20367E-01-1.16557E-03-6.88768E-02
 -1      6341 3.55809E+00 3.41952E-01-1.01605E-01 1.12689E+00-1.52846E-01 6.57317E-01
 -1      6342 7.83929E+00 1.14107E+01 3.08067E+00-2.12761E+00 1.74434E-01 2.15414E-01
 -1      6343 3.95254E+00 4.60098E+00 1.36484E+00 3.19419E+00 7.55032E-02 8.42701E-02
 -1      6344 3.19592E+00 3.98403E+00 5.66825E-01 2.62888E+00 1.13292E-01 3.41585E-01
 -1      6345 4.04095E+00 4.05541E+00 2.84344E-02-1.01510E+00 2.39248E-01-3.44593E-01
 -1      6346 8.23383E+00 2.07734E+00 1.98677E+00 3.87928E+00-3.32427E-02 5.56269E-02
 -1      6347 1.89503E+00 6.79215E-02-2.35641E-01 3.39905E-01-2.17199E-02 3.02360E-01
 -1      6348 1.79105E+00 5.71210E+00 6.32116E-01 5.33669E-01 2.26448E-01 1.68282E-01
 -1      6349-1.04479E-01-3.13016E-01-1.76161E-02-9.02789E-01 2.57025E-03-1.73309E-02
 -1      6350 1.82116E+00 4.20472E-02-3.03450E-01 2.67320E-01 4.38260E-03 6.68197E-02
 -1      6351 2.65240E+00 7.65772E+00 1.89803E+00 2.46746E-01 2.42659E-03 5.00756E-02
 -1      6352 7.72028E+00 8.70591E+00 3.62339E+00-1.84931E+00 2.17239E-02 9.31853E-02
 -1      6353 1.01221E+01 4.08392E+00 2.15698E+00 5.54261E+00 6.24674E-02 5.21089E-01
 -1      6354 4.34489E+00 3.54737E+00 5.99298E-01-8.15730E-01 1.18860E-01-1.64258E-01
 -1      6355 3.27084E-01 5.17992E-01-1.32419E-02 7.12596E-01 1.01629E-02 4.00824E-02
 -1      6356 4.04663E+00 2.13948E+01 5.83421E+00-8.91329E-02 9.17229E-02 1.39766E-01
 -1      6357 1.25894E+00 3.97149E+00 2.59396E-01 7.64327E-01 2.34622E-01 1.60741E-01
 -1      6358 1.69811E+00 1.42196E+00 1.12930E-01-9.08358E-01 4.85964E-02-6.24000E-02
 -1      6359 7.62862E+00 8.66002E+00 3.72793E+00-1.94096E+00 6.23390E-03-3.87067E-02
 -1      6360 7.23418E+00 1.74365E+00 1.51439E+00 3.36368E+00 1.20494E-02 1.87622E-01
 -1      6361 4.04672E+00 3.67896E+00 2.25293E-01-8.99837E-01 2.01524E-01-2.85433E-01
 -1      6362 7.36658E+00 1.78845E+01 6.60461E+00-1.27261E+00 2.38417E-03-2.40496E-02
 -1      6363 2.28270E+00 2.04494E+00 1.70368E-01 1.71805E+00 8.31234E-02 2.38610E-01
 -1      6364 8.77753E+00 1.02509E+01 4.53523E+00-2.08802E+00 6.59593E-02-3.63657E-03
 -1      6365 4.07728E+00 5.98864E-01-2.60947E-01 1.27579E+00-2.54852E-02 6.89689E-01
 -1      6366 3.59262E+00 2.70478E+00 7.44762E-01-7.21171E-01 1.67253E-02-4.07206E-02
 -1      6367 7.48735E+00 1.69019E+01 5.83477E+00-2.25890E+00 4.05478E-02 1.61574E-02
 -1      6368 6.96472E+00 1.59375E+01 5.42957E+00-2.47802E+00 1.11333E-01-4.45601E-02
 -1      6369 3.94176E+00 9.92013E+00 2.35140E+00-4.56814E-01 1.26978E-01 1.95608E-01
 -1      6370 8.75085E+00 1.08174E+01 3.98573E+00-2.27732E+00 5.81021E-02 1.64573E-01
 -1      6371 1.02739E+00 4.35921E+00 3.98116E-02 1.07774E-01 3.43093E-01 6.85359E-02
 -1      6372 2.12404E+00 1.12923E+00 5.55361E-02-5.45473E-01 7.05285E-02-2.11600E-01
 -1      6373 5.29230E+00 1.74834E+01 5.07229E+00 8.19711E+00 8.08388E-02 7.17818E-02
 -1      6374 6.91792E+00 1.59542E+01 5.80216E+00-2.03223E+00-8.73367E-02 1.11495E-01
 -1      6375 5.69146E+00 1.27678E+01 4.13003E+00 9.76224E+00 1.52798E-01 2.81391E-01
 -1      6376 9.92861E+00 3.58031E+00 2.21646E+00 6.21775E+00 2.52537E-01 1.87174E-01
 -1      6377 8.65928E+00 1.82857E+01 6.54720E+00-2.51262E+00 1.45847E-01 4.71244E-02
 -1      6378 8.43045E+00 2.49596E+00 1.88157E+00 4.12439E+00-1.10588E-01 2.39239E-02
 -1      6379 7.86153E+00 1.48720E+01 4.51060E+00-1.87458E+00 1.46743E-01 3.86063E-01
 -1      6380 6.38830E+00 6.72930E+00 4.94934E-01-1.59291E+00 3.15163E-01-2.42031E-01
 -1      6381 1.05744E+01 4.49864E+00 2.62602E+00 5.92289E+00 8.93434E-02 1.29581E-01
 -1      6382 8.55916E+00 1.08649E+01 4.28362E+00-2.19565E+00 1.64895E-02 1.82512E-01
 -1      6383-8.32514E-01 1.41297E-01-6.57008E-03 1.90389E-01 1.93340E-02-1.42914E-03
 -1      6384 3.96249E+00 3.18471E+00 9.12736E-01-8.08130E-01 3.85057E-02-4.77927E-02
 -1      6385 2.88092E+00 8.66090E+00 1.86346E+00 8.41044E-01 6.74923E-02 1.38937E-01
 -1      6386 2.02506E+00 6.46549E+00 1.07106E+00 5.05599E-01 1.50479E-01 1.41610E-01
 -1      6387 4.19847E+00 3.82506E-01-3.16591E-02 1.07869E+00 4.80111E-03 2.73780E-01
 -1      6388 7.87731E+00 1.17273E+01 1.83548E+00-2.36088E+00 3.85852E-01 7.54151E-02
 -1      6389 1.01801E+00-2.73542E-02-5.04018E-02 1.69017E-01-1.35772E-02 8.82609E-03
 -1      6390 4.16205E-01 2.70830E-01-4.56147E-03 1.66678E-01 5.08436E-03 1.92662E-02
 -1      6391 8.03626E+00 1.88797E+01 6.46146E+00-2.45710E+00 2.26614E-01-6.35334E-02
 -1      6392-1.46333E-03 1.26617E+00-3.20886E-02 2.59671E-01 5.61358E-02 2.33943E-02
 -1      6393 2.69622E+00 7.94285E+00 1.35355E+00 3.45916E-01 1.86051E-01 2.26360E-01
 -1      6394 8.48868E+00 1.59832E+01 5.87094E+00-2.72143E+00 1.64248E-02 1.24109E-01
 -1      6395 2.63014E+00 7.82541E+00 1.97260E+00 2.46496E-01 2.30160E-02 2.96363E-02
 -1      6396 3.79536E+00 2.33830E+01 7.29751E+00 4.11147E+00-1.29197E-01 1.05352E-01
 -1      6397 9.08699E+00 1.64673E+01 6.34743E+00-2.85315E+00 8.86470E-02-1.27919E-02
 -1      6398 7.15214E+00 7.00223E+00 2.48608E+00-1.33375E+00 6.44016E-02 5.41894E-02
 -1      6399 4.86538E+00 4.70484E+00 3.97510E-02-1.03076E+00 2.40850E-01-4.15066E-01
 -1      6400-1.43971E-01 9.83764E-01-1.35691E-02 2.75509E-01 5.31189E-02 2.81704E-02
 -1      6401 3.10560E+00 8.90030E+00 2.36643E+00 3.20166E-01 3.56128E-02 9.78699E-02
 -1      6402 4.31592E+00 8.01873E+00-1.29198E-01 7.61833E+00 4.19311E-01 1.30837E+00
 -1      6403 2.97853E+00 1.53500E-01-3.16539E-01 6.02398E-01 2.80100E-02 3.13647E-01
 -1      6404 7.52953E+00 1.68474E+01 5.95858E+00-2.48616E+00 3.75007E-02 5.36726E-02
 -1      6405 5.72262E+00 8.35911E-01 6.17978E-01 2.07218E+00-4.00900E-03 1.57231E-01
 -1      6406 2.42292E+00 3.76995E+00 2.13883E-01 2.20256E+00 1.78231E-01 4.17173E-01
 -1      6407 1.13362E+01 4.23410E+00 3.23168E+00 6.40981E+00-2.19088E-01-1.07936E-02
 -1      6408-4.70701E-01 3.71352E-01-1.56339E-02-6.47693E-01 2.85075E-02-1.25947E-03
 -1      6409 1.03546E+01 2.95668E+00 2.77989E+00 5.75331E+00-1.01239E-01 5.33976E-02
 -1      6410 2.19241E+00 5.62086E+00 1.21205E+00-4.37341E-01 2.72501E-02 2.37325E-02
 -1      6411 8.73549E+00 9.89308E+00 4.11681E+00-2.02991E+00 4.32673E-02 1.23400E-01
 -1      6412 2.36953E+00 7.37498E+00 1.60656E+00 6.44088E-01 4.85569E-02 8.48199E-02
 -1      6413 1.64900E+00 5.91366E-01-5.31226E-02 9.04807E-01 1.46193E-02 2.39391E-01
 -1      6414 3.04821E+00 4.56573E+00 1.16249E+00 2.68453E+00 3.83729E-02 3.97482E-02
 -1      6415 2.23542E+00 5.22339E-02-4.07480E-01 3.47782E-01-2.24307E-02 4.59570E-01
 -1      6416 8.85238E+00 1.37545E+01 5.54032E+00-2.51941E+00-6.68568E-02 8.62786E-02
 -1      6417 2.82107E+00 4.58553E-02-4.51760E-01 4.78916E-01-8.95378E-03 3.82298E-01
 -1      6418 1.89363E+00 4.20192E+00 6.91472E-01 1.61939E+00 5.20846E-02 8.92416E-02
 -1      6419 1.96020E+00 1.93413E+00 1.80734E-01 1.50443E+00 4.45694E-02 1.10819E-01
 -1      6420 9.19694E-01 3.23351E+00 2.88757E-01 5.23344E-01 4.66561E-02 3.07909E-02
 -1      6421 8.44410E+00 1.11598E+00 1.67949E+00 3.75862E+00 4.81071E-02 1.67915E-01
 -1      6422 9.09986E+00 1.26791E+01 4.46806E+00-2.49877E+00 5.58521E-02 2.56938E-01
 -1      6423 4.31795E+00 1.13416E+01 2.64906E+00-6.64298E-03 1.40938E-01 2.74187E-01
 -1      6424 5.20974E+00 5.38115E-01 6.05805E-01 1.34561E+00 8.67862E-02 2.71520E-02
 -1      6425 7.93920E+00 8.80960E+00 3.77464E+00-1.78777E+00 5.40382E-02 6.57504E-02
 -1      6426 2.69330E+00 8.52549E+00 1.98205E+00 6.77495E-01 4.03992E-02 1.13448E-01
 -1      6427 2.87137E+00 6.58128E+00 1.39629E+00-7.37844E-01 1.05812E-01 7.08586E-02
 -1      6428 1.03842E+01 5.55740E+00 3.11582E+00 6.28915E+00 2.34453E-01-2.94546E-02
 -1      6429 1.11335E+01 1.13930E+01 4.54508E+00 8.81822E+00 1.54373E-01 5.02083E-01
 -1      6430 1.00479E+01 3.06398E+00 1.92128E+00 5.60686E+00-5.88809E-02 3.81305E-01
 -1      6431 3.22201E+00 1.00340E+01 2.80474E+00 1.42991E+00 2.06292E-02-1.82626E-02
 -1      6432 3.70522E+00 2.21307E-01-5.18963E-02 8.46154E-01 3.09189E-03 1.96829E-01
 -1      6433 2.16686E+00 1.39815E+00 1.10786E-02-6.68110E-01 1.06654E-01-2.30931E-01
 -1      6434 1.87696E+00 2.88475E+00 1.13157E-01-9.38118E-01 2.48937E-01-1.45147E-01
 -1      6435 4.19911E+00 2.23366E-01 1.88228E-01 9.80626E-01-8.83327E-04 7.79226E-02
 -1      6436 9.56715E+00 1.56167E+01 6.16027E+00-3.06597E+00-1.54708E-02 2.28705E-01
 -1      6437 2.02535E+00 6.29409E+00 1.36726E+00 5.75504E-01 1.10160E-02 1.81497E-02
 -1      6438 1.46133E+00 4.28623E+00 6.70490E-01 8.52542E-01 1.89129E-02 2.57408E-02
 -1      6439 6.12121E+00 6.14664E+00 1.00736E+00-1.36324E+00 1.93068E-01-8.85159E-02
 -1      6440 3.32487E+00 9.37624E+00 2.54023E+00 4.00021E-01 6.72100E-02 5.70330E-02
 -1      6441 8.13987E+00 9.15902E+00 3.99339E+00-1.82098E+00 4.32894E-03 5.00104E-02
 -1      6442 2.94821E+00 2.02016E-01-1.34355E-01 6.34789E-01 9.63091E-04 1.13234E-01
 -1      6443 1.41587E+00 1.57770E-01-1.07783E-01 4.83420E-01-1.32943E-02 1.19136E-01
 -1      6444 8.42590E+00 1.24770E+01 3.32065E+00-2.40491E+00 1.90328E-01 2.33605E-01
 -1      6445 2.58330E-01 1.93108E+00 3.72020E-03-3.49055E-01 8.17757E-02-3.08856E-03
 -1      6446 6.16296E+00 7.39708E-01 8.36751E-01 2.17512E+00 3.80777E-03 1.02547E-01
 -1      6447 1.45965E+00 4.23476E-01-1.09331E-02-4.94494E-01 4.73187E-02-1.60291E-01
 -1      6448 4.78448E+00 1.12608E+01 2.85549E+00-6.61366E-01 9.79760E-02 1.94032E-01
 -1      6449 8.77322E+00 1.12563E+01 4.62346E+00 9.52508E+00-1.08319E-01-8.14532E-02
 -1      6450 7.70888E+00 1.20295E+01 4.71319E+00 1.04450E+01 3.46981E-03 9.71249E-02
 -1      6451 4.43910E-01 5.39512E-01-3.85789E-02 6.96775E-01 1.12922E-02 3.97024E-02
 -1      6452 1.47403E+00 4.08784E+00 4.77882E-01 1.10889E+00 1.15239E-01 1.39518E-01
 -1      6453 1.00835E+01 1.38046E+01 5.42353E+00-2.52593E+00 5.10692E-03 1.50046E-01
 -1      6454 2.53922E+00 8.04945E+00 1.15084E+00 5.99355E-01 2.13242E-01 2.50932E-01
 -1      6455 9.98121E+00 3.97713E+00 3.24109E+00 5.05081E+00 4.06345E-02-2.60884E-01
 -1      6456 1.36486E+00 1.53343E-02-2.78529E-01 1.99131E-01-3.26062E-03 5.16936E-02
 -1      6457 6.21784E+00 6.04197E+00 2.19045E+00-1.24684E+00 3.59479E-02 3.08500E-02
 -1      6458 5.09797E+00 4.38516E+00 1.49619E+00-8.44257E-01 3.89742E-02-1.07235E-02
 -1      6459 8.05785E+00 1.76182E+01 5.08337E+00-3.02550E+00 5.71864E-02 2.15919E-01
 -1      6460 9.34729E-01-1.44545E-01-1.36518E-02-5.51133E-01 3.38205E-02-1.26479E-01
 -1      6461 6.35021E+00 6.06176E+00 1.48207E+00-1.24169E+00 1.14008E-01-3.26803E-03
 -1      6462 2.99323E+00 1.07122E-01-1.39052E-01 5.31488E-01 1.50217E-02 4.28982E-02
 -1      6463 1.41821E+00 4.78328E-02-4.79366E-02 3.00735E-01-5.15507E-02 1.32650E-01
 -1      6464 5.57634E+00 6.25842E-01 3.65456E-01 1.72933E+00-2.54994E-03 2.03411E-01
 -1      6465 9.91266E+00 1.32735E+01 5.43459E+00-2.37287E+00 1.05281E-01 6.66196E-02
 -1      6466 3.35610E+00 3.55395E+00 1.35826E-01 2.77199E+00 1.53540E-01 6.81156E-01
 -1      6467 9.88021E-01-4.10565E-02-2.92011E-02 2.66380E-01-2.80850E-02-9.18946E-04
 -1      6468 6.60529E+00 9.83558E-01 5.04817E-01 2.25812E+00 6.13475E-02 3.85877E-01
 -1      6469 2.37721E+00 3.20683E+00 6.15347E-01 2.00621E+00 1.57526E-02 4.67578E-02
 -1      6470 8.90417E+00 4.03873E+00 1.08672E+00 5.87475E+00-3.43823E-02 5.12773E-01
 -1      6471 2.65295E+00 6.57590E+00 1.15773E+00-4.23151E-01 1.47482E-01 1.01430E-01
 -1      6472 1.17505E+00 5.14795E+00 2.67395E-03 8.80685E-01 3.93253E-01 1.84640E-01
 -1      6473 3.61700E+00 1.69205E-01-1.47840E-01 7.51433E-01 2.61802E-02 2.06787E-01
 -1      6474 9.75360E+00 1.60422E+01 5.99928E+00-2.69478E+00 9.53609E-02-2.21650E-02
 -1      6475 1.11394E-01 2.07376E-01-7.22159E-03 8.36728E-01-2.79609E-02-2.27996E-02
 -1      6476-2.31759E-01 1.02252E-01-8.75186E-04 4.06034E-01 1.90354E-02-3.73176E-02
 -1      6477 2.91408E+00 1.60726E+01 4.53910E+00 9.73810E+00-2.80358E-01-6.27198E-02
 -1      6478 7.99595E+00 1.61451E+01 4.24947E+00-2.75751E+00-6.28988E-02 5.61818E-01
 -1      6479 2.06648E+00 9.14790E-01 2.50010E-03 1.14526E+00 2.48232E-02 5.70238E-02
 -1      6480 3.06000E+00 2.42072E+00 3.62326E-02-7.15130E-01 1.41473E-01-3.13630E-01
 -1      6481 2.98300E+00 8.61892E+00 1.96396E+00 2.81287E-01 1.09496E-01 1.46061E-01
 -1      6482 1.09243E+01 3.57884E+00 3.23231E+00 5.72601E+00-4.93430E-02 3.35555E-01
 -1      6483 6.04203E+00 1.73576E+01 5.96913E+00 9.29461E+00 5.09557E-02 3.88144E-02
 -1      6484 7.41080E+00 7.17708E+00 3.19779E+00-1.34336E+00-9.96949E-03-6.16219E-04
 -1      6485-1.72221E-02 3.22627E-01-4.01936E-03 6.70358E-01-4.69100E-03 9.12487E-03
 -1      6486 9.70108E-01 2.46128E+00 1.27367E-01 9.52245E-01 9.18722E-02 8.65260E-02
 -1      6487 1.10465E+01 2.40910E+00 2.91886E+00 4.51225E+00 4.68900E-02 1.57523E-01
 -1      6488 4.77476E+00 3.89032E+00 9.14500E-01-7.71389E-01 7.16939E-02-8.72113E-02
 -1      6489 3.62618E+00 6.00274E+00 1.50473E+00 3.17532E+00 8.50609E-02 1.51231E-01
 -1      6490 3.67771E+00 1.05077E+01 3.03715E+00 4.98739E-01 8.88626E-02 8.20997E-02
 -1      6491 7.62593E+00 2.35556E+00 2.15112E-01 3.85352E+00-5.14249E-03 1.06881E+00
 -1      6492 6.65003E+00 6.62312E+00 2.62425E+00-1.35069E+00 2.03153E-03 4.17471E-02
 -1      6493 5.57105E+00 4.83282E+00 1.84344E+00-9.50535E-01 2.72364E-02 1.38692E-02
 -1      6494 4.49891E+00 3.91175E-01 1.95612E-01 1.04945E+00 8.04724E-03 1.12769E-01
 -1      6495 3.58710E+00 1.63183E-01 1.55876E-02 6.77923E-01 2.89960E-03 1.81604E-02
 -1      6496 1.06545E+01 2.95220E+00 2.82104E+00 5.09195E+00-1.67612E-01 2.62724E-01
 -1      6497 2.55230E+00 1.62518E+00 7.83566E-02-5.81778E-01 9.71780E-02-2.57821E-01
 -1      6498 6.73350E+00 6.04684E+00 2.58906E+00-9.87803E-01 7.76252E-03 4.02221E-02
 -1      6499 2.29077E+00 3.27937E+00 3.24803E-01-9.99170E-01 1.81317E-01-9.72439E-02
 -1      6500-9.17527E-01 1.87341E-01-9.61354E-03-2.39712E-01 2.09086E-02 1.47327E-02
 -1      6501 6.00313E+00 5.74483E+00 1.91057E+00-1.17137E+00 5.63151E-02 3.56632E-02
 -1      6502 6.77359E-01 1.22142E+00-2.87920E-02 7.80427E-01 3.90994E-02 5.19703E-02
 -1      6503 1.43342E+00 2.26195E+00 4.58577E-02 1.28090E+00 1.50323E-01 2.47201E-01
 -1      6504 2.13578E+00 4.77552E-02-4.03513E-01 2.71360E-01 5.29948E-03 2.33214E-01
 -1      6505 1.32344E+00 4.19257E+00 2.32407E-01-7.90345E-02 2.97154E-01 6.15967E-02
 -1      6506 7.67984E+00 1.01787E+01 3.94460E+00-2.03847E+00-1.13224E-02 7.04859E-02
 -1      6507 1.02358E+01 4.93425E+00 1.87727E+00 6.62464E+00 6.28105E-02 6.26894E-01
 -1      6508 5.74325E+00 1.88803E+01 5.95885E+00 8.91840E+00-3.03576E-01 8.00349E-02
 -1      6509 7.69747E+00 7.33187E+00 3.34682E+00-1.28924E+00 1.43487E-03 8.72237E-03
 -1      6510 1.80279E+00 3.25041E+00-5.21072E-03 1.93055E+00 2.29052E-01 4.06719E-01
 -1      6511 1.85797E+00 3.38552E+00 3.66983E-01-8.38305E-01 1.61930E-01-5.11152E-02
 -1      6512 6.83494E+00 6.48100E+00 2.80653E+00-1.22189E+00 2.68356E-02 1.39930E-02
 -1      6513 3.95654E+00 2.14647E-01 1.10103E-01 7.59368E-01-3.82100E-02 6.36426E-02
 -1      6514 3.47395E+00 1.10431E+01-3.06917E-01 7.33201E+00 4.36668E-01 1.30346E+00
 -1      6515 2.34112E+00 3.58234E+00 4.14631E-01 2.07134E+00 1.06377E-01 2.74192E-01
 -1      6516 1.95731E+00 1.20881E+00-2.34877E-02 1.32306E+00 6.93393E-02 3.27172E-01
 -1      6517 4.69092E+00 3.81841E+00 1.29173E+00-7.24588E-01 2.84483E-02-2.01828E-02
 -1      6518 1.03177E+01 1.84434E+01 6.71351E+00-2.85441E+00 4.76180E-02 1.85682E-01
 -1      6519 9.41904E+00 1.10515E+01 4.92108E+00-2.18896E+00-3.19623E-02 3.44031E-02
 -1      6520 6.21785E+00 2.11710E+01 6.94595E+00 9.24002E+00-1.63255E-01-3.36256E-02
 -1      6521 4.67546E+00 7.15982E+00 2.16743E+00 3.99755E+00 1.02452E-01 1.66684E-01
 -1      6522 5.46929E+00 2.56770E+01 7.57599E+00 3.40522E+00-2.64871E-01 2.08972E-01
 -1      6523 7.59275E+00 2.54776E+01 7.65156E+00-1.18802E+00-4.49055E-02 4.36179E-01
 -1      6524 9.45072E+00 1.57741E+01 5.65421E+00 1.01247E+01 5.97217E-02-1.19955E-01
 -1      6525 5.21702E+00 4.64173E+00 1.78527E+00-9.55318E-01-7.20398E-03 4.75825E-03
 -1      6526 7.07306E+00 6.58472E-01 4.58345E-01 2.30025E+00-5.70403E-03 2.99225E-01
 -1      6527 3.21266E+00 9.38743E-02-3.63242E-01 7.24769E-01 3.80592E-02 4.32651E-01
 -1      6528 4.66332E+00 3.75899E+00 1.06162E+00-7.30285E-01 4.93206E-02-4.65563E-02
 -1      6529 1.25844E+00 3.98517E+00 4.68483E-01-1.92922E-01 1.05499E-01 2.97834E-02
 -1      6530 5.59447E+00 1.63187E+01 5.62214E+00 9.52326E+00-1.34211E-01 6.21637E-01
 -1      6531 2.19683E+00 6.25152E+00 6.91532E-01-2.95605E-02 2.41617E-01 1.53886E-01
 -1      6532 2.29980E+00 4.86787E+00 7.05042E-02-9.43937E-01 4.04938E-01-1.30630E-01
 -1      6533 2.01157E+00 7.88083E-02-3.02317E-01 3.29443E-01 7.03137E-03 1.89687E-01
 -1      6534 4.89418E+00 3.95734E+00 1.48197E+00-8.04532E-01 1.21509E-02-2.39688E-03
 -1      6535 1.78420E-01 1.91529E+00-1.89440E-02-3.07866E-01 1.67279E-01-1.32012E-02
 -1      6536 2.01640E+00 4.66247E+00 8.31672E-01 1.62784E+00 1.15684E-01 1.41682E-01
 -1      6537 2.02624E+00 5.54834E+00 1.07140E+00 8.75749E-01 5.11836E-02 6.75440E-02
 -1      6538 2.15577E+00 5.85266E+00 1.16858E+00 8.24084E-01 9.16240E-02 9.40130E-02
 -1      6539 1.77416E+00 4.54503E+00 6.92832E-01 1.38348E+00 9.73626E-02 1.30522E-01
 -1      6540 1.76946E+00 5.11591E+00 8.48067E-01 6.73126E-01 8.88322E-02 9.54760E-02
 -1      6541 1.67002E+00 4.13107E+00 5.85028E-01 1.30786E+00 9.96765E-02 1.14319E-01
 -1      6542 1.99892E+00 6.62245E-02-3.50279E-01 3.24675E-01-6.56797E-02 5.31322E-01
 -1      6543 2.01019E+00 3.63401E-02-4.38493E-01 3.18370E-01-7.94606E-02 5.27904E-01
 -1      6544 1.88344E+00 4.48134E-02-2.71786E-01 2.96186E-01-6.69976E-02 4.18185E-01
 -1      6545 1.04953E+01 1.77675E+01 6.52798E+00-2.21934E+00 5.94549E-03 1.84235E-01
 -1      6546 1.05863E+01 1.77260E+01 6.55909E+00-2.11955E+00 9.21555E-02 3.82134E-01
 -1      6547 9.86239E+00 1.53362E+01 5.69579E+00-1.53914E+00 1.52162E-02 2.69043E-01
 -1      6548 2.40660E+00 1.09919E+00 1.80153E-01-2.56575E-01-4.53522E-03-4.20537E-02
 -1      6549 2.68167E+00 1.39151E+00 2.84835E-01-2.40972E-01 4.15966E-03-2.69504E-02
 -1      6550 2.47411E+00 1.45664E+00 2.60202E-01-5.39631E-01 8.73523E-03-2.44286E-02
 -1      6551 2.77259E+00 1.76779E+00 3.77552E-01-5.59704E-01 1.09666E-02-2.47805E-02
 -1      6552 2.85771E+00 1.63959E+00 3.53475E-01-3.32405E-01 1.40296E-02-5.84038E-02
 -1      6553 9.63278E+00 6.74388E+00 3.67476E+00 4.89657E+00-9.01763E-02-1.75548E-01
 -1      6554 7.40515E+00 3.47768E+00 2.00628E+00 3.75817E+00-1.07615E-02 4.83211E-02
 -1      6555 7.50658E+00 1.94065E+00 1.75932E+00 2.28045E+00-1.20710E-01 2.25185E-02
 -1      6556 6.65972E+00 9.97369E-01 1.10307E+00 2.20091E+00-5.43179E-02-9.27914E-02
 -1      6557 9.33469E+00 8.97678E+00 4.35122E+00 7.10680E+00 9.45333E-02 3.00745E-01
 -1      6558 2.91947E+00 8.27630E+00 1.67487E+00 8.51900E-01 1.25846E-01 2.09010E-01
 -1      6559 3.26310E+00 8.69448E+00 1.81890E+00 1.23919E+00 1.03272E-01 2.07711E-01
 -1      6560 2.88911E+00 7.32691E+00 1.41790E+00 2.28402E+00 1.07545E-01 2.45734E-01
 -1      6561 2.57684E+00 7.35966E+00 1.29498E+00 1.07853E+00 1.53531E-01 2.15695E-01
 -1      6562 3.01160E+00 8.16513E+00 1.57133E+00 1.43148E+00 1.96599E-01 2.18916E-01
 -1      6563 3.24879E+00 8.77592E+00 1.78068E+00 2.78906E-02 1.22431E-01 2.06227E-01
 -1      6564 5.17135E+00 1.43981E+00-2.79296E-01 1.61217E+00-1.02165E-02 6.95432E-01
 -1      6565 4.24649E+00 6.51201E-01-6.25964E-01 1.35251E+00 1.00226E-02 6.30724E-01
 -1      6566 4.09216E+00 6.39485E-01-6.43958E-01 1.26152E+00-9.51124E-03 6.91173E-01
 -1      6567 1.05397E+01 1.53713E+01 5.87391E+00-1.86036E+00 1.26517E-01 2.74823E-01
 -1      6568 1.00183E+01 1.37620E+01 5.23829E+00-1.44252E+00 7.28927E-02 1.50136E-01
 -1      6569 1.35656E+01 1.44367E+01 6.49417E+00-1.68902E+00-2.46510E-02 2.58041E-01
 -1      6570 1.34891E+01 1.46624E+01 6.60234E+00-1.89129E+00 2.89579E-02 2.18751E-01
 -1      6571 1.41203E+01 1.59459E+01 7.19549E+00-2.08129E+00-1.74330E-02 1.36952E-01
 -1      6572-5.39904E-03 1.07084E+00-2.36899E-02-6.25023E-01 9.27145E-02-2.39541E-02
 -1      6573 7.19287E-02 1.04418E+00-3.13870E-02-6.95848E-01 3.89121E-02-2.37444E-02
 -1      6574 5.89550E-02 1.51104E+00-2.41333E-02-3.63544E-01 5.68698E-02 1.50526E-04
 -1      6575 1.20160E-01 1.75357E+00-8.45918E-03-3.08882E-01 9.18247E-02 6.37882E-03
 -1      6576 1.93921E-01 1.70792E+00-6.64493E-03-4.09754E-01 4.36209E-02-5.09921E-03
 -1      6577 1.46491E-01 1.24653E+00-1.98936E-02-6.65207E-01 7.83380E-02-2.37760E-02
 -1      6578 5.29893E+00 5.47828E+00 1.84332E+00 3.82362E+00 8.69133E-02 1.51577E-01
 -1      6579 4.16446E+00 5.01535E+00 1.44569E+00 3.00004E+00 5.75932E-02 1.37389E-01
 -1      6580 3.49174E+00 8.94414E+00 2.41319E+00 3.38670E+00 4.07341E-02 1.05283E-01
 -1      6581 5.39197E+00 6.10305E+00 2.06329E+00 4.25595E+00-2.09911E-02 1.77490E-01
 -1      6582 4.55898E+00 6.18510E+00 1.86539E+00 3.32314E+00-1.16247E-02 1.69113E-01
 -1      6583 5.51038E+00 1.79922E+00 8.86020E-01 3.07135E+00 1.01724E-02 1.45380E-01
 -1      6584 7.91787E+00 8.43462E+00 2.92788E+00-1.27130E+00 6.17578E-02 9.83473E-02
 -1      6585 7.45266E+00 7.78300E+00 2.59079E+00-1.09765E+00 5.20709E-02 1.03713E-01
 -1      6586 7.37782E+00 7.61845E+00 2.56062E+00-1.03439E+00 5.30102E-02 1.05496E-01
 -1      6587 3.40132E+00 2.62407E+00 1.86089E-01-5.58570E-01 1.10689E-01-2.72035E-01
 -1      6588 3.28795E+00 2.52821E+00 1.34607E-01-5.37191E-01 1.19857E-01-2.84639E-01
 -1      6589 3.97060E+00 3.05813E+00 3.11557E-01-4.93899E-01 1.04803E-01-2.63658E-01
 -1      6590 3.87667E+00 2.97754E+00 2.44173E-01-4.80442E-01 1.03405E-01-2.86603E-01
 -1      6591 2.97662E+00 2.96361E+00 9.87791E-02-9.25082E-01 2.03920E-01-2.46263E-01
 -1      6592 7.03851E+00 7.36081E+00 3.12060E+00-1.04378E+00 2.40939E-02-7.97115E-04
 -1      6593 7.28616E+00 7.73073E+00 3.29305E+00-1.12923E+00-2.95047E-02 1.80967E-02
 -1      6594 6.90373E+00 7.04917E+00 2.96755E+00-9.78854E-01-1.09186E-03 9.27223E-03
 -1      6595 3.84747E+00 2.76239E+00 6.20334E-01-4.23044E-01 3.90200E-02-1.10658E-01
 -1      6596 4.11037E+00 3.11284E+00 7.90016E-01-4.74032E-01 3.37052E-02-8.06996E-02
 -1      6597 4.05312E+00 3.04200E+00 7.15397E-01-4.56289E-01 4.31366E-02-1.02642E-01
 -1      6598 1.04218E+01 7.45026E+00 4.08065E+00 5.16456E+00 7.66669E-02 7.05770E-02
 -1      6599 5.59724E+00 5.15901E+00 4.48238E-01-8.78060E-01 1.76364E-01-3.08565E-01
 -1      6600 5.18265E+00 4.72396E+00 3.66059E-01-7.63060E-01 1.58000E-01-3.29849E-01
 -1      6601 5.63982E+00 5.15636E+00 5.32751E-01-8.25373E-01 1.35362E-01-2.68900E-01
 -1      6602 5.26250E+00 1.38703E+01 3.59021E+00 2.11419E+00 2.16632E-01 3.76892E-01
 -1      6603 4.13606E+00 1.28549E+01 2.89337E+00 3.59065E+00-2.73072E-01 5.22799E-01
 -1      6604 5.20013E+00 1.04374E+01 2.52172E+00 5.62598E+00 4.84906E-02 3.35439E-01
 -1      6605 4.77820E+00 1.31605E+01 3.17544E+00 3.97318E+00 1.55930E-01 3.72698E-01
 -1      6606 1.08772E+00 1.23142E+01 2.05527E+00 6.17873E+00 4.67177E-01 5.11452E-02
 -1      6607 5.48740E+00 1.84399E+01 5.06460E+00 5.50545E-01 2.68334E-01 4.37088E-01
 -1      6608 6.71177E+00 8.55426E+00 3.20975E+00 4.29751E+00 6.38877E-02-9.42165E-01
 -1      6609 1.34540E+01 3.48868E+01 1.33919E+01 5.34546E+00-3.65375E-01 3.86336E-02
 -1      6610 1.19410E+01 3.12933E+01 1.22102E+01 4.59437E+00 6.73665E-01-4.82098E-02
 -1      6611 5.35334E+00 4.37142E+00 1.33316E+00-5.52726E-01 2.96627E-02-1.89363E-02
 -1      6612 5.38289E+00 4.42977E+00 1.39666E+00-5.60550E-01 3.86627E-02-2.91959E-02
 -1      6613 5.65798E+00 4.71458E+00 1.52397E+00-6.23069E-01 2.49620E-02 4.30195E-03
 -1      6614-1.76617E-01-1.82487E-01 1.88136E-02-3.25504E-01-1.08797E-02 8.28960E-03
 -1      6615-3.39176E-01-1.11475E-01 4.44618E-03-4.77137E-01-9.61524E-03 1.23975E-02
 -1      6616-1.70065E-01-3.06949E-01-1.05309E-03-6.68750E-01-6.47333E-03 6.51031E-04
 -1      6617-2.76472E-01-1.50521E-01-9.03096E-03-7.04906E-01-7.18530E-03-2.61112E-03
 -1      6618-1.60190E-01-3.19947E-01 9.72785E-03-6.10161E-01-7.27973E-03 4.65656E-03
 -1      6619 4.98104E+00 7.59205E+00 2.53198E+00 3.85216E+00 6.26526E-02 1.35478E-01
 -1      6620 4.61250E+00 7.52584E+00 2.38492E+00 3.33156E+00 3.15985E-02 1.19142E-01
 -1      6621 4.42248E+00 1.29704E+01 3.87882E+00 1.81570E+00 7.11949E-03 5.43227E-02
 -1      6622 5.07540E+00 1.41323E+01 4.54342E+00 4.10417E+00 5.76519E-02 1.70316E-01
 -1      6623 4.92762E+00 1.42816E+01 4.42332E+00 3.16366E+00 1.37222E-01 1.07074E-01
 -1      6624 5.26447E+00 5.53877E+00 1.84919E+00 4.48698E+00 5.69323E-03-6.69075E-03
 -1      6625 1.07573E+01 3.14927E+01 1.11962E+01 5.13574E+00 6.35633E-01-3.10154E-01
 -1      6626 7.96225E+00 1.27723E+01 5.01306E+00 4.68356E+00-8.87410E-02 2.36082E-01
 -1      6627 9.61884E+00 2.93792E+01 1.05551E+01 3.43507E+00 1.28203E-01 3.47565E-01
 -1      6628 3.80489E+00 2.96488E+00 8.99769E-01-5.40413E-01 1.86119E-02-1.94774E-02
 -1      6629 4.01475E+00 3.22433E+00 1.02545E+00-5.99777E-01 7.46550E-03-1.46090E-02
 -1      6630 3.70067E+00 2.81317E+00 8.34486E-01-5.14279E-01 2.93431E-02-3.22428E-02
 -1      6631 1.00330E+01 2.19152E+01 8.52481E+00-9.05072E-01 7.47905E-02 1.62636E-01
 -1      6632 1.13131E+01 1.90577E+01 7.68265E+00-1.02918E+00 1.09879E-01-2.94708E-01
 -1      6633 1.21301E+01 2.02349E+01 8.17332E+00-1.45725E+00-7.55875E-02 2.13377E-01
 -1      6634 5.31980E+00 1.46471E+00-1.66981E-01 1.76733E+00 7.05111E-02 5.54384E-01
 -1      6635 4.46599E+00 6.25361E-01-5.60892E-01 1.43719E+00-3.54615E-02 5.55267E-01
 -1      6636 6.99662E+00 3.28605E+00 8.87243E-01 3.95972E+00 1.43348E-01 5.59427E-01
 -1      6637 4.93727E+00 9.06000E-01-4.00847E-01 1.58273E+00 3.13840E-03 6.10633E-01
 -1      6638 9.58210E+00 9.21560E+00 4.32362E+00-1.31338E+00 1.10942E-02 5.64250E-02
 -1      6639 1.02465E+01 9.94405E+00 4.73000E+00-1.42406E+00 2.22866E-02 8.02210E-02
 -1      6640 9.32810E+00 9.09608E+00 4.20273E+00-1.15737E+00-2.36090E-02 1.55572E-01
 -1      6641 8.26141E+00 1.38989E+01 4.82855E+00 6.00342E+00 3.19339E-01-9.40062E-02
 -1      6642 8.14135E+00 2.62867E+01 9.04449E+00 4.90253E+00 3.68741E-01-3.97675E-01
 -1      6643 4.76595E+00 9.76096E+00 3.40878E+00 3.67489E+00 5.50250E-02-3.11538E-01
 -1      6644-9.27775E-02 1.13342E+00-3.38436E-02-4.62823E-01 5.21481E-02-4.29845E-03
 -1      6645-8.52073E-02 1.28634E+00-3.50377E-02-2.74280E-01 5.40807E-02 4.69571E-04
 -1      6646-3.15373E-01 7.94526E-01-2.54780E-02-3.63292E-01 3.02150E-02 1.00959E-03
 -1      6647-3.12619E-01 9.14538E-01-2.44513E-02-1.86219E-01 2.80495E-02 4.86919E-03
 -1      6648-2.25837E-01 1.08275E+00-2.66557E-02-1.82239E-01 8.11182E-02 2.73059E-03
 -1      6649 3.13141E+00 7.70231E+00 1.04786E+00 2.90482E+00 1.73970E-01 5.44736E-01
 -1      6650 3.92123E+00 4.18077E+00 3.89021E-01 3.02177E+00 8.84070E-02 5.58707E-01
 -1      6651 3.90001E+00 4.61256E+00 6.42441E-01 2.88615E+00 1.93160E-01 5.14988E-01
 -1      6652 3.40553E+00 5.73000E+00 6.85493E-01 2.78520E+00 1.54641E-01 5.12138E-01
 -1      6653 3.74952E+00 2.59175E+00 5.73685E-02 2.63325E+00 1.36956E-01 6.16853E-01
 -1      6654 3.40454E+00 5.69161E+00 5.53937E-01 3.03803E+00 1.68883E-01 5.53007E-01
 -1      6655 3.65563E+00 3.18773E+00 9.26938E-01-7.97980E-01 2.00606E-02-7.56600E-03
 -1      6656 3.99737E+00 2.70855E+00 8.92981E-01-2.91180E-01-6.13784E-03-4.99057E-03
 -1      6657 4.16460E+00 3.34442E+00 1.11894E+00-7.19420E-01 8.66925E-03-1.29057E-02
 -1      6658 4.25861E+00 3.10833E+00 1.07186E+00-4.20300E-01 5.52628E-03-1.68520E-02
 -1      6659 3.90567E+00 3.63543E+00 1.11167E+00-9.83753E-01 1.86716E-02 5.34500E-04
 -1      6660 4.11679E+00 2.98160E+00 8.13340E-01-4.46599E-01 2.21077E-02-8.96743E-02
 -1      6661 4.17952E+00 3.07241E+00 8.77506E-01-4.59487E-01 2.56915E-02-6.54986E-02
 -1      6662 4.40683E+00 3.35939E+00 9.93629E-01-4.86605E-01 2.07322E-02-5.75955E-02
 -1      6663 1.42276E-01 5.10328E-01-2.96311E-02 6.14966E-01 5.74635E-03 1.84847E-02
 -1      6664 3.17501E-01 4.72515E-01-2.91630E-02 6.62319E-01 8.22361E-03 1.85200E-02
 -1      6665-6.81910E-02 3.80329E-01-9.99986E-03 6.02597E-01 7.34608E-04 4.01725E-03
 -1      6666 8.73701E-02 3.65404E-01-1.71924E-02 6.64282E-01 2.49957E-03 5.65107E-03
 -1      6667 1.92063E-01 4.44062E-01-1.48569E-02 6.64846E-01 5.60743E-03 2.61280E-02
 -1      6668 8.58894E+00 2.40685E+00 1.89920E+00 3.63541E+00 3.34511E-01 1.77904E-01
 -1      6669 6.52195E+00 1.00473E+01 3.53159E+00 5.80106E+00 5.19224E-02 1.82776E-01
 -1      6670 7.88177E+00 6.12874E+00 2.78257E+00 4.48959E+00 1.44569E-01 1.88621E-01
 -1      6671 9.59826E+00 8.04562E+00 3.91675E+00 5.29975E+00-7.57877E-02-1.22185E-01
 -1      6672 7.63495E+00 1.54608E+01 5.30520E+00 7.13212E+00 1.75464E-01 2.84785E-01
 -1      6673 7.95305E+00 1.08969E+01 4.33184E+00 7.04637E+00-2.45103E-01 9.88301E-03
 -1      6674 1.39355E-01 1.46005E+00-3.71703E-03-6.95959E-01 1.01006E-01-4.23796E-02
 -1      6675 2.62556E-01 1.61806E+00-2.13954E-02-5.36814E-01 1.38139E-01-4.00646E-02
 -1      6676-9.56289E-02 1.43248E+00-1.38561E-02-4.09499E-01 8.75166E-02-8.87167E-03
 -1      6677-5.56441E-02 1.58450E+00-3.27447E-02-4.17573E-01 9.36347E-02 4.51237E-04
 -1      6678 7.22481E-02 1.68059E+00-1.37575E-02-2.69368E-01 1.36819E-01-9.68632E-04
 -1      6679 3.89776E-01 1.76328E+00-1.28884E-03-5.60359E-01 1.58382E-01-5.25079E-02
 -1      6680 2.47257E+00 1.73334E+00 3.10604E-01-6.97849E-01 7.70049E-03-2.50243E-02
 -1      6681 1.16968E+01 1.30254E+01 6.19796E+00-1.87447E+00 3.39202E-02 4.74645E-02
 -1      6682 1.05510E+01 1.11282E+01 5.38528E+00-1.27875E+00 7.76125E-02-4.07003E-03
 -1      6683 1.07461E+01 1.15789E+01 5.48200E+00-1.34190E+00-7.64008E-03-1.89090E-02
 -1      6684 3.88092E+00 1.09972E+01 2.71967E+00 2.23809E+00 8.87730E-02 1.69155E-01
 -1      6685 3.55875E+00 1.00289E+01 2.34566E+00 1.99550E+00 9.32813E-02 1.98361E-01
 -1      6686 3.64229E+00 8.25689E+00 1.88075E+00 3.31264E+00 7.81941E-02 1.92987E-01
 -1      6687 3.61180E+00 9.45297E+00 2.21513E+00 1.28644E+00 6.35221E-02 2.11234E-01
 -1      6688 4.19186E+00 1.15055E+01 2.92603E+00 2.29525E-01 9.37435E-02 2.12627E-01
 -1      6689 8.59173E-01-2.20186E-01-5.27649E-02-4.50814E-01 2.21657E-02-8.69332E-02
 -1      6690 9.14279E-01-1.22002E-01-4.61588E-02-4.66525E-01 3.24584E-02-1.09592E-01
 -1      6691 1.26064E+00-1.11933E-03-2.65182E-02-3.19714E-01 1.58211E-02-9.24160E-02
 -1      6692 1.34200E+00 1.10644E-01-1.01946E-02-3.34551E-01 2.17716E-02-1.17415E-01
 -1      6693 1.01430E+00 2.96400E-01-2.91852E-02-7.54261E-01 4.73673E-02-1.02357E-01
 -1      6694 1.70736E-01-4.54930E-01-2.04482E-02-2.21620E-01-2.68340E-02 2.18255E-03
 -1      6695 2.68142E-02-5.80371E-01-3.50870E-02-3.44689E-01-4.34729E-02 2.10724E-02
 -1      6696 9.54517E-03-2.44340E-01-3.68822E-02-2.50265E-01-1.51523E-02-1.66518E-03
 -1      6697 1.01646E-01 3.21332E-01 5.95912E-02-3.04498E-01 7.47626E-03-4.00909E-02
 -1      6698 8.51987E-02 1.70923E-01 3.97840E-03-2.00224E-01-4.19791E-03-1.73421E-02
 -1      6699 2.77751E+00 3.71092E+00 7.02160E-01-9.55505E-01 9.29021E-02-4.14887E-02
 -1      6700 2.34955E+00 4.28692E+00 7.91082E-01-9.14783E-01 9.38470E-02 9.68143E-03
 -1      6701 2.82241E+00 3.52156E+00 6.88651E-01-9.75726E-01 6.62159E-02-4.28353E-02
 -1      6702 2.50013E+00 3.19586E+00 4.84499E-01-9.41986E-01 1.32653E-01-7.53523E-02
 -1      6703 2.07634E+00 3.72157E+00 5.61206E-01-8.33055E-01 1.02207E-01-2.44820E-02
 -1      6704 2.00276E+00 3.88194E+00 5.53222E-01-7.95315E-01 1.27121E-01-2.28735E-02
 -1      6705 4.23460E+00 6.46630E+00 1.35504E+00 3.25333E+00 1.03676E-01 3.45205E-01
 -1      6706 3.89521E+00 5.09531E+00 7.88869E-01 3.10088E+00 1.07261E-01 4.22130E-01
 -1      6707 3.25109E+00 8.35265E+00 1.47232E+00 2.38483E+00 1.74259E-01 3.28296E-01
 -1      6708 3.53672E+00 1.01571E+01 2.07891E+00 2.94480E+00 9.71265E-02 3.72298E-01
 -1      6709 3.23906E+00 8.92374E+00 1.59993E+00 3.08438E+00 4.84217E-02 3.21184E-01
 -1      6710 4.45949E+00 5.90193E+00 1.19378E+00 3.70796E+00 1.30064E-01 4.60163E-01
 -1      6711 1.06955E+01 1.78000E+01 7.25589E+00-1.84562E+00 3.66297E-01-2.22445E-01
 -1      6712 1.02117E+01 2.43346E+01 9.58044E+00-1.13587E+00 7.29770E-01-3.79353E-01
 -1      6713 1.18249E+01 1.90612E+01 7.67898E+00-2.47307E+00-1.77491E-02-1.93171E-01
 -1      6714 4.45000E+00 1.23255E+01 3.78225E+00 8.08003E-01 5.50314E-02-1.22037E-02
 -1      6715 4.04122E+00 1.02897E+01 3.13231E+00 3.59130E+00 4.93358E-03 6.06030E-02
 -1      6716 4.77331E+00 1.24477E+01 3.90964E+00 1.46564E+00 2.18846E-02 5.70983E-02
 -1      6717 5.65351E+00 1.27921E+01 4.28240E+00-1.32193E+00 3.74568E-02 7.39014E-02
 -1      6718 5.02694E+00 1.27019E+01 4.09850E+00 1.28423E+00 1.58529E-01-1.78229E-02
 -1      6719 4.57163E+00 1.24049E+01 3.86801E+00 5.60260E-01-4.74218E-02 2.18423E-03
 -1      6720 8.94320E+00 6.84946E+00 3.34103E+00 4.98120E+00 1.54892E-01-2.62868E-01
 -1      6721 8.84824E+00 8.54405E+00 4.17638E+00 5.59255E+00 3.10538E-01-1.00183E-01
 -1      6722-1.67451E-01 4.76358E-01-1.62752E-02 4.88778E-01 1.17297E-02 8.78152E-03
 -1      6723 1.01197E-01 5.72249E-01-1.75058E-02 5.80569E-01 2.08291E-02 3.21852E-02
 -1      6724-1.20314E-01 4.31224E-01-4.29762E-03 5.59822E-01 1.18696E-02 1.43357E-02
 -1      6725 3.66956E+00 2.77799E+00-4.89511E-02 3.10252E+00 7.18783E-02 6.46425E-01
 -1      6726 3.20945E+00 5.27373E+00 1.76877E-01 2.77220E+00 2.67611E-01 6.73352E-01
 -1      6727 2.49681E+00 5.04378E+00 7.87291E-02 2.60826E+00 3.13829E-01 4.83191E-01
 -1      6728 3.15322E+00 3.13249E+00 1.88043E-02 2.82565E+00 1.14797E-01 5.60426E-01
 -1      6729 2.83447E+00 5.16572E+00 1.69568E-01 2.46646E+00 2.33888E-01 5.71953E-01
 -1      6730 4.03550E+00 3.46440E+00 1.91007E-01 3.13150E+00 8.79936E-02 7.99278E-01
 -1      6731 7.23122E+00 8.82528E-01 1.25164E+00 2.42531E+00 4.28616E-02-1.62117E-01
 -1      6732 6.29523E+00 2.49479E+00 1.36254E+00 1.87165E+00 4.31052E-01-2.91282E-01
 -1      6733 1.05316E+01 2.87242E+00 2.34333E+00 4.20663E+00 5.35459E-01-2.29075E-01
 -1      6734 1.08166E+01 1.32008E+01 4.96406E+00-1.58772E+00 1.14287E-01 2.11769E-01
 -1      6735 1.12431E+01 1.37420E+01 5.29119E+00-1.63224E+00 4.77381E-02 1.33489E-01
 -1      6736 1.22150E+01 1.61848E+01 6.11112E+00-2.36551E+00 5.08443E-02 1.08871E-01
 -1      6737 8.41894E+00 8.35429E+00 3.69663E+00-1.02425E+00 2.81334E-02 3.65587E-02
 -1      6738 8.50331E+00 8.50276E+00 3.75598E+00-1.04544E+00 1.59771E-02 5.70795E-02
 -1      6739 8.99563E+00 9.28764E+00 4.12764E+00-1.27528E+00-1.65606E-03 4.22321E-02
 -1      6740 7.11579E+00 1.76520E+01 6.32336E+00 3.47009E+00 1.10240E+00-1.07132E-01
 -1      6741 1.14359E+01 2.74760E+01 1.11871E+01 9.43849E+00 4.17031E-01-1.60472E-01
 -1      6742 1.11104E+01 2.76593E+01 1.08662E+01 7.13888E+00 9.56674E-03 1.15681E-01
 -1      6743 4.03615E+00 9.58838E+00 2.43418E+00 4.70563E-01 9.13816E-02 1.77531E-01
 -1      6744 4.53812E+00 1.05503E+01 2.83242E+00-5.82384E-01 6.18801E-02 1.89839E-01
 -1      6745 4.43594E+00 9.42418E+00 2.38795E+00-9.97509E-01 1.28737E-01 1.59231E-01
 -1      6746 3.36275E+00 2.43652E+00 5.09535E-01-5.04198E-01 4.40511E-02-1.06471E-01
 -1      6747 3.44135E+00 2.51460E+00 5.65000E-01-5.04277E-01 4.70261E-02-9.00933E-02
 -1      6748 3.63767E+00 2.76162E+00 6.49463E-01-5.46869E-01 3.79374E-02-8.26794E-02
 -1      6749 7.97538E+00 2.60691E+01 9.23152E+00 4.46119E+00-3.15963E-01 2.00144E-01
 -1      6750 1.46109E+00 4.46281E+00 4.82005E-01 4.63633E-05 1.98753E-01 6.07434E-02
 -1      6751 1.77663E+00 4.97004E+00 6.08609E-01 5.38099E-01 1.72313E-01 1.17906E-01
 -1      6752 1.44392E+00 4.21299E+00 4.80608E-01 6.69889E-01 1.29868E-01 9.85658E-02
 -1      6753 1.24463E+00 3.95733E+00 3.61589E-01 4.48512E-01 1.96411E-01 1.11276E-01
 -1      6754 1.47878E+00 4.24243E+00 4.18033E-01 1.04365E+00 1.65646E-01 1.51052E-01
 -1      6755 1.56639E+00 4.65666E+00 4.61883E-01 2.80723E-01 2.30093E-01 1.27292E-01
 -1      6756 5.37130E+00 4.82860E+00 1.54919E+00-7.34218E-01 3.18376E-02 5.49829E-03
 -1      6757 5.64859E+00 5.14526E+00 1.70301E+00-7.98446E-01 2.33227E-02 1.92187E-02
 -1      6758 6.31077E+00 5.25127E+00 1.96429E+00-6.00774E-01 9.12158E-03-9.22888E-03
 -1      6759 6.59950E+00 5.57986E+00 2.13672E+00-6.47735E-01-1.34330E-03 1.87145E-02
 -1      6760 5.22032E+00 5.51823E+00 1.74258E+00-1.23825E+00 5.59135E-02 3.56747E-02
 -1      6761 9.73376E+00 1.15389E+01 3.97226E+00-1.62732E+00 1.83718E-01 2.04675E-01
 -1      6762 9.03160E+00 1.02454E+01 3.32338E+00-1.24287E+00 9.28027E-03 3.01177E-01
 -1      6763 9.00020E+00 1.00835E+01 3.30206E+00-1.28362E+00 6.14047E-02 1.99785E-01
 -1      6764 1.22064E+01 2.64298E+01 9.21994E+00-2.57455E+00 1.03732E+00-2.37862E-01
 -1      6765 1.14954E+01 1.98787E+01 7.01090E+00-2.66290E+00 2.91905E-01 1.41952E-02
 -1      6766 1.17064E+01 1.86320E+01 6.77484E+00-2.09808E+00 3.19702E-01-3.82201E-01
 -1      6767 3.75963E+00 1.11177E+01 3.04320E+00 2.67894E+00 3.93168E-02 1.61369E-01
 -1      6768 4.12361E+00 1.29073E+01 3.65129E+00 2.71452E+00 1.92074E-01 1.50613E-01
 -1      6769 3.80623E+00 1.13241E+01 3.14390E+00 3.35671E+00-1.41916E-02 9.20293E-02
 -1      6770 5.16402E+00 1.21103E+01 3.73876E+00 5.70680E-01 4.62995E-02 8.66221E-02
 -1      6771 6.12903E+00 1.40474E+01 4.59559E+00-2.34893E-01 2.22376E-02 1.65936E-01
 -1      6772 5.34972E+00 1.22367E+01 3.84290E+00-1.54766E-02 8.61312E-02 1.46067E-01
 -1      6773 7.95195E+00 8.48658E+00 2.91210E+00-1.23239E+00 2.51266E-02 1.19450E-01
 -1      6774 9.85793E+00 7.38306E+00 3.74880E+00 5.30935E+00 8.72058E-01-2.11928E-01
 -1      6775 1.18569E+01 9.42650E+00 5.13221E+00 7.92061E+00 3.50766E-01-2.28997E-02
 -1      6776 3.19037E+00 2.09863E+00 4.47766E-01-4.64346E-01 1.87274E-02-9.51324E-02
 -1      6777 2.96615E+00 1.86731E+00 3.66132E-01-4.36196E-01 9.88790E-03-9.89211E-02
 -1      6778 3.20935E+00 2.15324E+00 4.88021E-01-4.65143E-01 2.03765E-02-7.84702E-02
 -1      6779 1.29337E+01 3.16565E+01 1.13926E+01 4.19100E+00-5.87822E-01 1.02411E-01
 -1      6780 1.14070E+01 3.04217E+01 1.16204E+01 4.02466E+00-1.20891E-02-2.71606E-02
 -1      6781 7.24422E+00 1.13735E+01 5.29361E+00 5.10405E+00 5.94994E-01 1.02311E-01
 -1      6782-4.96197E-01-2.55008E-02-1.03521E-02-6.13884E-01 5.54436E-04 1.18920E-02
 -1      6783-2.89265E-01-1.52648E-01-7.88921E-03-7.95492E-01 6.33043E-03 2.37151E-03
 -1      6784 1.19082E+01 1.24583E+01 5.94966E+00-1.61400E+00-2.66989E-02 1.48036E-01
 -1      6785 1.29953E+01 1.40965E+01 6.73212E+00-1.88659E+00-8.45290E-02 9.17703E-02
 -1      6786 8.40568E+00 1.15214E+01 4.61819E+00-2.08797E+00 1.31871E-02 1.66583E-01
 -1      6787 4.51801E+00 9.66355E+00 3.01942E+00-1.04050E+00 5.63668E-02 6.20785E-02
 -1      6788 3.93713E+00 9.59681E+00 2.83989E+00 2.62944E-01 5.50802E-02-1.71845E-03
 -1      6789 5.03594E+00 9.76235E+00 3.26642E+00-1.22783E+00-2.16834E-02 1.12679E-01
 -1      6790 3.08957E+00 2.32164E+00 1.08356E-01-4.90956E-01 9.60628E-02-2.81249E-01
 -1      6791 2.03503E+00 5.58599E+00 8.68969E-01 3.18325E-02 1.58094E-01 8.71249E-02
 -1      6792 1.87835E+00 5.22948E+00 7.90817E-01 9.08786E-01 1.45570E-01 1.32506E-01
 -1      6793 1.84838E+00 5.31922E+00 7.53429E-01 9.58636E-01 1.48648E-01 1.56173E-01
 -1      6794 2.13896E+00 6.22964E+00 1.09807E+00 4.44964E-01 1.48958E-01 1.32157E-01
 -1      6795 2.11249E+00 5.87559E+00 9.09323E-01 7.85970E-02 1.80773E-01 9.87492E-02
 -1      6796 2.28187E+00 1.37162E+00 2.04262E-01-5.32135E-01 2.74982E-02-6.68661E-02
 -1      6797 2.21341E+00 1.30412E+00 1.63353E-01-5.23660E-01 3.61320E-02-9.06787E-02
 -1      6798 2.00505E+00 1.04689E+00 1.15942E-01-4.75756E-01 2.19406E-02-7.38031E-02
 -1      6799 3.77628E+00 1.00160E+01 2.94565E+00 2.94839E+00 4.66070E-02-2.11386E-02
 -1      6800 4.43508E+00 1.28850E+01 3.94025E+00 3.05008E+00 6.96454E-02-2.88362E-02
 -1      6801 4.00180E+00 1.09654E+01 3.35975E+00 3.28746E+00-1.96035E-01-1.05329E-01
 -1      6802 4.12454E+00 9.46994E+00 2.92616E+00 2.82802E-01 1.71998E-02 1.17249E-02
 -1      6803 4.97561E+00 1.14824E+01 3.78955E+00-4.55646E-01-2.88862E-02 3.21315E-02
 -1      6804 4.79240E+00 1.08869E+01 3.50726E+00-4.15326E-01 2.07917E-03-8.51158E-03
 -1      6805 1.91794E-01-3.83106E-01-2.60588E-02-1.24784E-01-2.70555E-02 2.08394E-03
 -1      6806 1.62290E-01-1.32995E-02 5.61923E-03-1.48018E-01-1.04339E-02-2.33741E-03
 -1      6807 1.15514E-01 1.75637E-01 2.84598E-02-1.09337E-01 1.17583E-02-9.21742E-03
 -1      6808 5.93391E+00 1.50605E+01 5.07198E+00-9.19907E-02 1.33306E-01 4.99378E-02
 -1      6809 5.58415E+00 1.41268E+01 4.71479E+00-1.55742E-01-1.24925E-02 2.65871E-02
 -1      6810 5.84579E+00 1.01578E+01 3.66310E+00-1.59003E+00-1.03393E-01 1.31739E-01
 -1      6811 1.13248E+01 2.21318E+01 7.58642E+00 8.79307E+00 3.70888E-01 4.17529E-01
 -1      6812 1.03800E+01 2.24798E+01 7.68668E+00 7.94625E+00 3.05915E-04 6.74748E-01
 -1      6813 6.89573E+00 7.46075E+00 2.20393E+00 4.55300E+00 1.08837E-01 6.06910E-01
 -1      6814 3.13841E+00 7.64734E+00 1.62203E+00 2.51981E+00 1.09097E-01 2.49272E-01
 -1      6815 3.80517E+00 4.13266E+00 8.21325E-01 2.83007E+00 7.24016E-02 2.86195E-01
 -1      6816 3.24847E+00 3.88576E+00 6.59222E-01 2.33528E+00 1.12893E-01 2.65419E-01
 -1      6817 4.02422E+00 4.06607E+00 8.65359E-01 3.03386E+00 6.36942E-02 2.87674E-01
 -1      6818 3.52643E-01-2.99127E-01 1.42788E-02 3.84045E-01 1.82882E-04 3.07149E-02
 -1      6819 1.84363E-01-4.97398E-01-5.14980E-02 1.16402E-01-2.05011E-02 2.83467E-02
 -1      6820 2.62278E-01-8.27497E-01-1.17768E-01 4.72104E-03-1.53525E-02 6.22544E-02
 -1      6821 1.60241E-01-2.40884E-01-1.44298E-02 1.20508E-01-1.45858E-02-1.34342E-02
 -1      6822 6.29889E-01-7.13923E-01-4.47052E-02 1.65825E-01-1.68137E-02 2.03307E-02
 -1      6823 6.35361E+00 1.55155E+00 1.20625E+00 2.06793E+00 2.03568E-01 1.22686E-01
 -1      6824 8.58806E+00 1.19815E+00 1.69547E+00 4.20164E+00 3.75755E-01-1.26443E-01
 -1      6825 8.20480E+00 4.92306E-01 1.52450E+00 4.22142E+00 2.97028E-02 3.02515E-01
 -1      6826 6.40014E-01 1.67227E-01-3.40801E-02 1.27729E-01-5.39809E-03 6.54988E-03
 -1      6827 8.99168E-01 5.72323E-02-1.96078E-02 3.62468E-02-1.03102E-02 1.37685E-02
 -1      6828 3.35977E-01 2.67809E-01-3.79255E-02 1.70627E-01-1.22707E-02 1.15607E-02
 -1      6829 5.78862E-01 2.28445E-01-9.39115E-03 4.77322E-02-1.87476E-02 1.24177E-02
 -1      6830 7.99412E-01 1.74842E-01 1.59584E-03 1.49260E-01-7.06706E-03 2.12946E-02
 -1      6831 1.24736E+01 1.88031E+01 7.66455E+00-2.81731E+00 1.47660E-01-2.25917E-01
 -1      6832 1.23446E+01 1.55081E+01 6.94068E+00-2.29282E+00-3.82698E-03-2.45325E-01
 -1      6833 1.25299E+01 1.60318E+01 7.06938E+00-2.36686E+00 5.19326E-02-1.61236E-01
 -1      6834 1.09566E+01 1.71489E+01 7.31682E+00-2.10346E+00-4.39291E-02-8.28739E-02
 -1      6835 1.12765E+01 1.72212E+01 7.32882E+00-2.25960E+00 2.46988E-02-3.90716E-02
 -1      6836 1.43342E+01 2.12999E+01 9.56404E+00-1.92321E+00-1.45079E-02 9.88444E-02
 -1      6837 4.46435E+00 1.84990E+01 5.65826E+00 1.89736E+00 8.14414E-02-2.96959E-02
 -1      6838 1.41222E+01 2.13148E+01 9.54536E+00-1.81671E+00-1.37877E-01-4.30135E-02
 -1      6839 6.83033E+00 6.14624E+00 2.72360E+00-7.24206E-01 3.69085E-04-1.13210E-02
 -1      6840 7.10172E+00 6.31710E+00 2.84196E+00-7.93342E-01-2.17497E-02 1.65043E-02
 -1      6841 6.62662E+00 5.84998E+00 2.55856E+00-6.82815E-01-1.80582E-03-1.66179E-02
 -1      6842 1.01780E+01 2.70028E+01 1.04676E+01 8.53331E+00 1.67197E-01 2.06176E-01
 -1      6843 7.36596E+00 1.92352E+01 6.60895E+00 3.67270E+00-7.96807E-01 1.78755E-01
 -1      6844 9.35119E+00 2.76447E+01 9.93757E+00 6.65327E+00 4.46347E-02-1.87871E-01
 -1      6845 8.20357E+00 2.04182E+01 6.50100E+00 2.72354E+00 1.29376E+00-2.11428E-01
 -1      6846 1.44081E+01 2.89389E+01 1.10895E+01 1.01666E+01 2.32504E-01-8.11035E-02
 -1      6847 1.20391E+01 2.86220E+01 1.06760E+01 7.79040E+00-2.40989E-01 2.73070E-01
 -1      6848 9.56340E+00 1.00833E+01 4.20915E+00-1.42261E+00 1.42400E-02 1.23900E-01
 -1      6849 8.93466E+00 9.07709E+00 3.69700E+00-1.21070E+00 9.72242E-03 1.36675E-01
 -1      6850 9.73354E+00 1.01663E+01 4.26293E+00-1.44793E+00 7.22428E-02 1.46744E-01
 -1      6851 9.76095E+00 1.11609E+01 5.02680E+00-1.40295E+00 4.76981E-02 6.17085E-02
 -1      6852 1.03050E+01 1.18446E+01 5.33516E+00-1.68082E+00 1.56654E-01 8.33735E-02
 -1      6853 1.06983E+01 1.29505E+01 5.81873E+00-1.75602E+00 7.51978E-02 2.07561E-02
 -1      6854 6.72720E+00 6.25475E+00 7.75959E-01-8.99130E-01 1.52835E-01-2.35988E-01
 -1      6855 4.96063E+00 6.24141E+00 5.81020E-01-1.37529E+00 3.24892E-01-1.30062E-01
 -1      6856 6.80291E+00 6.26623E+00 8.87856E-01-8.48891E-01 1.47523E-01-2.08616E-01
 -1      6857 1.23388E+01 1.75858E+01 7.75440E+00-2.70857E+00 3.84528E-01-7.12959E-03
 -1      6858 1.22731E+01 2.69489E+01 1.03842E+01-2.06526E+00-2.48884E-01 2.78015E-01
 -1      6859 1.29045E+01 2.52953E+01 9.73547E+00-3.51969E+00 1.62147E+00-6.05854E-01
 -1      6860 7.11365E+00 6.58491E+00 2.90796E+00-9.75979E-01-2.83321E-03 1.58501E-02
 -1      6861 6.96082E+00 6.39496E+00 2.79160E+00-8.94195E-01 1.48377E-02 1.99331E-02
 -1      6862 6.63343E+00 6.00053E+00 2.61687E+00-8.12682E-01 5.50452E-02 6.61505E-03
 -1      6863 1.41519E+00 2.97927E-02-3.90914E-01 1.51569E-01-5.39432E-03 1.85560E-01
 -1      6864 1.42066E+00 3.35742E-02-3.59568E-01 1.37410E-01-1.74611E-03 1.69794E-01
 -1      6865 1.48506E+00 2.09344E-02-4.54054E-01 1.18467E-01 8.47657E-03 1.90236E-01
 -1      6866 1.43291E+00 1.63605E-02-4.33133E-01 1.05192E-01 6.51176E-04 1.59441E-01
 -1      6867 1.90301E+00 8.73389E-02-2.61958E-01 3.47603E-01 1.00495E-02 1.97979E-01
 -1      6868 3.09980E+00 9.43449E+00 2.43113E+00 2.40942E+00 1.83065E-01 1.47892E-01
 -1      6869 4.17469E+00 1.06993E+01 3.12764E+00 3.69830E+00 1.08890E-01 7.48388E-02
 -1      6870 4.94914E+00 7.02354E+00 2.21188E+00 3.80242E+00-5.16231E-02 9.95163E-02
 -1      6871 7.65056E+00 7.10173E+00 2.31888E+00-9.70806E-01 3.07599E-02 1.15781E-01
 -1      6872 7.38681E+00 6.79172E+00 2.19811E+00-8.77899E-01 9.95980E-02 5.67827E-02
 -1      6873 7.90601E+00 7.44333E+00 2.50262E+00-1.06310E+00 5.45637E-03 1.23546E-01
 -1      6874 8.79695E+00 1.00439E+01 3.39835E+00-1.68114E+00 7.22987E-03 1.79574E-01
 -1      6875 8.52823E+00 9.90400E+00 3.28484E+00-1.75791E+00 1.80572E-01 1.75476E-01
 -1      6876 5.42921E+00 1.22825E+01 3.16561E+00-1.51570E+00 1.47678E-01 2.11187E-01
 -1      6877 5.05036E+00 1.65095E+00 3.36378E-01 2.06321E+00 8.30707E-02 3.29900E-01
 -1      6878 6.51526E+00 3.09608E+00 1.13263E+00 2.86263E+00 1.17829E-01 2.90582E-01
 -1      6879 4.21972E+00 2.53318E-01-4.35937E-01 9.73714E-01 2.86232E-02 3.96192E-01
 -1      6880 4.62616E+00 2.17858E-01-2.90211E-01 9.20574E-01 1.22306E-01 3.39235E-01
 -1      6881 6.95173E+00 3.37912E+00 1.35465E+00 3.69068E+00-2.16985E-02 2.43163E-01
 -1      6882-1.97196E-01 1.25671E+00-1.43791E-02-2.94148E-01 7.20002E-02-1.52040E-03
 -1      6883-1.95368E-01 1.09135E+00-1.47717E-02-5.17615E-01 6.59526E-02-5.90617E-03
 -1      6884-4.09428E-01 8.82242E-01-2.76496E-03-2.12526E-01 3.91876E-02 4.87933E-03
 -1      6885-3.91291E-01 7.72007E-01-2.36882E-03-4.14923E-01 3.59268E-02 2.68639E-03
 -1      6886 2.05306E+00 1.11765E+00 1.11917E-01-4.89763E-01 3.08209E-02-9.76862E-02
 -1      6887 2.38357E-01-1.65166E-01 2.16721E-02-4.07872E-02-9.99388E-03 1.00518E-02
 -1      6888 2.76987E-01-8.26126E-01-3.19750E-02-5.55985E-02-6.70167E-02 5.82953E-02
 -1      6889 7.57453E+00 9.08028E+00 3.01238E+00 4.28836E+00 1.43339E-01 6.53908E-01
 -1      6890 1.14950E+01 3.08152E+01 1.03025E+01 4.42549E+00 1.80630E-01 3.96189E-01
 -1      6891 1.29070E+01 3.27981E+01 1.14432E+01 5.05357E+00 7.56856E-01 2.00618E-01
 -1      6892 7.81087E+00 2.17678E+01 5.35765E+00 5.95948E+00-3.61833E-01 8.01958E-01
 -1      6893 5.99600E+00 8.89759E+00 1.00551E+00 3.32008E+00 1.55076E-01 9.45531E-01
 -1      6894 8.20494E+00 2.13086E+01 5.28188E+00 6.54205E+00-1.15196E-01 6.05495E-01
 -1      6895 1.46218E+01 2.57355E+01 1.08809E+01-3.50474E+00 2.78439E-02-3.40967E-01
 -1      6896 1.40544E+01 1.74048E+01 8.16990E+00-2.54701E+00 4.62997E-02-6.86686E-02
 -1      6897 1.47414E+01 2.63118E+01 1.10577E+01-3.69854E+00-7.04015E-02 1.98924E-01
 -1      6898 4.34365E+00 7.29634E-01-7.61838E-01 1.52391E+00 1.85144E-02 8.13880E-01
 -1      6899 4.35698E+00 9.56366E-01-6.54037E-01 1.46134E+00 7.41533E-03 9.02250E-01
 -1      6900 4.98954E+00 1.05332E+00-7.30298E-01 1.65217E+00 1.52445E-02 9.80255E-01
 -1      6901 3.78957E+00 9.10609E+00 2.59333E+00 6.11054E-01 7.22917E-02 2.63303E-02
 -1      6902 3.59853E+00 9.31764E+00 2.67394E+00 2.86899E+00 4.76306E-02 8.03448E-02
 -1      6903 4.43108E+00 1.15488E+01 3.54080E+00 1.26450E+00 8.43274E-03 8.71323E-02
 -1      6904 4.04720E+00 1.10842E+01 3.24229E+00 2.30549E+00 1.63275E-01 1.08499E-01
 -1      6905 3.33038E+00 1.01344E+01 2.78450E+00 1.61575E+00-4.76233E-02 1.46701E-01
 -1      6906 3.43307E+00 8.80730E+00 2.38065E+00 2.80849E+00 1.02253E-01 1.43213E-01
 -1      6907 4.88707E+00 1.00856E+01 3.10265E+00 4.51692E+00-3.56792E-02 3.22225E-02
 -1      6908 3.99225E+00 9.60963E+00 2.84322E+00 3.25039E+00-1.50206E-03 6.20361E-02
 -1      6909 4.75934E+00 1.20566E+01 3.88158E+00 3.16717E+00-2.60496E-01 1.25694E-01
 -1      6910 2.99329E+00 6.38687E+00 1.51672E+00-6.23818E-01 6.19517E-02 2.26497E-02
 -1      6911 2.16446E+00 6.21879E+00 1.22882E+00 1.63264E-01 8.13981E-02 7.07067E-02
 -1      6912 2.85180E+00 6.33534E+00 1.40729E+00-4.16818E-01 1.06620E-01 4.97339E-02
 -1      6913 3.09958E+00 6.86537E+00 1.66177E+00-3.48252E-01 8.00571E-02 5.01675E-02
 -1      6914 2.16909E+00 6.53851E+00 1.30134E+00 4.34399E-01 6.23296E-02 1.08350E-01
 -1      6915 2.32525E+00 6.93052E+00 1.48348E+00 2.08920E-01 9.48826E-02 8.94011E-02
 -1      6916 2.78132E+00 1.13906E-01-5.13287E-01 3.24110E-01 1.64610E-02 2.62503E-01
 -1      6917 2.61524E+00 8.54997E-02-5.81189E-01 3.69965E-01-1.68045E-03 2.64984E-01
 -1      6918 2.48852E+00 5.45450E-02-5.63003E-01 3.00961E-01 5.49795E-03 2.12003E-01
 -1      6919 3.75213E+00 3.72544E-01-1.18303E-01 9.18874E-01 2.05506E-02 2.35480E-01
 -1      6920 2.54461E+00 7.26621E-03-5.48017E-01 2.25538E-01 1.55388E-02 2.04349E-01
 -1      6921 1.20826E+00 1.01021E+00-4.39760E-03-8.70907E-01 8.22686E-02-1.24487E-01
 -1      6922 1.59885E+00 9.25720E-01 1.32173E-02-6.93777E-01 9.89732E-02-2.04637E-01
 -1      6923 1.00005E+00 8.13750E-01-1.31690E-02-8.79991E-01 7.98159E-02-1.09942E-01
 -1      6924 9.05437E-01 1.39150E+00-1.82800E-02-9.68540E-01 9.90039E-02-8.76518E-02
 -1      6925 1.35511E+00 1.32842E+00 1.50443E-02-8.44597E-01 1.23554E-01-1.47373E-01
 -1      6926 1.62189E+00 1.57980E+00 2.49078E-02-8.12822E-01 1.43026E-01-1.96416E-01
 -1      6927 1.02910E+01 1.72036E+01 4.94274E+00-1.31342E+00-2.22965E-01 9.08424E-01
 -1      6928 8.65690E+00 1.88451E+01 5.19203E+00-5.87027E-01 2.40923E-01 8.38502E-01
 -1      6929 1.06560E+01 1.79037E+01 5.15566E+00-1.34775E+00 2.87317E-01 3.83025E-01
 -1      6930 1.02442E+01 1.10733E+01 5.31498E+00-1.38797E+00-4.46225E-03 4.67067E-02
 -1      6931 9.71312E+00 9.77502E+00 4.71352E+00-1.11980E+00-5.90990E-03 3.62273E-02
 -1      6932 1.00034E+01 1.03808E+01 4.97389E+00-1.29484E+00 4.23710E-02 2.78531E-02
 -1      6933 1.00063E+01 1.36241E+01 5.11185E+00-1.45991E+00 5.09447E-02 1.75679E-01
 -1      6934 3.81859E+00 2.60787E+00 7.29845E-01-3.79371E-01 2.65433E-02-6.81158E-02
 -1      6935 4.01186E+00 2.86827E+00 8.22053E-01-4.16609E-01 1.65057E-02-7.33080E-02
 -1      6936 3.45083E+00 3.03298E+00 7.03845E-01-8.92243E-01 7.01455E-02-6.71664E-02
 -1      6937 6.27341E+00 5.21283E+00 1.97107E+00-5.90263E-01 2.42668E-02 1.29670E-02
 -1      6938 6.58790E+00 5.62143E+00 2.18032E+00-6.08536E-01 4.90202E-02 3.90992E-03
 -1      6939 6.20719E+00 5.13543E+00 1.90542E+00-5.75395E-01 2.37466E-02-9.67661E-03
 -1      6940 1.51324E+00 3.30202E-01-2.36495E-03-3.48347E-01 1.74031E-02-1.35798E-01
 -1      6941 1.05560E+00-2.14391E-01-2.67716E-02-2.85612E-01 2.43156E-02-1.26756E-01
 -1      6942 1.21048E+00 2.06926E-01-6.69108E-03-6.02142E-01 4.09691E-02-1.20980E-01
 -1      6943 1.23062E+00-8.01341E-03-1.87934E-02-2.93510E-01 1.88021E-02-1.50177E-01
 -1      6944 1.15914E+00 3.69079E-02-1.36230E-01 1.98118E-01-3.01236E-02 1.38913E-01
 -1      6945 1.11095E+00 2.58214E-02-7.22010E-02 1.96363E-01-2.86005E-02 8.77853E-02
 -1      6946 9.72748E-01-5.89969E-05-8.82984E-02 1.58499E-01-2.01550E-02 4.02933E-02
 -1      6947 9.08244E-01-1.70516E-02-4.52307E-02 1.63710E-01-1.94214E-02 2.53815E-02
 -1      6948 1.11989E+00 3.91720E-02-5.26243E-02 3.64958E-01-3.45973E-02 5.29441E-02
 -1      6949 1.26599E-01 7.44036E-01-3.32808E-02-8.63843E-01 3.74282E-02-2.15522E-02
 -1      6950 2.80672E-01 1.42374E+00-1.62442E-02-6.40751E-01 4.09959E-02-2.49494E-03
 -1      6951 5.11422E+00 1.38378E+01 4.40471E+00 4.85275E+00-1.67827E-01 6.78850E-02
 -1      6952 4.92970E+00 1.31317E+01 4.14593E+00 4.58886E+00 6.80000E-02-7.09157E-03
 -1      6953 5.66797E+00 8.26702E+00 3.04701E+00 4.19820E+00 7.13850E-02 2.11924E-02
 -1      6954 7.74534E+00 7.50510E+00 3.32262E+00 5.50537E+00-1.46412E-01-8.23454E-02
 -1      6955 5.90442E+00 7.68208E+00 2.95945E+00 4.48545E+00-4.01731E-02 9.38771E-02
 -1      6956 2.90276E+00 6.29455E+00 1.54020E+00-5.75601E-01 6.94523E-02 4.50823E-02
 -1      6957 3.14405E+00 7.21851E+00 1.84773E+00-5.87778E-01 1.85434E-02 8.80115E-02
 -1      6958 3.98246E+00 6.96130E+00 2.05981E+00-1.10013E+00 6.30164E-02 2.25885E-02
 -1      6959 3.28194E+00 6.94220E+00 1.86565E+00-5.50313E-01 3.87849E-02 2.24822E-02
 -1      6960 3.39977E+00 7.98293E+00 2.18582E+00-5.04868E-01 5.90552E-02 9.29218E-03
 -1      6961 2.52687E+00 6.82323E+00 1.59410E+00 9.97633E-02 6.57461E-02 4.06528E-02
 -1      6962 5.25099E+00 4.41549E+00 6.33869E-01-5.94396E-01 8.17134E-02-2.03843E-01
 -1      6963 5.26348E+00 4.39912E+00 7.04701E-01-5.98883E-01 9.74674E-02-1.70960E-01
 -1      6964 5.62746E+00 4.89029E+00 8.42066E-01-6.54077E-01 9.34700E-02-1.45130E-01
 -1      6965 8.04353E+00 7.60455E+00 2.81671E+00-1.02802E+00 4.63112E-02 7.78274E-02
 -1      6966 7.97665E+00 7.67028E+00 2.80112E+00-1.09925E+00 6.84650E-02 6.98652E-02
 -1      6967 9.46636E+00 8.92395E+00 3.62229E+00-1.04244E+00 6.37157E-02 1.26418E-01
 -1      6968 9.43097E+00 9.10205E+00 3.63816E+00-1.17792E+00 4.55236E-02 9.86929E-02
 -1      6969 7.17393E+00 8.93852E+00 2.97990E+00-1.72607E+00 8.19078E-02 8.14322E-02
 -1      6970 2.48218E+00 1.19324E+00 2.20485E-01-2.21881E-01-9.91541E-04-1.49429E-02
 -1      6971 2.19313E+00 9.12987E-01 1.26962E-01-2.35924E-01-7.15511E-03-2.43892E-02
 -1      6972 9.18174E+00 1.02446E+01 4.57446E+00-1.63451E+00-3.16738E-02 7.74984E-02
 -1      6973 8.77175E+00 9.68689E+00 4.31946E+00-1.46374E+00-7.40586E-02 1.05750E-01
 -1      6974 8.40313E+00 9.27337E+00 4.07983E+00-1.36988E+00-3.10809E-02 2.67082E-02
 -1      6975 6.08754E+00 5.20605E+00 2.19252E+00-5.87426E-01 1.11718E-03 3.32256E-02
 -1      6976 5.84963E+00 4.86479E+00 2.03043E+00-5.38388E-01-1.42398E-02 2.97885E-03
 -1      6977 5.94738E+00 5.03436E+00 2.12673E+00-5.64810E-01-5.64690E-03 1.56644E-02
 -1      6978 3.59237E+00 2.65125E+00 2.85967E-01-4.82454E-01 7.91760E-02-2.48486E-01
 -1      6979 3.28402E+00 2.97367E+00 2.45145E-01-8.57192E-01 1.64576E-01-2.03526E-01
 -1      6980 4.18365E+00 3.07104E+00 4.33028E-01-3.92787E-01 5.25489E-02-2.12528E-01
 -1      6981 3.94274E+00 3.53029E+00 4.32408E-01-8.66128E-01 1.59131E-01-1.77145E-01
 -1      6982 3.57753E+00 2.98803E+00 3.64386E-01-7.70886E-01 1.20853E-01-1.97656E-01
 -1      6983 4.58135E+00 1.03844E+01 2.35347E+00 4.39075E+00 9.78454E-02 4.95899E-01
 -1      6984 5.19217E+00 1.10803E+01 2.79609E+00 5.20612E+00 2.95332E-02 5.55799E-01
 -1      6985 4.90014E+00 1.40363E+01 3.52689E+00 1.55241E+00 9.93930E-02 2.63283E-01
 -1      6986 5.32418E+00 6.16150E+00 2.19329E+00 4.43187E+00 1.95872E-01 9.67572E-02
 -1      6987 5.67733E+00 1.19869E+01 3.92857E+00 5.01861E+00 6.98602E-03 9.29308E-02
 -1      6988 2.10971E+00 1.16485E+00 1.48138E-01-4.99532E-01 2.31468E-02-5.67897E-02
 -1      6989 1.28799E+01 1.63439E+01 6.10549E+00-2.46343E+00-1.77657E-01 6.20611E-01
 -1      6990 1.29381E+01 2.64714E+01 8.96255E+00-2.27530E+00-3.12767E-01 5.55833E-01
 -1      6991 1.40938E+01 1.77714E+01 6.20375E+00-3.15153E+00 2.17057E-01 3.84626E-01
 -1      6992-6.44445E-02-1.73622E-01 6.41581E-02-1.39141E-01-2.05941E-02 4.13915E-04
 -1      6993-7.00747E-02-1.87296E-01 3.31181E-02-1.84334E-01-2.92362E-02 1.36058E-02
 -1      6994-8.98649E-02-4.56209E-01-1.44792E-02-4.71874E-01-2.86249E-02-4.95515E-03
 -1      6995 5.52869E+00 1.28479E+01 3.78882E+00-5.51008E-01 7.64559E-02 1.91398E-01
 -1      6996 4.78067E+00 1.15133E+01 3.25426E+00 7.99783E-01 1.56724E-01 1.96025E-01
 -1      6997 5.46921E+00 9.61944E+00 2.86335E+00-1.57864E+00 4.46225E-02 9.69266E-02
 -1      6998 6.32957E-02-3.30300E-01-6.76587E-02-2.19913E-01-3.15735E-02 3.10311E-03
 -1      6999-1.47774E-01-8.58798E-01-2.68014E-01-1.56481E-01-4.90449E-03 4.81907E-04
 -1      7000 2.61217E-01-1.75368E-01 1.06159E-02-5.44764E-02-1.68259E-02-6.67631E-04
 -1      7001 1.33763E+01 2.63969E+01 1.06141E+01-3.28491E+00 2.01361E-01-3.24174E-01
 -1      7002 1.36751E+01 1.87740E+01 8.40886E+00-2.83046E+00 7.78979E-02 4.14620E-02
 -1      7003 1.34988E+01 2.61545E+01 1.06187E+01-3.34372E+00-9.10639E-02 3.85588E-01
 -1      7004 1.05080E+01 8.38013E+00 3.86953E+00 6.17743E+00 3.56117E-01-2.88465E-01
 -1      7005 8.02377E+00 7.32043E+00 3.47884E+00 3.73521E+00-6.33804E-03-1.23212E-01
 -1      7006 1.13131E+01 2.23961E+01 8.81818E+00 9.05184E+00 4.62821E-02 2.02778E-01
 -1      7007 2.83765E-01 4.50320E-01-2.29605E-02 6.68806E-01 1.30107E-03 3.21439E-02
 -1      7008 1.63069E-01 3.88496E-01-1.98821E-02 6.85511E-01-2.97975E-03 1.14911E-02
 -1      7009 5.61737E-02 3.16868E-01-2.06465E-02 7.02738E-01-1.84242E-02 1.42233E-02
 -1      7010 7.13488E+00 1.87480E+00 1.57804E+00 3.11738E+00-1.11444E-01 2.16983E-01
 -1      7011 9.21121E+00 4.08895E+00 2.67217E+00 5.87475E+00-1.10187E-01 4.44470E-02
 -1      7012 1.04456E+01 4.03443E+00 2.93313E+00 5.30714E+00-5.74551E-01 5.70356E-01
 -1      7013 1.07572E+01 2.17833E+01 8.28077E+00-1.09468E+00-3.84193E-02 6.35295E-03
 -1      7014 5.63463E+00 9.46857E+00 2.44724E+00-1.28287E+00 1.04520E-01 1.43505E-01
 -1      7015 6.17617E+00 1.14243E+01 3.11954E+00-1.34506E+00 1.13122E-01 2.24976E-01
 -1      7016 6.62450E+00 7.96704E+00 2.32747E+00-1.61520E+00 8.54289E-02 1.17298E-01
 -1      7017 5.86021E+00 9.30679E+00 2.48248E+00-1.47769E+00 4.26631E-02 1.11404E-01
 -1      7018 6.27508E+00 1.08987E+01 3.11977E+00-1.51266E+00 1.17814E-01 1.82047E-01
 -1      7019 4.68187E+00 1.12776E+01 2.78143E+00-4.40873E-01 1.28790E-01 2.24618E-01
 -1      7020 3.66153E+00 1.05986E+01 2.92910E+00 1.47965E+00-5.19097E-02 5.95399E-02
 -1      7021 4.60233E+00 1.22429E+01 3.76245E+00 2.72492E+00 1.41585E-02 1.30092E-01
 -1      7022 5.01034E+00 1.22941E+01 3.88616E+00 1.47116E+00 5.26830E-02 1.32840E-01
 -1      7023 5.50508E+00 1.32360E+01 4.25443E+00-5.96980E-01-5.43775E-03 7.73909E-02
 -1      7024 3.81195E+00 1.04978E+01 2.91614E+00 7.09199E-01-1.76459E-02 1.28486E-01
 -1      7025 8.37062E-01-1.18409E-01-5.15427E-02-6.12239E-01 2.47526E-02-5.43635E-02
 -1      7026 1.00754E+00-3.99341E-01-4.74341E-02-1.85891E-01-2.60325E-03-4.19373E-02
 -1      7027 1.22394E+00 9.40814E-02-2.95732E-02-5.03265E-01 1.49229E-02-4.92668E-02
 -1      7028 5.29759E+00 1.06439E+01 3.65042E+00-1.33980E+00 1.18451E-01-7.48672E-02
 -1      7029 4.72664E+00 1.37865E+01 4.38024E+00 6.20314E-01-5.87976E-02-7.68413E-02
 -1      7030 7.07259E+00 1.21859E+01 4.61631E+00-1.55079E+00 9.64830E-02-2.39216E-02
 -1      7031 6.31404E+00 1.32831E+01 4.70481E+00-3.84827E-01-1.28950E-02 1.47790E-02
 -1      7032 6.66232E+00 8.84558E+00 3.50952E+00-1.81489E+00 5.62979E-02 4.49137E-02
 -1      7033 3.96609E+00 5.83675E-01 2.35530E-01 9.79861E-01 2.64310E-02 6.81367E-02
 -1      7034 3.65904E+00 4.34083E-01 8.39057E-02 9.33000E-01 8.55992E-04 2.84433E-02
 -1      7035 3.81732E+00 5.35570E-01 1.59629E-01 1.05118E+00 2.62901E-02 8.22929E-02
 -1      7036 4.37780E+00 7.96969E+00 1.73080E+00-8.21087E-01 1.23914E-01 1.55913E-01
 -1      7037 3.22601E+00 9.23449E+00 1.79808E+00 2.42201E-01 1.60574E-01 2.58866E-01
 -1      7038 3.41807E+00 9.29775E+00 1.92325E+00-6.90863E-03 1.48307E-01 2.33088E-01
 -1      7039 5.24546E+00 4.72957E+00 4.30514E-01-7.20122E-01 1.59370E-01-2.78267E-01
 -1      7040 4.83324E+00 4.25317E+00 2.89523E-01-6.47344E-01 1.48313E-01-3.26763E-01
 -1      7041 4.98909E+00 4.36621E+00 3.90355E-01-6.46120E-01 1.42566E-01-2.92223E-01
 -1      7042 1.01175E+01 1.47172E+01 6.31142E+00-1.48753E+00 9.17426E-02-1.94790E-02
 -1      7043 7.02377E-01 2.87143E+00 3.41969E-02 2.62778E-01 2.45205E-01 6.93972E-02
 -1      7044 7.81814E-01 2.70523E+00 2.57549E-02 7.76558E-01 1.93359E-01 1.48804E-01
 -1      7045 7.95508E-01 2.96248E+00 8.17867E-02 1.75317E-01 2.32825E-01 6.61138E-02
 -1      7046 4.20316E-01 2.25897E+00 2.31539E-02 1.23126E-01 1.72043E-01 5.36322E-02
 -1      7047 4.71375E-01 2.14715E+00-2.48534E-03 4.82453E-01 1.34167E-01 9.76188E-02
 -1      7048 4.39977E-01 2.12201E+00 1.34425E-02 5.56536E-01 1.87868E-01 9.26862E-02
 -1      7049 1.09272E+01 1.59165E+01 7.15507E+00-2.77436E+00 1.11515E-01 9.22499E-03
 -1      7050 1.08602E+01 1.49230E+01 6.67686E+00-2.04030E+00-5.54814E-02-1.11957E-02
 -1      7051 1.11802E+01 1.65823E+01 7.15423E+00-2.81175E+00-1.26198E-01-6.05385E-02
 -1      7052 7.70668E+00 9.41749E+00 1.47711E+00 4.59640E+00 2.29995E-01 1.21279E+00
 -1      7053 6.14322E+00 5.25543E+00 2.23554E+00-6.06743E-01 1.91451E-02 8.40658E-03
 -1      7054 6.57343E+00 5.64113E+00 2.48962E+00-7.25763E-01-1.10616E-02 2.02501E-02
 -1      7055 6.37446E+00 5.43111E+00 2.36417E+00-6.64602E-01 1.80774E-02 1.62700E-02
 -1      7056 1.94853E-01 1.18829E+00-1.76035E-02 4.55954E-01 6.11169E-02 4.60898E-02
 -1      7057-1.20347E-01 8.48293E-01-2.81067E-02 3.53741E-01 4.00661E-02 2.37016E-02
 -1      7058 4.41709E-02 7.55037E-01-2.67934E-02 5.18232E-01 4.01002E-02 3.92799E-02
 -1      7059 4.16390E-01 7.81284E-01-2.86259E-02 6.84249E-01 3.18397E-02 5.15697E-02
 -1      7060 2.53638E-01 9.27860E-01-2.81919E-02 5.47503E-01 3.12077E-02 3.74480E-02
 -1      7061 1.16486E+01 1.25935E+01 5.27840E+00-1.66726E+00-5.09992E-02 1.10900E-01
 -1      7062 1.24418E+01 1.44327E+01 6.26462E+00-2.51030E+00 3.51673E-02 1.10621E-01
 -1      7063 6.98392E+00 1.53824E+01 4.73566E+00-1.58883E+00 1.34399E-01 2.96480E-01
 -1      7064 1.18935E+01 2.19821E+01 8.53213E+00-2.12342E+00-4.41213E-01 2.29498E-01
 -1      7065 1.13124E+01 2.11609E+01 8.75195E+00-1.92828E+00-3.64621E-01 1.14867E-01
 -1      7066 1.26750E+01 1.84343E+01 7.77917E+00-1.93709E+00-3.59337E-01 4.99196E-01
 -1      7067 7.47826E+00 6.93687E+00 2.42496E+00-9.00523E-01-7.28283E-03 7.28969E-02
 -1      7068 2.05526E+00 5.46056E+00 9.81339E-01 1.02332E+00 8.63475E-02 1.06015E-01
 -1      7069 2.17229E+00 6.15368E+00 1.25249E+00 1.25029E+00 5.46746E-02 1.27844E-01
 -1      7070-7.58194E-02-1.31292E-01-6.77672E-02-2.86206E-01-5.63474E-03-2.97079E-03
 -1      7071-2.31268E-02 2.90309E-01-4.43434E-03 6.77030E-01 2.20031E-03 1.68980E-03
 -1      7072-7.83127E-02 7.16005E-01-3.26454E-02-7.66838E-01 3.28390E-02-2.38999E-02
 -1      7073-3.44128E-01 5.75223E-01-3.02640E-02-6.19002E-01 1.75887E-02 1.67021E-03
 -1      7074-2.86767E-01 8.77714E-01-2.73201E-02-4.71804E-01 6.93821E-02-4.79692E-03
 -1      7075-2.32760E-01 5.22358E-01-1.68630E-02-7.59735E-01 4.67202E-02-2.17248E-02
 -1      7076 9.82388E+00 9.73147E+00 3.88190E+00-1.30850E+00 5.02231E-02 1.76202E-01
 -1      7077 9.45931E+00 9.47732E+00 3.69554E+00-1.14875E+00 4.84472E-02 1.48425E-01
 -1      7078 9.09346E+00 8.77716E+00 3.34754E+00-1.08539E+00 4.08448E-02 1.38488E-01
 -1      7079 7.55514E+00 7.00646E+00 2.28086E+00 4.40187E+00-7.62011E-01 2.13175E-01
 -1      7080 1.15559E+01 2.29376E+01 8.01235E+00 1.13449E+01 2.07609E+00 4.59541E-01
 -1      7081 9.99026E+00 1.78704E+01 7.05438E+00-8.50071E-01 3.30932E-02 1.27878E-01
 -1      7082 9.58954E+00 2.07060E+01 7.53376E+00-8.56264E-01-1.32020E-01 5.19382E-02
 -1      7083 9.38061E+00 1.70788E+01 6.67276E+00-5.56772E-01 4.85589E-02-2.83612E-01
 -1      7084 9.15808E-01 1.76931E+00 2.10081E-02-8.61446E-01 1.17493E-01-6.51674E-02
 -1      7085 8.43174E-01 2.08798E+00 1.04850E-01-6.96583E-01 8.43317E-02-3.36060E-02
 -1      7086 1.16025E+00 2.87132E+00 2.25575E-01-6.23462E-01 1.18005E-01-2.99734E-02
 -1      7087 1.52537E+00 2.67602E+00 2.58158E-01-8.74519E-01 8.91268E-02-4.10800E-02
 -1      7088 1.32020E+00 3.01826E+00 3.15266E-01-6.29234E-01 8.49955E-02-1.35183E-02
 -1      7089 1.10281E+00 1.92667E+00 1.15322E-01-8.77350E-01 4.68706E-02-3.67504E-02
 -1      7090 1.04066E+01 3.15621E+01 1.16741E+01 3.41302E+00-3.33620E-02-1.18131E-01
 -1      7091 7.54674E+00 1.17342E+01 5.14477E+00 4.37518E+00-1.65522E-01-5.44751E-01
 -1      7092 1.17007E+01 3.41120E+01 1.29562E+01 4.75143E+00-4.26963E-01 2.39715E-01
 -1      7093 7.11553E-01-7.00588E-01-3.51660E-02-2.92878E-01 1.04796E-02-9.68326E-02
 -1      7094 5.17732E-01-9.59357E-01-4.51108E-02-2.68074E-01 7.94432E-04-8.25819E-02
 -1      7095 6.53627E-01-8.00509E-01-4.68652E-02-2.80674E-01-7.16831E-04-7.27044E-02
 -1      7096 4.72263E+00 1.08339E+01 3.50934E+00 4.40313E+00-1.32524E-01 3.16180E-02
 -1      7097 3.95421E+00 8.67822E+00 2.69767E+00 3.50970E+00-1.38569E-01-5.46507E-02
 -1      7098 3.41584E+00 8.49511E+00 2.47928E+00 3.21423E+00 8.34127E-02 5.80226E-02
 -1      7099 5.56385E+00 5.96162E+00 2.17869E+00 4.06659E+00-1.55042E-01 4.56909E-03
 -1      7100 4.61004E+00 5.46886E+00 1.84993E+00 3.23345E+00 4.63976E-02 1.09458E-02
 -1      7101 5.69980E+00 5.30490E+00 2.13694E+00 4.01203E+00 1.69953E-01 9.29029E-02
 -1      7102 1.14292E+01 1.85471E+01 7.02441E+00-1.07144E+00 2.42988E-01 1.05512E-01
 -1      7103 1.24198E+01 2.03586E+01 7.73236E+00-1.31388E+00 1.29143E-01 9.39481E-02
 -1      7104 1.00917E+01 2.12364E+01 7.29726E+00-5.84570E-01 1.41000E-01 3.38445E-02
 -1      7105 2.75845E-01 8.15588E-01-4.15665E-02-8.81808E-01 7.89788E-02-5.66211E-02
 -1      7106 4.38223E-01 1.01200E+00-2.51503E-02-8.73748E-01 3.32184E-02-3.51101E-02
 -1      7107 4.70322E-01 1.57353E+00 1.05666E-03-6.51859E-01 8.96560E-02-4.01838E-02
 -1      7108 8.64315E+00 6.31028E+00 3.13765E+00 4.91927E+00-1.30018E-01-1.27189E-01
 -1      7109 1.34329E+01 3.46165E+01 1.33807E+01 3.87401E+00 3.71102E-01-8.80884E-02
 -1      7110 7.36066E+00 1.02213E+01 4.45164E+00 4.09770E+00 3.36341E-02 4.64912E-01
 -1      7111 1.15680E+01 3.11509E+01 1.15725E+01 2.29480E+00 1.70651E-01-1.31073E-01
 -1      7112 4.33576E+00 8.73971E-01 3.11300E-01 1.25554E+00-2.60395E-02 3.62806E-02
 -1      7113 3.99395E+00 6.18072E-01 1.39711E-01 1.10155E+00 1.39035E-02 5.42339E-02
 -1      7114 4.23070E+00 7.94758E-01 2.54307E-01 1.23921E+00 4.72435E-02 9.44278E-02
 -1      7115 3.40078E+00 4.96247E+00 7.26678E-01 2.55030E+00 1.21215E-01 3.74342E-01
 -1      7116 2.56634E+00 7.47785E+00 1.16719E+00 1.87335E+00 1.78529E-01 2.68949E-01
 -1      7117 3.22930E+00 6.20042E+00 1.06004E+00 2.58936E+00 1.33235E-01 3.04745E-01
 -1      7118 4.02429E+00 7.85039E+00 1.75562E+00 3.30788E+00 6.88068E-02 3.37873E-01
 -1      7119 4.47697E+00 3.86390E+00 7.30735E-01 3.39291E+00 3.36056E-02 4.08244E-01
 -1      7120 2.77698E+00 1.63834E+00 3.08532E-01-4.16150E-01 2.12104E-02-8.78574E-02
 -1      7121 3.02059E+00 1.95193E+00 4.19932E-01-4.39396E-01 2.54420E-02-7.20926E-02
 -1      7122 4.32091E+00 4.33609E+00 1.20846E+00-1.04510E+00 8.54928E-02-4.63720E-02
 -1      7123 4.05916E+00 4.78351E+00 1.30846E+00-1.08694E+00 5.84386E-02 1.42929E-02
 -1      7124 4.21717E+00 5.60399E+00 1.52482E+00-1.16825E+00 6.10065E-02 1.49998E-02
 -1      7125 4.74842E+00 4.74159E+00 1.43270E+00-1.02749E+00 7.22982E-02-1.63436E-02
 -1      7126 4.50315E+00 5.30870E+00 1.57763E+00-1.07221E+00 5.89504E-02 2.32043E-02
 -1      7127 4.45926E+00 3.91890E+00 1.18943E+00-8.69864E-01 4.91574E-02-3.09998E-02
 -1      7128 3.79466E+00 2.92238E+00 1.99255E-01-4.67222E-01 9.81688E-02-2.98922E-01
 -1      7129 4.10694E+00 3.27837E+00 2.90464E-01-5.31601E-01 9.11477E-02-2.80316E-01
 -1      7130-2.36339E-01-5.05350E-01-1.27394E-01-3.36090E-01-4.15952E-03-2.68044E-02
 -1      7131 1.63022E+00 1.41408E+00 2.83719E-02-8.27992E-01 1.25713E-01-1.73795E-01
 -1      7132 1.67384E+00 1.12399E+00 4.12295E-02-7.64717E-01 8.44684E-02-1.53113E-01
 -1      7133 2.05640E+00 1.86585E+00 1.26786E-01-8.48092E-01 1.28823E-01-1.50618E-01
 -1      7134 2.05523E+00 1.62312E+00 7.16525E-02-7.14149E-01 1.15127E-01-1.92478E-01
 -1      7135 2.14181E+00 1.30467E+00 9.70941E-02-6.32254E-01 7.01691E-02-1.72287E-01
 -1      7136 1.66541E+00 8.85029E-01-3.72155E-03-6.45388E-01 8.20236E-02-1.92154E-01
 -1      7137 3.28860E+00 2.23115E-01-2.76365E-01 7.73192E-01 2.60926E-02 2.75246E-01
 -1      7138 2.30437E+00 8.55307E-02-5.86456E-01 2.53937E-01 6.02250E-03 2.71432E-01
 -1      7139 3.17909E+00 1.50395E-01-2.68182E-01 6.83733E-01 3.77328E-02 2.39359E-01
 -1      7140 2.14771E+00 1.02751E+00 8.85032E-02-3.71499E-01 4.48219E-02-1.58145E-01
 -1      7141 1.73217E+00 9.90435E-01 4.76638E-02-7.09589E-01 5.76350E-02-1.22845E-01
 -1      7142 1.76301E+00 5.89590E-01 2.53913E-02-3.74021E-01 2.38325E-02-1.31302E-01
 -1      7143 2.08500E+00 8.80068E-01 5.77068E-02-2.80404E-01 3.42204E-02-1.90612E-01
 -1      7144 1.71072E+00 8.25038E-01 2.03999E-02-5.97515E-01 5.73382E-02-1.44060E-01
 -1      7145-7.66463E-02 9.49209E-01-2.22286E-02-7.53140E-01 6.19214E-02-2.48858E-02
 -1      7146 2.60968E-01 1.01254E+00-3.15983E-02-8.42488E-01 1.04577E-01-5.86792E-02
 -1      7147 5.54350E+00 1.03195E+00 4.55060E-01 1.58888E+00 6.88473E-02 2.02901E-01
 -1      7148 5.10680E+00 7.27302E-01 1.55817E-01 1.48737E+00-8.32195E-02 2.20343E-01
 -1      7149 3.83471E+00 1.54298E-01-3.33674E-01 7.22414E-01-1.80745E-02 3.04130E-01
 -1      7150 6.32167E+00 1.45642E+00 7.53802E-01 2.58316E+00-2.27640E-02 3.46061E-01
 -1      7151 4.81142E+00 2.69335E-01-4.95468E-03 8.44883E-01 3.91683E-02 3.42471E-01
 -1      7152 6.60336E-02 3.95737E-01-1.05765E-02-9.70749E-01 3.96573E-02-3.34676E-02
 -1      7153 3.02288E-01 3.70687E-01-2.97669E-02-8.74533E-01 6.14391E-02-7.19306E-02
 -1      7154 3.57410E-01 8.39780E-02-2.61833E-02-9.40171E-01 3.58095E-02-5.05781E-02
 -1      7155-1.47559E-02-1.10820E-01-1.72876E-02-9.74128E-01 2.02886E-02-2.85776E-02
 -1      7156 1.90256E-01-1.39213E-01-3.13004E-02-8.65385E-01 2.65788E-02-5.76059E-02
 -1      7157-9.16654E-02 1.56014E-01-2.09976E-02-8.83295E-01 3.66571E-02-3.02301E-02
 -1      7158 9.39580E+00 9.28320E+00 3.55634E+00-1.11026E+00 6.87602E-03 1.42425E-01
 -1      7159 9.28985E+00 9.00211E+00 3.34413E+00-1.15877E+00 1.78517E-02 1.26922E-01
 -1      7160 8.68439E+00 8.11639E+00 2.98989E+00-9.66088E-01 6.55428E-03 1.07224E-01
 -1      7161 8.68959E+00 4.10509E+00 2.23591E+00 4.61535E+00 5.87742E-01 5.10153E-01
 -1      7162 7.11016E+00 3.33337E+00 1.59177E+00 2.84699E+00 2.93604E-01 3.12850E-01
 -1      7163 9.03716E+00 4.00855E+00 2.24992E+00 5.98209E+00-1.27914E-01 1.34620E-01
 -1      7164-1.89437E-01 2.76825E-01-1.09099E-02 5.46979E-01 6.44721E-03-4.08017E-03
 -1      7165-2.31678E-01 3.20499E-01-4.80163E-03 4.96950E-01 1.57769E-02-2.76810E-03
 -1      7166-1.32383E-01 2.34237E-01-2.90437E-03 6.24421E-01-3.79767E-03 5.15666E-05
 -1      7167 5.11121E-01-5.01414E-01-3.36877E-02-6.99197E-01 2.40867E-02-8.05723E-02
 -1      7168 1.68355E-01-6.78334E-01-2.06383E-02-8.17459E-01 4.84208E-03-3.22514E-02
 -1      7169 2.52288E-01-1.43206E-01-1.60162E-02-9.38084E-01 2.14827E-02-4.76313E-02
 -1      7170-6.67559E-02-2.97054E-01-6.54076E-03-9.49664E-01 1.13248E-02-2.82524E-02
 -1      7171 1.29704E-01-6.43920E-01-3.46205E-02-7.75013E-01 3.38270E-03-4.17285E-02
 -1      7172 7.43941E+00 1.96138E+01 7.20969E+00 4.04644E-02-7.41332E-02-2.22286E-01
 -1      7173 6.58964E+00 5.70680E+00 2.26127E+00-7.09641E-01 2.05783E-02-1.99327E-04
 -1      7174 6.11305E+00 5.17519E+00 1.98915E+00-6.09091E-01 1.74193E-02 1.01925E-02
 -1      7175 6.02886E+00 6.06054E+00 2.18620E+00-1.22774E+00 2.24367E-02 4.07840E-02
 -1      7176 4.29258E-01 2.41468E+00-2.93534E-03 7.09969E-01 1.15002E-01 7.58975E-02
 -1      7177 3.92983E-01 2.57836E+00 7.99492E-03 1.68104E-01 1.60326E-01 4.21105E-02
 -1      7178 1.75511E-01 2.15717E+00 1.31008E-02 8.20627E-02 1.35617E-01 2.09404E-02
 -1      7179 4.25491E-01 2.33426E+00-1.39044E-02-3.16509E-01 2.01898E-01-9.15291E-03
 -1      7180 4.19930E-01 2.37964E+00 1.49186E-02 1.65738E-01 1.95777E-01 4.24435E-02
 -1      7181 3.43427E+00 2.69325E-01-7.39080E-01 8.47474E-01 1.67553E-02 5.33723E-01
 -1      7182 4.08767E+00 6.71763E-01-4.75935E-01 1.01852E+00 2.15836E-02 4.79927E-01
 -1      7183 3.37529E+00 2.25842E-01-7.30922E-01 7.86884E-01 4.52920E-02 5.04866E-01
 -1      7184 5.27549E+00 4.73492E+00 5.23212E-01-7.03896E-01 1.56963E-01-2.47801E-01
 -1      7185 1.13325E+01 2.58388E+01 9.17682E+00-1.92004E+00 8.38446E-01 1.94129E-01
 -1      7186 4.81484E+00 7.74990E-01-4.81048E-01 1.63911E+00-3.61722E-02 5.03938E-01
 -1      7187 1.24078E+01 2.58044E+01 1.03577E+01 9.93273E+00 2.42548E-01-1.33421E-02
 -1      7188 1.08613E+01 2.72159E+01 1.02698E+01 7.99900E+00 5.24977E-01 2.99224E-01
 -1      7189 6.86875E+00 1.73618E+01 6.07883E+00 3.57173E+00 8.38754E-01-1.65168E-03
 -1      7190 3.79751E+00 4.88027E+00 6.10453E-01-1.10261E+00 2.21478E-01-9.78877E-02
 -1      7191 4.03503E+00 3.89206E+00 4.53990E-01-9.85645E-01 1.45259E-01-1.18401E-01
 -1      7192 4.31691E+00 5.49011E+00 9.03123E-01-1.12499E+00 1.84853E-01-1.44818E-02
 -1      7193 4.53528E+00 6.08490E+00 9.76789E-01-1.23864E+00 1.96543E-01-9.91778E-03
 -1      7194 4.78214E+00 4.79292E+00 7.72958E-01-1.06557E+00 1.72727E-01-1.21490E-01
 -1      7195 4.09028E+00 4.21498E+00 4.43074E-01-1.00477E+00 2.18849E-01-2.05128E-01
 -1      7196 1.33086E-01 4.19734E-01-4.80504E-02-8.78435E-01 3.37866E-02-2.16674E-02
 -1      7197 4.76635E-01 1.42301E-01-4.44548E-02-8.69364E-01 2.70031E-02-5.04880E-02
 -1      7198 5.07725E-02-7.35643E-02-3.55864E-02-8.85616E-01 2.29754E-03-4.30868E-03
 -1      7199 1.27500E+01 1.85263E+01 8.30116E+00-2.84963E+00 7.61292E-03 5.41149E-02
 -1      7200 1.46304E+01 1.96704E+01 8.32985E+00-3.37264E+00-7.14458E-02 3.28137E-01
 -1      7201 1.21878E+01 1.56958E+01 7.10660E+00-1.91598E+00 3.61462E-02 2.58025E-01
 -1      7202 9.83180E+00 2.66199E+01 6.74708E+00 4.84759E+00-1.26872E-01 1.03187E+00
 -1      7203 8.85654E+00 2.52654E+01 6.32404E+00 3.01253E+00 5.95216E-02 5.45810E-01
 -1      7204 6.28709E+00 8.78860E+00 9.88440E-01 3.70166E+00 3.88832E-01 8.33261E-01
 -1      7205 2.97842E+00 2.23197E+00 6.27725E-02-4.75210E-01 1.05304E-01-2.96226E-01
 -1      7206 2.83497E+00 2.13877E+00 2.03923E-02-4.79107E-01 1.16325E-01-2.90078E-01
 -1      7207 3.24419E+00 2.22492E+00 7.14356E-02-3.57403E-01 8.41409E-02-3.10563E-01
 -1      7208 3.06914E+00 2.11399E+00 2.20900E-02-3.61109E-01 7.31835E-02-3.01382E-01
 -1      7209 2.82170E+00 2.49248E+00 5.89516E-02-8.11952E-01 1.64717E-01-2.83797E-01
 -1      7210 3.49063E+00 3.22932E-01-8.63093E-02 6.44810E-01 2.97914E-02 1.40746E-01
 -1      7211 4.92871E+00 1.13996E+00 6.27326E-01 1.99566E+00 3.34480E-02 7.51641E-02
 -1      7212 4.76082E+00 7.51913E-01 4.09785E-01 1.41071E+00-2.61429E-02 5.78877E-02
 -1      7213 4.01478E+00 1.40019E-01-1.83418E-02 8.20094E-01 4.08857E-02 9.97345E-02
 -1      7214 6.45611E+00 1.37889E+00 1.15125E+00 2.92251E+00-3.83253E-02 8.42362E-02
 -1      7215 4.67734E+00 6.45634E-01 3.61032E-01 1.42314E+00 1.32388E-02 9.83718E-02
 -1      7216 3.87731E+00 7.15953E+00 1.05841E+00-1.11268E+00 2.68552E-01 9.98320E-02
 -1      7217 3.21925E+00 5.90722E+00 4.99850E-01-1.00542E+00 3.20548E-01-3.19308E-02
 -1      7218 3.24754E+00 5.44281E+00 5.19278E-01-1.06585E+00 2.79688E-01-3.30789E-02
 -1      7219 3.79339E+00 4.89008E+00 4.44622E-01-1.13965E+00 2.75515E-01-1.45298E-01
 -1      7220 4.63802E+00 6.50444E+00 9.65186E-01-1.20130E+00 2.26683E-01-4.81938E-03
 -1      7221 9.09736E+00 8.49543E+00 4.09034E+00-1.12004E+00-2.21815E-02 1.10758E-02
 -1      7222 9.56118E+00 9.15864E+00 4.40528E+00-1.14557E+00 2.87592E-02 4.80862E-02
 -1      7223 9.71223E+00 9.54214E+00 4.62507E+00-1.17708E+00 2.27298E-03 8.09125E-03
 -1      7224 8.83779E+00 9.32125E+00 4.12290E+00-1.31545E+00 1.51420E-02 3.61391E-02
 -1      7225 8.15212E+00 8.13428E+00 3.56303E+00-1.09865E+00 1.94550E-02 1.03105E-02
 -1      7226 8.27490E+00 8.23352E+00 3.70395E+00-9.93819E-01 2.62810E-02 2.24320E-02
 -1      7227 5.25714E+00 5.43317E+00 1.40149E+00-1.14844E+00 9.74030E-02-1.82581E-02
 -1      7228 4.68725E+00 6.06170E+00 1.36760E+00-1.21583E+00 1.27252E-01 2.02374E-02
 -1      7229 4.53271E+00 5.98971E+00 1.39100E+00-1.21265E+00 1.42188E-01 2.01572E-02
 -1      7230 4.97435E+00 4.58232E+00 1.16242E+00-9.66827E-01 7.71653E-02-3.30004E-02
 -1      7231 4.48287E+00 5.11988E+00 1.13541E+00-1.03313E+00 1.29493E-01-3.15464E-02
 -1      7232 5.05356E+00 4.52268E+00 1.08438E+00-8.96234E-01 8.23989E-02-6.27988E-02
 -1      7233 9.04629E+00 1.01322E+01 4.40985E+00 5.07135E+00 2.12544E-01 2.45334E-01
 -1      7234 1.03318E+01 1.17911E+01 5.08162E+00 6.67937E+00 5.26136E-01 2.89159E-01
 -1      7235 8.21966E+00 7.34936E+00 3.37470E+00 4.83977E+00 1.57098E-01 1.81746E-01
 -1      7236 5.08430E+00 9.28653E-01 7.05564E-01 1.24311E+00 1.72661E-02 9.04786E-02
 -1      7237 5.22493E+00 5.88410E-01 5.69279E-01 1.43788E+00 6.20146E-02 5.53163E-02
 -1      7238 4.25373E+00 4.20811E-01 1.85558E-01 1.05066E+00-1.53561E-02 3.37690E-03
 -1      7239 8.07010E+00 4.42218E+00 2.35621E+00 2.65012E+00 6.90466E-01-1.22860E-01
 -1      7240 1.52692E+01 1.55382E+01 7.83002E+00 1.10962E+01 5.43015E-01 1.22146E-01
 -1      7241 1.11132E+01 4.30967E+00 2.56990E+00 4.88254E+00 4.24783E-01-2.64495E-01
 -1      7242 3.94402E+00 8.47400E+00 1.45079E+00 3.68125E+00 1.44418E-01 5.04710E-01
 -1      7243 3.34523E+00 8.33470E+00 1.40605E+00 3.51956E+00 1.46711E-01 4.17078E-01
 -1      7244 4.55355E+00 6.83716E+00 1.27260E+00 3.63217E+00 8.44973E-02 4.96227E-01
 -1      7245 5.77661E+00 7.59882E+00 1.76837E+00 4.81695E+00 1.07389E-01 4.98287E-01
 -1      7246 4.96698E+00 6.68480E+00 1.24239E+00 4.05394E+00 1.74476E-01 5.34142E-01
 -1      7247 4.89920E+00 8.39255E+00 2.30897E+00 4.26794E+00 7.23687E-02 2.59422E-01
 -1      7248 5.07127E+00 8.36390E+00 2.41981E+00 4.61678E+00 4.26715E-02 3.00435E-01
 -1      7249 4.64109E+00 4.23730E+00 1.10077E+00 3.22142E+00 9.85923E-02 2.84482E-01
 -1      7250 5.53262E+00 2.68259E+00 8.87471E-01 3.43327E+00 1.88396E-01 3.14021E-01
 -1      7251 4.26887E+00 4.22349E+00 9.67944E-01 3.00528E+00 9.18557E-02 3.30559E-01
 -1      7252 1.07538E+01 1.35249E+01 4.99230E+00-2.50131E+00-5.38937E-02 1.91946E-01
 -1      7253 6.25514E+00 1.48645E+01 4.01870E+00-1.45165E+00-5.15501E-03 2.40418E-01
 -1      7254 5.32596E-01-2.27805E-01-1.16313E-02-8.41992E-01 2.78339E-02-6.30268E-02
 -1      7255 3.60500E-01-7.90081E-01-1.65229E-02-6.77391E-01 7.85255E-03-5.54072E-02
 -1      7256 1.09324E+01 2.08193E+01 7.71242E+00-1.15153E+00 2.28978E-02 3.20077E-01
 -1      7257 9.59819E+00 2.01498E+01 7.15754E+00-4.13912E-01-1.80318E-01 2.03331E-01
 -1      7258 1.16838E+01 1.90617E+01 7.28225E+00-1.42406E+00-7.43676E-01 8.56229E-01
 -1      7259 2.80158E+00 7.63124E-01 6.17430E-02 1.23120E+00-1.19946E-02 1.12219E-02
 -1      7260 2.94967E+00 5.29795E-01 1.63169E-02 1.14690E+00 3.41306E-02 4.96850E-02
 -1      7261 3.24011E+00 1.59230E+00 3.86388E-01 1.80493E+00 9.23424E-03 8.10098E-03
 -1      7262 2.96901E+00 7.67201E-01 7.47463E-02 1.18543E+00-2.05686E-02 7.81997E-03
 -1      7263 3.27177E+00 6.17882E-01 9.80407E-02 1.11698E+00-7.77657E-03 3.64560E-02
 -1      7264 2.71470E+00 2.01478E-01-1.51511E-01 5.89253E-01 8.37027E-03 3.80935E-02
 -1      7265 3.55758E+00 7.89976E-01 6.41161E-02 1.50021E+00 4.98250E-02 2.07169E-01
 -1      7266 3.43609E+00 1.09786E+00 1.67155E-01 1.64225E+00 8.90777E-03 1.74917E-01
 -1      7267 4.08508E+00 2.56691E+00 7.50204E-01 2.64036E+00 5.82925E-02 1.87050E-01
 -1      7268 3.63928E+00 3.60772E+00 8.55029E-01 2.56608E+00 8.38629E-02 1.96668E-01
 -1      7269 3.18310E+00 3.46202E+00 7.33767E-01 2.40807E+00 1.04601E-01 1.80981E-01
 -1      7270 3.14601E+00 2.04075E+00 3.23697E-01 1.80762E+00 5.21032E-02 2.06226E-01
 -1      7271 1.35291E+01 1.93819E+01 7.76028E+00-2.43655E+00 1.75672E-01 3.24128E-01
 -1      7272 1.28406E+01 1.86979E+01 7.66952E+00-2.13781E+00-1.32289E-01 3.79841E-01
 -1      7273 1.17794E+01 1.59640E+01 6.46755E+00-1.73311E+00-1.48304E-01 2.74559E-01
 -1      7274 3.15936E+00 1.99692E+00 3.54688E-01-3.83601E-01 5.57211E-02-1.46895E-01
 -1      7275 3.33652E+00 2.20072E+00 4.02996E-01-4.03418E-01 4.22317E-02-1.41491E-01
 -1      7276 3.08613E+00 1.96930E+00 3.07582E-01-3.63640E-01 4.74663E-02-1.62557E-01
 -1      7277 5.75883E-01 1.64934E+00-7.41407E-03 8.71152E-01 7.10171E-02 9.39346E-02
 -1      7278 7.48008E-01 1.69393E+00-1.34015E-02 1.03223E+00 7.45012E-02 1.15050E-01
 -1      7279 4.17140E-01 2.01135E+00-9.13991E-03 7.52338E-01 8.95963E-02 7.81675E-02
 -1      7280 6.03803E-01 2.07510E+00-8.75411E-03 9.45781E-01 1.00852E-01 9.02498E-02
 -1      7281 9.60598E-01 2.14903E+00 1.32913E-02 1.02759E+00 1.49079E-01 1.84514E-01
 -1      7282 1.36685E+01 1.77846E+01 7.73034E+00-3.36865E+00-2.82294E-01 4.75236E-01
 -1      7283 1.18987E+01 1.55475E+01 7.17284E+00-2.06767E+00-1.51314E-01 1.42933E-01
 -1      7284 1.23318E+01 1.81585E+01 8.06189E+00-2.90879E+00-1.88353E-01 1.24668E-01
 -1      7285 4.61283E+00 3.41490E+00 9.99809E-01-3.69312E-01 1.30970E-02-6.56986E-02
 -1      7286 4.52913E+00 3.33166E+00 9.18674E-01-3.58046E-01 2.16939E-02-7.82079E-02
 -1      7287 4.04615E+00 3.40793E+00 7.97977E-01-7.96441E-01 7.52914E-02-6.91479E-02
 -1      7288 1.08165E+01 1.15118E+01 5.48951E+00-1.67232E+00-6.73843E-03 3.32860E-02
 -1      7289 1.05383E+01 1.07483E+01 5.15224E+00-1.56272E+00-8.21489E-02 5.92717E-02
 -1      7290 1.22291E+01 1.42341E+01 6.75670E+00-1.88159E+00 3.73426E-02 1.68965E-01
 -1      7291 1.18255E+01 1.31458E+01 6.25957E+00-1.76396E+00 3.14088E-02 3.85459E-02
 -1      7292 8.12329E+00 1.33749E+01 5.18907E+00-2.00179E+00-2.83272E-02-7.99444E-02
 -1      7293 4.86247E+00 1.20180E+01 2.82156E+00 1.41946E+00 1.40757E-01 4.05711E-01
 -1      7294 4.70378E+00 1.25234E+01 2.91718E+00 8.24599E-01 2.84684E-02 2.98688E-01
 -1      7295 2.79493E+00 1.72083E+00 2.80737E-01-4.55878E-01 4.87321E-02-1.37251E-01
 -1      7296 2.53835E+00 1.48249E+00 1.89648E-01-4.23208E-01 3.89366E-02-1.53496E-01
 -1      7297 2.59245E+00 1.51531E+00 2.14317E-01-4.22223E-01 4.07656E-02-1.35437E-01
 -1      7298-8.50983E-01 1.79849E-02-1.11762E-02-2.70610E-01-2.62029E-03 3.09711E-02
 -1      7299-1.15587E+00 4.33214E-02-3.49713E-02-2.37008E-01 4.27724E-03 3.07561E-02
 -1      7300-6.38315E-01 9.37440E-02-1.13187E-02-4.31768E-01 9.51152E-03 2.72015E-02
 -1      7301-9.18774E-01 1.38158E-01-2.36631E-02-3.88805E-01 1.40257E-02 2.78014E-02
 -1      7302-6.38978E-01 2.45222E-01-1.82267E-02-5.30087E-01 9.81462E-03-6.80543E-03
 -1      7303 1.14992E+00 1.49957E-01-1.50948E-02 5.39277E-01-1.93448E-02 5.83905E-02
 -1      7304 1.31210E+00 1.33075E-01-2.66861E-02 5.47370E-01-2.04021E-02 6.73156E-02
 -1      7305 9.15092E-01 4.13238E-01-4.51688E-03 6.98110E-01 1.58955E-03 5.29082E-02
 -1      7306 1.07914E+00 4.01588E-01-1.75556E-02 7.23044E-01-2.62636E-03 6.33784E-02
 -1      7307 1.10276E+00 4.39758E-01-3.54267E-02 6.84762E-01-1.18868E-03 1.25315E-01
 -1      7308-1.15061E+00 4.68806E-02-1.51083E-02-2.84115E-01 1.63092E-03 2.45003E-02
 -1      7309-8.42133E-01 2.11448E-02-8.20777E-03-3.20189E-01 4.01420E-03 3.20537E-02
 -1      7310-6.43034E-01 2.51805E-01-3.77647E-03-5.85034E-01 1.90028E-02 9.12429E-03
 -1      7311 4.59022E+00 1.39781E+00 2.73369E-01 2.18371E+00 1.15796E-01 4.45104E-01
 -1      7312 1.37846E+01 2.83640E+01 1.12444E+01 1.03348E+01-3.17136E-01 1.79069E-01
 -1      7313 8.46800E+00 1.97098E+01 6.86183E+00 2.54131E+00-7.47794E-01 2.24947E-01
 -1      7314 1.19153E+01 2.73748E+01 1.02121E+01 9.03293E+00 1.71025E-01 1.87431E-01
 -1      7315 1.24630E+01 1.45597E+01 6.75557E+00-1.99656E+00-1.33454E-01-2.91026E-02
 -1      7316 6.79384E+00 1.48898E+01 5.36278E+00-1.97841E+00-1.42922E-01 1.74818E-01
 -1      7317 6.50176E+00 7.39290E+00 3.00295E+00-1.46015E+00 2.97115E-02-2.63182E-02
 -1      7318 8.04982E+00 7.44488E+00 3.49107E+00-9.49364E-01 1.75137E-02-1.73613E-02
 -1      7319 7.95887E+00 6.83170E+00 3.27065E+00-6.62956E-01-4.26056E-03 5.36701E-02
 -1      7320 7.59855E+00 8.06046E+00 3.54275E+00-1.55052E+00 4.51706E-02-5.54707E-02
 -1      7321 6.64633E+00 6.71736E+00 2.86908E+00-1.25961E+00 2.39094E-02-8.94700E-03
 -1      7322 1.38219E+00 1.23114E+00-4.83968E-03-8.55412E-01 8.55889E-02-1.25219E-01
 -1      7323 1.06728E+00 1.61116E+00-1.54098E-02-9.76855E-01 1.01434E-01-8.75614E-02
 -1      7324 7.31815E+00 3.71216E+00 1.99229E+00 3.35609E+00-3.83567E-03 8.97916E-02
 -1      7325 7.88514E+00 5.01474E+00 2.64709E+00 3.89444E+00 1.50484E-01-4.74442E-02
 -1      7326 7.25888E+00 3.85122E+00 2.02119E+00 3.40931E+00-4.68096E-02-6.60653E-02
 -1      7327 4.26426E+00 9.12640E+00 2.73168E+00 3.94134E+00 2.95494E-02-3.69078E-02
 -1      7328 1.55103E+01 2.24354E+01 8.98472E+00-4.09543E+00-2.03840E-01 1.02043E-01
 -1      7329 1.38734E+01 2.10664E+01 8.78658E+00-3.35699E+00-2.74110E-01 2.38237E-01
 -1      7330 1.43949E+01 1.82204E+01 7.84730E+00-2.50375E+00-8.81045E-03 3.18619E-01
 -1      7331 6.32687E+00 5.62376E-01 9.77058E-01 2.20198E+00 1.22840E-01 2.03101E-01
 -1      7332 7.43524E+00 1.10234E+00 1.60549E+00 2.01156E+00 3.98021E-01 2.13677E-01
 -1      7333 9.97883E+00 8.24046E+00 4.33532E+00 6.93347E+00-6.50974E-02-1.29892E-01
 -1      7334 1.11311E+01 1.16509E+01 5.59727E+00-1.47687E+00-1.18106E-01 1.38203E-02
 -1      7335 1.16544E+01 1.28158E+01 6.01849E+00-1.73368E+00-1.09999E-01 3.68046E-02
 -1      7336 1.15923E+01 1.26569E+01 6.05614E+00-1.77780E+00-8.57185E-02 1.48373E-03
 -1      7337 1.57635E+01 1.08670E+01 6.35929E+00 1.03041E+01-1.28535E+00-6.12255E-01
 -1      7338 7.41606E+00 3.83351E+00 1.90756E+00 2.01185E+00-4.79938E-01 2.50998E-01
 -1      7339 1.39296E+01 1.24993E+01 6.54280E+00 9.89223E+00 2.13576E-01 1.10006E-01
 -1      7340 1.13433E+01 2.23409E+01 8.70966E+00 8.97915E+00 1.08840E-01-2.68989E-02
 -1      7341 1.43874E+01 1.26524E+01 7.01301E+00 9.94169E+00-5.05126E-02 1.08689E-01
 -1      7342 7.90215E+00 4.28371E+00 2.65342E+00 2.65534E+00 1.59435E-01 6.19929E-01
 -1      7343 1.40678E+01 1.39174E+01 7.38640E+00 9.62583E+00 2.44753E-01 4.29082E-01
 -1      7344 4.46222E+00 3.36238E+00 1.20078E+00-4.65279E-01 1.14872E-03-2.59790E-02
 -1      7345 3.67726E+00 9.97797E+00 2.58604E+00 3.05176E+00 1.64268E-01 1.18850E-01
 -1      7346 3.20384E+00 8.16544E+00 1.94361E+00 2.51309E+00 1.13582E-01 1.45428E-01
 -1      7347 2.95211E+00 8.12510E+00 1.86887E+00 2.31485E+00 1.18461E-01 1.77639E-01
 -1      7348 4.42845E+00 5.70106E+00 1.59176E+00 3.26627E+00-1.80590E-01 1.38925E-01
 -1      7349 3.84009E+00 4.98822E+00 1.24124E+00 2.78903E+00 2.57799E-02 2.10625E-01
 -1      7350 4.80926E+00 5.52392E+00 1.62054E+00 3.60952E+00 2.48825E-02 1.73575E-01
 -1      7351 1.48490E+01 2.37538E+01 1.05822E+01-3.91331E+00-3.90178E-01 4.26438E-01
 -1      7352 1.51697E+01 1.87899E+01 8.09774E+00-2.82867E+00-7.35655E-03 1.83964E-01
 -1      7353 1.52403E+01 1.79193E+01 8.02233E+00-2.62828E+00 6.79165E-02 6.70896E-02
 -1      7354 8.37535E+00 7.84721E+00 3.68837E+00-9.94124E-01-1.56960E-02 4.81302E-02
 -1      7355 8.19003E+00 7.53827E+00 3.52116E+00-8.85885E-01-1.15881E-04 3.58421E-02
 -1      7356 6.16741E+00 7.47064E+00 2.92123E+00-1.55708E+00 3.47747E-03-1.12266E-02
 -1      7357 3.20219E+00 8.56464E+00 1.75066E+00 2.43947E+00 1.34240E-01 2.88780E-01
 -1      7358 3.45985E+00 9.63032E+00 2.13900E+00 2.65068E+00 1.63368E-01 2.84313E-01
 -1      7359 3.62568E+00 1.07766E+01 2.46938E+00 2.47919E+00 3.63967E-02 2.15605E-01
 -1      7360 3.89766E+00 1.04486E+01 2.38095E+00 9.32999E-01 7.12859E-02 2.56084E-01
 -1      7361 4.69744E+00 1.24471E+01 3.20882E+00 7.01645E-01 5.81792E-02 2.35454E-01
 -1      7362 3.72668E+00 9.86108E+00 2.23484E+00 1.29084E+00 1.03277E-01 2.33396E-01
 -1      7363 2.47442E+00 8.16804E+00 3.39727E-01 1.84459E+00 5.32018E-01 5.13686E-01
 -1      7364 2.08159E+00 7.77871E+00 9.59718E-02-5.84632E-02 3.89029E-01 1.53063E-01
 -1      7365 1.96634E+00 6.93303E+00 9.44555E-02 4.31382E-01 4.15254E-01 1.62201E-01
 -1      7366 2.78629E+00 7.33661E+00 2.84357E-01 5.84334E-02 5.36108E-01 1.58769E-01
 -1      7367 2.56736E+00 6.36981E+00 5.81646E-02-1.16732E+00 4.35791E-01-1.27392E-01
 -1      7368 3.32375E+00 8.53069E+00 4.34275E-01-4.21472E-01 5.28859E-01 9.87016E-02
 -1      7369 5.40335E+00 1.29429E+01 3.91603E+00 5.32682E-01-3.53253E-03 1.67727E-01
 -1      7370 4.69478E+00 1.12201E+01 3.22579E+00 7.09173E-01 2.43767E-02 1.84545E-01
 -1      7371 3.94959E+00 1.07146E+01 2.93435E+00 4.04715E+00 2.35771E-01 2.75042E-01
 -1      7372 5.36668E+00 1.48780E+01 4.54349E+00 1.63232E+00 2.28165E-01 2.21419E-01
 -1      7373 4.27833E+00 1.24419E+01 3.57111E+00 1.68903E+00 2.63526E-02 1.35280E-01
 -1      7374 5.71775E+00 1.26061E+01 3.92379E+00-1.26021E+00-6.12159E-02 8.19866E-02
 -1      7375 3.89856E+00 1.06303E+00 2.36605E-01 1.57732E+00-1.79013E-02 1.43024E-01
 -1      7376 3.38308E+00 2.15997E-01-1.37473E-01 8.06296E-01 2.92199E-02 1.86591E-01
 -1      7377 3.71685E+00 1.40277E+00 2.97104E-01 1.72338E+00 1.96930E-02 1.73236E-01
 -1      7378-1.29642E-01 1.98330E-01-7.75754E-03 6.25210E-01 6.14784E-03-7.43075E-03
 -1      7379 7.52194E+00 9.68748E+00 4.61947E+00 4.12212E+00-7.06997E-04 1.68557E-01
 -1      7380 1.18742E+00 1.51013E-04 1.86158E-02 2.25302E-01-1.84630E-02-9.50215E-03
 -1      7381 1.32751E+00 2.08204E-01 1.63477E-01 1.58036E-01-5.66784E-03 1.55401E-03
 -1      7382 9.51131E-01 1.49270E-01 4.86533E-02 1.32045E-01-2.58494E-03-1.96966E-02
 -1      7383 9.73503E+00 9.33139E+00 3.73707E+00-1.22842E+00-8.99978E-03 1.27086E-01
 -1      7384 1.04456E+01 1.02151E+01 4.23617E+00-1.37271E+00-3.42182E-02 1.46601E-01
 -1      7385 1.05733E+01 2.40535E+01 8.86804E+00 8.20633E+00 3.42209E-01 5.84652E-01
 -1      7386-2.05544E-02 7.97660E-02 7.76705E-03 5.90541E-01 1.04780E-02-1.01692E-02
 -1      7387 2.58048E-02-1.04496E-01 5.99758E-04 4.68378E-01 1.81894E-02 1.66817E-02
 -1      7388 5.62698E-01-5.33389E-03 1.01427E-01 7.14261E-01 2.72397E-02 2.53199E-02
 -1      7389-5.88339E-01 1.35728E-01 2.04621E-03 2.72533E-01 2.30934E-02-1.72915E-02
 -1      7390 4.68951E-01 2.02301E-01 7.42730E-02 8.54026E-01-2.66559E-02 6.70453E-03
 -1      7391 1.08090E+01 1.13832E+01 5.42828E+00-1.27452E+00 7.71815E-02 3.66666E-02
 -1      7392 1.09401E+01 1.14625E+01 5.43041E+00-1.40131E+00 7.48950E-02 6.55999E-02
 -1      7393 1.17223E+01 1.29898E+01 6.12006E+00-1.71631E+00 4.59246E-02-1.14076E-03
 -1      7394 2.12727E+00 6.33230E+00 5.01760E-01 1.92824E+00 2.93036E-01 3.77909E-01
 -1      7395 3.19102E+00 8.21669E+00 1.12637E+00 5.84180E-01 2.35222E-01 2.72315E-01
 -1      7396 2.53361E+00 7.18629E+00 6.94979E-01 3.24324E-01 3.61498E-01 2.37582E-01
 -1      7397 2.15023E+00 6.88177E+00 7.07933E-01 1.15914E+00 2.40289E-01 3.02391E-01
 -1      7398 3.09214E+00 7.96809E+00 1.12089E+00-1.91524E-01 2.65881E-01 1.71850E-01
 -1      7399 2.75796E+00 8.02078E+00 1.18092E+00 1.49037E+00 1.95682E-01 3.65472E-01
 -1      7400-7.26082E-03 6.28396E-01-2.34930E-02 5.21311E-01 1.14307E-02 9.06005E-03
 -1      7401 1.21536E-01 9.60785E-01-4.54562E-02 4.66347E-01 2.37207E-02 1.56224E-02
 -1      7402 3.36325E-01 6.16848E-01-4.13853E-02 6.64946E-01 2.45075E-03 1.96587E-02
 -1      7403 3.99940E+00 3.05463E+00 5.48434E-01 2.60642E+00 1.74386E-01 4.09367E-01
 -1      7404 3.75760E+00 3.37334E+00 4.70873E-01 2.78775E+00 6.27461E-02 4.06120E-01
 -1      7405 4.57728E+00 2.22162E+00 3.73302E-01 2.51763E+00 4.61578E-02 4.09511E-01
 -1      7406 3.66727E+00 3.99661E-01-2.20793E-01 1.26419E+00 3.93278E-02 3.59451E-01
 -1      7407 3.81638E+00 9.78228E-01-1.17804E-01 1.63448E+00 6.66842E-02 4.55421E-01
 -1      7408 3.43195E+00 1.82308E+00 1.01022E-01 1.83282E+00 9.92340E-02 3.99733E-01
 -1      7409 9.41189E+00 2.33545E+01 8.63974E+00-8.63786E-01-4.41109E-01-1.17549E-01
 -1      7410 6.00251E+00 5.26119E+00 2.15665E+00-6.80718E-01 1.62727E-02-3.91083E-03
 -1      7411 5.85065E+00 5.07947E+00 2.04722E+00-6.40323E-01 2.52882E-02-9.09609E-03
 -1      7412 6.71295E+00 5.87820E+00 2.55598E+00-6.64239E-01 9.29388E-03-3.33697E-03
 -1      7413 6.58120E+00 5.69518E+00 2.44106E+00-6.36373E-01 3.17971E-02 2.55565E-02
 -1      7414 5.64840E+00 5.92150E+00 2.23929E+00-1.25116E+00-1.01565E-02 4.44841E-02
 -1      7415 1.28065E+01 1.62322E+01 7.53069E+00-2.24975E+00 6.92070E-02-1.14931E-01
 -1      7416 1.19283E+01 1.34315E+01 6.29577E+00-1.65132E+00 3.56757E-03 1.98063E-02
 -1      7417 1.15475E+01 1.30214E+01 6.11285E+00-1.61961E+00 3.61932E-02 1.19969E-01
 -1      7418 7.82671E+00 1.65969E+01 6.03679E+00-2.19638E+00-2.56192E-02 8.18817E-02
 -1      7419 6.94729E+00 1.75344E+01 6.54579E+00 2.87360E+00-2.70490E-01 1.72817E-01
 -1      7420 1.01927E+01 2.43679E+01 9.22704E+00 7.27973E+00-2.39640E-01 4.54152E-02
 -1      7421 1.03118E+01 2.40293E+01 9.83343E+00 8.78636E+00 5.13787E-01 1.10702E-01
 -1      7422 8.45061E+00 7.77612E+00 3.49626E+00-8.71530E-01 6.66200E-02 6.56309E-02
 -1      7423 7.54024E+00 9.38297E+00 3.71137E+00-1.94589E+00-3.99299E-02 7.40097E-02
 -1      7424 8.83786E+00 8.49671E+00 3.83975E+00-1.03881E+00 2.77315E-02 4.64450E-02
 -1      7425 1.33318E+01 2.68257E+01 1.04991E+01 9.66456E+00 2.37279E-01 4.87199E-01
 -1      7426 7.97501E+00 1.86155E+01 6.68222E+00 2.37457E+00 9.90461E-02 3.94118E-01
 -1      7427 8.29343E+00 1.84783E+01 6.05811E+00 2.72018E+00-5.46540E-01-3.21056E-02
 -1      7428 2.88956E+00 1.74508E+00 2.50232E-01-3.45391E-01 4.16504E-02-1.64824E-01
 -1      7429 8.05528E+00 7.44365E+00 3.41573E+00-8.84707E-01 8.05407E-02 4.09926E-02
 -1      7430 8.45416E+00 8.16249E+00 3.74301E+00-1.03520E+00 3.55609E-02-6.76172E-03
 -1      7431 8.13769E+00 7.85172E+00 3.56531E+00-9.46973E-01 2.21329E-02 4.56865E-02
 -1      7432 2.16372E+00 6.51334E+00 4.56897E-01 2.01534E+00 3.71222E-01 4.24875E-01
 -1      7433 2.37243E+00 4.60882E+00 1.39444E-01 1.93921E+00 2.45087E-01 4.67482E-01
 -1      7434 7.33994E+00 7.11964E+00 1.13075E+00-1.01792E+00 1.69620E-01-1.47140E-01
 -1      7435 8.70922E+00 9.78212E+00 4.27604E+00-1.48719E+00-2.18331E-02 2.81950E-02
 -1      7436 2.81034E+00 1.53339E+00 3.35448E-01-2.42173E-01 2.79261E-03-1.22503E-02
 -1      7437 2.98991E+00 1.78674E+00 4.21321E-01-3.24054E-01 1.23850E-02-3.10901E-02
 -1      7438 2.57472E+00 6.94442E-02-4.05042E-01 3.92955E-01 6.91353E-03 1.35735E-01
 -1      7439 2.53506E+00 9.31294E-02-4.13224E-01 3.71831E-01 4.26980E-03 1.46330E-01
 -1      7440 2.71482E+00 1.52832E-01-3.62908E-01 3.96800E-01-6.25493E-03 1.22921E-01
 -1      7441 4.06556E+00 3.05088E+00 6.67113E-01-4.59106E-01 4.21044E-02-1.26886E-01
 -1      7442 3.96079E+00 2.93885E+00 5.67990E-01-4.66257E-01 4.17887E-02-1.63345E-01
 -1      7443 3.73265E+00 2.66227E+00 4.97091E-01-4.14391E-01 4.52061E-02-1.63396E-01
 -1      7444 1.26291E+01 2.75223E+01 1.04732E+01 8.82111E+00 4.13225E-01 2.01833E-01
 -1      7445 8.43161E+00 1.87549E+01 6.49971E+00 2.81135E+00 1.01604E+00 4.99680E-01
 -1      7446 3.21837E+00 3.23920E-01-1.56528E-01 5.89688E-01 9.22989E-03 1.16688E-01
 -1      7447 3.67320E+00 2.60071E-01-6.82493E-02 7.75922E-01-1.46417E-03 8.90584E-02
 -1      7448 4.66939E+00 1.56727E+00-2.23127E-01 1.77456E+00 1.18167E-02 1.08826E+00
 -1      7449 3.56333E+00 7.38671E-01-4.88879E-01 1.37210E+00-7.89525E-02 8.97170E-01
 -1      7450 4.17374E+00 1.15978E+00-2.02644E-01 1.75670E+00-3.95529E-02 9.02589E-01
 -1      7451 7.23263E+00 6.37901E+00 2.75104E+00-6.67901E-01 4.19021E-02 3.32182E-02
 -1      7452 6.93341E+00 5.88143E+00 2.52698E+00-6.43226E-01 5.03990E-02 3.60467E-02
 -1      7453 7.47313E+00 6.63731E+00 2.94078E+00-7.98196E-01 1.84041E-02 6.53012E-02
 -1      7454 6.77524E+00 5.95067E+00 2.25808E+00-7.25477E-01 2.04974E-02 3.83331E-02
 -1      7455 5.17720E+00 5.91973E+00 1.81757E+00-1.30966E+00 7.61205E-02 2.68255E-02
 -1      7456 6.43072E+00 5.42978E+00 1.97483E+00-6.17208E-01 4.86949E-02 1.46157E-02
 -1      7457 5.03732E+00 5.39191E+00 1.58115E+00-1.18369E+00 6.92033E-02 2.18089E-02
 -1      7458 6.15552E+00 6.34635E+00 2.15734E+00-1.31129E+00 6.26606E-02 5.79407E-02
 -1      7459 3.24746E+00 8.57675E+00 2.20180E+00 1.91995E+00 3.52842E-02 8.69994E-02
 -1      7460 2.61475E+00 7.83561E+00 1.84349E+00 1.35055E+00 3.35235E-02 7.19446E-02
 -1      7461 3.03117E+00 8.74166E+00 2.27953E+00 1.32271E+00 6.87621E-03 5.36635E-02
 -1      7462 2.84465E+00 8.04103E+00 1.92343E+00 4.69105E-01 6.81510E-02 4.00954E-02
 -1      7463 3.61401E+00 9.50144E+00 2.58562E+00 1.92286E+00 5.23394E-02 9.53861E-02
 -1      7464 3.82490E+00 5.52269E+00 1.57671E+00-1.14479E+00 3.08606E-02 9.42318E-03
 -1      7465 4.22625E+00 6.13985E+00 1.86385E+00-1.17199E+00 6.05568E-02-7.56758E-03
 -1      7466 3.15352E+00 5.65095E+00 1.40181E+00-7.24945E-01 3.23491E-02 6.07974E-02
 -1      7467 4.09185E+00 5.31324E-01-4.86718E-01 1.23651E+00 2.41645E-03 4.19868E-01
 -1      7468 4.60568E+00 8.42099E-01-2.72021E-01 1.42714E+00 4.09783E-02 4.05978E-01
 -1      7469 3.84684E+00 2.89403E-01-6.17398E-01 8.67789E-01-2.11779E-02 4.78076E-01
 -1      7470 4.34275E+00 6.84361E-01-3.94000E-01 1.05856E+00 6.24650E-02 4.61208E-01
 -1      7471 6.46930E+00 1.50009E+00 4.55881E-01 3.21183E+00 4.01407E-02 2.85976E-01
 -1      7472 3.74703E+00 1.06500E+01 2.09275E+00 9.08263E-01 2.48875E-01 3.07965E-01
 -1      7473 7.81782E+00 8.77504E+00 2.69465E+00-1.24608E+00 1.50646E-02 1.71123E-01
 -1      7474 4.32876E+00 1.00944E+01 2.90760E+00 5.01729E-01 5.12286E-02 9.28032E-02
 -1      7475 4.46709E+00 1.04775E+01 3.06833E+00-7.19950E-02 1.03970E-01 8.51101E-02
 -1      7476 5.39078E+00 9.65911E+00 3.10234E+00-1.79420E+00 2.66114E-02 1.11602E-01
 -1      7477 4.57756E+00 3.38764E+00 7.90091E-01-3.62967E-01 4.18846E-02-1.18702E-01
 -1      7478 4.42363E+00 3.25165E+00 6.80186E-01-3.61661E-01 3.72630E-02-1.46499E-01
 -1      7479 4.10680E+00 3.48907E+00 7.30843E-01-7.79716E-01 8.92370E-02-1.04741E-01
 -1      7480 6.23289E+00 6.49535E+00 2.31374E+00-1.36515E+00 6.50028E-02 2.65212E-02
 -1      7481 1.92941E+00 1.65164E+00 3.69726E-02-7.76015E-01 1.42856E-01-2.03343E-01
 -1      7482 1.65810E+00 2.08075E+00 5.28886E-02-9.36685E-01 1.90761E-01-1.56508E-01
 -1      7483 6.39785E-02 3.07246E-01-1.25204E-02 7.14463E-01-3.55494E-03 1.20984E-02
 -1      7484 1.23789E+01 1.39029E+01 5.70897E+00-2.14884E+00-9.65735E-02 3.67375E-01
 -1      7485 1.28123E+01 1.58396E+01 6.63067E+00-2.52142E+00-1.15244E-01 2.36505E-01
 -1      7486 1.16058E+01 1.30456E+01 5.45659E+00-1.76492E+00 5.52628E-02 1.97948E-01
 -1      7487 6.82830E+00 5.91617E+00 1.86746E+00-7.75893E-01 7.18678E-02 9.22226E-03
 -1      7488 6.73724E+00 5.84349E+00 1.84330E+00-7.36422E-01 4.00761E-02 3.91125E-03
 -1      7489 5.69144E+00 7.01244E+00 1.89222E+00-1.48517E+00 8.77054E-02 8.92279E-02
 -1      7490 7.06752E+00 9.32827E+00 3.67392E+00 6.50841E+00 1.05843E-01 1.45422E-01
 -1      7491 5.36342E+00 9.36343E+00 3.20785E+00 4.46235E+00 9.09747E-02 3.65299E-02
 -1      7492 4.60030E+00 1.13934E+01 3.62809E+00 4.32039E+00 5.41714E-02 1.28848E-01
 -1      7493 6.48630E+00 6.42921E+00 2.67343E+00 5.34838E+00-1.56790E-02-6.51057E-02
 -1      7494 5.12191E+00 6.34275E+00 2.26671E+00 3.81911E+00 4.09560E-02 5.06276E-02
 -1      7495 7.64374E+00 3.59655E+00 2.13364E+00 4.42483E+00 3.37807E-03-3.84159E-02
 -1      7496 1.27242E+01 1.49082E+01 6.70425E+00-2.14548E+00 2.61409E-02 1.70261E-01
 -1      7497 1.23860E+01 1.41294E+01 6.24444E+00-2.05124E+00 1.17905E-01 2.74367E-01
 -1      7498 1.34042E+01 1.67872E+01 7.60954E+00-3.27630E+00-2.11186E-01 7.66510E-02
 -1      7499 6.08988E+00 5.15992E+00 8.19076E-01-6.39049E-01 9.84429E-02-1.85556E-01
 -1      7500 6.48333E+00 5.68733E+00 9.72454E-01-6.82957E-01 1.05954E-01-1.67281E-01
 -1      7501 6.00550E+00 5.13568E+00 7.05290E-01-6.41872E-01 9.24456E-02-2.43102E-01
 -1      7502 9.61307E-01 2.29756E+00 6.14126E-02 9.23765E-01 1.85241E-01 1.77205E-01
 -1      7503 5.94179E-01 1.75150E+00 1.28982E-02 7.13293E-01 1.33504E-01 1.19427E-01
 -1      7504-3.92414E-01-6.68057E-02 1.18784E-02-2.33949E-01-1.91469E-04 4.33945E-02
 -1      7505-5.75834E-01-2.35470E-02 8.46949E-03-3.29816E-01-3.09962E-03 2.65540E-02
 -1      7506-3.76697E-01-4.44816E-02 3.11408E-02-1.92947E-01-8.78540E-04 1.86383E-02
 -1      7507 9.82645E+00 1.03027E+01 4.86466E+00-1.35815E+00-3.31278E-02 9.70916E-03
 -1      7508 8.31743E+00 4.61474E+00 2.62120E+00 4.19083E+00 2.60408E-01-1.43428E-01
 -1      7509 2.22696E-01-2.11520E-01 1.99388E-02 1.40709E-01-9.93736E-03 4.87308E-03
 -1      7510 1.18435E+01 1.89740E+01 7.80390E+00-1.36669E+00 2.00582E-01-8.69401E-02
 -1      7511 1.07158E+01 2.14735E+01 8.48448E+00-8.74801E-01 3.78348E-01 2.47348E-01
 -1      7512 1.21621E+01 2.22485E+01 8.54554E+00-1.22473E+00 2.92779E-01-7.23039E-02
 -1      7513 4.99656E+00 4.89341E+00 1.00934E+00-1.09063E+00 1.09353E-01-4.30258E-02
 -1      7514 4.35370E+00 5.45444E+00 1.03599E+00-1.15397E+00 1.38656E-01-5.10186E-03
 -1      7515 4.24107E+00 4.90125E+00 9.36652E-01-1.04487E+00 1.41376E-01-6.86813E-02
 -1      7516 4.43554E+00 3.99302E+00 6.48653E-01-9.45650E-01 1.55158E-01-1.56906E-01
 -1      7517 4.72061E+00 4.27444E+00 8.69843E-01-9.03673E-01 1.23402E-01-8.79294E-02
 -1      7518 1.28950E+00 5.10150E-02-2.74398E-02 3.52020E-01-2.88339E-02 6.62186E-02
 -1      7519 1.03401E+00-1.67458E-02-2.33632E-02 1.11938E-01-1.36725E-02 3.01662E-02
 -1      7520 1.07438E+00-3.22103E-02-3.08467E-02 2.78965E-01-2.55530E-02 1.68376E-02
 -1      7521 9.71683E+00 1.05537E+01 4.83107E+00-1.67397E+00 3.83383E-02 4.21637E-02
 -1      7522 9.93454E+00 1.04545E+01 4.78987E+00-1.65597E+00 1.64309E-02 5.74285E-02
 -1      7523 7.18148E+00 1.26834E+01 4.70459E+00-1.96516E+00-6.42596E-02 1.00485E-01
 -1      7524 1.18387E+01 1.39770E+01 6.42086E+00-1.89878E+00 6.42222E-02 1.00348E-01
 -1      7525 3.86282E+00 8.46582E+00 2.45282E+00 3.01157E-02 7.73071E-03 7.92037E-02
 -1      7526 2.95977E+00 8.60358E+00 2.22195E+00 1.27212E+00 9.45582E-03 9.51923E-02
 -1      7527 4.25251E+00 8.31164E+00 2.50932E+00-7.54794E-01 4.45420E-02 1.46575E-02
 -1      7528 3.68036E+00 7.84627E+00 2.14327E+00-4.86917E-01 9.19941E-02 5.38106E-02
 -1      7529 2.75336E+00 7.93658E+00 1.94398E+00 5.14492E-01 2.88473E-02 6.96551E-02
 -1      7530 9.35266E+00 2.86260E+00 1.09153E+00 4.11091E+00-6.25586E-01 3.30926E-01
 -1      7531 1.19932E+01 1.28961E+01 6.07060E+00 9.54830E+00-4.34506E-01 1.94972E-01
 -1      7532 9.99934E+00 2.40086E+00 1.41395E+00 6.22827E+00-6.07135E-01 2.23943E-01
 -1      7533 8.85019E+00 8.32834E+00 3.15649E+00-9.65998E-01 5.38220E-02 1.15445E-01
 -1      7534 6.03820E+00 1.98974E+00 1.04366E+00 3.19412E+00 2.18808E-02 1.02967E-01
 -1      7535 6.28574E+00 7.59324E+00 2.72651E+00 4.76897E+00 3.98306E-02 1.51568E-01
 -1      7536 6.92715E+00 2.32248E+00 1.35628E+00 3.66385E+00-4.33858E-02 2.98523E-02
 -1      7537 2.84381E+00 2.51712E+00 4.53004E-01-8.83408E-01 8.18992E-02-8.52055E-02
 -1      7538 7.13245E+00 6.53932E+00 2.28143E+00-8.21126E-01 2.40596E-02 5.46593E-02
 -1      7539 7.52950E+00 7.04474E+00 2.51741E+00-9.39557E-01 2.81624E-02 6.54858E-02
 -1      7540 7.13261E+00 6.52201E+00 2.21613E+00-8.17078E-01 1.50533E-02 6.23134E-02
 -1      7541-1.91808E-01 6.03155E-01-2.29940E-02 3.98437E-01 1.32785E-02 9.78511E-03
 -1      7542-7.95727E-02 9.52833E-01-3.42198E-02 3.14927E-01 2.49877E-02 1.09357E-02
 -1      7543 2.80383E+00 5.38378E+00 1.24522E+00-5.40439E-01 4.28519E-02 5.35411E-02
 -1      7544 2.52676E+00 5.90126E+00 1.32791E+00-3.22682E-01 5.41681E-02 3.57446E-02
 -1      7545 1.91331E+00 5.79509E+00 1.12339E+00 1.41031E-01 9.43007E-02 3.70443E-02
 -1      7546 8.79827E+00 2.03879E+01 7.57727E+00-7.16787E-01 2.10553E-01-1.77061E-01
 -1      7547 2.86698E+00 1.71758E+00 3.50164E-01-4.28399E-01 2.46204E-02-6.39062E-02
 -1      7548 2.12569E+00 1.73668E+00 2.08812E-01-8.47216E-01 5.50352E-02-8.23716E-02
 -1      7549 9.42082E-01 1.30933E+00 3.52231E-03 1.04166E+00 5.66532E-02 1.11655E-01
 -1      7550 8.46401E-01 8.62776E-01 2.86379E-04 9.27915E-01 2.54646E-02 7.74670E-02
 -1      7551 5.47704E-01 1.14395E+00-1.70751E-02 7.87278E-01 3.84746E-02 6.93125E-02
 -1      7552 9.70050E-01 1.09179E+00-2.10352E-02 9.37700E-01 6.44023E-02 1.52450E-01
 -1      7553 4.19820E+00 5.79013E-01-3.74607E-01 1.28473E+00-6.58182E-02 2.68504E-01
 -1      7554 3.57772E+00 1.47811E-01-6.31066E-01 6.02232E-01-3.20049E-02 4.07233E-01
 -1      7555 5.75440E+00 1.56513E+00 4.33289E-01 2.61730E+00 7.06349E-02 4.70671E-01
 -1      7556 3.49934E+00 3.39842E-01-5.70892E-01 6.37361E-01-3.54902E-02 3.72920E-01
 -1      7557 1.13191E+01 1.24773E+01 5.78598E+00-1.61396E+00 3.04521E-02 5.52061E-02
 -1      7558 1.22956E+01 1.45133E+01 6.65198E+00-2.09045E+00-1.07663E-01-1.03181E-01
 -1      7559 7.71958E+00 1.44597E+01 5.42161E+00-2.27341E+00-3.97342E-03-2.29552E-02
 -1      7560 1.72990E+00 4.58467E+00 8.05927E-01 1.17009E+00 1.83368E-02 3.83174E-02
 -1      7561 1.59215E+00 4.57666E+00 7.41295E-01 6.58111E-01 7.30979E-02 5.03187E-02
 -1      7562 1.88917E+00 5.34933E+00 1.03608E+00 7.72879E-01 5.31561E-02 2.31637E-02
 -1      7563 2.27581E+00 4.74837E+00 9.93267E-01 1.78714E+00 3.85651E-02 6.84026E-02
 -1      7564 2.08419E+00 4.89766E+00 9.59154E-01 1.23951E+00 5.09290E-02 6.41634E-02
 -1      7565 1.91671E+00 4.07710E+00 6.89114E-01 1.53256E+00 5.30362E-02 8.84693E-02
 -1      7566 2.82511E-01 1.12848E+00-1.24620E-02 5.54875E-01 3.75701E-02 3.29844E-02
 -1      7567 1.02849E-01 1.24458E+00-1.69848E-02 3.69574E-01 3.32104E-02 1.14471E-02
 -1      7568 4.03409E-01 1.22502E+00-2.08443E-02 6.13056E-01 2.81535E-02 2.54474E-02
 -1      7569 3.16814E-01 1.30349E+00-2.36292E-02 5.18320E-01 5.02796E-02 3.70425E-02
 -1      7570 5.09636E-01 1.14255E+00-2.94045E-02 7.09882E-01 4.83283E-02 5.81623E-02
 -1      7571 5.41527E-01 3.15050E-02-9.72328E-02 1.57656E-01-1.35828E-02-3.39367E-02
 -1      7572 4.98154E+00 6.60008E+00 2.22980E+00-1.22602E+00 3.55063E-02 2.24668E-02
 -1      7573 4.40908E+00 5.77183E+00 1.84982E+00-1.14445E+00-4.06185E-04 4.31595E-02
 -1      7574 4.54081E+00 4.99462E+00 1.61424E+00-1.16614E+00 4.15842E-03 1.90338E-02
 -1      7575 1.27410E+01 3.15137E+01 1.12151E+01 4.99962E+00 3.59346E-01 1.67735E-01
 -1      7576 1.04340E+01 2.26555E+01 7.36072E+00-1.30057E+00-8.65028E-01-9.54008E-03
 -1      7577 1.20429E+01 3.22422E+01 1.07551E+01-2.23025E+00-1.74443E+00 1.08274E-01
 -1      7578 1.21110E+00 6.65550E-02-1.66316E-02 4.53729E-01-1.83307E-02 5.56039E-02
 -1      7579 3.76767E+00 8.77522E+00 2.10910E+00-3.83340E-01 1.07130E-01 8.77682E-02
 -1      7580 3.23961E+00 8.90954E+00 2.06125E+00 1.95181E+00 1.32823E-02 2.40988E-01
 -1      7581 3.47348E+00 9.34823E+00 2.16745E+00 3.14378E-01 1.34731E-01 2.05673E-01
 -1      7582 5.71985E+00 1.62342E+01 4.25367E+00-5.66824E-01 1.03832E-01 4.13752E-01
 -1      7583 1.26845E+01 1.97546E+01 8.42262E+00-1.52865E+00-4.52792E-02-5.56268E-03
 -1      7584 1.28988E+01 1.99506E+01 8.69886E+00-1.35180E+00-2.17679E-02 1.83223E-01
 -1      7585 1.02650E+01 2.24738E+01 8.83491E+00-1.27353E+00-1.03392E-01 1.66508E-01
 -1      7586 6.29128E+00 8.54330E+00 3.18261E+00 5.28369E+00-9.72951E-02 4.55035E-02
 -1      7587 5.34579E+00 9.29064E+00 3.20253E+00 4.37870E+00 3.55720E-02 5.17405E-02
 -1      7588 6.43764E+00 3.16238E+00 1.70342E+00 4.17125E+00-1.05159E-01 1.34345E-01
 -1      7589 4.19164E+00 2.94360E+00 1.01333E+00-2.95392E-01-1.32411E-04 3.47410E-03
 -1      7590 4.47104E+00 3.37801E+00 1.20961E+00-4.37569E-01 1.56098E-02-5.69131E-03
 -1      7591 4.08605E+00 3.87431E-01 1.22593E-01 9.09063E-01-3.50464E-02 5.36065E-02
 -1      7592 3.65837E+00 3.44972E-01-2.87367E-02 8.62188E-01 4.48904E-03 9.28115E-02
 -1      7593 3.96579E+00 4.66363E-01 5.20520E-02 7.38573E-01 1.15877E-02 1.25122E-01
 -1      7594 3.27478E+00 1.26144E-01-2.00354E-01 5.87625E-01 1.92489E-02 8.92719E-02
 -1      7595 5.80611E+00 1.09284E+00 7.81948E-01 2.14091E+00-1.96585E-02 9.43512E-02
 -1      7596 1.89585E+00 4.16666E-02-2.29891E-01 3.10679E-01-5.35770E-02 4.06062E-01
 -1      7597 2.06610E+00 8.00985E-02-2.64547E-01 3.54322E-01-5.71070E-02 4.96696E-01
 -1      7598 7.92598E+00 8.87316E+00 2.27704E+00-1.30922E+00 1.67663E-01 1.16069E-01
 -1      7599 7.90317E+00 8.91679E+00 2.18654E+00-1.31507E+00 1.06694E-01 1.11839E-01
 -1      7600 7.52086E+00 8.12738E+00 1.89727E+00-1.14767E+00 1.45765E-01 9.15820E-02
 -1      7601 1.56358E+01 2.90793E+01 1.16589E+01 9.58215E+00-1.70066E-01 8.73554E-01
 -1      7602 1.00136E+01 1.98409E+01 7.70465E+00 1.81715E+00 9.52603E-01 2.61910E-01
 -1      7603 1.77150E+01 3.05673E+01 1.30732E+01 1.06055E+01 9.02833E-01-6.26683E-02
 -1      7604 7.92684E+00 1.20095E+01 4.85857E+00-1.93030E+00-6.40534E-02-3.99301E-03
 -1      7605 2.44337E+00 6.76578E+00 1.15216E+00 6.03601E-01 1.17030E-01 1.66344E-01
 -1      7606 2.76098E+00 7.12342E+00 1.24951E+00-2.16742E-02 1.70149E-01 1.52106E-01
 -1      7607 3.25619E+00 7.92197E+00 1.65487E+00-3.09763E-01 1.58463E-01 1.22313E-01
 -1      7608 2.63505E+00 7.60437E+00 1.78172E+00 1.39784E+00 2.07433E-02 1.21299E-01
 -1      7609 3.47890E+00 8.62123E+00 2.31826E+00 2.98261E+00-9.06403E-03 9.27242E-02
 -1      7610 2.97178E+00 8.46048E+00 2.12074E+00 1.38443E+00 8.83573E-02 9.53351E-02
 -1      7611 2.48930E+00 1.02684E+00 4.63516E-02 1.18495E+00 1.63528E-02 1.49098E-01
 -1      7612 2.53406E+00 1.33322E+00 1.01694E-01 1.43022E+00 4.90490E-02 2.06494E-01
 -1      7613 2.50884E+00 4.20671E-01-9.61810E-02 8.46639E-01 4.50979E-02 1.93196E-01
 -1      7614 2.19146E+00 9.16969E-01-2.21747E-02 1.07852E+00 2.53575E-02 1.23705E-01
 -1      7615 2.29757E+00 1.27329E+00 6.37947E-02 1.34045E+00 1.65756E-02 1.54033E-01
 -1      7616 2.18329E+00 2.05623E+00 2.22308E-01 1.61301E+00 4.76258E-02 1.35528E-01
 -1      7617 1.23322E+01 2.39021E+01 7.09049E+00-3.70648E+00 7.42081E-01 2.55446E-01
 -1      7618 1.25067E+01 1.68003E+01 4.54562E+00-2.90735E+00 2.23196E-01 1.84207E-01
 -1      7619 1.20049E+01 1.62604E+01 4.69716E+00-2.77675E+00 2.58300E-01 5.79451E-01
 -1      7620 6.55733E+00 5.65064E+00 2.16212E+00-6.16737E-01 2.12372E-02 9.26583E-04
 -1      7621 1.38454E+01 1.98126E+01 8.61779E+00-2.44418E+00 1.99131E-01-4.07641E-01
 -1      7622 1.54077E+01 3.02607E+01 1.24235E+01-3.83847E+00 1.11267E+00-6.23909E-01
 -1      7623 1.34821E+01 2.06061E+01 8.70713E+00-2.89860E+00 2.00674E-01-9.47095E-02
 -1      7624 2.36939E+00 1.93378E+00 1.57275E-02 1.63972E+00 1.25346E-01 4.16169E-01
 -1      7625 1.92409E+00 2.78158E+00 9.50841E-02 1.70043E+00 1.44976E-01 3.29010E-01
 -1      7626 2.57883E+00 2.12865E+00 7.76262E-02 1.77139E+00 9.64418E-02 3.69649E-01
 -1      7627 2.78913E+00 2.46355E+00 9.78072E-02 1.93722E+00 1.01686E-01 4.53059E-01
 -1      7628 2.33885E+00 3.58546E+00 2.78341E-01 1.98608E+00 1.73612E-01 3.69491E-01
 -1      7629 1.92482E+00 2.90650E+00 2.37226E-02 1.81166E+00 1.18300E-01 3.88391E-01
 -1      7630 1.13721E+01 2.18118E+01 7.61576E+00-1.14330E+00 1.30870E-01 3.49180E-01
 -1      7631 8.24174E+00 8.89439E+00 3.88077E+00-1.24978E+00 5.81073E-02-1.58154E-02
 -1      7632 4.06512E+00 5.39760E+00 1.68265E+00-1.17043E+00 2.63132E-02-1.44123E-03
 -1      7633 4.16030E+00 4.95712E+00 1.56722E+00-1.06872E+00 3.58869E-03 1.14489E-02
 -1      7634 4.29390E+00 4.17296E+00 1.39149E+00-1.01667E+00-8.46594E-03-1.09976E-02
 -1      7635 4.69280E+00 4.61713E+00 1.63006E+00-1.03958E+00 3.14223E-03 1.67784E-03
 -1      7636 4.67014E+00 4.13167E+00 1.48372E+00-8.80000E-01-1.40318E-02-3.52039E-04
 -1      7637 4.49429E+00 5.48880E+00 1.83024E+00-1.11845E+00 1.81784E-02 1.12165E-02
 -1      7638-1.08819E-01-7.26402E-02 5.59290E-02-1.30133E-01 5.71456E-03 1.76922E-02
 -1      7639-1.35173E-01-8.51293E-02 2.39332E-02-1.75273E-01-1.10614E-02 2.16652E-02
 -1      7640 6.64038E-01 8.09312E-01-3.48372E-03 8.28654E-01 2.20667E-02 6.60154E-02
 -1      7641 5.95408E-01 8.93669E-01-2.63229E-02 7.27792E-01 4.59888E-02 9.11023E-02
 -1      7642 4.03046E-01 9.82172E-01-9.60348E-03 7.25801E-01 3.79991E-02 5.79050E-02
 -1      7643 4.24913E-01 6.86001E-01 4.98011E-03 7.53571E-01 9.51641E-03 4.01406E-02
 -1      7644 3.41259E-01 7.51071E-01-2.32652E-02 6.71595E-01 3.68779E-02 5.63522E-02
 -1      7645 5.60151E-01 5.76442E-01-3.01422E-02 7.28970E-01 1.55760E-02 7.09145E-02
 -1      7646 5.47231E+00 1.27392E+00 6.12939E-01 2.08193E+00-8.02218E-03 1.55046E-01
 -1      7647 7.27906E+00 3.09948E+00 1.62874E+00 2.76851E+00 4.84289E-02 1.70585E-01
 -1      7648 5.36616E+00 8.76274E-01 4.00382E-01 1.88224E+00 4.37163E-02 2.29304E-01
 -1      7649 5.24524E+00 7.60122E-01 3.73942E-01 1.61757E+00-1.14478E-01 7.28517E-02
 -1      7650 8.22721E+00 5.02293E+00 2.54166E+00 5.17425E+00-1.85690E-01 2.03971E-01
 -1      7651 7.70554E+00 5.17359E+00 2.23837E+00 5.06990E+00 5.65855E-03 2.62689E-01
 -1      7652 5.70670E+00 7.31344E+00 2.26709E+00 4.31359E+00 5.08588E-02 2.52342E-01
 -1      7653 5.65829E+00 1.65640E+00 6.22399E-01 2.94036E+00 5.96951E-02 2.19193E-01
 -1      7654 2.99642E-01 1.37700E+00-6.67000E-03 5.42678E-01 9.33770E-02 6.69021E-02
 -1      7655 2.82623E-01 1.25529E+00-1.92543E-02 6.43702E-01 6.28290E-02 5.48413E-02
 -1      7656 5.23376E-01 1.21494E+00-7.11703E-03 6.70951E-01 8.39299E-02 9.07311E-02
 -1      7657 2.72107E+00 3.99861E-01-8.00283E-02 8.60239E-01-2.47892E-03 1.80597E-02
 -1      7658 2.81934E+00 2.61091E-01-1.03807E-01 7.59389E-01-1.35464E-02 2.25205E-02
 -1      7659 1.11387E+01 1.38766E+01 3.30041E+00-2.32743E+00 2.34978E-01 2.29998E-01
 -1      7660 1.05929E+01 1.21512E+01 2.38783E+00-1.96671E+00 1.53095E-01 1.08360E-01
 -1      7661 1.03860E+01 1.15913E+01 2.53603E+00-1.59899E+00 1.60683E-01-2.16959E-02
 -1      7662 5.51372E+00 4.42792E+00 1.78598E+00-4.89782E-01 9.02081E-03-1.91205E-02
 -1      7663 5.89438E+00 4.84112E+00 2.02764E+00-5.43071E-01 1.67041E-02-1.76766E-02
 -1      7664 5.71777E+00 4.65576E+00 1.90304E+00-5.21023E-01 2.29811E-02-6.72826E-03
 -1      7665 2.18561E-01 1.06824E+00-8.85944E-03-8.94059E-01 8.75272E-02-4.88748E-02
 -1      7666-5.30723E-03 6.91477E-01-5.25724E-03-9.23332E-01 4.65384E-02-3.03782E-02
 -1      7667 9.78677E+00 2.16612E+01 7.39155E+00 2.35833E-01 5.53329E-01 3.19845E-01
 -1      7668 1.24022E+01 3.29673E+01 1.19213E+01 3.51245E+00-6.12572E-01-1.52089E-01
 -1      7669 1.11815E+01 3.13760E+01 1.13607E+01 2.21230E+00-3.36339E-01 7.83739E-01
 -1      7670 4.99817E+00 1.03854E+01 2.90758E+00 3.72252E+00 1.22560E-01 2.86599E-01
 -1      7671 1.21969E+01 2.52509E+01 1.02046E+01 1.00521E+01 3.15797E-01 1.62810E-01
 -1      7672 7.35817E+00 1.77820E+01 6.69342E+00 3.01109E+00-8.00079E-02-3.69902E-02
 -1      7673 8.19093E+00 1.90338E+01 6.79863E+00 3.10376E+00-5.15460E-01-1.36725E-01
 -1      7674 1.15216E+01 1.92257E+01 7.54156E+00-1.34975E+00-3.81670E-01 4.49997E-01
 -1      7675 9.19350E+00 2.03989E+01 7.68085E+00-8.28667E-01-2.94594E-01-4.54334E-02
 -1      7676 1.17391E+01 1.82933E+01 7.50000E+00-1.35397E+00 1.36838E-01 4.85273E-03
 -1      7677 5.47042E-01 9.51686E-01-5.31800E-03-9.57003E-01 8.37812E-02-7.10069E-02
 -1      7678 2.14763E-01 5.76478E-01-1.47205E-02-9.45287E-01 5.44725E-02-4.60599E-02
 -1      7679 5.70802E+00 4.90335E+00 9.59663E-01-6.63845E-01 1.13142E-01-1.05716E-01
 -1      7680-1.69134E-01 6.81553E-01-9.53928E-03-8.29085E-01 4.47299E-02-2.09513E-02
 -1      7681 3.54664E+00 2.66868E+00 5.80694E-01-5.24571E-01 3.78990E-02-1.02952E-01
 -1      7682 1.15642E+00 1.43882E-01-5.80100E-02 4.89075E-01-2.52332E-02 9.83031E-02
 -1      7683 9.52311E-01 1.54854E-01-1.87129E-02 4.88472E-01-1.40484E-02 3.04647E-02
 -1      7684 9.57690E-01 4.35429E-01-1.64951E-02 6.46117E-01 3.55564E-03 8.22350E-02
 -1      7685 1.22613E+00 2.72632E+00 1.65540E-01 1.01642E+00 1.43277E-01 1.37132E-01
 -1      7686 1.13103E+00 1.80831E+00 3.88346E-02 1.09901E+00 7.99852E-02 1.46276E-01
 -1      7687 8.24278E-01 2.13938E+00 3.75901E-02 8.33341E-01 1.34291E-01 1.35013E-01
 -1      7688 1.14879E+00 2.72823E+00 1.14039E-01 9.64638E-01 1.94161E-01 1.91825E-01
 -1      7689 1.07773E+00 1.76677E+00-1.31344E-02 1.08523E+00 1.11356E-01 1.75229E-01
 -1      7690 1.53884E+00 2.28292E+00 1.02300E-01 1.28555E+00 1.17836E-01 1.94394E-01
 -1      7691 1.37397E+00 6.21066E-01-7.96405E-03-7.02795E-01 6.94986E-02-1.36483E-01
 -1      7692 1.72984E+00 6.69163E-01 1.26843E-02-4.15201E-01 5.09377E-02-1.73456E-01
 -1      7693 2.23675E-01-6.64299E-01-3.82185E-02-7.35844E-01 2.47213E-04-3.48900E-02
 -1      7694 3.22426E-01-1.21138E-01-3.13568E-02-8.55518E-01 2.31689E-02-4.54947E-02
 -1      7695-3.71364E-02-2.91785E-01-2.39434E-02-8.54474E-01-2.90096E-03-2.23039E-04
 -1      7696 1.29064E+01 1.42200E+01 6.95781E+00-2.47717E+00 2.43058E-02 6.58541E-02
 -1      7697 8.17938E+00 8.98814E+00 3.59746E+00-1.15490E+00 3.28951E-02 9.13938E-02
 -1      7698 8.85510E+00 1.00864E+01 4.09493E+00-1.48929E+00 6.64247E-02 6.70233E-02
 -1      7699 8.06664E+00 8.83917E+00 3.48266E+00-1.15722E+00 6.24113E-02 6.04129E-02
 -1      7700 8.65567E-01-4.55468E-01-1.97926E-02-2.69603E-01 1.51455E-02-1.12505E-01
 -1      7701 9.70605E-01-2.93283E-01-2.03257E-02-2.80277E-01 2.12545E-02-1.20132E-01
 -1      7702 4.04035E+00 1.15044E+01 3.08746E+00 3.57266E+00-9.50704E-02 6.19091E-02
 -1      7703 5.16355E+00 5.67342E+00 1.79844E+00 3.84092E+00-8.88918E-02 2.34761E-01
 -1      7704-4.90286E-01 1.32067E-01-1.62697E-02-6.23797E-01 7.59580E-03 5.02381E-03
 -1      7705-5.77896E-01-2.41088E-02 7.78597E-03-3.93011E-01 3.37792E-03 3.70924E-02
 -1      7706-5.15569E-01 1.27828E-01-1.53651E-02-6.99813E-01 1.19485E-02 3.29017E-03
 -1      7707 7.19105E+00 6.59924E+00 2.02679E+00-8.36281E-01 6.79074E-02 4.88109E-02
 -1      7708 6.73296E+00 5.95684E+00 1.71140E+00-7.20806E-01 6.61105E-02-5.03564E-03
 -1      7709 6.92824E+00 6.20263E+00 1.88409E+00-7.45009E-01 7.79466E-02 3.51405E-02
 -1      7710 9.61673E+00 1.74393E+01 6.34970E+00 3.48874E+00 5.96756E-01 6.18884E-01
 -1      7711 9.24951E+00 1.79188E+01 6.79081E+00 3.51669E+00-3.53777E-01-5.29205E-02
 -1      7712 1.64099E+01 2.58278E+01 1.12564E+01 1.12583E+01 2.64645E-01 3.89862E-01
 -1      7713 7.10750E+00 1.68316E+01 3.23262E+00-2.40175E-01-2.51539E-01 5.98476E-01
 -1      7714 6.05483E+00 5.12804E+00 1.52378E+00-6.03023E-01 6.90151E-02-1.47143E-02
 -1      7715 6.05802E+00 5.17503E+00 1.47593E+00-6.10184E-01 5.79703E-02-3.28675E-02
 -1      7716 5.61564E+00 4.59180E+00 1.23754E+00-5.20776E-01 5.31316E-02-5.94012E-02
 -1      7717 9.05254E+00 8.54155E+00 4.01743E+00-1.23371E+00-4.77949E-03 2.93950E-02
 -1      7718 7.78382E+00 3.64084E+00 2.06816E+00 3.37614E+00-1.20035E-01-3.76572E-02
 -1      7719 9.04658E+00 5.27705E+00 3.00680E+00 4.05171E+00-1.31154E-01-2.10057E-02
 -1      7720 8.19991E+00 3.67869E+00 2.17192E+00 3.67207E+00 2.00607E-01-1.77395E-01
 -1      7721 3.39153E+00 4.36472E+00 9.61782E-01 2.45148E+00 7.21274E-02 2.23666E-01
 -1      7722 4.08798E+00 1.59481E+00 4.00729E-01 2.44279E+00 3.79384E-02 2.34034E-01
 -1      7723 3.22114E+00 6.58035E+00 1.48990E+00 2.57749E+00 1.39204E-01 1.26976E-01
 -1      7724 4.27414E+00 4.02858E+00 1.09952E+00 3.06869E+00 5.44829E-02 2.04961E-01
 -1      7725 3.67154E+00 3.47374E+00 7.94793E-01 2.72176E+00 1.23096E-02 1.87128E-01
 -1      7726 2.17024E+00 5.16172E-02-5.82124E-01 2.18539E-01 1.50132E-02 2.71419E-01
 -1      7727 2.41846E+00 1.12455E-01-5.20717E-01 3.04036E-01 3.11215E-04 1.90865E-01
 -1      7728 2.50956E+00 7.65175E+00 1.46189E+00 1.36192E+00 2.90109E-02 2.32812E-01
 -1      7729 4.47162E+00 3.40838E+00 5.72848E-01-4.10138E-01 5.04034E-02-1.72742E-01
 -1      7730 4.46545E+00 3.38043E+00 5.28771E-01-4.37176E-01 5.18381E-02-2.16477E-01
 -1      7731 1.12533E+00 1.30526E+00 3.58824E-02-9.05921E-01 6.55882E-02-5.88208E-02
 -1      7732 1.56382E+00 1.92958E+00 1.39068E-01-8.78369E-01 8.66231E-02-7.00416E-02
 -1      7733 1.75464E+00 2.10503E+00 2.34760E-01-9.14194E-01 4.66890E-02-4.09658E-02
 -1      7734 9.34384E+00 2.05521E+01 6.71140E+00-8.37727E-01 4.83347E-01 5.37439E-01
 -1      7735 4.36857E+00 1.08420E+01 3.06973E+00 4.70144E-01 1.43702E-01 1.76353E-01
 -1      7736 8.25730E+00 7.08205E+00 3.35609E+00 4.95281E+00-3.43729E-01 2.01693E-01
 -1      7737 1.14625E+01 2.29239E+01 9.14708E+00 8.41574E+00-4.92731E-01-3.83741E-02
 -1      7738 1.27201E+01 2.25841E+01 9.08514E+00 9.96362E+00-4.46074E-01-4.23206E-03
 -1      7739 1.47454E+00 3.97599E-01-1.30204E-02-3.76892E-01 4.03617E-02-1.73806E-01
 -1      7740 1.65100E+00 6.21428E-01 5.70343E-03-4.07405E-01 4.85079E-02-1.90000E-01
 -1      7741 2.78676E+00 1.60069E-01-2.52189E-01 3.77372E-01 2.00334E-02 9.11487E-02
 -1      7742 2.95541E+00 5.75810E-02-2.44147E-01 3.41693E-01 1.71651E-02 1.06848E-01
 -1      7743 2.57151E+00 8.20508E-02-3.40841E-01 3.01015E-01-7.97536E-04 7.94493E-02
 -1      7744-5.97714E-02-6.79133E-01 3.19837E-02-3.45525E-01-2.62268E-02-3.66091E-03
 -1      7745-5.30043E-02-4.44733E-01 5.73123E-02-1.91606E-01-2.62396E-02 7.11572E-03
 -1      7746-7.10137E-02-6.42928E-01-1.56892E-02-5.31128E-01-4.35244E-02-8.18709E-03
 -1      7747-1.05869E-01-4.39503E-01-1.59879E-02-7.72782E-01-1.65544E-03-9.08090E-03
 -1      7748 1.61013E+00 4.59512E+00 2.07144E-01 1.19275E+00 3.53216E-01 2.84695E-01
 -1      7749 1.51086E+00 4.71124E+00 2.68656E-01 5.25893E-01 3.01723E-01 1.86050E-01
 -1      7750 1.71571E+00 5.45546E+00 2.73977E-01 7.12206E-01 3.33406E-01 2.57386E-01
 -1      7751 1.42739E+00 5.02433E+00 1.52550E-01 6.77129E-01 3.70364E-01 1.89331E-01
 -1      7752 1.30343E+00 4.78805E+00 1.18515E-01 6.06723E-02 3.19899E-01 9.24997E-02
 -1      7753 1.22188E+00 4.28225E+00 1.35848E-01 5.58327E-01 3.44737E-01 1.48271E-01
 -1      7754-7.09429E-02-6.71720E-01 2.35849E-02-4.18826E-01-4.41818E-02 4.11830E-03
 -1      7755-6.88503E-02-4.44075E-01 2.07444E-02-2.38923E-01-4.62053E-02 2.32149E-05
 -1      7756-1.24532E-01-4.63040E-01-1.34844E-02-8.67537E-01-6.61425E-03 2.06952E-03
 -1      7757 1.91503E+00 1.18157E+00 1.19832E-01-6.88482E-01 2.82799E-02-2.45245E-02
 -1      7758 2.25450E+00 1.70439E+00 2.57901E-01-7.87598E-01 3.07768E-02-4.70088E-02
 -1      7759 8.26571E+00 1.20203E+01 4.10376E+00-2.14012E+00 8.33429E-02 2.94381E-01
 -1      7760 1.10768E+01 1.17767E+01 4.93625E+00-1.53885E+00 4.64050E-02 1.38172E-01
 -1      7761 8.28386E+00 1.05374E+01 3.65669E+00-1.99108E+00 9.34599E-02 2.05219E-01
 -1      7762 8.83840E+00 1.29094E+01 4.56585E+00-2.30571E+00 1.41603E-01 1.21332E-01
 -1      7763 5.50958E+00 6.59760E+00 2.44032E+00-1.36875E+00 5.71020E-03 1.36178E-02
 -1      7764-3.10320E-01 3.18307E-01-4.03564E-03 4.56496E-01 1.27195E-02 5.85457E-03
 -1      7765-3.13082E-01 1.37388E-01 2.00655E-03 5.15743E-01 6.08714E-03-9.77133E-03
 -1      7766-2.06503E-01 2.34486E-01 1.47051E-03 5.89821E-01-3.09761E-03 4.66356E-03
 -1      7767 2.00716E+00 8.38987E-01 4.67202E-02-2.76315E-01 3.39038E-02-2.12390E-01
 -1      7768 8.05715E+00 9.81529E+00 2.67656E+00 5.15358E+00-3.66034E-01 6.01076E-01
 -1      7769 1.08251E+01 2.89124E+01 8.93164E+00 5.12719E+00 4.36381E-01 1.17787E+00
 -1      7770 1.22872E+01 3.06309E+01 9.57775E+00 6.40092E+00 7.40658E-01 3.09438E-01
 -1      7771 8.64327E+00 2.06062E+01 7.36407E+00-4.83480E-01 5.07672E-01 1.01927E-01
 -1      7772 1.67082E-01 1.08733E+00-5.22736E-03 5.65104E-01 4.69453E-02 4.26979E-02
 -1      7773 5.24354E-02 1.31725E+00-1.46296E-02 4.45030E-01 6.21742E-02 3.74485E-02
 -1      7774 3.84738E+00 2.91707E-01 8.96547E-02 8.88042E-01-1.16285E-02 1.30280E-02
 -1      7775 5.76789E+00 1.09228E+00 8.71204E-01 2.68123E+00-7.26432E-02 1.57307E-01
 -1      7776 3.86956E+00 4.13361E-01 1.02849E-01 9.97732E-01 1.21703E-02 4.65579E-02
 -1      7777 2.47754E-01 8.50235E-01-1.21850E-02 6.58108E-01 3.67478E-02 4.00471E-02
 -1      7778 1.17221E+01 1.27729E+01 5.98247E+00-1.72966E+00-6.65378E-02 4.90058E-02
 -1      7779 1.05505E+01 1.10433E+01 5.12070E+00-1.26857E+00 6.03276E-02 4.41022E-02
 -1      7780 1.74309E+00 1.64949E-01-1.76756E-01 4.74693E-01-8.13890E-03 1.50335E-01
 -1      7781 1.40765E+00 7.43096E-02-3.09974E-01 2.26445E-01 6.55759E-04 1.15175E-01
 -1      7782 1.85940E+00 1.65774E-01-2.12527E-01 4.75140E-01-1.19721E-02 1.26036E-01
 -1      7783-5.00239E-01 5.52305E-01-3.09309E-02-3.87483E-01 4.08606E-02 4.11317E-05
 -1      7784 6.27817E+00 7.54495E+00 2.41100E+00 5.54245E+00 6.05605E-02 2.10458E-01
 -1      7785 4.66351E+00 8.34130E+00 2.13346E+00 4.18137E+00-5.70641E-03 1.93737E-01
 -1      7786 5.63246E+00 2.95886E+00 9.23266E-01 3.49936E+00 6.30848E-02 4.87556E-01
 -1      7787 9.44318E-01 2.57490E+00 1.69374E-01 8.00299E-01 2.65763E-02 1.96959E-02
 -1      7788 1.17987E+00 2.42019E+00 1.78257E-01 9.53736E-01 4.10250E-02 5.29326E-02
 -1      7789 1.21088E+00 1.78119E+00 7.99479E-02 1.06981E+00 2.15902E-02 3.49655E-02
 -1      7790 9.88959E-01 2.20987E+00 1.20877E-01 9.20022E-01 3.62130E-02 4.08570E-02
 -1      7791 1.22654E+00 1.95258E+00 8.62515E-02 1.07613E+00 6.90391E-02 7.46771E-02
 -1      7792 9.24159E-01 2.82408E+00 2.01525E-01 7.62631E-01 5.37812E-02 6.23390E-02
 -1      7793 6.57566E+00 5.96811E+00 4.13384E-01-7.69325E-01 1.34283E-01-3.79373E-01
 -1      7794 6.54776E+00 5.84454E+00 4.79429E-01-7.89038E-01 1.49347E-01-3.40340E-01
 -1      7795 5.71054E+00 4.93240E+00 1.62256E-01-5.65651E-01 1.66922E-01-4.46559E-01
 -1      7796 5.76861E+00 4.88974E+00 2.43887E-01-6.13603E-01 1.67274E-01-4.20964E-01
 -1      7797 5.51680E+00 5.71522E+00 2.07349E-01-1.27679E+00 2.67404E-01-3.03129E-01
 -1      7798-2.67353E-01 7.15090E-02-7.46969E-03-7.78023E-01 1.66999E-02-9.60453E-03
 -1      7799 4.10166E+00 1.42301E+00 5.21899E-01 2.01884E+00-2.75540E-02 4.07590E-02
 -1      7800 4.17574E+00 1.38744E+00 5.65620E-01 2.17868E+00-1.40210E-02 7.15799E-02
 -1      7801 3.78334E+00 1.34516E+00 4.47131E-01 1.93380E+00-1.15140E-02 7.03018E-02
 -1      7802 3.59882E+00 3.07845E+00 9.11004E-01 2.42538E+00-2.24789E-02 1.32051E-02
 -1      7803 3.62953E+00 3.08503E+00 8.80040E-01 2.43140E+00 2.59808E-02 6.27263E-02
 -1      7804 4.13190E+00 3.54531E+00 1.19472E+00 2.81859E+00 2.64072E-03 2.85387E-02
 -1      7805 5.21970E+00 4.41606E+00 1.15704E-01-5.22690E-01 1.52414E-01-4.31967E-01
 -1      7806 2.49868E+00 6.60205E+00 8.30084E-01 1.99907E+00 1.92818E-01 3.82280E-01
 -1      7807 2.47132E+00 2.39155E-02-3.78978E-01 3.50238E-01-6.94707E-03 3.84228E-02
 -1      7808 2.30528E+00 7.75861E-02-4.09237E-01 2.88285E-01 7.49125E-03 5.62767E-02
 -1      7809 2.52744E+00 5.38354E-02-3.59614E-01 3.28112E-01 2.25938E-02 8.09367E-02
 -1      7810 2.24940E+00 1.12166E+00 1.10554E-01-3.72286E-01 4.53772E-02-1.26222E-01
 -1      7811 2.43385E+00 1.31935E+00 1.76358E-01-4.07871E-01 4.86508E-02-1.20924E-01
 -1      7812 1.92189E+00 1.46110E+00 1.36663E-01-8.49436E-01 5.93255E-02-1.06927E-01
 -1      7813 6.90529E+00 2.11219E+00 1.27278E+00 2.89656E+00-1.68573E-01-1.40743E-01
 -1      7814 9.02773E+00 2.71389E+00 1.90886E+00 5.13648E+00-3.44653E-02 1.68296E-02
 -1      7815 6.11508E+00 1.98721E+00 8.52873E-01 2.06958E+00-2.07121E-02 4.17095E-02
 -1      7816 1.07669E+00 1.07220E-02-1.56312E-01 1.98954E-01-2.32184E-02 1.12555E-01
 -1      7817 9.04515E-01-2.70291E-02-1.15408E-01 1.57317E-01-1.74802E-02 3.54474E-02
 -1      7818 6.54786E+00 6.00841E+00 3.62430E-01-7.69261E-01 1.46746E-01-4.05196E-01
 -1      7819 7.06118E+00 6.56298E+00 5.15949E-01-8.63541E-01 1.43237E-01-3.72034E-01
 -1      7820 6.95893E+00 6.46622E+00 4.14522E-01-8.69588E-01 1.51915E-01-4.00202E-01
 -1      7821 2.81866E+00 7.75491E+00 1.98875E+00 2.13405E+00-2.69539E-02 1.04360E-01
 -1      7822 2.80742E+00 7.18110E+00 1.80993E+00 2.35099E+00 4.09037E-02 8.50729E-02
 -1      7823 3.17393E+00 7.92906E+00 2.12495E+00 3.73221E-01 4.33254E-02 5.19054E-02
 -1      7824 6.64314E-01 2.81596E-01 8.13034E-02 9.80063E-01 2.52592E-02 4.93199E-03
 -1      7825 6.12731E-01-5.08377E-02 5.62633E-02 7.57999E-01 2.29669E-02 4.35101E-02
 -1      7826-5.41118E-01 9.52755E-02-2.55424E-02 3.63569E-01 3.95206E-02-2.01693E-02
 -1      7827 3.57873E+00 2.63865E+00 3.24623E-01-4.56667E-01 7.09594E-02-2.31016E-01
 -1      7828 4.21684E+00 3.07530E+00 4.77481E-01-3.83715E-01 5.17603E-02-2.00218E-01
 -1      7829 1.32278E+01 2.39975E+01 9.93111E+00 1.16704E+01-1.67404E+00-5.14117E-01
 -1      7830 7.29560E+00 6.30884E+00 1.81571E+00-6.85005E-01 5.93023E-02 1.15899E-02
 -1      7831 7.21178E+00 6.41981E+00 1.90474E+00-7.42984E-01 3.79572E-02 6.24512E-02
 -1      7832 7.80139E+00 6.92147E+00 2.20067E+00-8.79625E-01 1.98499E-02 1.29446E-01
 -1      7833 4.60245E+00 9.06297E+00 2.78293E+00-8.67534E-01 5.84812E-02 6.50666E-02
 -1      7834 9.64828E+00 9.57719E+00 4.50889E+00-1.20537E+00 6.17326E-02-3.05986E-02
 -1      7835 9.01883E+00 8.67728E+00 4.08847E+00-9.55434E-01 3.87485E-02 4.58263E-03
 -1      7836 9.85009E+00 9.56494E+00 4.64511E+00-1.27547E+00-3.28394E-02 1.42520E-01
 -1      7837 2.69588E+00 6.99525E+00 1.16234E+00 2.11701E+00 1.55714E-01 2.48760E-01
 -1      7838 4.16622E+00 6.84934E+00 1.56710E+00 3.45635E+00 3.10507E-02 3.11852E-01
 -1      7839 4.64690E+00 7.60931E-01-2.34080E-01 1.40935E+00-6.63033E-02 2.42773E-01
 -1      7840 3.90118E+00 3.36911E+00 8.11626E-01-8.78061E-01 7.62624E-02-5.82495E-02
 -1      7841 4.38249E+00 3.71103E+00 1.03590E+00-8.31741E-01 5.13182E-02-4.74333E-02
 -1      7842 3.14780E+00 4.00222E+00 2.32796E-01-1.02833E+00 2.86428E-01-2.06473E-01
 -1      7843 7.31272E+00 6.47913E+00 2.66967E+00-8.02212E-01 1.85753E-02 5.97354E-02
 -1      7844 7.01310E+00 6.21136E+00 2.49280E+00-6.77264E-01 1.73785E-02 1.07049E-02
 -1      7845 7.47489E+00 6.73065E+00 2.80104E+00-8.62991E-01-1.00586E-02 2.82410E-02
 -1      7846 2.14229E-01 3.60756E-01-2.84772E-02 5.61614E-01-3.56094E-03 7.26070E-03
 -1      7847 4.93570E-01 3.02197E-01-3.33241E-02 5.40149E-01-6.89127E-03 3.06065E-02
 -1      7848 6.58922E-01 2.16460E-01-4.98049E-02 4.31403E-01-4.04678E-03 2.72004E-02
 -1      7849 6.86553E-01 1.79773E-01-3.56103E-02 2.64471E-01-3.34509E-03 6.82017E-03
 -1      7850 9.64145E-01 7.38159E-02-5.41841E-02 2.92103E-01-1.28292E-02 3.80084E-02
 -1      7851 4.84984E-01 2.45820E-01-3.55720E-02 3.83022E-01-5.04640E-03 2.10126E-02
 -1      7852 3.84927E+00 5.15855E-01 6.73925E-02 9.56347E-01 9.24763E-03 1.74027E-01
 -1      7853 3.60123E+00 4.63165E-01-1.38743E-03 9.00098E-01-1.30534E-02 1.37990E-01
 -1      7854 4.05995E+00 3.43022E-01 1.27305E-01 1.04431E+00-8.43736E-02 9.22651E-02
 -1      7855 7.86173E+00 8.34360E+00 4.00808E+00 5.13206E+00 2.69548E-02 1.74505E-01
 -1      7856 1.32437E+01 3.35717E+01 1.28152E+01 4.24475E+00-1.32830E-01 5.45991E-01
 -1      7857 1.62128E+01 3.74402E+01 1.51459E+01 5.85993E+00 3.10380E-01 3.66648E-01
 -1      7858 9.82244E+00 9.89853E+00 4.07509E+00-1.34588E+00 3.78803E-02 1.12897E-01
 -1      7859 8.96078E+00 8.78946E+00 3.48290E+00-1.06598E+00 1.12979E-02 1.35681E-01
 -1      7860 8.06277E+00 1.04977E+01 3.73722E+00-2.07789E+00 7.23851E-02 1.31533E-01
 -1      7861 1.01260E+01 9.97917E+00 4.19023E+00-1.29322E+00 7.27791E-02 1.51701E-01
 -1      7862 8.72505E-01 1.46533E-01-3.23553E-02-7.46851E-01 2.93052E-02-5.73338E-02
 -1      7863 1.23791E+00 3.77044E-01-1.33870E-02-6.68729E-01 1.59321E-02-4.57411E-02
 -1      7864-3.19732E-02 2.48501E-01-1.14056E-02 6.80848E-01-8.69386E-03-2.14466E-03
 -1      7865 9.34850E-01 5.70028E-01-1.37738E-02 8.24211E-01 3.06627E-03 6.22900E-02
 -1      7866 7.87117E+00 6.72024E+00 2.60041E+00 6.02312E+00-7.96571E-02 3.14606E-01
 -1      7867 5.86415E+00 1.81544E+00 6.46869E-01 2.50484E+00-2.67628E-02 1.76437E-01
 -1      7868 7.32158E+00 3.02486E+00 1.28770E+00 4.06734E+00-4.28439E-02 1.39667E-01
 -1      7869 1.31880E+01 1.86361E+01 8.06119E+00-2.56662E+00-1.19957E-02-1.34797E-01
 -1      7870 1.33774E+01 2.59813E+01 1.03718E+01-3.23399E+00-1.25060E-02 2.31363E-01
 -1      7871 1.26476E+01 2.60207E+01 1.04108E+01-2.69837E+00 6.26712E-01-2.21469E-01
 -1      7872 1.08956E+01 1.09154E+01 4.75426E+00-1.31518E+00 1.98902E-01 5.84196E-02
 -1      7873 1.17678E+01 1.17056E+01 5.28968E+00-1.78750E+00-5.65119E-02 9.70491E-02
 -1      7874 9.43537E+00 1.38609E+01 5.17080E+00-2.55439E+00-3.17256E-02 3.42750E-01
 -1      7875 1.38141E+00 2.76781E-01-2.50773E-02 6.84661E-01-2.17780E-02 1.00685E-01
 -1      7876 1.12809E+00 5.73630E-01-1.29342E-02 8.56315E-01-8.80314E-04 8.72144E-02
 -1      7877 1.50163E+00 3.92919E-01-5.38646E-02 7.01271E-01-6.66650E-03 1.89610E-01
 -1      7878 1.27034E+00 6.95302E-01-2.16428E-02 8.82313E-01 2.06196E-02 1.67841E-01
 -1      7879 1.52854E+00 5.00136E-01-1.04621E-02 8.87048E-01-7.74449E-03 1.32116E-01
 -1      7880 6.22669E+00 8.85592E+00 3.31927E+00-1.82697E+00 1.02962E-01-1.79362E-02
 -1      7881 6.57042E+00 1.12035E+01 4.14336E+00-1.56259E+00 1.50147E-01-6.87277E-02
 -1      7882 4.02824E+00 9.27415E+00 2.85219E+00-4.28534E-01-8.66808E-03 5.26569E-02
 -1      7883 4.06944E+00 1.13871E+01 3.48147E+00 3.77356E-01-1.93235E-01 6.33145E-02
 -1      7884 4.90602E+00 9.71955E+00 3.20469E+00-5.67679E-01 4.33445E-02-2.25648E-02
 -1      7885 5.17989E+00 1.62740E+01 5.34343E+00 5.21287E+00-4.86250E-02-1.37307E-01
 -1      7886 6.78641E+00 5.73481E+00 2.50866E+00-5.00204E-01-6.39662E-04 3.65501E-02
 -1      7887 6.55690E+00 5.42457E+00 2.35613E+00-4.95381E-01 2.06669E-02 3.59559E-02
 -1      7888 7.01491E+00 5.91215E+00 2.62158E+00-5.52441E-01 3.61572E-03 1.95553E-02
 -1      7889 8.07280E+00 1.07431E+01 4.29639E+00-2.14698E+00 1.25672E-01-3.04314E-02
 -1      7890 1.19594E+01 1.29451E+01 6.14865E+00-1.75323E+00 7.64379E-02-8.23813E-02
 -1      7891 8.93788E+00 1.52413E+01 5.81351E+00-2.56709E+00-9.34334E-02 2.31832E-01
 -1      7892 5.73875E+00 7.20720E+00 2.72880E+00-1.43383E+00 4.47108E-02 8.97757E-03
 -1      7893 6.20973E+00 8.35886E+00 3.21720E+00-1.74003E+00 5.20159E-02 2.84121E-02
 -1      7894 1.84300E+00 3.70442E+00 2.45065E-01 1.52418E+00 2.18562E-01 2.87759E-01
 -1      7895 1.53418E+00 3.15252E+00 4.83786E-02 1.42969E+00 1.76873E-01 2.84967E-01
 -1      7896 1.80158E+00 4.00152E+00 2.44930E-01 1.58457E+00 2.37903E-01 3.10828E-01
 -1      7897 6.11783E+00 8.17177E+00 2.41548E+00-1.63749E+00 1.49101E-01 1.14259E-01
 -1      7898 3.68095E+00 2.44561E+00 7.24007E-01-3.48974E-01 3.00254E-02-3.26608E-02
 -1      7899 3.47353E+00 3.11332E+00 8.26379E-01-8.83689E-01 1.08644E-02-2.37408E-02
 -1      7900 3.95479E+00 2.79732E+00 8.75758E-01-3.94016E-01 8.92588E-03-3.13415E-02
 -1      7901-2.20920E-02 4.02593E-01-2.97103E-02 5.72609E-01-3.18701E-02-2.23368E-03
 -1      7902 1.56273E-01 3.52633E-01-3.64209E-02 4.45164E-01-9.81769E-03 4.43866E-03
 -1      7903 5.13452E-02 2.26228E-01-8.23107E-02 3.10116E-01-1.71258E-02 1.40953E-02
 -1      7904 2.59159E-01 3.36843E-01-1.91153E-02 4.54793E-01-7.78449E-03 1.78718E-02
 -1      7905 2.01860E+00 2.60173E+00 2.19758E-02-9.66045E-01 1.68660E-01-1.61599E-01
 -1      7906 2.65797E+00 3.42938E+00 9.86413E-02-9.76730E-01 2.77641E-01-1.99365E-01
 -1      7907 1.91563E+00 3.41625E+00 1.07072E-02-1.00506E+00 2.13863E-01-1.21317E-01
 -1      7908 2.19155E+00 2.47697E+00-3.36656E-03-9.07391E-01 1.23669E-01-1.87258E-01
 -1      7909 2.93381E+00 3.35566E+00 9.98464E-02-8.85176E-01 2.47115E-01-2.49310E-01
 -1      7910 5.09761E+00 6.42681E-01 5.39436E-01 1.44983E+00 3.36481E-02 1.46130E-01
 -1      7911 4.87152E+00 6.09018E-01 5.04641E-01 1.18782E+00-3.23136E-02 9.85273E-02
 -1      7912 4.35403E+00 6.13500E-01 3.15509E-01 1.11952E+00-1.25418E-02 5.16887E-02
 -1      7913 1.57589E+01 1.08509E+01 6.65425E+00 1.00758E+01-1.45798E-01-7.56935E-02
 -1      7914 6.47208E+00 3.01728E+00 1.64196E+00 1.74303E+00 1.37317E-01 4.56591E-01
 -1      7915 1.64144E+01 9.98327E+00 6.75897E+00 1.04711E+01 5.48909E-01 6.27421E-01
 -1      7916 3.80816E+00 1.06433E+00-6.38311E-01 1.35709E+00 9.34919E-03 8.65685E-01
 -1      7917 3.86947E+00 9.99225E-01-6.53571E-01 1.41070E+00-8.58252E-03 8.58965E-01
 -1      7918 3.45735E+00 8.40102E-01-5.52792E-01 1.19653E+00 4.66205E-02 8.10570E-01
 -1      7919 5.02137E+00 1.03690E+00 5.92485E-01 1.61433E+00 4.22561E-02 8.60374E-02
 -1      7920 7.32171E+00 1.72329E+01 3.17909E+00-4.82817E-01 6.59005E-01 6.69721E-01
 -1      7921 8.47388E+00 1.91054E+01 3.21379E+00-9.81984E-01 8.64778E-01 5.64574E-01
 -1      7922 9.31981E+00 1.64893E+01 2.99317E+00-1.21444E+00 5.54216E-01 5.16565E-01
 -1      7923 1.04184E+01 2.20475E+01 8.55643E+00-9.13043E-01-1.23973E-01-2.84836E-01
 -1      7924 4.15354E+00 7.80032E+00 2.44058E+00-1.03537E+00 1.27583E-02-1.71911E-03
 -1      7925 4.23713E+00 7.62968E+00 2.39012E+00-1.08068E+00 9.32357E-03 7.51681E-03
 -1      7926 3.59447E+00 6.34991E+00 1.83611E+00-1.04215E+00 8.09654E-03-7.46232E-03
 -1      7927 4.81789E+00 6.57363E+00 2.25516E+00-1.27693E+00-6.11252E-03 3.18404E-05
 -1      7928 4.76991E+00 6.33517E+00 2.16649E+00-1.27391E+00 2.15307E-02-1.70730E-03
 -1      7929 5.78880E+00 7.76026E+00 2.89961E+00-1.39647E+00 1.59188E-02-4.10469E-03
 -1      7930 1.08033E+01 1.13113E+01 3.95153E+00-1.56263E+00 1.14404E-01 1.64649E-01
 -1      7931 9.73628E+00 9.83740E+00 3.21700E+00-1.28958E+00 1.67186E-01 1.40866E-01
 -1      7932 1.04463E+01 1.11183E+01 3.89951E+00-1.58509E+00 8.51779E-02 2.39134E-01
 -1      7933 4.00015E+00 7.17966E+00 2.01258E+00-1.11618E+00 5.21944E-02 6.01961E-02
 -1      7934 4.70326E+00 6.85410E+00 2.07769E+00-1.32828E+00 8.22200E-02 2.91039E-02
 -1      7935 5.49682E+00 8.31517E+00 2.77028E+00-1.38580E+00 2.18961E-02 6.57146E-02
 -1      7936 3.57306E+00 8.66055E+00 2.29161E+00-3.11636E-01 7.19970E-02 1.28163E-01
 -1      7937 4.21922E+00 8.50341E+00 2.41586E+00-5.70583E-01 9.84227E-03 9.12635E-02
 -1      7938 3.34235E+00 7.36066E+00 1.82449E+00-4.67174E-01 5.23876E-02 1.02343E-01
 -1      7939 4.47543E+00 5.46577E+00 1.79692E+00-1.12872E+00 2.21317E-02-4.12832E-03
 -1      7940 4.04568E+00 3.96467E+00 1.23868E+00-1.03397E+00 3.30669E-02-5.42662E-02
 -1      7941 3.51694E+00 4.68151E+00 1.30967E+00-1.08744E+00 3.28603E-02-9.86749E-03
 -1      7942 4.38215E+00 5.02791E+00 1.66846E+00-1.00403E+00 1.42255E-02 5.68904E-03
 -1      7943 4.07115E+00 3.71121E+00 1.17733E+00-9.25341E-01 2.39939E-02-2.18765E-02
 -1      7944 5.01066E+00 4.20509E+00 1.58521E+00-8.58974E-01 1.22717E-02 3.55192E-03
 -1      7945 1.31370E+01 1.53088E+01 6.47958E+00-2.74726E+00 2.12314E-01 1.75221E-01
 -1      7946 4.29405E+00 1.17901E+01 3.68760E+00 1.36640E+00-4.89873E-02 5.14310E-02
 -1      7947 1.42815E+01 1.77825E+01 8.13498E+00-2.38029E+00-9.07249E-02 4.90319E-01
 -1      7948 1.52622E+01 2.65020E+01 1.12261E+01-3.81712E+00-1.24305E+00 6.34069E-01
 -1      7949 1.59075E+01 2.51038E+01 1.09413E+01-3.64462E+00-4.17112E-01 5.80514E-02
 -1      7950 6.88314E+00 6.96542E+00 2.48858E+00 3.07678E+00 7.40837E-02 3.41204E-01
 -1      7951 1.16660E+01 1.92217E+01 7.97862E+00-1.44928E+00-7.18062E-02 3.97772E-01
 -1      7952 1.07545E+00-2.76020E-02-2.25591E-02 3.17742E-01-2.33691E-02 4.90706E-03
 -1      7953 2.03089E+00 1.01928E+00 1.05986E-02-3.55519E-01 5.07260E-02-2.27702E-01
 -1      7954 1.82971E+00 9.56171E-01 3.55129E-03-5.89252E-01 6.12109E-02-1.50998E-01
 -1      7955 2.01419E+00 7.77926E-01 5.91444E-04-2.56013E-01 1.44042E-02-1.28316E-01
 -1      7956 2.18813E+00 1.11311E+00 6.43492E-03-3.29848E-01 4.64082E-02-2.17214E-01
 -1      7957 1.97695E+00 1.03170E+00-4.62455E-03-5.78367E-01 5.23629E-02-1.28406E-01
 -1      7958 1.97538E+00 1.27325E+00 9.95707E-03-6.51128E-01 9.73997E-02-2.24770E-01
 -1      7959 7.76216E-02 2.75016E-01-2.48661E-02 7.91735E-01-2.94409E-02-3.42600E-03
 -1      7960-1.70371E-02 1.95101E-01 1.33669E-02 7.15794E-01-1.33409E-02-8.99529E-03
 -1      7961 2.24645E-02 2.76111E-01-1.52697E-02 7.48492E-01-2.06192E-02 3.30542E-03
 -1      7962 9.19030E+00 7.23094E+00 3.02434E+00 5.09233E+00 6.32327E-02 3.68061E-01
 -1      7963 3.12619E+00 5.82681E+00 1.17376E+00 2.45979E+00 1.61252E-01 1.92534E-01
 -1      7964 3.05617E+00 6.42237E+00 1.35805E+00 2.30589E+00 7.47255E-02 2.04507E-01
 -1      7965 2.56184E+00 7.53890E+00 1.48176E+00 1.11502E+00 1.03539E-01 2.03260E-01
 -1      7966 2.95860E+00 8.76823E+00 1.96229E+00 5.78089E-01 8.88714E-02 1.73269E-01
 -1      7967 3.25290E+00 7.03160E+00 1.61391E+00 2.09390E+00 5.65163E-02 1.76289E-01
 -1      7968 1.00211E+01 1.02606E+01 4.35762E+00-1.50107E+00 4.90048E-02 1.33387E-01
 -1      7969 1.04451E+01 1.07911E+01 4.63248E+00-1.56277E+00 4.07686E-02 1.32704E-01
 -1      7970 1.22627E+01 1.31585E+01 5.91343E+00-1.57973E+00-1.32036E-01 1.72316E-01
 -1      7971 8.45994E+00 1.18174E+01 4.27872E+00-2.07709E+00 2.41926E-02 2.22504E-01
 -1      7972 1.17990E+01 1.23357E+01 5.49097E+00-1.50637E+00-2.96386E-02 1.65076E-01
 -1      7973 5.07371E+00 5.49856E+00 1.74468E+00-1.20410E+00 4.95281E-02 1.39463E-02
 -1      7974 5.38101E+00 4.79619E+00 1.59837E+00-7.20634E-01 4.26052E-02-4.19306E-03
 -1      7975 3.80756E+00 2.62066E+00 7.83975E-01-3.62241E-01 1.73704E-02-4.02800E-02
 -1      7976 3.75715E+00 7.54808E-01 1.84138E-01 9.81981E-01-3.13716E-03 2.19593E-02
 -1      7977 3.50427E+00 5.23010E-01 5.22271E-02 8.47521E-01 9.00554E-04 4.72419E-02
 -1      7978 3.44123E+00 5.65284E-01 4.80498E-02 8.27995E-01 4.63459E-04 6.49417E-02
 -1      7979 1.06626E+01 1.09900E+01 5.17970E+00-1.21914E+00 1.28020E-01 2.97890E-02
 -1      7980 8.42181E+00 1.35403E+01 4.78774E+00 4.13715E+00 1.24206E+00-8.85261E-02
 -1      7981 1.22748E+01 3.44634E+01 1.22209E+01 3.69510E+00 2.73287E-02 8.83223E-02
 -1      7982 7.41507E+00 1.29876E+01 5.44734E+00 3.84085E+00 3.95326E-01-3.43500E-01
 -1      7983 2.88567E+00 2.58847E+00 1.63514E-01-8.83712E-01 1.74291E-01-2.32885E-01
 -1      7984 1.11230E+01 8.91152E+00 4.10922E+00 6.13311E+00-1.93857E-01-5.24919E-02
 -1      7985 8.71936E+00 5.49052E+00 2.73845E+00 3.97804E+00-2.94688E-01-1.97016E-01
 -1      7986 8.80973E+00 4.82361E+00 2.63865E+00 4.33773E+00-1.07504E-01 4.45820E-03
 -1      7987 3.66847E+00 1.02171E+01 2.18561E+00 1.34576E+00 5.60991E-02 3.24461E-01
 -1      7988 3.12321E+00 8.81135E+00 1.72143E+00 1.03265E+00 1.31739E-01 2.62489E-01
 -1      7989 6.79756E+00 3.17187E+00 6.12182E-01 2.82652E+00-6.30328E-01 1.12310E+00
 -1      7990 1.00828E+01 4.67329E+00 7.57403E-01 5.29402E+00 7.08059E-03 8.85472E-01
 -1      7991 1.20354E+01 1.43718E+01 4.93352E+00 8.53534E+00-1.36079E-02 6.87031E-01
 -1      7992 7.81216E+00 1.32876E+01 5.03420E+00 5.48449E+00 3.64347E-01-1.26015E-02
 -1      7993 1.31658E+01 3.36145E+01 1.28228E+01 5.59266E+00-6.76829E-01 3.96219E-01
 -1      7994 4.36030E+00 1.07921E+01 2.24113E+00 3.43585E+00 1.33004E-01 2.91683E-01
 -1      7995 3.43631E+00 9.96602E+00 1.71778E+00 2.29375E+00 3.17216E-01 3.78613E-01
 -1      7996 5.07489E+00 1.35781E+01 3.16504E+00-9.58416E-02 2.41751E-01 3.58707E-01
 -1      7997 1.31319E+00 1.54617E+00 4.50871E-02-8.48899E-01 1.39941E-01-1.23145E-01
 -1      7998 8.90921E-01 1.97809E+00 2.76880E-02-8.20794E-01 1.40830E-01-7.37812E-02
 -1      7999 1.79854E+00 2.01337E+00 1.66311E-01-8.48345E-01 1.18209E-01-1.10669E-01
 -1      8000 1.34181E+00 1.36237E+00 4.52758E-02-8.88693E-01 8.88933E-02-1.01837E-01
 -1      8001 6.55127E-01 1.41364E+00 7.74011E-03-8.99340E-01 1.38044E-01-7.94655E-02
 -1      8002 8.98730E+00 8.69781E+00 3.54574E+00-1.03768E+00 4.86790E-02 1.09777E-01
 -1      8003 9.54857E+00 9.81283E+00 4.09511E+00-1.26829E+00 1.67703E-02 1.17668E-01
 -1      8004 8.92748E+00 8.79545E+00 3.50969E+00-1.11950E+00 2.03940E-02 9.11181E-02
 -1      8005 6.93055E+00 6.31438E+00 2.54229E+00-8.04331E-01 4.43952E-02 5.63654E-02
 -1      8006 7.12136E+00 6.57820E+00 2.65520E+00-8.44488E-01 4.41466E-02 2.92262E-02
 -1      8007 7.54301E+00 7.17993E+00 2.95709E+00-1.00053E+00 3.49934E-03 8.86530E-02
 -1      8008 1.03462E+01 1.03018E+01 4.19812E+00-1.49622E+00 1.32515E-03 1.58084E-01
 -1      8009 1.19029E+01 2.54960E+01 7.68529E+00-2.31789E+00-4.38718E-01 7.30892E-01
 -1      8010 5.37595E+00 9.75858E+00 3.03242E+00-1.63730E+00 1.27768E-01 6.23686E-02
 -1      8011 5.04207E+00 1.11458E+01 3.41860E+00-1.16700E+00 1.01334E-02 6.67163E-02
 -1      8012-3.22496E-01 3.32559E-01-1.24213E-02 4.29562E-01 1.00157E-02 3.56091E-03
 -1      8013-3.30150E-01 1.49475E-01-6.05596E-03 4.80054E-01 4.35686E-03-5.91819E-03
 -1      8014 6.41755E+00 5.78762E+00 2.45802E+00-7.69359E-01 9.90149E-03 2.56062E-02
 -1      8015 6.18304E+00 5.47426E+00 2.30016E+00-6.87872E-01-1.33486E-02 3.14876E-03
 -1      8016 6.07114E+00 5.33944E+00 2.21581E+00-6.69766E-01-1.79798E-02 1.41742E-02
 -1      8017 4.63238E+00 4.70547E+00 1.26774E+00-1.13976E+00 5.05485E-02-1.12257E-02
 -1      8018 1.29174E+01 2.62547E+01 1.10583E+01 1.03024E+01 2.53333E-01 4.83671E-01
 -1      8019 8.16456E+00 7.28824E+00 3.57889E+00 3.95467E+00 1.93741E-01 4.20008E-01
 -1      8020 1.37280E+01 2.76625E+01 1.16753E+01 9.63141E+00-3.08304E-01 3.74246E-01
 -1      8021 6.59440E-01 2.16836E-01-2.12137E-02 4.62840E-01-5.97231E-03 2.68250E-02
 -1      8022 6.29559E-01 3.70242E-01-7.89372E-03 6.50327E-01-2.64712E-03 3.03448E-02
 -1      8023 6.50208E-01 3.80149E-01-1.77206E-02 5.94782E-01-2.07500E-03 5.26816E-02
 -1      8024 3.80422E-01 4.02681E-01-4.60055E-03 6.37915E-01-8.87800E-04 2.73424E-02
 -1      8025 3.49673E+00 2.27655E+00 6.51325E-01-3.87592E-01 2.80046E-03-1.24825E-02
 -1      8026 3.38698E+00 2.45399E+00 6.77684E-01-6.21241E-01 1.98651E-03-9.23287E-03
 -1      8027 3.18247E+00 2.72965E+00 6.81558E-01-8.43729E-01 2.60641E-02-3.39161E-02
 -1      8028 4.20375E+00 3.35680E+00 3.69805E-01-5.34807E-01 1.04214E-01-2.57040E-01
 -1      8029 9.07038E+00 1.02099E+01 4.32802E+00-1.28945E+00 3.33541E-02 2.54995E-02
 -1      8030 9.14958E+00 1.05679E+01 4.48836E+00-1.28653E+00 4.99953E-02 3.24960E-02
 -1      8031 9.96105E+00 1.20759E+01 5.20557E+00-1.72065E+00-8.46192E-02 1.12556E-01
 -1      8032 1.54635E+01 4.02106E+01 1.49819E+01 5.49811E+00-5.18400E-01-9.28423E-01
 -1      8033 9.98359E+00 9.41911E+00 4.11362E+00 5.92997E+00 2.69501E-01-8.82393E-02
 -1      8034 1.84995E+01 4.13161E+01 1.58667E+01 6.07438E+00-6.09064E-01 7.39282E-01
 -1      8035 1.37063E+01 2.66231E+01 1.05366E+01-3.69047E+00 1.22955E+00-8.41574E-01
 -1      8036 1.28771E+01 1.90350E+01 8.30079E+00-2.64744E+00 1.80214E-01-1.63215E-01
 -1      8037 1.26066E+01 2.65939E+01 1.06713E+01-3.24632E+00-3.31445E-01-1.05878E-01
 -1      8038 5.50922E+00 1.17014E+01 3.93740E+00-2.70579E-01 4.83985E-02 6.71902E-02
 -1      8039 5.58263E+00 1.13483E+01 3.76274E+00-8.98658E-01 5.00388E-02 6.51319E-02
 -1      8040 3.54636E+00 1.08079E+01 3.07405E+00 1.03643E+00-8.91357E-03 8.05459E-02
 -1      8041 3.94218E+00 1.08147E+01 3.11163E+00 2.50090E-01 1.50398E-01 8.89441E-03
 -1      8042 5.01201E+00 9.81072E+00 3.16899E+00-8.96799E-01 6.49920E-02 8.71019E-02
 -1      8043 6.47391E+00 1.71058E+00 1.18231E+00 2.49493E+00-6.26794E-02 3.97687E-02
 -1      8044 7.59040E+00 2.02745E+00 1.75388E+00 2.91195E+00-1.87096E-01 7.29521E-02
 -1      8045 7.02517E+00 7.00219E-01 1.08000E+00 1.97269E+00 1.04188E-02 5.93592E-02
 -1      8046 8.36154E+00 8.26627E+00 3.34988E+00-1.09067E+00 3.51936E-02 7.62518E-02
 -1      8047 7.74626E+00 7.30127E+00 2.90098E+00-8.79301E-01 6.45108E-02 6.52955E-02
 -1      8048 8.32267E+00 8.06595E+00 3.28409E+00-1.08616E+00 1.09088E-01 9.11657E-02
 -1      8049 5.61562E+00 1.09070E+01 2.60050E+00-1.66301E+00 2.63776E-01 2.07540E-01
 -1      8050 4.50558E+00 1.05794E+01 2.39915E+00 4.86935E-01 1.59239E-01 2.62473E-01
 -1      8051 6.43827E+00 5.49861E+00 1.97420E+00-6.00387E-01 3.52649E-02 3.22186E-02
 -1      8052 6.06047E+00 5.00253E+00 1.74611E+00-5.36374E-01 3.90548E-02 5.56629E-03
 -1      8053 1.22482E+00 8.43404E-01-3.31729E-03 9.94964E-01 2.02947E-02 1.30427E-01
 -1      8054 5.53896E+00 7.29079E+00 2.63226E+00-1.51301E+00-4.83711E-03-8.14209E-03
 -1      8055 3.50398E+00 2.49679E+00 1.29338E-01-4.01166E-01 9.27246E-02-3.08902E-01
 -1      8056 3.34870E+00 2.40507E+00 5.74223E-02-3.64399E-01 9.03402E-02-3.27438E-01
 -1      8057 1.00333E+01 6.04821E+00 3.50389E+00 4.95305E+00 4.41782E-01-1.04703E-01
 -1      8058 6.77546E+00 8.55081E+00 3.35059E+00 7.58917E+00 9.03473E-02-8.91124E-02
 -1      8059 1.08676E+01 7.54332E+00 4.06033E+00 5.07031E+00 1.94734E-01 6.44054E-02
 -1      8060 5.37557E-01 2.41062E+00 8.30093E-02-3.05285E-01 9.64909E-02-7.44558E-04
 -1      8061 8.67690E-01 2.41114E+00 1.33731E-01-5.83056E-01 8.17293E-02-1.66103E-02
 -1      8062 7.96137E+00 1.32254E+01 1.23058E+00-1.40626E+00 3.85482E-01 1.71195E-01
 -1      8063 7.67297E+00 1.59567E+01 2.18042E+00-1.48265E+00 4.47762E-01 5.02104E-01
 -1      8064 8.10305E+00 1.52588E+01 1.41729E+00-1.54217E+00 4.49691E-01 6.03653E-01
 -1      8065 4.05586E+00 1.02857E+00-5.94957E-01 1.58281E+00-1.41084E-02 9.89968E-01
 -1      8066 2.54085E+00 1.46905E+00 1.56824E-03 1.82331E+00-9.23416E-03 3.07948E-01
 -1      8067 2.40018E+00 2.08439E+00 3.71207E-02 1.81010E+00 8.45875E-02 4.47445E-01
 -1      8068 1.89303E+00 1.97209E+00 3.09843E-02 1.77608E+00 6.39915E-02 2.45381E-01
 -1      8069 2.24436E+00 6.08833E-01-5.09598E-02 1.19255E+00-3.46639E-02 2.04555E-01
 -1      8070 2.10534E+00 1.16150E+00-2.32985E-02 1.25203E+00 3.69331E-02 3.40737E-01
 -1      8071 2.49261E+00 5.70823E-01-1.06950E-01 1.01945E+00-4.26820E-02 4.51225E-01
 -1      8072 4.29081E+00 9.56364E+00 2.82655E+00 4.29840E+00 7.89310E-02 3.01534E-01
 -1      8073 4.98768E+00 4.85986E+00 1.70230E+00 3.53135E+00 1.37074E-01 1.42779E-01
 -1      8074 2.80547E-02-4.37804E-01-1.14789E-01-2.90168E-01-2.38406E-02 2.39803E-03
 -1      8075 1.66446E-01 6.86488E-03 2.32984E-02-1.42538E-01-5.13166E-03-6.44221E-03
 -1      8076 2.08889E+00 4.56208E-02-5.46535E-02 3.33426E-01-6.01484E-02 1.53630E-01
 -1      8077 1.99508E+00 1.71805E-02-3.24808E-02 3.02185E-01-5.49147E-02 1.14866E-01
 -1      8078 2.81956E+00 2.73760E-01-1.84022E-01 8.77897E-01-1.04612E-01 3.67295E-01
 -1      8079 2.18057E+00 6.57854E+00 1.11391E+00 1.06414E+00 1.52385E-01 1.99933E-01
 -1      8080 1.99294E+00 6.05687E+00 8.76495E-01 5.26321E-01 1.52436E-01 1.55035E-01
 -1      8081 2.10670E+00 6.22505E+00 9.02741E-01 1.11017E+00 1.76396E-01 1.96867E-01
 -1      8082 2.33948E+00 4.81599E+00 6.91545E-01 1.98753E+00 1.52751E-01 2.39476E-01
 -1      8083 2.10312E+00 4.83165E+00 5.83887E-01 1.43411E+00 1.82740E-01 2.30502E-01
 -1      8084 2.22510E+00 5.22609E+00 8.02574E-01 1.45998E+00 1.07649E-01 2.13627E-01
 -1      8085 9.95065E+00 7.59902E+00 4.08953E+00 6.13366E+00-1.94941E-01 6.97199E-02
 -1      8086 9.99770E+00 7.12081E+00 3.81752E+00 5.72217E+00-6.52324E-02 9.31115E-02
 -1      8087 1.13654E+01 1.80212E+01 7.71322E+00 9.20586E+00-1.09460E-01 2.46665E-01
 -1      8088 5.54841E+00 4.82078E+00 7.24082E-01-6.68969E-01 7.99843E-02-1.81859E-01
 -1      8089 9.27846E+00 2.19219E+01 8.34579E+00-6.70740E-02-8.17573E-01 3.61016E-02
 -1      8090 9.96154E+00 2.94748E+01 1.06120E+01 3.14303E+00-2.53417E-01 5.22957E-01
 -1      8091 6.08236E+00 1.12792E+01 3.98873E+00-1.65798E+00 8.34056E-02 2.63094E-02
 -1      8092 1.06667E+01 2.22366E+01 7.61241E+00 2.54817E+00 7.63404E-01 1.90774E-01
 -1      8093 1.64076E+01 2.76535E+01 1.17214E+01 1.03504E+01 3.51524E-02-3.89185E-02
 -1      8094 1.48189E+01 2.69618E+01 1.15695E+01 1.02094E+01-1.14423E-01-2.53613E-01
 -1      8095 1.35526E+01 1.64486E+01 7.45515E+00-3.31849E+00 2.03039E-01 2.90039E-01
 -1      8096 7.90121E+00 8.29219E+00 3.61899E+00-1.11133E+00 3.15002E-02 1.17579E-02
 -1      8097 1.45566E+01 2.04056E+01 8.93188E+00-3.51695E+00 3.47564E-01-4.94697E-01
 -1      8098 5.24318E+00 9.87671E+00 2.53779E+00 4.58606E+00-3.96519E-03 3.06916E-01
 -1      8099 4.49217E+00 9.14978E+00 2.21675E+00 3.74563E+00 1.43482E-01 3.04941E-01
 -1      8100 5.71100E+00 7.23732E+00 1.91820E+00 4.30815E+00 7.62702E-02 4.12447E-01
 -1      8101 4.87851E+00 7.39482E+00 1.74785E+00 3.63983E+00 6.53360E-02 3.30410E-01
 -1      8102 6.22330E+00 4.65156E+00 1.39421E+00 4.33701E+00-1.61364E-02 4.07287E-01
 -1      8103 6.05868E+00 9.03237E+00 2.80756E+00-1.70822E+00 1.54148E-01 9.87251E-02
 -1      8104 5.73889E+00 1.18069E+01 3.50613E+00-6.62564E-01 6.69613E-04 1.65257E-01
 -1      8105 7.57426E+00 1.05161E+01 3.73888E+00-2.00341E+00 5.10736E-02 1.20520E-01
 -1      8106 8.20747E+00 1.27758E+01 3.93443E+00 5.38712E+00-2.96200E-01 6.92184E-02
 -1      8107 3.20951E+00 2.68689E+00 6.68462E-01 2.09476E+00 1.79107E-02 4.19741E-02
 -1      8108 2.85378E+00 2.68331E+00 6.13809E-01 1.99589E+00 2.50823E-02 3.12159E-02
 -1      8109 2.71383E+00 1.47759E+00 2.27907E-01 1.46402E+00 1.44088E-02 4.15831E-02
 -1      8110 4.67946E+00 5.47586E+00 1.79328E+00 3.65643E+00-3.36867E-02 6.41517E-02
 -1      8111 4.12645E+00 5.98093E+00 1.77711E+00 3.07269E+00 1.06481E-01 1.34266E-01
 -1      8112 3.36803E+00 5.28673E+00 1.35362E+00 2.61045E+00 1.05172E-01 1.69868E-01
 -1      8113 4.32367E+00 2.81745E+00 9.07468E-01 3.09063E+00-8.18423E-03 7.18148E-02
 -1      8114 3.72224E+00 4.96355E+00 1.31952E+00 3.14504E+00 4.71796E-02 1.47534E-01
 -1      8115 2.75182E+00 1.84557E-01-7.01141E-01 4.79149E-01 2.26716E-03 4.04088E-01
 -1      8116 3.21429E+00 2.15944E-01-6.48520E-01 6.21884E-01 1.33328E-02 3.95262E-01
 -1      8117 3.19575E+00 2.42428E-01-6.42264E-01 6.05719E-01-1.12179E-02 3.57243E-01
 -1      8118 2.39657E+00 5.29928E+00 1.18425E+00-5.87642E-01 1.66109E-02 5.55934E-03
 -1      8119 2.87426E+00 5.88235E+00 1.48148E+00-7.53702E-01 1.31636E-02 3.81194E-02
 -1      8120 2.99242E+00 5.57116E+00 1.43334E+00-9.02698E-01 1.97770E-02-2.89895E-03
 -1      8121 2.35075E+00 5.75828E+00 1.30885E+00-1.97207E-01 2.25504E-03 1.73231E-02
 -1      8122 2.69692E+00 6.23268E+00 1.53896E+00-2.32076E-01 1.65519E-03 2.09631E-02
 -1      8123 2.16814E+00 5.98071E+00 1.31340E+00 7.09186E-02 3.01594E-02-5.74080E-03
 -1      8124 8.43367E+00 9.83456E+00 4.88378E+00 5.42561E+00 1.25624E-01-2.13900E-01
 -1      8125 1.63760E+01 3.80624E+01 1.48686E+01 6.17885E+00-7.03015E-01-1.02720E-01
 -1      8126 1.46338E+01 3.58280E+01 1.38430E+01 5.58252E+00-3.50885E-01-7.44515E-01
 -1      8127-1.46682E-01 2.02332E-01-4.30683E-04 5.19364E-01 4.16947E-02-5.47841E-03
 -1      8128 4.39104E+00 1.22486E+01 3.59766E+00 2.25919E+00 1.23625E-02 1.40228E-01
 -1      8129 6.93484E-01 3.64801E-01-4.48138E-02 5.68239E-01 1.54307E-03 4.61953E-02
 -1      8130 4.50275E-01 4.00195E-01-3.11228E-02 5.66573E-01 2.93552E-03 1.57567E-02
 -1      8131 6.19644E+00 9.23929E+00 3.40325E+00 3.49388E+00-1.12880E-02-5.11154E-01
 -1      8132 1.42235E+00 1.07541E+00-2.81107E-02 1.00711E+00 6.56821E-02 2.27677E-01
 -1      8133 8.80001E+00 8.33024E+00 3.73796E+00-9.80350E-01 1.99956E-02 8.14033E-02
 -1      8134 8.13599E+00 7.45479E+00 3.29933E+00-8.35673E-01 1.33854E-02 5.12293E-02
 -1      8135 7.97397E+00 7.90092E+00 1.70518E+00-1.18143E+00 1.42851E-01-2.26348E-03
 -1      8136 8.15904E+00 7.90933E+00 1.62181E+00-1.24020E+00 1.52362E-01-3.72041E-02
 -1      8137 7.41125E+00 6.97641E+00 1.25297E+00-9.14516E-01 2.27708E-01-9.10238E-02
 -1      8138 3.52041E+00 4.79485E+00 1.05018E+00-1.09171E+00 1.10457E-01 2.42047E-03
 -1      8139 3.08301E+00 5.20885E+00 1.09580E+00-1.00807E+00 8.80476E-02 3.98801E-02
 -1      8140 3.45338E+00 4.17305E+00 9.25525E-01-1.00617E+00 9.83671E-02-2.56427E-02
 -1      8141 3.02732E+00 9.34452E+00 1.63108E+00 1.58236E+00 1.92718E-01 2.82086E-01
 -1      8142 2.99652E+00 8.80801E+00 1.56609E+00 1.19084E+00 1.71533E-01 2.64867E-01
 -1      8143 3.81442E-02 2.49218E-01 1.22306E-02 7.72813E-01-1.21320E-02-7.42597E-03
 -1      8144 5.84427E+00 2.16799E+00 1.16958E+00 3.03669E+00 4.58888E-03 1.15534E-01
 -1      8145 4.49905E+00 7.20521E-01 3.83631E-01 1.75083E+00 2.97331E-02 7.54940E-02
 -1      8146 4.11170E+00 1.06410E+01 1.97618E+00-2.61461E-01 2.42644E-01 2.23474E-01
 -1      8147 4.75067E+00 9.67049E+00 1.88660E+00-1.20633E+00 1.01841E-01 2.06742E-01
 -1      8148 1.58505E+00 7.47081E-01-7.80716E-02 8.94305E-01 2.02529E-02 8.37190E-02
 -1      8149 1.57429E+00 9.09891E-01-4.24448E-02 9.66027E-01 1.79853E-02 3.86051E-02
 -1      8150 1.63817E+00 3.29515E-01-1.31112E-01 6.92766E-01-3.55449E-04 4.09263E-02
 -1      8151 1.82332E+00 4.99051E-01-1.07594E-01 8.49289E-01 1.02321E-02 6.33413E-02
 -1      8152 1.80408E+00 6.47351E-01-7.36668E-02 9.38641E-01 5.17397E-03 2.81824E-02
 -1      8153 1.81587E+00 1.31813E+00 7.39631E-02 1.17036E+00 3.62446E-02 7.44494E-02
 -1      8154 7.87442E-02 2.06853E-01 3.35859E-02-1.90246E-01 2.63049E-03-4.12873E-04
 -1      8155 4.34017E+00 4.70611E+00 1.63532E+00 3.33967E+00-2.28770E-02 4.77105E-02
 -1      8156 4.81666E+00 4.34611E+00 1.62445E+00 3.67129E+00 1.17769E-01 5.71826E-02
 -1      8157 4.37889E+00 9.91067E+00 3.10600E+00 4.04804E+00 2.78163E-01 1.41835E-01
 -1      8158 5.06915E+00 5.21086E+00 1.95826E+00 3.45309E+00 1.20636E-02 8.40510E-03
 -1      8159 5.89045E+00 4.83630E+00 2.09055E+00 3.89896E+00-8.77701E-02-6.93735E-02
 -1      8160 5.58219E+00 1.38488E+00 8.77831E-01 2.61810E+00-3.22653E-02-2.78298E-02
 -1      8161 4.16464E+00 5.75142E+00 2.92181E-01-1.28549E+00 3.78391E-01-1.55545E-01
 -1      8162 5.46752E+00 5.68049E+00 3.27432E-01-8.88204E-01 2.42036E-01-3.12189E-01
 -1      8163 4.91840E+00 7.06981E+00 5.29228E-01-1.53512E+00 3.06571E-01-8.44864E-02
 -1      8164 1.16073E+00 5.88470E-01-1.13463E-02-7.98160E-01 6.25661E-02-1.14553E-01
 -1      8165 1.39067E+00 7.82265E-01-9.16158E-03-7.71457E-01 6.35656E-02-1.25432E-01
 -1      8166 1.09568E+01 1.32512E+01 4.77431E+00-2.20966E+00 4.77706E-02 2.96688E-01
 -1      8167 3.77362E+00-4.43696E-03-3.18229E-01 4.58116E-01-6.80380E-02 1.71905E-01
 -1      8168 3.01039E-01 1.44936E+00-9.32291E-03-5.99265E-01 1.11071E-01-4.37300E-02
 -1      8169 1.85800E+00 1.42454E+00 1.46048E-01-8.02213E-01 2.88840E-02-3.00458E-02
 -1      8170 1.02979E+01 2.16446E+01 8.48311E+00-1.01206E+00-2.96585E-01 4.93007E-02
 -1      8171 2.89105E+00 3.03376E+00 1.10188E-02-1.03688E+00 1.31131E-01-1.96558E-01
 -1      8172 3.08299E+00 3.92532E+00 7.65756E-02-9.82823E-01 2.87243E-01-2.51366E-01
 -1      8173 2.47082E+00 3.58526E+00 3.04231E-02-1.03475E+00 2.37569E-01-1.76054E-01
 -1      8174 2.36127E+00 3.71506E+00 1.41046E-02-1.07316E+00 2.19567E-01-1.51420E-01
 -1      8175 2.50983E+00 4.67062E+00 1.38248E-01-9.56965E-01 4.06573E-01-1.42815E-01
 -1      8176 2.94011E+00 4.08848E+00 6.92999E-02-9.80954E-01 2.83801E-01-2.32643E-01
 -1      8177 8.16157E+00 5.23235E+00 1.55326E+00 4.34236E+00-1.02216E-01 5.26912E-01
 -1      8178 6.44883E+00 7.06293E+00 1.77595E+00 5.26652E+00 8.50229E-02 5.24608E-01
 -1      8179 7.14383E+00 1.55995E+00 3.68675E-01 2.74072E+00-7.08623E-02 5.42615E-01
 -1      8180 8.19210E+00 4.17457E+00 1.54129E+00 4.26289E+00-3.91706E-02 4.98181E-01
 -1      8181 6.78617E+00 5.81452E+00 1.70162E+00 5.57057E+00 2.54078E-01 8.04447E-01
 -1      8182 8.25486E+00 1.23886E+01 3.70086E+00 7.59885E+00 1.40935E-01 2.25882E-01
 -1      8183 1.06836E+01 1.15766E+01 5.52780E+00-1.55204E+00 4.58554E-02 2.80354E-03
 -1      8184 2.49993E+00 6.42330E+00 5.88994E-01-3.31425E-01 3.58601E-01 1.39728E-01
 -1      8185 2.08076E+00 6.42077E+00 3.46304E-01 5.95921E-01 4.07679E-01 2.42628E-01
 -1      8186 3.10107E+00 7.46924E+00 6.92004E-01-8.02268E-01 3.64104E-01 1.11135E-01
 -1      8187 2.05157E+00 5.84191E+00 3.22385E-01-1.07290E-01 3.68042E-01 1.37503E-01
 -1      8188 1.41141E+01 2.82982E+01 1.04542E+01-3.19891E+00 3.56674E-01 4.29539E-01
 -1      8189 1.40939E+01 1.89922E+01 6.95481E+00-3.31653E+00 2.26566E-01 3.68576E-02
 -1      8190 1.35194E+01 1.82236E+01 6.92163E+00-2.60972E+00-4.32573E-02 1.02540E-01
 -1      8191 7.20578E+00 4.71380E+00 2.16545E-01 2.12675E+00 2.72016E-01-2.83176E-01
 -1      8192 1.23250E+01 1.28358E+01 4.93029E+00 9.49652E+00 3.85804E-01 3.83834E-01
 -1      8193 9.73546E+00 2.75304E+00 5.62846E-01 5.19159E+00 7.21291E-01 2.83072E-01
 -1      8194 1.21404E+01 2.40023E+01 9.36102E+00-8.55324E-01-4.13824E-01-1.43871E-01
 -1      8195 3.27047E+00 7.39257E+00 1.36417E+00-4.65943E-01 1.67660E-01 1.53116E-01
 -1      8196 3.82130E+00 8.00472E+00 1.75157E+00-8.32405E-01 1.78220E-01 1.21669E-01
 -1      8197 3.15189E+00 6.59470E+00 1.22224E+00-7.57471E-01 1.41291E-01 1.00830E-01
 -1      8198 1.16289E+00 3.81943E-02-1.72231E-01 2.08941E-01-1.55272E-02 1.37085E-01
 -1      8199 1.11623E+00 3.23044E-02-1.74118E-01 2.20423E-01-8.55600E-03 1.00766E-01
 -1      8200 1.36923E+00 1.48334E-01-9.01932E-02 4.74919E-01-2.17800E-02 1.30699E-01
 -1      8201 1.47459E+01 2.93411E+01 1.20257E+01 1.08722E+01-2.93456E-01-3.99017E-02
 -1      8202 8.39375E+00 2.03122E+01 6.81255E+00 3.64043E+00-1.34638E+00 2.84955E-01
 -1      8203 1.26761E+01 2.75883E+01 1.13857E+01 8.35323E+00 9.31359E-01-8.83081E-02
 -1      8204 1.64074E-01 1.61399E+00-1.81796E-02 5.18147E-01 7.88025E-02 5.19529E-02
 -1      8205 2.52761E+00 5.39308E+00 1.01387E+00 2.07909E+00 1.21167E-01 1.76895E-01
 -1      8206 3.16707E+00 2.92390E+00 5.31121E-01 2.23662E+00 4.00202E-02 2.06259E-01
 -1      8207 2.94392E+00 4.71329E+00 1.00465E+00 2.56507E+00 9.69583E-02 1.67348E-01
 -1      8208 7.58101E+00 1.74375E+01 5.22672E+00 2.84975E+00-2.51200E-01 5.23869E-01
 -1      8209 5.03921E+00 6.58448E+00 3.98086E-01-1.43728E+00 3.90936E-01-2.80386E-01
 -1      8210 6.58316E+00 7.32829E+00 9.01868E-01-1.72967E+00 2.34575E-01-1.57785E-01
 -1      8211 4.96523E+00 3.62384E+00 1.37391E+00 3.21097E+00-1.77584E-02 7.92061E-02
 -1      8212 4.10011E+00 2.17413E+00 7.19630E-01 2.29364E+00 4.02090E-02 1.20326E-01
 -1      8213 4.70159E+00 6.43393E-01 4.24345E-01 1.68154E+00-2.05548E-02 7.71811E-02
 -1      8214 4.12397E+00 2.95462E-01 1.54677E-01 1.07298E+00 4.04782E-02 7.02988E-02
 -1      8215 4.29911E+00 2.25047E+00 7.95456E-01 2.37672E+00 2.69819E-02 9.66636E-02
 -1      8216-3.52658E-01-5.42356E-01-9.66147E-02-2.67779E-01-6.65883E-03-3.71732E-02
 -1      8217 1.41356E+00 2.07393E-01-1.51670E-01 5.22111E-01 2.22897E-03 3.99150E-02
 -1      8218 1.35559E+00 9.74611E-02-1.97054E-01 3.46937E-01-1.73617E-03 2.56460E-02
 -1      8219 1.55534E+00 2.05540E-01-1.85567E-01 4.86932E-01-4.11615E-03 2.56159E-02
 -1      8220 1.51537E+00 1.17635E-01-2.09315E-01 3.73438E-01 2.09908E-03 7.86728E-02
 -1      8221 7.50462E+00 6.97837E+00 2.21008E+00-9.52036E-01 7.30847E-02 1.93445E-02
 -1      8222 7.94292E+00 7.51337E+00 2.46812E+00-1.07666E+00 9.39689E-02 8.47762E-02
 -1      8223 6.26286E+00 1.45992E+00 8.83242E-02 2.27965E+00 2.09410E-01 6.67335E-01
 -1      8224 6.72910E+00 1.62945E+00 2.46738E-01 2.85824E+00 2.68916E-02 5.20384E-01
 -1      8225 3.56359E+00 1.15381E+00-2.46055E-01 1.87485E+00 2.18279E-02 8.09452E-01
 -1      8226 3.12691E+00 1.21962E+00-2.13186E-01 1.93780E+00-6.15435E-02 5.13855E-01
 -1      8227 3.27882E+00 1.26840E+00-1.54200E-01 2.21405E+00-9.12683E-02 4.66200E-01
 -1      8228 3.31297E+00 4.71056E-01-1.59852E-01 1.09652E+00-1.26940E-01 6.78921E-01
 -1      8229 3.87598E+00 1.22804E+00-2.41727E-01 1.96722E+00-1.80821E-02 7.21475E-01
 -1      8230 5.58811E+00 5.85853E+00 2.19951E+00-1.20446E+00-1.65394E-03 3.69357E-02
 -1      8231 5.32896E+00 7.39161E+00 2.56413E+00-1.33537E+00 6.57482E-03-5.60567E-03
 -1      8232 5.27719E+00 4.93713E+00 1.82495E+00-1.02196E+00-7.56746E-03 1.54618E-02
 -1      8233 5.17538E+00 6.25480E+00 2.16780E+00-1.12533E+00 8.55285E-03 2.63257E-02
 -1      8234 5.88939E+00 5.57816E+00 2.17171E+00-1.10081E+00 2.10834E-02 3.90823E-02
 -1      8235 5.65549E+00 2.48061E+00 1.18234E+00 3.13957E+00-8.55914E-02 1.49893E-01
 -1      8236 5.08375E+00 4.71530E+00 1.70718E+00 3.57467E+00-3.91322E-03 1.13523E-01
 -1      8237 4.83011E+00 2.62680E+00 9.26450E-01 2.93945E+00 1.92581E-02 1.18818E-01
 -1      8238 3.92531E+00 1.87797E+00 4.15411E-01 2.27808E+00 2.39741E-02 2.27246E-01
 -1      8239 3.40728E+00 8.71655E-01 2.72942E-02 1.43416E+00 5.68751E-02 2.51484E-01
 -1      8240 1.14726E+01 1.27971E+01 5.98767E+00-1.62945E+00 5.48117E-02 3.82426E-02
 -1      8241 1.04716E+01 9.99965E+00 4.62328E+00 6.88235E+00-2.69412E-01 2.04917E-01
 -1      8242 1.00555E+00 4.23098E-02-1.18434E-02 3.74715E-01-2.88568E-02 4.28400E-03
 -1      8243 6.31812E+00 1.52061E+00 1.17926E+00 2.27503E+00 4.13786E-03-2.64529E-02
 -1      8244 6.60913E+00 2.43825E+00 1.57034E+00 3.73106E+00-6.58072E-02 2.27966E-01
 -1      8245 1.15456E+01 1.26611E+01 4.00475E+00-1.95995E+00 1.13314E-01 2.00465E-01
 -1      8246 1.18006E+01 1.28311E+01 4.45667E+00-1.89105E+00 1.04951E-01 2.39558E-01
 -1      8247 1.16044E+01 1.44836E+01 4.89718E+00-2.46670E+00-2.06062E-03 3.89179E-01
 -1      8248 3.10458E+00 2.89192E-01-1.78212E-01 4.89878E-01 5.89860E-03 9.25665E-02
 -1      8249 6.82346E+00 1.08981E+01 3.12108E+00-1.97561E+00-3.26594E-02 3.01326E-01
 -1      8250 1.13708E+01 1.15270E+01 4.72060E+00-1.63180E+00-4.05270E-02 1.51028E-01
 -1      8251 8.45994E+00 1.47666E+01 4.77499E+00-2.02127E+00 1.36727E-01 2.75694E-01
 -1      8252 9.28755E+00 2.01772E+00 2.51293E+00 5.24632E+00-3.77884E-01 3.05997E-02
 -1      8253 7.85831E+00 1.20511E+01 4.86398E+00 5.67535E+00-8.66369E-01 2.38002E-03
 -1      8254 1.02214E+01 1.82356E+00 1.87332E+00 4.41743E+00-6.60281E-01 9.44755E-01
 -1      8255 6.80062E+00 1.14683E+00 1.12456E+00 2.27877E+00 2.64322E-01 3.55913E-02
 -1      8256 5.89447E+00 6.68380E-01 5.54118E-01 1.73911E+00 8.63191E-02 8.73047E-02
 -1      8257 8.60741E+00 6.01756E+00 3.05059E+00 4.29639E+00-2.40795E-02 3.27420E-02
 -1      8258 6.65318E+00 3.02485E+00 1.60861E+00 3.03312E+00 4.37538E-02 7.84392E-02
 -1      8259 8.08020E+00 5.94471E+00 2.73952E+00 5.44970E+00-1.62354E-01-1.52290E-01
 -1      8260 2.97186E+00 1.14638E-01-2.03751E-01 4.94517E-01 1.08058E-02 1.02269E-02
 -1      8261 2.79489E+00 6.68297E-02-2.64570E-01 4.43791E-01 5.36286E-03 2.08102E-02
 -1      8262 3.23162E+00 8.47030E-02-1.20648E-01 5.10684E-01 4.15594E-02 9.69667E-03
 -1      8263 9.84821E-01 3.21669E+00 6.78755E-02 8.06592E-01 2.19917E-01 1.68781E-01
 -1      8264 1.32640E+00 3.94711E+00 1.94732E-01 9.08019E-01 2.24496E-01 2.04533E-01
 -1      8265 9.83810E-01 3.17810E+00 2.69821E-02 9.51542E-01 2.19462E-01 2.04314E-01
 -1      8266 9.76160E-01 3.50231E+00 7.54849E-02 4.62652E-01 2.48465E-01 1.26816E-01
 -1      8267 1.32871E+00 4.19419E+00 2.17655E-01 4.24545E-01 2.78485E-01 1.27384E-01
 -1      8268 1.29634E+00 4.14354E+00 2.51884E-01 3.42340E-01 2.62179E-01 1.22642E-01
 -1      8269 1.43900E+00 6.68175E-02-2.38663E-01 2.95619E-01-8.02397E-04 2.43435E-02
 -1      8270 1.01929E+01 1.01826E+01 4.24839E+00-1.24059E+00 5.84492E-02 1.18061E-01
 -1      8271 1.11074E+00 5.07480E-02-7.09593E-02 3.48291E-01-1.98780E-02 6.18561E-02
 -1      8272 4.90436E+00 8.79271E+00 2.92318E+00-1.38788E+00-6.10195E-02 1.06673E-01
 -1      8273 4.48797E+00 1.04889E+01 3.32847E+00 3.40396E-01 4.97901E-02 2.56031E-02
 -1      8274 5.98194E-01-1.81862E-01-4.53309E-02-7.77127E-01 2.82507E-02-5.09189E-02
 -1      8275 3.66429E+00 9.10626E+00 2.70132E+00 6.30222E-01 5.13552E-02 1.66768E-02
 -1      8276 5.11359E+00 9.18951E+00 3.13198E+00-1.42088E+00-7.06377E-03 9.84127E-03
 -1      8277 3.68397E+00 8.76366E+00 2.58764E+00 3.81500E-01 1.65887E-02 1.47254E-02
 -1      8278 2.49491E+00 7.13757E+00 1.75384E+00 1.43746E+00 2.56082E-02 1.89938E-02
 -1      8279 3.18540E+00 7.46511E+00 2.04980E+00-4.00128E-01-3.16104E-04 5.48512E-02
 -1      8280 3.15186E+00 7.71309E+00 2.11223E+00-2.23809E-01-2.20558E-02 6.05047E-03
 -1      8281 9.57912E+00 9.73260E+00 2.95368E+00-1.37296E+00 7.42932E-02 1.11613E-01
 -1      8282 6.14654E+00 1.00895E+01 2.12703E+00-1.74566E+00 2.20178E-01 2.26506E-01
 -1      8283 9.51938E+00 9.70208E+00 3.06294E+00-1.35655E+00 1.14131E-01 1.22594E-01
 -1      8284 4.77438E+00 5.81350E+00 1.90108E+00 3.62365E+00 5.16116E-02 9.43815E-02
 -1      8285 4.95003E+00 5.35255E+00 1.91641E+00 3.55940E+00-8.57505E-02 7.17434E-02
 -1      8286 5.19942E+00 2.70163E+00 1.14803E+00 3.19536E+00 7.97043E-03 1.12101E-01
 -1      8287 5.84620E+00 2.87294E+00 1.36855E+00 3.79699E+00-6.48243E-03 7.76153E-02
 -1      8288 5.40578E+00 6.48082E+00 2.34905E+00 4.06941E+00-2.55227E-02 5.04726E-02
 -1      8289 7.82068E+00 7.44713E+00 2.92949E+00-9.30577E-01 1.97505E-02 7.01412E-02
 -1      8290 5.40057E+00 1.66457E+00 8.99885E-01 2.77775E+00-2.39999E-02 8.50946E-02
 -1      8291 6.28185E+00 9.06083E-01 1.01922E+00 2.78840E+00 3.17236E-02-2.56969E-02
 -1      8292 4.07925E+00 3.50650E-01 1.27918E-01 1.12936E+00 9.68218E-03 1.19632E-01
 -1      8293 2.61354E+00 9.41157E-02-3.51867E-01 4.21282E-01 8.94489E-03 1.10547E-01
 -1      8294 3.13318E+00 2.87363E-01-1.09837E-01 8.13600E-01 2.39790E-02 1.42493E-01
 -1      8295 2.20723E+00 8.38248E-02-4.37034E-01 2.71897E-01 1.96813E-02 1.60624E-01
 -1      8296 3.19926E+00 2.04130E-01-1.31624E-01 7.96022E-01-7.56102E-03 1.44217E-01
 -1      8297 1.56081E+01 1.56006E+01 7.54424E+00 1.09820E+01 5.43839E-01 4.94721E-01
 -1      8298 5.14396E+00 4.87584E+00 1.42931E+00-1.00551E+00 6.48383E-02-2.19096E-02
 -1      8299 3.41269E+00 8.18699E+00 2.14002E+00-2.63911E-01 6.64831E-02 6.82141E-02
 -1      8300 3.40119E+00 8.47687E+00 2.23753E+00 5.01628E-01 7.57516E-02 8.10200E-02
 -1      8301 2.85984E+00 8.19642E+00 1.94940E+00 1.51872E+00 1.10108E-01 8.56672E-02
 -1      8302 2.71127E+00 7.71483E+00 1.78474E+00 5.79175E-01 7.77628E-02 1.03317E-01
 -1      8303 2.37734E+00 1.72926E+00 1.61971E-01-7.33593E-01 9.46218E-02-1.58919E-01
 -1      8304 2.90718E+00 2.10841E+00 4.50732E-01-7.45795E-01 4.04233E-02-5.11483E-02
 -1      8305-1.19657E+00 8.78753E-02-2.24020E-02-1.63630E-01 1.23422E-02 3.63690E-02
 -1      8306-8.85209E-01 1.55452E-01-2.00681E-02-3.11694E-01 1.14930E-02 7.98327E-04
 -1      8307-6.58588E-01 3.02964E-01 1.32081E-03-4.34406E-01 2.59686E-02 1.01141E-02
 -1      8308-9.46432E-02 1.22230E+00-2.75870E-02-2.48925E-02 2.64163E-02 5.28600E-03
 -1      8309 6.48924E-03 1.40850E+00-2.40327E-02 3.73873E-03 8.59245E-02 1.53925E-02
 -1      8310-2.18030E-01 1.00763E+00-1.96568E-02 7.08551E-02 5.55410E-02 1.68337E-02
 -1      8311 4.85603E+00 9.62403E-01 3.26815E-01 1.37152E+00 1.27285E-02 1.36479E-01
 -1      8312 4.26668E+00 6.62307E-01 7.83462E-02 1.12005E+00-1.36753E-02 1.62772E-01
 -1      8313 3.99388E+00 4.30133E-01-3.40292E-02 1.08374E+00 1.02669E-02 1.80668E-01
 -1      8314-9.01205E-01 1.54699E-01-1.19622E-02-3.62664E-01 1.04463E-02 1.27360E-02
 -1      8315 9.84371E+00 1.98580E+01 5.56403E+00-1.39316E+00-7.35770E-04 7.08199E-01
 -1      8316 7.48191E+00 6.76592E+00 2.78172E+00 4.22366E+00 1.60967E-01 3.82798E-02
 -1      8317 9.44970E+00 6.94592E+00 3.31335E+00 4.60014E+00-6.45056E-02 1.89729E-01
 -1      8318 1.05956E+01 3.10801E+00 2.00524E+00 3.60196E+00-3.76500E-01 2.31871E-01
 -1      8319 7.49840E+00 4.55679E-01 9.90134E-01 2.77751E+00-1.59254E-01 5.67102E-02
 -1      8320 9.85697E+00 1.01055E+01 4.51721E+00 6.73479E+00-2.87455E-02 2.71982E-01
 -1      8321 7.46473E+00 7.98400E+00 2.34351E+00-1.09123E+00 8.90996E-02 1.20264E-01
 -1      8322 7.82373E+00 8.85965E+00 2.77414E+00-1.27760E+00 1.21586E-01 1.24820E-01
 -1      8323 6.78253E+00 9.73150E+00 3.02723E+00-1.73367E+00 6.80813E-02 1.60099E-01
 -1      8324 1.29447E+00 1.34397E+00 1.93176E-02 1.05023E+00 2.38869E-02 4.03436E-02
 -1      8325 1.27889E+00 8.70838E-01-4.65511E-02 9.07915E-01 2.01189E-02 3.93903E-02
 -1      8326 4.91090E+00 1.72551E+01 4.76634E+00 1.42988E+00-6.42918E-02 2.75538E-01
 -1      8327 9.39153E-01 1.66567E-01-7.21875E-02 4.51871E-01-7.61812E-03 3.15240E-02
 -1      8328 6.94529E-01 3.79620E-01-6.00873E-02 5.79749E-01 7.82746E-03 1.65736E-02
 -1      8329 3.54438E+00 2.91126E-01-4.29393E-01 7.44590E-01 1.43908E-02 3.38638E-01
 -1      8330 3.35820E+00 3.14139E-01-3.96088E-01 6.26129E-01-6.16620E-02 2.81955E-01
 -1      8331 2.91881E+00 1.74182E-01-5.44436E-01 6.04711E-01-5.61359E-04 3.15315E-01
 -1      8332 8.36835E+00 5.43893E+00 2.46180E+00 4.05691E+00 9.07969E-01 1.67132E-01
 -1      8333 1.52748E+01 1.30243E+01 6.67341E+00 1.16001E+01 1.63496E+00 5.26853E-01
 -1      8334 1.38091E+01 1.52849E+01 7.27704E+00 9.73220E+00 2.18048E-01 8.13745E-02
 -1      8335 8.42984E+00 1.91839E+01 6.71202E+00 2.46580E+00 4.05691E-01 2.55447E-01
 -1      8336 1.43614E+01 2.84142E+01 1.13519E+01 1.00159E+01-9.62934E-02 2.90369E-01
 -1      8337 1.34136E+01 2.81448E+01 1.11775E+01 9.98524E+00 6.63750E-02 2.87343E-01
 -1      8338 7.00964E+00 7.91188E+00 2.87989E-01-1.22124E+00 3.44595E-01-4.98077E-01
 -1      8339 6.96927E+00 7.48463E+00 3.78276E-01-1.09197E+00 3.26777E-01-4.84546E-01
 -1      8340 7.63411E+00 8.39961E+00 5.22951E-01-1.30020E+00 3.41954E-01-4.27140E-01
 -1      8341 8.66894E+00 6.25227E+00 3.31197E+00 4.70222E+00 3.54750E-01 1.32503E-01
 -1      8342 1.03165E+01 1.02132E+01 4.02915E+00-1.29424E+00 7.34031E-02 1.42038E-01
 -1      8343 2.29031E+00 2.93717E+00 3.12077E-03-1.01897E+00 1.47123E-01-1.46477E-01
 -1      8344 3.21553E+00 2.85347E+00 2.86925E-02-8.14154E-01 1.81658E-01-3.05164E-01
 -1      8345 2.97948E+00 4.16539E+00 2.48166E-01 2.19368E+00 2.06894E-01 4.83333E-01
 -1      8346 8.95300E+00 9.23924E+00 4.09504E+00-1.34583E+00-8.23216E-02 1.44757E-02
 -1      8347 4.27970E-01-7.55302E-01-4.86582E-02-6.19495E-01 2.28061E-03-3.04080E-02
 -1      8348 1.37318E+01 2.42553E+01 8.61692E+00-3.53483E+00-1.67902E+00 1.39452E+00
 -1      8349 5.18579E+00 4.49427E+00 1.75601E-01-6.80060E-01 1.47339E-01-3.86953E-01
 -1      8350 4.75825E+00 4.10980E+00 1.15273E-01-5.60553E-01 1.27604E-01-3.95739E-01
 -1      8351 4.31488E+00 4.65063E+00 2.21006E-01-1.16520E+00 2.71631E-01-2.93083E-01
 -1      8352 2.88884E+00 1.34274E+00-6.13536E-02 1.67332E+00 7.12913E-02 5.20529E-01
 -1      8353 2.50941E+00 5.18822E-01-1.13694E-01 9.86118E-01-2.57120E-02 3.84586E-01
 -1      8354 8.29222E+00 1.70999E+00 1.32366E+00 3.00955E+00-2.34119E-01 2.03144E-01
 -1      8355 5.26894E+00 6.41206E+00 2.17732E+00-1.35085E+00 4.48691E-02 1.32657E-02
 -1      8356 4.48616E+00 4.91130E+00 1.54999E+00-1.16067E+00 4.37273E-02 3.96736E-03
 -1      8357 4.50009E+00 6.09816E+00 1.90376E+00-1.25049E+00 6.25117E-02-1.00375E-02
 -1      8358 5.75740E+00 7.22620E+00 2.60550E+00-1.53092E+00 6.75214E-02 3.85738E-02
 -1      8359 4.81081E+00 5.58221E+00 1.86865E+00-1.20743E+00 7.43216E-02-3.27012E-02
 -1      8360 5.66984E+00 5.78962E+00 2.12938E+00-1.16306E+00 2.93133E-02 2.57434E-02
 -1      8361 8.75807E+00 8.20893E+00 3.83387E+00-8.76627E-01-1.28434E-03 8.50436E-02
 -1      8362 8.18909E+00 7.33361E+00 3.37537E+00-7.69377E-01-4.82485E-03 6.85991E-02
 -1      8363 8.52625E+00 7.86659E+00 3.65382E+00-8.69194E-01 2.55243E-02 8.90598E-02
 -1      8364 5.44167E+00 1.03088E+00-5.63868E-02 1.81178E+00 7.93208E-02 4.79937E-01
 -1      8365 5.30999E+00 9.85707E-01 3.13297E-02 1.72419E+00-9.16372E-02 3.66003E-01
 -1      8366 1.21228E+00 1.27065E-02-2.56254E-01 1.32457E-01-9.19519E-03 1.84922E-01
 -1      8367 1.59603E+00 1.36824E-01-1.18156E-01 4.20543E-01-1.23652E-02 1.73562E-01
 -1      8368 1.60818E+00 1.31074E-01-1.52029E-01 4.35706E-01-1.47977E-02 1.57978E-01
 -1      8369 2.03630E-01 1.89362E+00-1.80279E-02 4.69325E-01 9.79424E-02 5.56121E-02
 -1      8370 1.65529E-01 1.82105E+00-1.47018E-02 4.50486E-02 1.40189E-01 3.00140E-02
 -1      8371 1.14550E+01 1.83741E+01 6.69600E+00-1.29087E+00-1.81895E-01 2.99924E-01
 -1      8372 1.18913E+01 1.83879E+01 6.85672E+00-1.24064E+00 5.42994E-02 2.25682E-01
 -1      8373 4.55811E+00 2.47071E+00 8.16784E-01 2.79960E+00 1.70499E-02 1.84604E-01
 -1      8374 5.65161E+00 1.52681E+00 8.94049E-01 2.81697E+00 6.51535E-02 1.03505E-01
 -1      8375 1.02799E+01 1.52307E+01 5.57954E+00 5.14256E+00 5.19762E-01 3.96926E-01
 -1      8376 1.29544E+01 3.50384E+01 1.30021E+01 2.44784E+00 6.95111E-02-1.90930E-01
 -1      8377 6.93891E+00 9.87002E+00 3.67249E+00 3.76867E+00-5.68191E-01 5.04624E-02
 -1      8378 3.70002E+00 6.19278E+00 1.78502E+00-1.11496E+00 3.26230E-02 1.99294E-02
 -1      8379 4.56303E+00 6.25848E+00 2.07828E+00-1.28973E+00 2.05796E-02-1.00033E-02
 -1      8380 4.59651E+00 6.27973E+00 2.06136E+00-1.30585E+00 3.54281E-02 4.64613E-02
 -1      8381 4.44955E+00 5.44661E+00 1.75760E+00-1.10037E+00 1.78245E-02 1.37307E-02
 -1      8382 5.19726E+00 5.31839E+00 1.96284E+00-1.13029E+00 1.26627E-02 1.41099E-02
 -1      8383 2.83280E+00 2.29503E-01-2.78745E-01 4.27636E-01-2.92210E-03 9.11718E-02
 -1      8384 3.08447E+00 2.34733E-01-2.35858E-01 5.74324E-01-7.18421E-03 1.04123E-01
 -1      8385 4.68020E+00 4.63088E-01 3.23617E-01 1.36123E+00 3.21677E-02 1.05554E-01
 -1      8386 1.66968E+00 4.76600E+00 7.64817E-01-6.18009E-02 9.36337E-02 3.06004E-02
 -1      8387 1.50581E+00 4.29080E+00 6.02453E-01 5.83568E-01 8.11291E-02 6.12638E-02
 -1      8388 1.38606E+00 4.15637E+00 5.04540E-01 4.33161E-01 1.22848E-01 6.59938E-02
 -1      8389 8.13361E+00 9.20779E+00 6.16506E-01-1.48364E+00 3.75246E-01-3.82330E-01
 -1      8390 1.26241E+01 1.45969E+01 6.45817E+00-2.03858E+00 3.66781E-02 1.81896E-01
 -1      8391 1.37720E+01 1.70991E+01 7.63161E+00-2.83871E+00 3.00957E-01 8.24211E-02
 -1      8392 7.71254E+00 1.52740E+00 6.32218E-01 2.64488E+00 1.61221E-01 4.48132E-01
 -1      8393 5.98846E+00 1.01540E+00 5.17243E-02 2.04316E+00 5.74018E-02 4.05037E-01
 -1      8394 6.38198E+00 1.16051E+00 2.79481E-01 2.34753E+00-2.97408E-02 3.65529E-01
 -1      8395 9.32882E+00 4.04870E+00 1.94556E+00 5.15880E+00 1.27956E-01 3.56735E-01
 -1      8396 7.91842E+00 1.73037E+00 9.46698E-01 2.82691E+00-1.13837E-01 3.55001E-01
 -1      8397 4.44282E+00 6.21913E-01 3.78583E-01 1.07497E+00-3.94227E-02 2.71131E-02
 -1      8398 4.27285E+00 4.54602E-01 2.51686E-01 1.16793E+00-1.94497E-03-4.97372E-03
 -1      8399 7.42503E+00 1.74030E+00 1.51671E+00 3.21722E+00 1.70355E-02 5.03058E-03
 -1      8400 4.67416E+00 5.68762E-01 4.07844E-01 1.33337E+00 4.44841E-02 3.89672E-02
 -1      8401 7.29649E-01 2.03996E+00 6.17114E-02 6.97248E-01 4.51159E-02 3.09756E-02
 -1      8402 6.81361E-01 2.56675E+00 1.21539E-01 4.92090E-01 6.18120E-02 4.29816E-02
 -1      8403 7.09198E-01 2.26404E+00 7.95523E-02 6.89119E-01 9.45218E-02 7.36299E-02
 -1      8404 1.35970E+01 2.62315E+01 1.02619E+01 1.10913E+01 3.65881E-01 1.11969E+00
 -1      8405 7.84669E+00 2.98672E+00 2.08850E+00 3.03582E+00-2.36524E-01 1.14850E-01
 -1      8406 1.02866E+01 3.73721E+00 2.86019E+00 5.59549E+00 3.81418E-02-1.43028E-01
 -1      8407 3.79644E+00 2.70996E+00 5.66609E-01-4.11424E-01 4.38754E-02-1.38504E-01
 -1      8408 2.86975E+00 1.73593E+00 2.23967E-01-3.33268E-01 4.08602E-02-1.83025E-01
 -1      8409 2.49130E+00 1.31210E+00 1.30789E-01-3.17066E-01 3.30973E-02-1.88052E-01
 -1      8410 2.39206E+00 1.53343E+00 1.22351E-01-6.07119E-01 7.81373E-02-1.92203E-01
 -1      8411 2.47027E+00 1.30040E+00 1.13185E-01-3.08319E-01 3.62712E-02-2.04293E-01
 -1      8412 5.00668E+00 1.86153E+01 5.01083E+00 2.87374E+00-1.49548E-01 3.96101E-01
 -1      8413 4.75656E+00 1.03312E+01 2.76944E+00 3.76113E+00-7.96682E-02 2.13055E-01
 -1      8414 1.04425E+01 1.00184E+01 4.93230E+00-1.10236E+00 5.77767E-02 3.80521E-02
 -1      8415 1.09501E+01 1.09758E+01 5.28249E+00-1.20752E+00 1.68363E-02 4.63780E-02
 -1      8416 1.00380E+01 9.61464E+00 4.65138E+00-9.87034E-01 3.25192E-02 4.86299E-02
 -1      8417 1.51671E+00 2.65948E+00 2.94048E-01 1.30312E+00 1.63564E-02 2.65532E-02
 -1      8418 1.53219E+00 1.96412E+00 1.36660E-01 1.30849E+00 3.07756E-02 6.31711E-02
 -1      8419 1.37133E+00 1.96185E+00 1.21778E-01 1.19179E+00 7.23752E-03 3.71638E-02
 -1      8420 1.12419E+00 2.98424E+00 2.89693E-01 8.62193E-01 3.03912E-02 2.03349E-02
 -1      8421 1.32641E+00 3.16443E+00 3.60982E-01 9.86902E-01 4.09973E-02 4.43616E-02
 -1      8422 4.41810E+00 3.71451E+00 6.26258E-02-5.36751E-01 1.29406E-01-3.78745E-01
 -1      8423 4.52903E+00 3.73264E+00 1.15132E-01-4.92318E-01 1.30952E-01-3.98923E-01
 -1      8424 2.75643E+00 2.64320E+00-2.74164E-03-9.28843E-01 1.26302E-01-1.56622E-01
 -1      8425 2.59763E+00 2.23654E+00 5.74722E-03-8.26543E-01 9.25607E-02-1.78080E-01
 -1      8426 4.21551E+00 4.16839E-01-2.59425E-01 9.60178E-01 1.80408E-02 3.82820E-01
 -1      8427 5.45334E+00 1.03292E+00 2.47523E-01 2.12923E+00 3.04875E-02 3.20417E-01
 -1      8428 3.47478E+00 1.01141E+01 2.80817E+00 2.34326E+00-3.97885E-02 9.44599E-02
 -1      8429 3.73960E+00 1.05181E+01 3.06812E+00 2.95378E+00 1.81657E-01 1.13324E-01
 -1      8430 3.20449E+00 8.01982E+00 2.10785E+00 2.52288E+00 5.86550E-02 3.73334E-02
 -1      8431 1.07601E+01 2.88679E+01 9.52874E+00 4.71585E+00 1.23763E-02 5.30729E-01
 -1      8432 9.63452E+00 1.96447E+01 5.65229E+00-4.80796E-01-3.41560E-01 2.19575E-01
 -1      8433 9.46780E+00 2.79139E+01 8.48807E+00 1.92665E+00-2.46473E-01-8.11832E-02
 -1      8434 1.99573E+00 1.23448E+00-1.05807E-02 1.29825E+00 6.29372E-02 2.21804E-01
 -1      8435 2.40726E+00 1.55720E+00 8.24172E-02 1.49089E+00 6.89584E-02 2.89593E-01
 -1      8436 2.10025E+00 8.92961E-01-4.65426E-02 1.14665E+00 3.29193E-02 2.65923E-01
 -1      8437 1.67807E+00 1.48163E+00 1.70554E-02 1.21036E+00 8.36067E-02 2.19534E-01
 -1      8438 1.92822E+00 1.79427E+00 4.16775E-02 1.35679E+00 9.55785E-02 2.84231E-01
 -1      8439 1.76784E+00 2.17555E+00 9.09938E-02 1.47702E+00 1.20925E-01 2.45249E-01
 -1      8440 9.44017E+00 5.54620E+00 2.99632E+00 4.37323E+00-2.19611E-01 1.37916E-01
 -1      8441 1.21301E+01 1.51395E+01 6.76259E+00-2.09084E+00-6.08086E-02 2.44195E-01
 -1      8442 4.73634E+00 6.13812E+00 1.88539E+00-1.23218E+00 5.91640E-02 2.70381E-02
 -1      8443 6.11109E+00 6.71351E+00 2.44434E+00-1.42178E+00 5.61352E-02 2.13009E-02
 -1      8444 4.68019E+00 6.15351E+00 1.82213E+00-1.19059E+00 6.45922E-02 3.73226E-02
 -1      8445 6.29758E+00 6.89433E+00 2.47865E+00-1.46477E+00 2.71636E-02 1.11102E-01
 -1      8446 7.14036E-01 7.99081E-01-7.00593E-03-9.02622E-01 1.02458E-01-1.04105E-01
 -1      8447 5.84782E-01 2.59075E-01-1.21512E-02-9.36355E-01 5.44793E-02-7.68494E-02
 -1      8448 4.68781E+00 6.73992E+00 1.50914E+00-1.34896E+00 1.50857E-01 5.10954E-02
 -1      8449 6.01888E+00 8.04441E+00 2.17463E+00-1.65857E+00 6.38121E-02 1.09090E-01
 -1      8450 4.53914E+00 7.42642E+00 1.72485E+00-1.24143E+00 1.75191E-01 6.48416E-02
 -1      8451 3.96947E+00 8.67377E+00 1.90208E+00-5.18434E-01 1.62244E-01 1.87012E-01
 -1      8452 1.07927E+01 1.30463E+01 5.96536E+00-1.70267E+00-1.67383E-02 7.02512E-02
 -1      8453 1.13245E+01 1.43951E+01 6.52555E+00-2.25312E+00 4.66288E-02 1.40185E-01
 -1      8454 1.09394E+01 1.34415E+01 6.23199E+00-1.76701E+00-3.46981E-02 6.17595E-02
 -1      8455 3.78304E+00 4.70246E-01 1.40849E-01 9.56744E-01 2.01471E-02 4.69358E-03
 -1      8456 1.15855E+01 1.31241E+01 6.29210E+00-2.20869E+00 1.27288E-01-1.22038E-02
 -1      8457 1.06127E+01 1.17004E+01 5.50849E+00-1.48869E+00 2.50721E-02 9.18523E-02
 -1      8458 1.15026E+01 1.29715E+01 6.33173E+00-1.99915E+00-8.77307E-02-4.33973E-02
 -1      8459 9.43778E+00 2.04212E+01 6.86655E+00 2.74582E+00-1.09981E+00 1.36470E-01
 -1      8460 1.34378E+01 3.02080E+01 1.19910E+01 8.17937E+00 4.08936E-01-5.99859E-01
 -1      8461 1.58635E+01 3.09897E+01 1.24553E+01 1.05223E+01-5.06739E-01 1.18334E-01
 -1      8462 5.01758E+00 4.08821E+00 6.87635E-01-5.71785E-01 5.30038E-02-1.82226E-01
 -1      8463 4.71493E+00 3.78778E+00 6.06057E-01-5.27600E-01 6.31932E-02-2.03402E-01
 -1      8464 5.02835E+00 4.13916E+00 7.56878E-01-5.56970E-01 8.21896E-02-1.61435E-01
 -1      8465 5.71333E+00 8.80559E+00 3.19929E+00 4.40671E+00-9.05521E-02 9.04451E-02
 -1      8466 1.65205E+00 7.65823E-02-1.35214E-01 2.56292E-01-6.57558E-02 3.00741E-01
 -1      8467 2.52983E+00 2.15440E-01-1.39367E-01 7.14334E-01-8.54636E-02 4.15437E-01
 -1      8468 1.77179E+00 9.62810E-02-2.45767E-01 2.80711E-01-5.55164E-02 3.77075E-01
 -1      8469 1.85903E+00 7.97244E-02-4.02493E-01 2.20708E-01-4.65779E-03 4.84071E-02
 -1      8470 1.87544E+00 6.57461E-02-4.10955E-01 2.30106E-01-4.24434E-03 7.60007E-02
 -1      8471 1.95574E+00 9.60322E-02-4.07433E-01 2.37215E-01-1.30056E-02 4.61021E-02
 -1      8472 1.26205E+00 6.52924E-02-1.60165E-01 2.16213E-01-2.84601E-02 1.74110E-01
 -1      8473 1.30597E+00 1.43197E-02-2.96164E-01 1.39914E-01-5.84615E-03 2.21201E-01
 -1      8474 2.62791E+00 6.10262E+00 6.60732E-01-4.93532E-01 3.09449E-01 9.31053E-02
 -1      8475 3.31761E+00 7.39110E+00 1.17321E+00-4.12977E-01 2.42836E-01 1.14194E-01
 -1      8476 1.98537E+00 6.41672E+00 6.26916E-01 3.87586E-01 2.81740E-01 2.12373E-01
 -1      8477 5.14990E+00 1.74478E+00 8.64666E-01 2.61721E+00 3.03830E-02 3.41485E-02
 -1      8478 9.26012E+00 1.14312E+01 3.21314E+00 6.56688E+00-1.11083E-01 3.58210E-01
 -1      8479 8.41313E+00 8.26291E+00 2.76645E+00 5.03065E+00 2.41071E-01 3.80989E-01
 -1      8480 6.68497E+00 1.07115E+01 2.94757E+00 5.39217E+00 1.58568E-01-7.98211E-02
 -1      8481 1.74278E+00 1.52434E+00 5.33652E-02 1.24025E+00 5.45434E-02 1.77783E-01
 -1      8482 1.87434E+00 2.29348E+00 1.70893E-01 1.52986E+00 8.21772E-02 1.94279E-01
 -1      8483 9.64549E+00 9.35806E+00 4.23312E+00-1.12652E+00-3.24789E-03 1.42034E-01
 -1      8484 9.51813E+00 8.95663E+00 4.03113E+00-1.19285E+00 4.24992E-02 1.15018E-01
 -1      8485 1.01564E+01 9.81908E+00 4.45106E+00-1.31751E+00 1.32204E-02 9.74297E-02
 -1      8486 4.35619E+00 1.54706E+01 4.91621E+00 4.96618E+00 2.63626E-01 5.41983E-02
 -1      8487 9.75097E-01 3.07279E-02-3.78642E-02 3.42603E-01-2.52342E-02 3.83352E-02
 -1      8488-4.67580E-01-3.21581E-01-3.43054E-01 5.12244E-01 1.79202E-02-9.73776E-03
 -1      8489-1.86182E-01 8.61137E-02-1.48190E-01 5.71048E-01-4.80747E-02 5.33786E-02
 -1      8490-7.66389E-02-2.80094E-02-1.45729E-01 2.76567E-01-1.72644E-03 1.65677E-02
 -1      8491 2.89957E+00 2.91832E-01-5.30251E-01 4.86061E-01-1.64945E-01 7.14277E-01
 -1      8492 2.66461E+00 6.71888E-03-8.03967E-01 3.54680E-01 6.50483E-02 8.75694E-01
 -1      8493 4.03847E+00 6.32364E-01-9.78863E-01 1.24524E+00-8.56314E-02 9.97157E-01
 -1      8494 4.52338E+00 1.14774E+00-2.16429E-01 1.95852E+00-7.86109E-02 7.92282E-01
 -1      8495 3.82939E+00 3.70277E-01-1.08916E+00 1.19493E+00-5.23642E-03 1.17295E+00
 -1      8496 5.06911E+00 1.52581E+00-4.02115E-01 2.13795E+00-7.48634E-02 1.29532E+00
 -1      8497 5.04747E+00 1.41458E+00-3.03740E-01 2.23053E+00-2.29432E-02 1.25574E+00
 -1      8498 2.44373E+00 2.11689E+00 2.80493E-01-8.46505E-01 8.48533E-02-1.20813E-01
 -1      8499 2.89595E+00 2.43412E+00 3.64245E-01-8.43213E-01 7.53910E-02-1.18398E-01
 -1      8500 1.10538E+01 1.44279E+01 6.49527E+00-2.40972E+00 1.30410E-01-4.08836E-02
 -1      8501 9.80816E+00 1.29134E+01 5.71753E+00-1.57243E+00 5.06395E-02 3.11746E-02
 -1      8502 1.37904E+01 1.54479E+01 7.77005E+00-2.53519E+00 8.83020E-02 2.32531E-01
 -1      8503 1.25773E+01 1.39449E+01 6.84398E+00-1.89489E+00 2.43578E-02 1.91702E-01
 -1      8504 7.04964E+00 1.49114E+01 5.58029E+00-2.02147E+00 2.55933E-01-1.61821E-01
 -1      8505 5.47390E+00 1.02762E+01 2.79068E+00-1.29855E+00 1.46611E-01 1.13639E-01
 -1      8506 7.04969E+00 6.08447E+00 2.45302E+00 5.59427E+00 1.36690E-01 1.36929E-01
 -1      8507 7.29742E+00 2.20463E+00 1.43932E+00 2.88203E+00-5.50002E-03 2.58387E-01
 -1      8508 7.26214E+00 2.59979E+00 1.41274E+00 3.00432E+00 1.54894E-01 1.99779E-01
 -1      8509 8.07105E+00 8.06629E+00 3.36640E+00 7.07525E+00-2.32819E-01 4.41795E-02
 -1      8510 8.51518E+00 4.75813E+00 2.33299E+00 4.07026E+00-8.79154E-03 3.72488E-02
 -1      8511 9.99313E+00 8.37790E+00 3.76575E+00 7.22500E+00 3.03551E-01 4.14503E-01
 -1      8512 4.89697E+00 1.31277E+01 3.89909E+00 3.98866E+00-4.66804E-02-7.25589E-02
 -1      8513 4.84636E+00 1.14353E+01 3.55679E+00 4.87756E+00 1.19300E-01 1.51747E-01
 -1      8514 5.58651E+00 6.52506E+00 2.27494E+00 4.73462E+00 2.22679E-02 1.48526E-01
 -1      8515 5.71617E+00 1.82645E+01 6.02995E+00 2.39921E+00 4.13713E-01-2.96102E-01
 -1      8516 2.40006E+00 1.79845E+00 2.42276E-01-7.88979E-01 5.95074E-02-7.75117E-02
 -1      8517 4.63324E+00 4.47450E+00 1.25561E+00-1.01884E+00 7.05089E-02-2.04612E-02
 -1      8518 4.84457E+00 4.07143E+00 1.25950E+00-7.66327E-01 4.42783E-02-1.57191E-02
 -1      8519 6.10946E+00 7.53522E-01 7.29204E-01 1.50967E+00 2.27635E-01 1.83971E-01
 -1      8520 4.95862E+00 1.11332E+01 3.48855E+00-7.50385E-01 7.18872E-02 7.70170E-02
 -1      8521 5.17660E+00 1.04163E+01 3.30256E+00-1.15044E+00 8.04483E-02 8.28799E-02
 -1      8522 5.82570E+00 6.60285E+00 2.57016E+00-1.36366E+00-2.69395E-03 8.26540E-03
 -1      8523 5.58242E+00 7.92302E+00 2.89748E+00-1.36754E+00 1.00131E-02-7.25382E-03
 -1      8524 6.34018E+00 8.35220E+00 3.24624E+00-1.41730E+00 1.15599E-02 2.10053E-02
 -1      8525 6.39773E+00 7.02883E+00 2.86452E+00-1.41476E+00-4.33471E-03 9.57302E-03
 -1      8526 6.62377E+00 6.68374E+00 2.83135E+00-1.28568E+00 3.94403E-03 2.14963E-02
 -1      8527 7.45801E+00 1.75231E+01 6.06808E+00 3.10388E+00-8.27714E-02 8.61220E-02
 -1      8528 6.32371E+00 5.49157E+00 1.59714E+00-6.46888E-01 3.20280E-02-1.26331E-02
 -1      8529 4.78008E+00 5.50687E+00 1.96024E+00 3.52141E+00-4.94268E-02 4.25192E-02
 -1      8530 5.11375E+00 6.88095E+00 2.43163E+00 3.85253E+00-6.08881E-03-1.64303E-02
 -1      8531 5.31368E+00 6.50718E+00 2.48150E+00 3.97913E+00-3.46969E-02 7.25540E-02
 -1      8532-2.13653E-01 1.14906E-01 2.13774E-03 5.34206E-01 6.01801E-03-2.52332E-03
 -1      8533 1.00170E-02 1.81775E-01 2.83209E-02 7.14163E-01-1.17833E-02-4.75307E-03
 -1      8534 2.14618E+00 2.72555E+00 3.27307E-01-9.29364E-01 1.11885E-01-7.82752E-02
 -1      8535 1.80072E+00 3.18645E+00 4.00496E-01-8.63009E-01 8.44175E-02-3.00433E-02
 -1      8536 2.70102E+00 3.11731E+00 6.18855E-01-9.30855E-01 5.86952E-02-4.85274E-02
 -1      8537 2.04856E+00 2.41936E+00 2.95901E-01-8.76210E-01 1.02458E-01-8.59093E-02
 -1      8538 6.00079E+00 1.23528E+00 5.43004E-01 1.97207E+00-1.17551E-03 2.10112E-01
 -1      8539 6.14375E+00 1.90252E+00 7.65628E-01 2.48705E+00-1.15966E-01 2.44234E-01
 -1      8540 5.12003E+00 4.60008E-01 6.68238E-02 1.27011E+00 6.80613E-02 2.11963E-01
 -1      8541 8.69133E+00 9.63048E+00 2.78926E+00 5.05006E+00-1.24191E-01 7.19866E-01
 -1      8542 7.76234E+00 9.13549E+00 2.54748E+00 4.06881E+00 2.79189E-01 5.47875E-01
 -1      8543 4.06517E+00 4.55370E+00 1.44442E+00 3.00419E+00 1.06529E-01 5.53873E-02
 -1      8544 7.53577E-01 1.69235E-01-2.85514E-02 3.04233E-01-1.36721E-02 3.69910E-02
 -1      8545 3.47568E+00 8.73744E+00 1.22348E+00 5.85883E-01 2.40342E-01 3.05454E-01
 -1      8546 9.61461E-01 1.13318E+00-8.00151E-03-8.35810E-01 1.31298E-01-1.39438E-01
 -1      8547 6.25611E-01 1.22766E+00-1.73723E-03-9.28335E-01 9.79335E-02-7.96341E-02
 -1      8548 9.31561E-01 1.71968E+00 1.90263E-02-8.82703E-01 1.63236E-01-1.21953E-01
 -1      8549 2.77560E+00 1.66319E+00 1.15378E-01-2.92911E-01 5.34932E-02-2.51877E-01
 -1      8550 2.62652E+00 1.47467E+00 1.02967E-01-2.74213E-01 5.17908E-02-2.38426E-01
 -1      8551 2.83957E+00 1.72121E+00 1.55708E-01-2.99966E-01 4.72012E-02-2.32496E-01
 -1      8552 1.48380E+01 1.95893E+01 8.53482E+00-3.16272E+00 2.77439E-01 1.59372E-01
 -1      8553 1.33180E+01 1.72815E+01 7.83345E+00-2.39062E+00 1.45927E-01 1.52674E-01
 -1      8554 1.39949E+01 1.96618E+01 8.76817E+00-3.33687E+00 6.46158E-02 2.15636E-02
 -1      8555 6.55550E+00 1.64590E+01 5.68809E+00-9.08571E-01-1.00737E-01 2.12383E-01
 -1      8556 2.53389E+00-4.42514E-03-3.99859E-01 3.31453E-01 3.48908E-03 8.75200E-02
 -1      8557 2.63156E+00 1.66977E-02-3.94369E-01 3.58022E-01 2.21271E-02 6.77117E-02
 -1      8558 2.37819E+00 1.53630E-01-3.52785E-01 3.17540E-01-1.76273E-03 8.33018E-02
 -1      8559 2.44123E+00 1.40701E-01-3.38356E-01 3.35717E-01 2.75938E-04 8.40964E-02
 -1      8560 3.33834E+00 2.51797E-01-3.98023E-02 7.79497E-01 5.25523E-03 9.51321E-02
 -1      8561 1.32409E+00 2.30708E-02-2.05441E-02 2.68086E-01-3.06229E-02 5.94396E-02
 -1      8562 1.08624E+00-6.08333E-03-7.61374E-02 1.15742E-01-2.40609E-02 9.39144E-02
 -1      8563 1.42894E+00 1.11554E-01-4.84443E-02 3.90212E-01-4.31719E-02 1.39288E-01
 -1      8564 2.15852E+00 8.57250E-02-5.91565E-01 2.45693E-01 1.69900E-02 2.81360E-01
 -1      8565 8.77278E+00 8.44740E+00 3.99206E+00-1.05832E+00 7.10004E-03-9.12481E-03
 -1      8566 8.54078E+00 7.93190E+00 3.74362E+00-1.08885E+00-2.97136E-02-1.40053E-02
 -1      8567 5.95390E+00 1.45108E+00 9.44278E-01 1.37000E+00 1.54285E-01-4.86359E-02
 -1      8568 8.67927E+00 3.52714E-01 1.29461E+00 3.92534E+00 2.67904E-01-6.24850E-02
 -1      8569 9.62784E+00 1.06224E+00 2.12906E+00 4.69073E+00-3.85410E-01-3.65634E-03
 -1      8570 6.31690E+00 9.98947E+00 3.46926E+00-1.48017E+00 1.11540E-01 2.99886E-02
 -1      8571 3.97435E+00 1.02492E+01 2.83696E+00-1.01141E-01-6.26299E-02 1.17745E-01
 -1      8572 9.54278E-01 7.91240E-02-7.03789E-02 3.00666E-01-8.53973E-03 1.15272E-02
 -1      8573 6.36058E-01 2.31213E+00 8.50969E-02 5.31550E-01 4.13812E-02 2.34003E-02
 -1      8574 8.85723E-01 2.93543E+00 2.35013E-01 5.82564E-01 2.34453E-02 1.77815E-02
 -1      8575 2.50020E+00 7.26111E+00 1.03289E+00 1.18577E+00 2.33412E-01 2.84173E-01
 -1      8576 6.95803E+00 1.53991E+01 5.32942E+00-1.42763E+00-1.06161E-03 1.18199E-01
 -1      8577 7.10223E+00 1.33714E+01 4.75506E+00-2.17626E+00-6.46412E-02 1.40852E-01
 -1      8578 6.52360E+00 1.10467E+01 3.94818E+00-1.11941E+00 5.64879E-02 3.00517E-02
 -1      8579 6.98564E+00 1.03468E+01 3.80213E+00-1.71516E+00 7.41239E-02 6.62300E-02
 -1      8580 2.29835E-01 5.83481E-01-8.32662E-03 7.06676E-01 1.25998E-02 2.10829E-02
 -1      8581 7.61761E+00 3.03463E+00 1.50511E+00 3.08350E+00-3.73233E-02 2.02260E-01
 -1      8582 7.86936E+00 2.61394E+00 1.50760E+00 3.85047E+00 1.95536E-01 1.49669E-01
 -1      8583 1.01334E+01 9.91201E+00 4.41911E+00-1.30402E+00-1.12528E-02 1.34211E-01
 -1      8584 9.36725E+00 8.73271E+00 3.81838E+00-1.04081E+00-4.43211E-04 7.90672E-02
 -1      8585 7.33295E+00 1.11015E+01 3.89915E+00-2.10386E+00 7.18556E-02 3.86982E-02
 -1      8586 8.85379E+00 6.99290E+00 3.11552E+00 5.24143E+00-3.10148E-01 1.78571E-01
 -1      8587 1.14161E+01 1.12078E+01 4.89234E+00-1.60580E+00 3.04810E-02 1.83892E-01
 -1      8588 1.12403E+01 1.11699E+01 4.91873E+00-1.33180E+00-7.79570E-03 1.31699E-01
 -1      8589 1.22706E+01 1.25786E+01 5.65146E+00-1.58448E+00-8.44850E-02 1.43283E-01
 -1      8590 9.19584E+00 1.20993E+01 4.55963E+00-2.25801E+00 1.16715E-02 1.56404E-01
 -1      8591 1.46910E+00 4.60757E+00 5.89761E-01 3.17727E-01 1.06913E-01 8.13812E-02
 -1      8592 1.30490E+00 4.01363E+00 4.28063E-01 6.42459E-01 1.22548E-01 9.84138E-02
 -1      8593 1.69342E+00 4.96279E+00 7.24861E-01 8.05405E-01 1.13634E-01 1.07103E-01
 -1      8594 1.64835E+00 4.37754E+00 5.51681E-01 1.18152E+00 1.40886E-01 1.60047E-01
 -1      8595 1.18429E+01 2.12932E+01 8.45030E+00-2.69343E+00-2.21270E-01 3.06768E-03
 -1      8596 1.00371E+01 1.88452E+01 7.95619E+00-1.45555E+00 1.02631E-01-7.78655E-03
 -1      8597 1.20725E+01 1.75256E+01 7.72846E+00-1.64785E+00-7.51857E-02 2.37265E-01
 -1      8598 1.01764E+01 1.09838E+01 4.70423E+00-1.50357E+00-3.13493E-02 1.40467E-01
 -1      8599 1.14281E+01 2.33573E+01 8.34077E+00 6.89858E-01-6.37159E-01 3.93313E-01
 -1      8600 1.42627E+01 2.90638E+01 1.14004E+01 1.03715E+01 6.99654E-02 2.42428E-01
 -1      8601 8.56741E+00 1.91361E+01 6.75997E+00 2.37617E+00-4.69290E-01 1.93062E-01
 -1      8602 3.70408E+00 4.27626E+00 9.56638E-01-9.79145E-01 9.16195E-02-3.16049E-02
 -1      8603 1.08128E+01 2.20242E+01 8.10186E+00-1.44421E+00-3.60769E-01 8.47126E-02
 -1      8604 4.60597E+00 2.00068E+00 6.34842E-01 2.59969E+00-3.24763E-02 2.30103E-01
 -1      8605 4.00824E+00 3.98886E+00 1.02128E+00 3.03962E+00 3.59432E-02 1.41661E-01
 -1      8606-5.56080E-03 4.17842E-01 1.71514E-02 6.19738E-01-2.20847E-02 3.09101E-02
 -1      8607-1.60035E-01 1.73962E-01-6.27542E-02 5.54028E-01-2.95475E-02-1.39065E-02
 -1      8608-4.51125E-01-1.97709E-01-1.18718E-01 5.18619E-01-5.68637E-02 6.41252E-02
 -1      8609 4.80009E-02 2.64438E-01-2.35101E-02 3.57998E-01-6.19462E-03 4.37558E-02
 -1      8610-9.07202E-02 7.44751E-03-6.46474E-02 3.14247E-01-1.46695E-02 4.69126E-03
 -1      8611 1.01116E+01 2.85426E+00 2.45010E+00 5.05780E+00 7.62270E-01-1.45793E-01
 -1      8612 1.08391E+01 3.59819E+00 2.90736E+00 4.98402E+00-1.25312E-01 3.04716E-01
 -1      8613 1.23005E+01 1.49751E+01 7.14755E+00 1.00002E+01-5.15247E-02-5.10074E-02
 -1      8614 5.54591E+00 4.51741E+00 1.13315E+00-5.07315E-01 5.62855E-02-8.13303E-02
 -1      8615 6.99003E+00 1.45298E+00 4.94013E-01 2.42231E+00-1.00894E-01 3.86473E-01
 -1      8616 7.02738E+00 3.03313E+00 1.12513E+00 4.43507E+00 1.49553E-02 3.87994E-01
 -1      8617 1.45180E+01 1.84949E+01 8.31501E+00-3.18410E+00-7.63183E-02 3.45571E-01
 -1      8618 8.43746E+00 2.00246E+01 6.67859E+00 1.04874E+00 1.88642E-02 1.30331E-01
 -1      8619 2.85880E+00 2.35575E-01-3.14690E-01 7.61874E-01-8.98633E-02 5.80218E-01
 -1      8620 1.92151E+00 4.31287E-02-4.86120E-01 2.53804E-01-3.06004E-02 5.83071E-01
 -1      8621 2.43655E+00 1.03069E-01-2.07924E-01 5.59483E-01-5.80411E-02 4.22790E-01
 -1      8622 5.63685E+00 4.62663E+00 1.90819E+00-5.05275E-01-1.71732E-02 1.71907E-02
 -1      8623 1.23194E+00 7.34161E-02-1.59170E-01 3.79791E-01-3.91912E-03 2.78680E-02
 -1      8624 1.34738E+00 8.58026E-02-1.82239E-01 4.10630E-01-1.32979E-03 7.86749E-02
 -1      8625 1.26508E+00 1.88051E-02-2.22226E-01 2.53596E-01-7.23790E-03 5.37228E-02
 -1      8626 1.53742E-01-1.10990E+00-1.11368E-02-6.47888E-01-1.67034E-02-3.73050E-02
 -1      8627 1.31360E-02-6.42056E-01 6.92468E-03-8.62791E-01-9.72318E-03-3.12037E-02
 -1      8628 9.31020E+00 1.96260E+01 5.69499E+00-5.64756E-01 4.53813E-01 6.27966E-01
 -1      8629 8.03261E+00 9.15399E+00 8.33082E-01-1.40123E+00 3.18735E-01-2.28238E-01
 -1      8630 8.83883E+00 1.05077E+01 1.20619E+00-1.92426E+00 4.31084E-01-1.53185E-01
 -1      8631 6.41057E-01-7.07440E-01-5.98358E-02-4.40965E-01 3.54071E-03-3.36951E-02
 -1      8632 3.17211E+00 7.91717E+00 1.68036E+00 3.27638E-01 1.55251E-01 1.49658E-01
 -1      8633 4.79635E+00 3.71331E+00 8.92909E-01-3.89759E-01 3.46907E-02-1.03418E-01
 -1      8634 5.39132E+00 4.69994E+00-1.25844E-02-6.39606E-01 5.73794E-02-3.02357E-01
 -1      8635 6.07648E+00 5.34694E+00 5.07527E-02-6.14990E-01 1.10979E-01-4.17402E-01
 -1      8636 5.95392E+00 5.27585E+00 5.84752E-02-6.45327E-01 1.39267E-01-4.99787E-01
 -1      8637 4.72275E+00 4.64640E+00 5.56559E-03-1.12763E+00 1.71365E-01-3.27749E-01
 -1      8638 5.41851E+00 4.89397E+00 4.85391E-02-6.29715E-01 1.37289E-01-4.13358E-01
 -1      8639 6.29723E+00 1.49059E+01 1.84665E+00 3.78077E+00-1.24419E-01 8.62183E-01
 -1      8640 1.09687E+01 1.84170E+01 4.33382E+00 9.53856E+00 1.57701E-01 1.22100E+00
 -1      8641 5.22739E+00 1.31144E+01 5.23148E-01 3.94045E+00 1.42502E+00 1.02737E+00
 -1      8642 4.69412E+00 3.63792E+00 1.34184E+00-4.80936E-01 1.13016E-02-1.59960E-02
 -1      8643 4.30552E+00 6.87513E+00 2.02472E+00-1.25707E+00 8.51984E-03 8.18774E-02
 -1      8644 3.54860E+00 7.17390E+00 1.92899E+00-7.74623E-01 6.93552E-02 5.42336E-02
 -1      8645 3.71261E+00 6.09661E+00 1.67343E+00-8.25816E-01 3.61971E-02 5.59365E-02
 -1      8646 4.47104E+00 5.68770E+00 1.71387E+00-1.18381E+00 8.01309E-02 2.81566E-02
 -1      8647 1.14598E+01 2.02563E+01 7.52821E+00-1.68036E+00-5.03965E-02 2.39311E-01
 -1      8648 1.08526E+01 1.92708E+01 6.69423E+00-1.10505E+00 5.40835E-02 4.16962E-01
 -1      8649 2.13593E+00 1.63239E+01 3.69271E+00 5.49408E+00 7.28106E-01-3.50070E-01
 -1      8650 3.31233E+00 2.37041E+00 1.99491E-01-4.16617E-01 7.10008E-02-2.56515E-01
 -1      8651 4.05976E+00 5.00956E+00 1.52173E+00-1.09293E+00 6.27574E-03 1.25052E-02
 -1      8652 3.34282E+00 4.12335E+00 1.05240E+00-1.03481E+00 7.71194E-02-2.86702E-02
 -1      8653 2.82687E+00 4.91025E+00 1.14177E+00-9.30130E-01 4.21576E-02-8.30624E-03
 -1      8654 2.81516E+00 5.85748E+00 1.44182E+00-7.49486E-01 5.10627E-02 1.16382E-02
 -1      8655 2.32997E+00 4.81811E+00 9.93499E-01-7.39008E-01 4.07426E-02 8.23727E-03
 -1      8656 3.37780E+00 4.95638E+00 1.31740E+00-9.29610E-01 2.33501E-02-9.62148E-04
 -1      8657 1.81358E+01 2.90719E+01 1.21733E+01-3.51253E+00-7.08375E-02 4.38247E-01
 -1      8658 1.58124E+01 1.97511E+01 8.58056E+00-2.90152E+00-1.01137E-01 1.99377E-01
 -1      8659 1.90587E+01 2.72913E+01 1.20117E+01-4.91171E+00-6.81420E-01 8.55157E-01
 -1      8660 1.31130E+01 1.72375E+01 6.56381E+00-2.56987E+00 2.15080E-01 1.35016E-01
 -1      8661 1.32799E+01 2.42090E+01 9.09605E+00-3.05474E+00 4.78215E-01-1.92733E-01
 -1      8662 1.32808E+01 1.75921E+01 6.57865E+00-2.53198E+00-1.07023E-01 7.02856E-01
 -1      8663 2.27925E+00 1.11707E+00 9.29471E-02-2.91039E-01 3.37053E-02-1.81002E-01
 -1      8664 2.26805E+00 1.10834E+00 7.58286E-02-2.87276E-01 3.68856E-02-2.10952E-01
 -1      8665 1.54173E+01 1.81699E+01 8.45695E+00-3.10156E+00-7.45773E-02 2.79887E-01
 -1      8666 1.24968E+01 1.60304E+01 6.80333E+00-1.88500E+00 3.85803E-02 1.23782E-01
 -1      8667 1.17064E+01 1.54418E+01 6.60238E+00-1.82917E+00-7.45954E-02 2.43176E-01
 -1      8668 1.27433E+01 1.81552E+01 7.75224E+00-2.93924E+00-2.01136E-02 3.23906E-01
 -1      8669 1.17137E+01 3.21612E+01 1.24441E+01 1.07118E+00-5.91947E-01 5.31310E-01
 -1      8670 8.15781E+00 7.82670E+00 3.34829E+00-1.08874E+00 1.58499E-02 6.46386E-02
 -1      8671 8.05511E+00 7.83608E+00 3.29561E+00-1.16300E+00 3.70730E-02 4.40447E-02
 -1      8672 9.17562E+00 8.94425E+00 3.98882E+00-1.17617E+00 1.32604E-02 5.18264E-02
 -1      8673 6.60755E+00 8.86762E+00 3.21200E+00-1.73232E+00 7.98460E-02 4.24762E-02
 -1      8674 9.10364E+00 8.86656E+00 3.98654E+00-1.03898E+00 4.29440E-02 4.17875E-02
 -1      8675-3.51366E-01 6.04156E-01-2.40106E-02 1.79232E-01 3.47325E-02 1.39068E-02
 -1      8676-3.09314E-01 7.26730E-01-2.66221E-02 1.38659E-01 2.59276E-02 7.79579E-03
 -1      8677 2.66085E+00 6.03109E-01-4.66935E-02 1.05067E+00 1.32014E-03 1.34489E-01
 -1      8678 2.86214E+00 1.91228E+00 3.15256E-01 1.82450E+00 7.97665E-02 1.30441E-01
 -1      8679 3.04562E+00 7.38446E-01 2.29588E-02 1.19484E+00 3.44535E-02 1.69673E-01
 -1      8680 2.71434E+00 1.19967E+00 7.72410E-02 1.34190E+00 3.56839E-02 1.69498E-01
 -1      8681 2.48977E+00 1.28690E-01-2.26740E-01 5.80560E-01 2.18461E-03 1.65001E-01
 -1      8682 5.24439E+00 4.69047E+00 1.50419E+00-6.92918E-01 4.54744E-02 1.04731E-03
 -1      8683-8.91173E-02 1.48931E+00-4.65624E-03-9.59501E-02 8.40616E-02 1.30980E-02
 -1      8684-7.73681E-02 1.63578E+00-2.11605E-02-1.17408E-01 9.47154E-02-2.89402E-03
 -1      8685 8.10328E+00 1.94109E+01 7.48074E+00 3.19946E+00 1.32694E-01 1.17031E-02
 -1      8686 1.10742E+00 2.58892E-01-2.40064E-02-6.45343E-01 5.90817E-02-1.49444E-01
 -1      8687 1.95348E+00 5.19280E-02-4.49358E-01 1.98533E-01-1.34348E-02 3.94745E-02
 -1      8688 2.64792E+00 2.30089E-01-1.55524E-01 5.95346E-01-2.35274E-02 4.96842E-02
 -1      8689 1.87174E+00 3.17918E-02-4.51034E-01 1.89917E-01 1.08316E-03 7.62926E-02
 -1      8690 9.21498E-01 1.54727E+00-1.59131E-02 9.89652E-01 1.08089E-01 1.60023E-01
 -1      8691 1.25601E+00 1.87817E+00-7.36125E-03 1.17332E+00 1.23465E-01 2.11575E-01
 -1      8692 7.84591E+00 1.25785E+01 4.72767E+00 5.63602E+00 4.42211E-01 2.40995E-01
 -1      8693 2.62016E+00 1.36559E+00 1.02454E-02-2.77951E-01 1.86097E-02-1.17869E-01
 -1      8694 2.77905E+00 1.64232E+00-5.81121E-04-2.96165E-01 2.87884E-02-1.76663E-01
 -1      8695 2.78634E+00 1.94705E+00 5.12084E-03-6.46407E-01 7.12039E-02-1.84159E-01
 -1      8696 2.81195E+00 1.80044E+00 8.35791E-03-3.21164E-01 5.81720E-02-2.53185E-01
 -1      8697 6.20942E+00 7.76190E+00 2.65970E+00 4.77019E+00 1.24584E-01 2.13119E-01
 -1      8698 5.28545E+00 7.69434E+00 2.41026E+00 3.84481E+00-9.50080E-02 1.93941E-01
 -1      8699 5.94054E+00 1.90037E+00 1.00380E+00 3.29021E+00 8.74015E-02 3.52586E-01
 -1      8700 2.86639E+00 2.89300E-01-2.56628E-01 4.62634E-01-3.08748E-02 9.66306E-02
 -1      8701 6.49397E+00 5.59542E+00 8.53722E-01-7.02199E-01 6.79580E-02-2.09375E-01
 -1      8702 6.52778E+00 6.44898E+00 2.58180E+00-8.69030E-01 1.57998E-02 3.50593E-02
 -1      8703 7.10992E+00 7.30819E+00 3.01880E+00-1.08325E+00 4.07908E-02 2.96422E-02
 -1      8704 6.79578E+00 5.84702E+00 2.49450E+00-6.20806E-01-5.88324E-03-8.32699E-03
 -1      8705 7.49747E+00 6.62590E+00 2.94536E+00-8.26167E-01 2.47778E-02 5.45669E-03
 -1      8706 2.93108E+00 8.00670E+00 2.16660E+00 2.71027E+00 3.53982E-02 1.00151E-02
 -1      8707 3.01169E+00 9.06558E+00 2.49139E+00 2.54272E+00 1.38879E-01-1.80156E-02
 -1      8708 3.38563E+00 2.88937E+00 4.34355E-01-8.27077E-01 1.19001E-01-1.61695E-01
 -1      8709 3.63644E+00 2.67060E+00 3.68594E-01-4.57053E-01 7.04562E-02-2.07228E-01
 -1      8710 3.79179E+00 3.17181E+00 5.08509E-01-7.51273E-01 1.11577E-01-1.56967E-01
 -1      8711 2.76582E+00 1.10656E-01-5.75036E-01 4.69943E-01 1.52526E-02 2.84865E-01
 -1      8712 3.24485E+00 3.44197E-01-4.07608E-01 5.45998E-01 1.56330E-02 2.72464E-01
 -1      8713 5.01461E+00 6.29893E-01 1.64995E-01 1.85295E+00-5.57445E-03 3.61088E-01
 -1      8714 3.56058E+00 1.01782E+01 1.67272E+00 2.57308E+00 1.34238E-01 4.95219E-01
 -1      8715 3.54402E+00 6.70464E-01-5.28529E-01 9.25670E-01 2.40536E-02 6.32694E-01
 -1      8716 3.72557E+00 7.57797E-01-4.91070E-01 1.07464E+00 4.15135E-02 5.41146E-01
 -1      8717 5.08157E+00 1.88269E+00 1.71111E-01 2.85457E+00 9.60297E-02 5.44429E-01
 -1      8718 6.17426E+00 9.60614E+00 2.60734E+00-1.70113E+00 1.03593E-01 1.92409E-01
 -1      8719 8.42539E+00 1.12756E+01 3.84478E+00-2.10441E+00 1.69071E-01 8.79546E-02
 -1      8720 3.68512E+00 5.36902E+00 1.51913E+00-9.28625E-01 2.27338E-02 1.93997E-02
 -1      8721 4.71378E+00 4.09050E+00 5.47297E-02-5.82770E-01 1.27696E-01-3.80992E-01
 -1      8722 1.53361E+00-6.08958E-03-4.65604E-01 1.29071E-01-4.67483E-03 4.43660E-01
 -1      8723 1.60370E+00-2.18330E-03-5.51243E-01 1.30170E-01-1.15340E-02 4.32791E-01
 -1      8724 1.45972E+00 4.51893E-03-4.35808E-01 1.07208E-01-1.86077E-02 3.96435E-01
 -1      8725 5.96306E+00 9.20271E+00 2.53275E+00 5.98173E+00 1.53334E-02 3.27192E-01
 -1      8726 5.38969E+00 1.21177E+01 3.36334E+00 4.33318E+00 7.02681E-02 2.58245E-01
 -1      8727 6.29526E+00 9.85221E+00 3.00452E+00 5.07374E+00-3.83242E-01 3.73178E-01
 -1      8728 6.98924E+00 6.16266E+00 2.14511E+00 5.55067E+00-4.85907E-02 3.95581E-01
 -1      8729 9.15824E+00 9.35782E+00 3.69898E+00 7.02415E+00-1.07976E-01 1.75857E-01
 -1      8730 3.16623E+00 1.67481E+00 7.67316E-02 1.73237E+00 8.99242E-02 3.50370E-01
 -1      8731 3.83407E+00 2.98741E+00 5.06821E-01 2.53573E+00 9.75675E-02 3.60240E-01
 -1      8732 3.18785E+00 6.42278E-01-1.50273E-01 1.29196E+00-4.73928E-02 3.09699E-01
 -1      8733 2.92790E+00 1.62061E-01-3.27808E-01 6.97254E-01 4.54848E-03 4.32685E-01
 -1      8734 3.31865E+00 3.90303E-01-2.88038E-01 1.23425E+00-3.37085E-02 3.67047E-01
 -1      8735 5.86146E+00 8.09657E+00 2.76668E+00 4.59803E+00 2.37014E-02 1.82019E-01
 -1      8736 6.41239E+00 8.35786E+00 3.01433E+00 5.04431E+00 1.72478E-01 9.22925E-02
 -1      8737 6.13513E+00 2.20562E+00 1.00975E+00 3.42915E+00-1.01781E-01 1.88000E-01
 -1      8738 6.01572E+00 2.17189E+00 8.85369E-01 2.24754E+00 9.34897E-02 2.74021E-01
 -1      8739 5.90057E+00 1.91331E+00 8.67393E-01 2.23386E+00-7.50770E-04 2.12704E-01
 -1      8740 1.34659E+00 3.87186E+00 3.43831E-01 9.29132E-01 1.63977E-01 1.50914E-01
 -1      8741 1.61090E+01 2.37601E+01 1.06007E+01 1.17766E+01 5.35241E-01 4.36406E-01
 -1      8742 8.94751E+00 1.66413E+01 6.87193E+00 4.24870E+00-6.96268E-01-1.63493E-01
 -1      8743 1.42981E+01 2.66477E+01 1.11158E+01 1.02420E+01-5.00888E-01-4.81559E-01
 -1      8744 1.28714E+00 1.20583E+00-1.67808E-02 9.67982E-01 7.50191E-02 1.54538E-01
 -1      8745 1.01392E+01 3.17101E+00 3.19744E+00 5.43477E+00 8.32256E-01-4.99787E-01
 -1      8746 8.13529E+00 5.08002E+00 2.52693E+00 2.79826E+00 2.61381E-01-8.22198E-01
 -1      8747 1.47920E+01 1.57294E+01 7.75801E+00 1.06819E+01-8.63260E-01-5.87597E-01
 -1      8748 7.71635E+00 6.82746E+00 2.05724E+00-8.19966E-01 1.01135E-01 2.57036E-02
 -1      8749 7.19241E+00 6.29382E+00 1.70611E+00-6.81449E-01 5.65821E-02 1.35219E-02
 -1      8750 1.22217E+01 1.35709E+01 6.67210E+00 1.00174E+01 3.17051E-01-3.89600E-02
 -1      8751 1.01069E+01 4.09648E+00 3.14749E+00 4.31226E+00 3.54954E-01 3.06917E-01
 -1      8752 1.14356E+01 1.90274E+01 7.91946E+00-1.58539E+00 4.47992E-02 4.29646E-02
 -1      8753 4.86391E+00 1.66691E+01 5.13752E+00 1.18256E+00-7.33838E-02 6.70549E-02
 -1      8754 3.44157E+00 2.13024E+01 6.27304E+00 3.17061E+00 4.16087E-01 5.66661E-01
 -1      8755 7.26172E+00 8.22154E+00 3.14407E+00-1.16522E+00 5.28636E-02 2.98888E-02
 -1      8756 7.51788E+00 8.62157E+00 3.36586E+00-1.24212E+00 6.62784E-02 7.25084E-02
 -1      8757 5.83977E+00 7.57515E+00 2.49662E+00-1.49375E+00 5.70180E-02 6.64788E-02
 -1      8758 1.31599E+00 2.25478E-02-3.26565E-01 1.39256E-01-8.82838E-03 1.81492E-01
 -1      8759 1.25132E+00 6.92289E-02-2.30060E-01 2.16481E-01-6.24323E-03 1.47039E-01
 -1      8760 1.49774E+01 2.22324E+01 9.57239E+00-2.16474E+00-9.77113E-02 2.62981E-01
 -1      8761 1.31026E+01 2.48959E+01 9.95240E+00-1.97600E+00 1.58724E-01 2.04215E-01
 -1      8762 1.50063E+01 2.20187E+01 9.20802E+00-2.27872E+00 2.19397E-01-1.35245E-02
 -1      8763 7.02011E+00 6.22940E+00 2.73678E+00-7.37080E-01-1.20523E-02 2.63500E-02
 -1      8764-4.58093E-01 6.46553E-01-2.32206E-02-1.91167E-02 2.54510E-02 5.10877E-03
 -1      8765-3.51256E-01 5.43836E-01-2.33118E-02 2.47880E-01 1.31190E-02 6.01195E-03
 -1      8766-6.50761E-01 3.52143E-01-1.48100E-02 1.34073E-01 1.15064E-02 1.39894E-03
 -1      8767-5.20585E-01 3.22717E-01-8.95600E-03 3.13418E-01 2.08135E-02 5.90281E-03
 -1      8768-6.22315E-01 4.28089E-01-4.59783E-03 7.36912E-02 3.02670E-02 3.51040E-03
 -1      8769 9.38288E+00 1.95429E+01 7.96815E+00 3.15150E+00-1.05840E+00-1.01451E-01
 -1      8770 1.57336E+01 3.00117E+01 1.27925E+01 1.02027E+01-8.31494E-01 1.14619E-01
 -1      8771 9.55491E+00 2.00581E+01 7.87282E+00 2.31889E+00 4.44305E-01-6.97601E-02
 -1      8772 1.89431E+00 4.78019E+00 2.82243E-01 1.17641E+00 2.88557E-01 2.61432E-01
 -1      8773 2.10123E+00 4.67588E+00 2.54498E-01 1.79965E+00 2.64551E-01 3.56175E-01
 -1      8774 1.24461E+00 3.95943E+00 1.35028E-01 1.04610E-01 3.25561E-01 7.22162E-02
 -1      8775 1.38407E+00 4.28272E+00 1.19167E-01-2.75558E-01 3.38540E-01 3.00516E-02
 -1      8776 1.17527E+00 3.94844E+00 7.13840E-02-2.67357E-01 3.36836E-01-1.25204E-03
 -1      8777 6.43601E+00 5.21465E+00 2.32986E+00-3.86119E-01-3.66051E-03-5.33837E-03
 -1      8778 6.73451E+00 5.56412E+00 2.52554E+00-4.13333E-01-8.27044E-03 1.38225E-02
 -1      8779 6.25282E+00 5.98054E+00 2.50582E+00-1.01545E+00 1.33513E-02 8.28154E-03
 -1      8780 6.65007E+00 5.92001E+00 2.61769E+00-6.82539E-01 2.94317E-03 3.43618E-03
 -1      8781 6.33219E+00 5.50659E+00 2.40789E+00-6.07365E-01 9.33001E-03 1.00349E-02
 -1      8782 1.55756E+00 3.73594E-01 9.26252E-04-3.49450E-01 1.68922E-02-1.09848E-01
 -1      8783 7.41509E+00 1.17292E+01 4.45053E+00-2.02931E+00 6.45000E-02 7.49116E-02
 -1      8784 9.64635E+00 1.00886E+01 4.53442E+00-1.60552E+00-4.93285E-02 7.94192E-02
 -1      8785 6.96767E+00 1.24026E+01 4.52863E+00-1.97386E+00 6.63404E-02-8.07836E-03
 -1      8786 8.06620E+00 6.06637E+00 2.91227E+00 4.10009E+00 1.98206E-02 3.35422E-01
 -1      8787 9.78457E+00 6.07021E+00 2.89972E+00 4.85911E+00 8.32605E-02 4.31579E-02
 -1      8788 1.00983E+01 5.34640E+00 3.10033E+00 4.68464E+00 2.89632E-01-4.58109E-03
 -1      8789 7.35179E+00 6.65428E+00 3.18557E+00 3.96492E+00-9.38881E-02-3.98181E-01
 -1      8790 1.10654E+01 2.06353E+01 7.87506E+00-1.42299E+00 1.34937E-01 3.68723E-04
 -1      8791 1.03453E+01 2.97975E+01 1.03603E+01 1.44955E+00 2.06164E-03 7.33030E-02
 -1      8792 1.12875E+01 2.96871E+01 1.02130E+01 6.64174E-01 2.50623E-01-1.56341E-03
 -1      8793 4.32157E+00 5.69234E-01 1.75088E-01 1.09153E+00 2.64829E-02 1.05139E-01
 -1      8794 3.38669E+00 2.14803E+00 5.82717E-01-3.67686E-01 1.44157E-02-2.97623E-02
 -1      8795 1.41930E+01 1.51261E+01 7.53049E+00 1.04977E+01-3.69332E-01-6.62417E-02
 -1      8796 7.65584E+00 2.96437E+00 1.92699E+00 2.10132E+00-5.48541E-01-5.23316E-02
 -1      8797 1.00717E+01 2.15904E+01 8.63116E+00-1.13616E+00 1.24017E-02 1.13298E-01
 -1      8798 1.24956E+01 1.90105E+01 8.23661E+00-1.32223E+00 1.33894E-01 5.92487E-04
 -1      8799 1.27891E+01 2.01049E+01 8.56292E+00-1.53907E+00 4.78867E-03 1.69456E-01
 -1      8800 5.54610E+00 1.40238E+00-9.32201E-01 1.63638E+00-9.33558E-02 1.16211E+00
 -1      8801 5.00319E+00 7.11824E-01-1.01357E+00 1.55949E+00-6.50243E-02 1.23615E+00
 -1      8802 7.47028E+00 1.25691E+00-4.46929E-01 3.65275E+00-1.56596E-01 9.25590E-01
 -1      8803 4.63838E+00 8.20111E-01-5.94034E-01 1.49786E+00-1.89192E-02 6.62913E-01
 -1      8804 1.60493E+01 1.43557E+01 6.92363E+00 1.18834E+01 7.96528E-01 1.02161E+00
 -1      8805 1.46133E+01 1.40202E+01 6.41823E+00 1.10177E+01-3.31437E-01 2.67358E-01
 -1      8806 7.89950E+00 2.81854E+00 1.26483E+00 2.39880E+00-9.01807E-01-1.72965E-01
 -1      8807 9.97649E+00 1.02936E+01 4.91906E+00-1.25577E+00-8.30808E-02 5.27000E-02
 -1      8808 5.20216E+00 8.59313E+00 1.82905E+00 4.15896E+00 1.06734E-01 4.05088E-01
 -1      8809 3.72398E+00 5.93778E+00 1.37385E+00 3.31957E+00 1.88183E-01 3.08117E-01
 -1      8810 3.89468E+00 2.77746E+00 5.31002E-01 2.69054E+00 3.95008E-02 3.21251E-01
 -1      8811 1.82316E+00 5.79174E-01-6.53356E-03-2.65551E-01 6.22213E-03-1.08303E-01
 -1      8812 1.65745E+00 7.46159E-01 4.18252E-03-5.79925E-01 5.53636E-02-1.38531E-01
 -1      8813 1.42159E+00 1.31800E-01-2.10126E-02 5.06905E-01-2.96194E-02 9.07947E-02
 -1      8814 1.45759E+00 5.44091E-02-2.65366E-02 4.14891E-01-3.41482E-02 7.12800E-02
 -1      8815 4.71816E+00 4.92672E-01 3.04525E-01 1.37024E+00-1.49495E-02 1.45786E-01
 -1      8816 4.73556E+00 4.88458E-01 2.50772E-01 1.34010E+00-3.82612E-02 9.39369E-02
 -1      8817 5.77775E+00 1.11718E+00 6.83064E-01 1.59959E+00-3.37203E-03 8.71224E-02
 -1      8818 9.45660E+00 2.32369E+01 8.60704E+00 7.50077E+00-1.52630E-02 6.25961E-02
 -1      8819 8.95043E+00 9.16798E+00 4.12335E+00 6.04327E+00 7.38122E-01-9.74968E-03
 -1      8820 4.90207E+00 1.65661E+01 5.24498E+00 4.19190E+00 3.27785E-02-1.27407E-01
 -1      8821 5.67123E+00 5.74678E+00 2.25194E+00-1.19492E+00-1.18130E-02 2.31829E-02
 -1      8822 1.02878E+00 1.94416E-01-1.47028E-02 1.62157E-01-1.76663E-02-5.22012E-02
 -1      8823 9.85411E-01 5.78048E-03 7.94781E-03 2.72852E-01-5.26115E-02-6.79989E-02
 -1      8824 1.03993E+00 6.73490E-02-3.21282E-03 1.31659E-01-1.03999E-02-2.38925E-02
 -1      8825 1.07048E+00-7.50084E-02-2.01709E-02 2.23199E-01-2.15502E-02-2.43221E-02
 -1      8826 9.28387E-01-1.59956E-02-6.13658E-02 2.64251E-01-2.53024E-02-1.26167E-02
 -1      8827 5.01769E+00 6.33734E-01 5.25990E-02 1.20181E+00-1.58615E-01 2.48892E-01
 -1      8828 4.43129E+00 4.87179E-01 4.53006E-02 1.03410E+00 4.83704E-02 2.17819E-01
 -1      8829 6.64492E+00 2.06610E+00 1.14451E+00 3.00009E+00 5.11924E-02 2.44882E-01
 -1      8830 6.11384E+00 2.51608E+00 1.17240E+00 3.47561E+00 4.61725E-02 2.95683E-01
 -1      8831-1.97332E-01-5.35132E-01-2.00575E-01-3.53713E-01-2.22720E-02 5.50330E-03
 -1      8832 7.28156E-02 2.27580E-01 4.23508E-02-2.83666E-01 2.61516E-02-1.30396E-02
 -1      8833 1.47988E+01 1.87412E+01 8.56547E+00-3.21125E+00 3.64312E-01-6.26411E-01
 -1      8834 1.35107E+01 1.95070E+01 8.86421E+00-2.53488E+00 6.94010E-02 9.89539E-02
 -1      8835 1.27057E+01 1.65478E+01 7.70348E+00-1.97297E+00-2.55353E-02-8.01149E-02
 -1      8836 1.43577E+01 2.00525E+01 9.10818E+00-2.67142E+00-3.93121E-02 3.68226E-02
 -1      8837 4.13371E+00 4.51001E+00 9.72462E-01 3.01453E+00 5.20041E-02 3.32613E-01
 -1      8838 4.61767E+00 3.24368E+00 6.84964E-01 3.06731E+00 1.21893E-01 3.53222E-01
 -1      8839 4.67167E+00 2.62177E+00 5.64724E-01 2.95928E+00 3.11198E-02 2.92054E-01
 -1      8840 4.77731E+00 1.28224E+00 2.46395E-01 2.24483E+00 5.60934E-02 2.72529E-01
 -1      8841 1.72426E+00 5.12738E-02-4.86479E-01 1.76795E-01-4.77961E-03 2.72617E-01
 -1      8842 1.65202E+00 3.99776E-02-4.68046E-01 1.69981E-01-6.94436E-03 2.44920E-01
 -1      8843 1.61204E+00 2.91679E-02-4.32586E-01 1.58260E-01-1.66262E-02 2.72754E-01
 -1      8844 5.05894E+00 4.87976E+00 1.77347E+00-1.04935E+00 2.07058E-02-1.95625E-02
 -1      8845 1.11877E+01 1.19380E+01 4.83657E+00-1.47788E+00 7.25146E-02 2.14303E-01
 -1      8846 1.12959E+01 9.13358E+00 4.34761E+00 6.68500E+00-6.82757E-01 1.17185E-01
 -1      8847 7.17470E+00 4.48942E+00 1.99230E+00 3.49368E+00-1.71941E-01 5.27298E-01
 -1      8848 7.85917E+00 9.43597E+00 3.47689E+00 6.22111E+00 4.63283E-01 3.84721E-01
 -1      8849 1.62551E+00 9.62325E-01 7.44178E-03-7.27993E-01 7.13878E-02-1.39133E-01
 -1      8850 2.98061E+00 2.21033E-02-7.23984E-01 3.97294E-01 6.04857E-02 4.72170E-01
 -1      8851 2.66577E+00 1.60962E-01-7.18031E-01 3.93000E-01 2.04191E-02 4.57525E-01
 -1      8852 4.00640E+00 5.12205E-01-2.54860E-01 1.16607E+00 1.86840E-02 4.13714E-01
 -1      8853 2.52219E+00 1.50115E+00 3.12705E-02-3.47485E-01 5.35335E-02-2.65380E-01
 -1      8854 2.78565E+00 1.73000E+00 6.36920E-02-3.78915E-01 6.22065E-02-2.76218E-01
 -1      8855 2.44450E+00 1.43637E+00 1.71265E-02-3.50713E-01 5.03043E-02-2.52200E-01
 -1      8856 4.28154E+00 7.16724E-01-6.40869E-02 8.76016E-01-9.77581E-02 2.91761E-01
 -1      8857 5.21105E+00 2.43161E-02 5.15275E-01 1.06858E+00-7.02187E-02-6.04098E-02
 -1      8858 5.58737E+00-1.73488E-01 4.73505E-01 1.06173E+00-9.92485E-02-8.18822E-02
 -1      8859 4.32868E+00 3.73259E-01 3.29738E-01 7.59893E-01-2.67588E-03-4.83436E-02
 -1      8860 1.14648E+01 1.40508E+01 6.49580E+00-2.51606E+00-9.44951E-02 7.20730E-02
 -1      8861 1.13500E+01 1.37128E+01 6.26277E+00-2.38015E+00 8.25103E-03 1.50562E-01
 -1      8862 1.06886E+01 2.97007E+01 1.10489E+01 3.59111E+00-3.26965E-01-5.79678E-01
 -1      8863 1.15943E+01 2.30302E+01 9.40497E+00-1.27821E+00-1.04841E-01 1.50547E-01
 -1      8864 7.98453E+00 8.63051E+00 2.84152E+00 6.37102E+00-4.98230E-02 3.75507E-01
 -1      8865 7.54625E+00 8.17755E+00 2.66808E+00 6.21805E+00 1.31794E-01 2.94087E-01
 -1      8866 7.19629E+00 6.46467E+00 1.58251E+00-7.78151E-01 8.81719E-02-1.94311E-02
 -1      8867 7.81944E+00 7.23523E+00 2.01402E+00-8.76913E-01 9.80324E-02 3.71966E-02
 -1      8868 6.79040E+00 5.72747E+00 1.39111E+00-6.48351E-01 3.69810E-02-4.42631E-02
 -1      8869 6.57873E+00 6.93058E+00 1.68733E+00-1.41901E+00 1.44390E-01-1.55735E-02
 -1      8870 3.34726E+00 1.24631E+00 1.87142E-01 1.53950E+00 7.62099E-03 1.57757E-01
 -1      8871 2.94843E+00 2.41789E-01-1.94713E-01 7.19276E-01 1.88776E-02 2.16459E-01
 -1      8872 3.14074E+00 1.70130E-01-1.73373E-01 7.08986E-01 8.22013E-03 1.89615E-01
 -1      8873 7.67684E+00 6.63028E+00 3.13393E+00-6.26614E-01-1.16250E-03 7.07511E-03
 -1      8874 1.30782E+01 2.41711E+01 9.52940E+00-2.00441E+00-1.93620E-01 2.91885E-01
 -1      8875 1.27362E+01 1.93252E+01 7.91112E+00-1.12661E+00-1.05120E-02 2.42395E-01
 -1      8876 1.23166E+01 1.95015E+01 7.97617E+00-1.22977E+00 4.42060E-02 2.76769E-01
 -1      8877 1.38728E+01 1.16722E+01 4.53355E+00 9.47751E+00-8.81414E-01 1.76631E-01
 -1      8878 5.87413E+00 1.79681E+01 6.01812E+00 2.06497E+00 1.90548E-01-1.63956E-01
 -1      8879 4.68403E-01 6.65923E-01-3.85782E-02-8.91761E-01 3.63921E-02-2.47102E-02
 -1      8880 7.06030E-01 6.21577E-01-2.13897E-02-8.98751E-01 6.53898E-02-8.43375E-02
 -1      8881 8.95914E+00 2.69333E+01 7.54207E+00 2.31033E+00 1.26127E+00 5.72845E-01
 -1      8882 8.70211E+00 1.90438E+01 4.66177E+00 1.42846E-01 7.91204E-01 3.73031E-01
 -1      8883 4.71513E+00 1.13736E+01 3.67085E+00-1.36929E-01 2.72014E-02 9.16672E-02
 -1      8884 5.65615E+00 1.10594E+01 3.90018E+00-4.70290E-01-7.72953E-03 4.63434E-02
 -1      8885 6.24576E+00 9.10153E+00 3.42740E+00-1.65067E+00-6.81028E-02 2.97544E-03
 -1      8886 1.66954E+00 3.58280E+00 4.40663E-02 1.56697E+00 2.02183E-01 3.67998E-01
 -1      8887 1.26468E+00 3.50848E+00 1.04621E-02 1.03345E+00 2.45828E-01 2.31931E-01
 -1      8888 8.37912E+00 8.21020E+00 3.31375E+00-1.09777E+00-2.77344E-02 8.17449E-02
 -1      8889 2.53983E+00 1.99108E-01-7.31002E-01 3.20866E-01 1.59914E-02 4.71519E-01
 -1      8890 4.17431E+00 6.57038E-01-2.30889E-01 1.40307E+00 5.80385E-02 6.09304E-01
 -1      8891 5.87397E+00 2.01734E+00 1.17866E+00 3.14241E+00 6.02431E-02 1.32480E-01
 -1      8892 3.41225E+00 2.41336E+00 3.06354E-01-4.10655E-01 7.01389E-02-2.07655E-01
 -1      8893 3.88703E+00 5.32337E+00 1.46640E+00-1.12531E+00 7.37351E-02 1.74350E-02
 -1      8894 4.60722E+00 4.33497E+00 1.36189E+00-9.90120E-01 2.40894E-02-6.67174E-03
 -1      8895 4.05987E+00 4.21159E+00 1.20740E+00-1.05113E+00 4.14042E-02-2.60209E-02
 -1      8896 1.43612E+00 5.07070E-02-3.20166E-01 1.21886E-01-2.28873E-02 3.21904E-01
 -1      8897 1.59070E+00 5.32525E-02-4.06165E-01 1.82664E-01-1.43369E-02 3.63522E-01
 -1      8898 2.03378E+00 9.95439E-02-3.05134E-01 3.67457E-01-2.06029E-02 3.70761E-01
 -1      8899 4.30186E+00 5.62245E+00 8.90444E-02-1.18685E+00 3.60266E-01-3.45249E-01
 -1      8900 5.90546E+00 9.69767E+00 3.22328E+00-1.86999E+00-5.83465E-02 1.39940E-01
 -1      8901 7.56766E+00 1.05817E+01 3.99627E+00-2.10103E+00 7.06847E-03 7.89642E-02
 -1      8902 5.33119E+00 1.12531E+01 3.61233E+00-2.34707E-01 2.75517E-02 1.28375E-01
 -1      8903 1.37098E+01 2.36215E+01 9.17921E+00-2.88753E+00-1.44777E+00 9.28168E-01
 -1      8904 1.29038E+01 1.69384E+01 6.61514E+00-1.95798E+00-5.70520E-02 7.83475E-01
 -1      8905 2.35400E+00 6.62144E+00 1.47157E+00 8.34145E-01 7.92252E-02 2.23161E-02
 -1      8906 2.59063E+00 7.19210E+00 1.72195E+00 1.07712E+00 7.09037E-03 5.01483E-02
 -1      8907 3.72507E+00 8.59989E+00 2.43856E+00-5.72667E-01 2.13357E-02 1.16207E-01
 -1      8908 3.37953E+00 9.04557E+00 2.45918E+00 1.62573E+00 9.21688E-02 6.81639E-02
 -1      8909 3.77054E+00 1.01688E+01 2.90307E+00-7.92839E-02-1.62694E-01 1.64542E-01
 -1      8910 3.08733E+00 9.81056E+00 2.46428E+00 1.41244E+00 1.05575E-01 1.22945E-01
 -1      8911 4.73526E+00 1.22327E+01 3.71902E+00 4.13979E-01 1.45891E-01 1.50657E-01
 -1      8912 6.88913E+00 1.13821E+01 4.08841E+00-1.76755E+00-2.83678E-03 6.06188E-02
 -1      8913 4.63850E+00 9.84723E+00 2.90834E+00-7.22293E-01-7.01063E-02 1.07750E-01
 -1      8914 1.28591E+01 1.64941E+01 7.74325E+00-3.01357E+00-8.25740E-02-1.01848E-01
 -1      8915 1.27551E+01 1.43777E+01 6.93668E+00-2.33229E+00-1.50903E-01 1.11869E-01
 -1      8916 7.75423E+00 1.72748E+01 6.08142E+00-1.57934E+00-1.40986E-01 3.52382E-01
 -1      8917 2.03395E+00 4.63973E-02-4.49797E-01 2.56981E-01 1.00546E-02 1.15525E-01
 -1      8918 1.90203E+00 5.59311E-02-4.52889E-01 2.10903E-01 8.79855E-03 1.34001E-01
 -1      8919 2.08332E+00 6.87783E-02-4.37357E-01 2.50669E-01 7.24159E-03 1.37202E-01
 -1      8920 1.03325E+01 2.97407E+01 1.01165E+01 4.21074E+00-5.38649E-01 1.28762E-02
 -1      8921 9.27736E+00 3.05820E+01 1.02965E+01 4.40277E+00-1.43267E-01 1.00417E+00
 -1      8922 5.55157E+00 7.95227E+00 2.29304E+00 3.71411E+00 7.21880E-01 8.92140E-01
 -1      8923 9.20446E+00 7.70916E+00 4.19813E+00 5.69383E+00-5.52989E-01 1.06898E-02
 -1      8924 1.36983E+01 2.55534E+01 1.07147E+01 9.03570E+00-2.92283E-01-3.29075E-01
 -1      8925 1.48554E+01 2.64587E+01 1.11544E+01 1.04953E+01 7.67266E-01-4.47211E-02
 -1      8926 2.84570E+00 5.04562E+00 1.05905E+00-9.24329E-01 1.10764E-01 1.68386E-02
 -1      8927 2.26656E+00 5.27583E+00 1.01374E+00-4.85339E-01 1.18339E-01 1.16308E-02
 -1      8928 2.13718E+00 5.27167E+00 9.17865E-01-3.22980E-01 7.67732E-02 7.11240E-02
 -1      8929 7.07923E+00 6.60963E+00 7.97940E-01-8.68604E-01 1.41547E-01-2.21923E-01
 -1      8930 7.11117E+00 6.62529E+00 6.72014E-01-8.64168E-01 1.55677E-01-2.94808E-01
 -1      8931 1.22055E+01 1.32657E+01 5.11448E+00-1.67561E+00-1.09243E-02 3.39374E-01
 -1      8932 7.88089E+00 1.33851E+01 3.83997E+00-2.01169E+00 1.68564E-01 3.06665E-01
 -1      8933 1.17922E+01 1.32099E+01 5.13935E+00-1.78441E+00 2.89139E-03 3.77218E-01
 -1      8934 4.35892E+00 1.69984E+01 2.74123E+00 3.55221E-01 1.35455E-01 7.31861E-01
 -1      8935 1.26717E+01 1.81688E+01 8.01713E+00-1.55282E+00 1.27117E-01 6.72178E-02
 -1      8936 7.51967E+00 1.57594E+01 4.95414E+00-1.24231E+00-2.16899E-03 3.66219E-01
 -1      8937 1.11538E-01 1.64294E+00-1.24576E-02 3.71394E-02 1.22255E-01 3.17885E-02
 -1      8938-9.86075E-03 1.57347E+00 4.35189E-03 2.19941E-01 8.09526E-02 3.49361E-02
 -1      8939 4.00265E+00 9.85281E+00 1.55530E+00 7.83650E-01 1.89188E-01 4.14663E-01
 -1      8940 4.45405E+00 1.13484E+01 1.87744E+00 1.45042E-01 2.59854E-01 3.64908E-01
 -1      8941 3.25463E+00 9.22119E+00 1.17540E+00 2.74270E+00 3.12368E-01 5.07087E-01
 -1      8942 2.90979E+00 8.00065E+00 7.95269E-01 8.68644E-01 4.17387E-01 2.88740E-01
 -1      8943 2.76060E+00 8.89885E+00 7.66522E-01 4.21600E-01 3.84347E-01 2.77034E-01
 -1      8944 3.55259E+00 8.03938E+00 8.11306E-01-9.95437E-01 3.17408E-01 2.05184E-01
 -1      8945 7.68342E+00 1.73837E+00 1.57880E+00 2.96450E+00-2.68565E-02-6.60786E-02
 -1      8946 9.52105E+00 4.57481E+00 3.07743E+00 5.72315E+00-2.47320E-02 2.46074E-03
 -1      8947 1.12386E+01 2.76506E+01 9.48117E+00-1.77265E+00-1.15710E+00 8.17927E-01
 -1      8948 1.02912E+01 2.83354E+01 9.13623E+00 1.94781E+00-5.25791E-01 2.77889E-01
 -1      8949 1.54428E+00-2.69287E-03-5.71639E-01 8.92703E-02 3.18449E-03 2.51937E-01
 -1      8950 1.61026E+00 1.36652E-02-5.68910E-01 1.07874E-01 1.96416E-05 2.33519E-01
 -1      8951 1.50807E+00 2.90693E-03-5.28227E-01 9.49605E-02-1.69756E-03 2.34530E-01
 -1      8952 1.85239E+00 6.62592E-02-4.03795E-01 2.17659E-01 3.47887E-03 4.70367E-02
 -1      8953 1.89310E+00 7.58528E-02-4.09134E-01 2.31473E-01 2.18903E-03 4.85586E-02
 -1      8954 1.97194E+00 8.67000E-02-3.92430E-01 2.43067E-01 1.01673E-02 4.65007E-02
 -1      8955 7.33666E+00 1.20479E+00 1.57239E+00 2.03681E+00-2.32809E-01 9.93306E-02
 -1      8956 6.14227E+00 7.10017E-01 1.02878E+00 2.04147E+00-3.16139E-01-1.31542E-01
 -1      8957 6.79245E+00 7.16194E-01 1.08191E+00 2.21846E+00 1.06678E-01-1.31655E-01
 -1      8958 9.98673E-01 9.77929E-01-1.93378E-02-8.51112E-01 9.28842E-02-1.17488E-01
 -1      8959 2.96407E+00 4.64522E+00 1.12789E+00-9.01482E-01 1.67443E-02 1.01545E-02
 -1      8960 3.81105E+00 9.29255E+00 1.76472E+00 5.85528E-01 2.49982E-01 2.55109E-01
 -1      8961 4.60747E-01 4.81663E-01-1.79082E-03 7.24823E-01 4.13939E-04 2.57979E-02
 -1      8962 3.11493E+00 2.50609E+00 3.81790E-01-7.58577E-01 9.05269E-02-1.48731E-01
 -1      8963 3.27430E+00 2.15139E+00 3.55065E-01-3.92237E-01 4.30750E-02-1.67405E-01
 -1      8964 1.16785E+00 1.54331E-02-8.74778E-02 1.26880E-01-2.41191E-02 1.32994E-01
 -1      8965 1.19086E+00 2.01823E-02-1.74527E-01 1.31526E-01-2.94347E-02 1.71029E-01
 -1      8966 1.09117E+00-8.73340E-03-1.48167E-01 1.14427E-01-2.67712E-02 1.46516E-01
 -1      8967 4.80111E+00 1.03324E+01 2.46182E+00-9.21107E-01 9.23504E-02 2.18508E-01
 -1      8968 5.69184E+00 8.17254E+00 2.02183E+00-1.65466E+00 1.55722E-01 1.35639E-01
 -1      8969 3.80188E+00 8.98858E+00 1.71177E+00-4.38795E-01 1.94570E-01 1.69881E-01
 -1      8970 4.36411E+00 8.08825E+00 1.66956E+00-7.68656E-01 2.00357E-01 1.32627E-01
 -1      8971 3.14593E+00 9.26350E+00 1.66194E+00 3.46031E-01 1.39689E-01 2.63963E-01
 -1      8972 1.18681E+00 2.13460E-01-1.29809E-01 5.07278E-01-4.49452E-03 2.52388E-02
 -1      8973 1.07315E+00 9.37605E-02-1.16264E-01 3.81063E-01-2.10115E-03 2.38604E-02
 -1      8974 8.31569E+00 9.41518E+00 4.15290E+00-2.00435E+00 4.65305E-02-5.82625E-02
 -1      8975 6.88821E+00 6.06959E+00 2.63562E+00-6.16641E-01 7.56695E-03 2.38013E-02
 -1      8976 7.58600E+00 2.79482E+00 1.75192E+00 2.77975E+00-1.01443E-01-3.42894E-02
 -1      8977-3.33936E-01 8.49565E-01-2.32059E-02-2.47445E-02 2.49670E-02 6.92527E-03
 -1      8978-1.18386E-01 1.10770E+00-3.57563E-02 1.42182E-01 2.74966E-02 9.80652E-03
 -1      8979 8.70523E+00 3.94603E+00 1.86050E+00 2.60351E+00-7.66634E-01 2.27271E-01
 -1      8980 1.63597E+01 1.56645E+01 7.74825E+00 1.21649E+01 7.08501E-01 1.09338E+00
 -1      8981 2.15007E+00 1.09586E-01-4.51656E-01 2.45267E-01 1.09443E-02 1.78899E-01
 -1      8982 1.37077E+01 2.77647E+01 9.88708E+00-2.80811E+00 2.95654E-01 2.65668E-01
 -1      8983 1.56168E+01 2.84030E+01 1.06255E+01-3.43647E+00-2.87920E-02 4.03249E-01
 -1      8984 1.37085E+01 1.83676E+01 7.16624E+00-2.74233E+00 1.47624E-01 3.63482E-01
 -1      8985 1.12139E+01 1.14972E+01 5.26091E+00-1.45438E+00 8.59104E-02 1.16200E-01
 -1      8986 1.17563E+01 1.26661E+01 5.79118E+00-1.66701E+00 3.07963E-02 1.65429E-01
 -1      8987 1.09781E+01 1.11660E+01 5.07980E+00-1.52381E+00 3.01427E-02 8.45494E-02
 -1      8988-2.82624E-01 1.04986E+00-7.64832E-04-2.24216E-02 4.30398E-02 1.30722E-02
 -1      8989-8.53589E-02 1.24330E+00-2.35888E-02 2.86237E-02 9.14334E-02 1.91859E-02
 -1      8990-1.83263E-01 1.20078E+00-6.49139E-03 1.78375E-01 4.51543E-02 2.03162E-02
 -1      8991-1.76553E-01-1.65829E-01-6.31816E-03-9.26236E-01 6.11145E-03-1.02169E-02
 -1      8992-3.49061E-01 1.66971E-01-9.50489E-03-8.19118E-01 1.16013E-02-9.63053E-03
 -1      8993-1.43314E-01-1.64921E-01-1.41254E-02-8.30576E-01-2.85995E-03-8.35889E-03
 -1      8994-3.14096E-01 1.67924E-01-3.12908E-02-7.28455E-01 1.34825E-02 8.38709E-03
 -1      8995 5.72851E+00 4.93667E+00 1.95229E+00-6.34202E-01 1.54212E-02-9.32805E-03
 -1      8996 5.57529E+00 4.66337E+00 1.82847E+00-5.88873E-01 7.81660E-03-1.03093E-02
 -1      8997-3.60650E-01 4.28870E-01-1.82988E-02 3.37769E-01 1.13840E-02 7.10008E-03
 -1      8998-6.74586E-01 2.42861E-01-1.67759E-02 2.23886E-01 1.16719E-02-2.02470E-04
 -1      8999 3.24208E+00 8.51122E+00 2.29958E+00 2.65108E+00 4.28149E-02 5.85027E-02
 -1      9000 4.24100E+00 1.04434E+01 3.16797E+00 3.44847E+00 1.11892E-03-2.14225E-02
 -1      9001 4.35339E+00 5.15281E+00 1.67447E+00 3.11047E+00 5.30364E-02 6.04798E-02
 -1      9002 5.18428E+00 5.85670E+00 2.16059E+00 3.87672E+00-8.99643E-02 5.79433E-02
 -1      9003 4.74942E+00 6.05594E+00 2.08447E+00 3.47771E+00-8.39328E-02 4.42493E-02
 -1      9004 2.62056E+00 1.59058E+00 1.57741E-02-3.87782E-01 6.45641E-02-2.65466E-01
 -1      9005 2.40443E+00 1.35962E+00 3.44429E-03-3.72409E-01 4.31022E-02-2.12682E-01
 -1      9006 2.50085E+00 1.86934E+00 1.78201E-02-6.61269E-01 1.18191E-01-2.71943E-01
 -1      9007 1.15165E+01 1.18968E+01 4.90524E+00-1.54169E+00 1.28222E-01 2.42856E-01
 -1      9008 7.18715E+00 1.43967E+01 4.43596E+00-1.70221E+00-1.71932E-02 1.23045E-01
 -1      9009 1.29870E+01 1.59926E+01 7.38177E+00-2.25076E+00-1.84046E-02 1.29986E-01
 -1      9010 9.43104E+00 2.75618E+01 8.98999E+00 5.54001E+00-1.32053E+00 7.23029E-02
 -1      9011 4.93914E+00 1.45811E+01 4.53972E+00 2.51398E+00-7.80335E-02 2.76171E-01
 -1      9012 7.50754E+00 7.10788E+00 2.94409E+00-9.39461E-01-4.15666E-03 6.16904E-02
 -1      9013 4.23642E-01 2.59354E-01-3.33789E-02 3.21676E-01-7.13841E-03 7.22628E-03
 -1      9014 4.08591E+00 1.13576E+01 3.31252E+00 4.09311E-01 1.06598E-01 6.52061E-02
 -1      9015 8.20892E+00 7.22055E+00 2.88025E+00-8.10090E-01 1.25039E-02 7.46928E-02
 -1      9016 7.53536E+00 6.56072E+00 2.52660E+00-6.79980E-01 6.66219E-02 5.64419E-02
 -1      9017 7.00837E+00 7.96304E+00 2.77628E+00-1.55175E+00 3.20593E-02 8.09842E-02
 -1      9018 1.12795E+01 1.27821E+01 6.13910E+00-1.91806E+00 9.69636E-03 1.14779E-01
 -1      9019 1.10669E+01 1.50584E+01 6.80790E+00-2.72278E+00-2.22639E-01 1.75956E-01
 -1      9020 4.80767E+00 1.88473E+00 1.56295E-02 2.74622E+00 1.34251E-01 6.56469E-01
 -1      9021 3.81627E+00 1.07772E+01 3.30601E+00 2.93691E+00-3.58949E-02-5.17685E-02
 -1      9022 3.54642E+00 1.16916E+01 3.35999E+00 3.75327E+00 1.48898E-01 7.46775E-02
 -1      9023 3.81698E+00 1.22931E+01 3.62087E+00 3.09951E+00-6.08910E-02 8.60439E-03
 -1      9024 5.91724E+00 1.35911E+01 4.75665E+00-3.38417E-01 7.50341E-02-1.57396E-02
 -1      9025 6.67797E+00 1.61735E+01 5.58377E+00-4.32924E-01 3.49336E-02-1.99610E-01
 -1      9026 5.87419E+00 1.35259E+01 4.56239E+00 4.08895E-01 3.90553E-03-8.65380E-02
 -1      9027 1.44236E+01 1.78836E+01 7.86208E+00-3.11556E+00-9.58611E-02 1.66368E-01
 -1      9028 1.29165E+01 2.45879E+01 1.03803E+01-3.53786E+00 6.14458E-01 6.98873E-02
 -1      9029 1.45017E+01 1.74429E+01 7.70950E+00-3.06002E+00-2.76307E-02-3.98983E-02
 -1      9030 8.50250E+00 8.56712E-01 1.56651E+00 3.19377E+00 1.66252E-01 3.33580E-02
 -1      9031 6.77404E+00 1.65182E+00 1.44231E+00 1.71204E+00-6.35362E-02-2.07513E-01
 -1      9032 8.88782E+00 1.51287E+00 2.13089E+00 3.33811E+00-4.53465E-01-2.09789E-01
 -1      9033 6.12354E+00 1.31584E+00 9.12132E-01 1.53262E+00 2.33111E-02 1.73139E-01
 -1      9034 2.85318E+00 3.13615E-01-7.01269E-01 5.69187E-01 8.02682E-03 7.44047E-01
 -1      9035 2.78368E+00 1.75400E-01-6.97088E-01 5.55013E-01-1.71985E-02 7.42278E-01
 -1      9036 3.31722E+00 2.58316E-01-7.66272E-01 6.29841E-01-8.87677E-02 7.40880E-01
 -1      9037 9.92616E-01 3.57357E-01-7.10035E-02 6.01890E-01 5.32340E-03 3.28330E-02
 -1      9038 1.01247E+00 3.53696E-01-5.13323E-02 6.12884E-01-4.95302E-03 6.58919E-02
 -1      9039 7.43505E-01 5.64882E-01-4.41248E-02 7.24628E-01 1.32052E-02 5.92280E-02
 -1      9040 3.12175E+00 4.04314E+00 3.71498E-01-1.02157E+00 2.39908E-01-1.54751E-01
 -1      9041 3.11360E+00 5.27012E+00 6.18560E-01-1.01941E+00 2.82135E-01-4.79532E-02
 -1      9042 3.55577E+00 4.51657E+00 5.68418E-01-1.06478E+00 2.11826E-01-9.64503E-02
 -1      9043 1.54172E+00 4.39577E-01-6.32329E-02 7.18438E-01 1.14466E-02 1.72890E-01
 -1      9044 1.27098E+00 7.29698E-01-3.49502E-02 8.92899E-01 3.87175E-02 1.54894E-01
 -1      9045 1.72318E+00 6.87570E-01-6.08839E-02 9.66864E-01 2.10829E-02 2.19730E-01
 -1      9046 9.08093E+00 8.07876E+00 3.96767E+00-8.29663E-01-3.52490E-02 4.06971E-02
 -1      9047 8.03265E+00 9.33067E+00 4.02979E+00-1.72570E+00-3.83378E-02 5.73499E-02
 -1      9048 8.65704E+00 7.61801E+00 3.71615E+00-7.13313E-01-8.37110E-04 3.15475E-02
 -1      9049 1.28509E+01 1.47055E+01 6.87818E+00-2.22656E+00 1.72233E-01 2.98691E-01
 -1      9050 1.23982E+01 1.49340E+01 6.57403E+00-2.09273E+00 1.18583E-01 2.77281E-01
 -1      9051 7.81648E+00 1.72636E+00 1.85674E+00 2.19059E+00-3.09684E-02-2.50232E-01
 -1      9052 6.48450E+00 1.35932E+00 1.17524E+00 2.28722E+00-1.56474E-01-1.26849E-01
 -1      9053 8.56836E-01 3.18980E+00 2.68619E-02 2.00947E-01 2.58156E-01 7.61263E-02
 -1      9054 8.13733E-01 3.38376E+00-8.95765E-04 6.02753E-01 2.54272E-01 1.34191E-01
 -1      9055 1.01432E+00 8.62614E-01-1.82261E-02-8.12672E-01 6.32664E-02-7.56394E-02
 -1      9056 1.28234E+01 1.47701E+01 6.84760E+00-1.69437E+00 5.82056E-03 9.11160E-02
 -1      9057 1.28600E+01 1.51252E+01 6.88745E+00-1.86268E+00 4.63736E-02 1.36141E-01
 -1      9058 1.30353E+01 1.68814E+01 7.40516E+00-2.01314E+00 3.99801E-02 1.75873E-01
 -1      9059 7.88056E+00 3.40103E+00 2.03215E+00 3.38344E+00 7.14788E-02 6.52546E-02
 -1      9060 7.28035E+00 6.42221E+00 2.48419E+00-7.73196E-01-3.97835E-03 9.52616E-02
 -1      9061 6.84482E+00 5.90851E+00 2.18244E+00-6.57249E-01 2.74700E-03 5.46535E-02
 -1      9062 6.78683E+00 5.93685E+00 2.22359E+00-6.71496E-01 2.34539E-02 4.80106E-02
 -1      9063 5.53524E+00 9.10064E+00 3.62365E+00 3.71489E+00-7.21703E-02 3.06714E-01
 -1      9064 1.30851E+01 1.88303E+01 8.52545E+00-2.93218E+00 1.57052E-01-6.71209E-02
 -1      9065 3.92347E+00 5.21978E+00 1.39070E+00 2.92750E+00 6.60636E-02 1.75480E-01
 -1      9066 4.53576E+00 1.88341E+00 6.59740E-01 2.66348E+00 3.17681E-02 1.15253E-01
 -1      9067 4.77571E+00 2.08837E+00 7.10280E-01 2.93893E+00 6.13557E-02 1.19351E-01
 -1      9068 3.48247E+00 3.18658E+00 7.20415E-01-9.22678E-01 7.60464E-02-6.15472E-02
 -1      9069 4.32067E-01 2.69650E-01 5.73849E-03 3.61461E-01 2.61477E-04 8.76619E-03
 -1      9070 4.50357E-01 3.40005E-01-8.83779E-03 4.99605E-01-7.69057E-03 3.54975E-02
 -1      9071 6.92060E+00 1.01376E+01 4.32472E+00 3.73851E+00 1.15329E-01 9.71965E-03
 -1      9072 7.09437E+00 1.24464E+01 4.36785E+00 5.57109E+00 6.36333E-02 1.32686E-01
 -1      9073 1.02441E+01 1.06204E+01 2.20874E+00-1.40319E+00 1.64171E-01-2.22203E-03
 -1      9074 9.31393E+00 9.34240E+00 1.45115E+00-1.21767E+00 1.81957E-01-1.98157E-01
 -1      9075 9.46780E+00 9.22486E+00 1.71389E+00-1.11304E+00 2.06054E-01-1.01821E-01
 -1      9076 5.26036E+00 1.93277E+01 6.24272E+00 2.43001E+00-7.72548E-01 2.30383E-01
 -1      9077 6.73831E+00 1.04451E+01 3.90785E+00-1.99156E+00-6.12047E-02 1.15226E-01
 -1      9078 7.04889E+00 1.65728E+00 1.57458E+00 2.25119E+00-1.13608E-02 2.40484E-02
 -1      9079 1.52093E+00 2.85490E+00 2.17472E-01-8.48864E-01 1.52023E-01-6.52318E-02
 -1      9080 5.20685E+00 1.62461E+01 4.36604E+00 9.01536E-01 5.23875E-02 2.56274E-01
 -1      9081 5.24145E+00 1.17041E+01 3.15234E+00 3.43659E+00 3.75750E-02 3.47763E-01
 -1      9082 1.73326E+00 2.38211E+00 1.63425E-01-9.08858E-01 1.48296E-01-1.30370E-01
 -1      9083 1.22661E+00 1.82458E+00 2.59949E-02-8.94687E-01 1.72617E-01-1.41907E-01
 -1      9084 1.63261E+00 2.78955E+00 1.58552E-01-7.65229E-01 2.02102E-01-9.66840E-02
 -1      9085 8.62842E-01 2.37223E+00 5.53283E-02-6.91497E-01 1.85104E-01-5.00945E-02
 -1      9086 1.29485E+00 2.95307E+00 1.82506E-01-7.08158E-01 1.93602E-01-3.34967E-02
 -1      9087 7.37697E+00 1.45167E+01 4.96138E+00-1.18065E+00 6.95677E-02 1.87056E-01
 -1      9088 8.74249E+00 1.18744E+01 4.57721E+00-2.21719E+00 1.11812E-02 2.00503E-01
 -1      9089 7.12011E+00 1.63065E+01 5.60698E+00-7.27642E-01-1.95394E-02 9.43883E-02
 -1      9090 7.08600E+00 1.64721E+01 5.57987E+00-6.69098E-01-1.33714E-02 1.14724E-01
 -1      9091 9.24012E+00 1.48764E+01 5.62227E+00-2.70470E+00 3.37416E-01-7.42902E-02
 -1      9092 8.80274E+00 1.29383E+01 4.95896E+00-2.27506E+00 2.23532E-02 2.43929E-01
 -1      9093 1.47666E+00 8.63283E-01-2.90659E-02 1.10587E+00 1.58300E-02 1.61214E-01
 -1      9094 1.81999E+00 4.61494E-01-4.76686E-02 7.91766E-01-1.31826E-02 2.53431E-01
 -1      9095 1.72428E+00 7.00131E-01-2.15203E-02 1.07009E+00-1.68904E-02 1.65359E-01
 -1      9096 1.59720E+00 1.19116E+00-1.66476E-02 1.31728E+00 2.82575E-02 1.93404E-01
 -1      9097 2.00760E+00 7.18038E-01-4.73483E-02 9.90626E-01 2.62277E-03 3.03752E-01
 -1      9098 1.77230E+00 8.36597E-01-4.43515E-02 1.07049E+00 5.36457E-02 2.78698E-01
 -1      9099 1.75301E+00 4.82524E+00 8.83245E-01 1.10369E+00 3.60512E-02 3.98256E-02
 -1      9100 1.39633E+00 4.02901E+00 5.67821E-01 9.53860E-01 3.62204E-02 3.80902E-02
 -1      9101 1.65690E+00 4.82824E+00 8.39181E-01 5.95829E-01 5.48549E-02 3.08615E-02
 -1      9102 1.59157E+01 2.90727E+01 1.19224E+01-3.44700E+00 4.04908E-01-1.62549E-01
 -1      9103 9.57558E-01 1.44562E-02-1.39731E-01 2.43702E-01-1.24221E-02 6.43285E-02
 -1      9104 1.06257E+00 7.45745E-02-1.01056E-01 3.72718E-01-4.38337E-03 5.81998E-02
 -1      9105 9.90810E-01-1.88776E-02-2.05973E-01 1.57140E-01-1.51514E-02 6.50800E-02
 -1      9106 1.26377E+00 6.51308E-02-1.43558E-01 3.74856E-01-7.55400E-03 1.00028E-01
 -1      9107 1.14639E+00 1.42282E-01-8.70104E-02 4.75898E-01-2.04168E-02 8.92003E-02
 -1      9108 6.65158E+00 4.36164E+00 1.75197E+00 4.84298E+00 3.94409E-02 2.11430E-01
 -1      9109 4.66779E+00 8.26430E+00 2.41512E+00 3.80157E+00-2.24243E-02 2.06375E-01
 -1      9110 4.78022E+00 4.53293E+00 1.33277E+00 3.77015E+00 1.32842E-01 2.63568E-01
 -1      9111 3.47911E+00 6.91344E+00 1.66459E+00 3.03591E+00-1.61798E-02 1.81009E-01
 -1      9112 4.92722E+00 3.81236E+00 1.20429E+00 3.67081E+00 1.73367E-01 3.14873E-01
 -1      9113 1.09300E+01 1.32835E+01 6.15222E+00-2.17577E+00-1.54596E-01-1.35342E-01
 -1      9114 1.12006E+01 2.69499E+01 9.09118E+00 6.05715E+00 3.30264E-01 5.36056E-01
 -1      9115 8.18112E+00 3.94928E+00 1.88794E+00 3.67598E+00-3.91374E-02 3.61214E-01
 -1      9116 8.55577E+00 4.42828E+00 2.08569E+00 4.34360E+00 9.85360E-02 4.60105E-01
 -1      9117 3.19227E+00 2.59288E+00 5.91489E-01-7.90121E-01 6.52347E-02-6.70173E-02
 -1      9118 6.74473E+00 8.04276E+00 3.33559E+00 3.31962E+00 3.57945E-01 6.32948E-01
 -1      9119 3.57231E+00 1.03429E+01 2.54885E+00 3.47279E+00-2.63936E-02 2.18669E-01
 -1      9120 4.58405E+00 1.39365E+01 3.75774E+00 2.00785E+00 1.27562E-01 2.57994E-01
 -1      9121 6.22759E+00 1.48638E+01 4.63396E+00-2.52955E-01 6.99073E-02 1.61688E-01
 -1      9122 7.53863E-01 2.27210E+00 9.36609E-02-5.86605E-01 1.13772E-01-2.77213E-02
 -1      9123 3.02802E+00 3.83986E-02-2.87363E-01 2.39993E-01-5.10716E-02 6.70981E-02
 -1      9124 2.82022E+00-4.58076E-02-3.34843E-01 2.38978E-01-1.66189E-02 2.02261E-02
 -1      9125 4.78083E+00 8.67170E-01 5.84595E-01 1.70986E+00 6.76586E-03 4.98355E-02
 -1      9126 1.37324E+00 8.80430E-02 6.99950E-02-4.15924E-02 2.20013E-02 4.11900E-02
 -1      9127 4.94601E-01-2.81004E-01-2.73556E-02 1.99244E-01 6.38903E-03-1.40456E-02
 -1      9128 7.70820E-02-2.65645E-01-6.38202E-02 2.31220E-01 3.25555E-02 1.90010E-02
 -1      9129 2.73999E-01-2.08364E-01-6.18223E-02 2.83739E-01 6.66287E-02-4.29193E-02
 -1      9130 7.65653E-01-2.03301E-01-7.67752E-03 2.48985E-01 3.41192E-02-4.21351E-02
 -1      9131 7.19069E+00 6.24659E+00 2.29846E+00-6.60163E-01 3.66437E-02 4.77266E-02
 -1      9132 7.01143E+00 6.01635E+00 2.23058E+00-7.05320E-01 3.51267E-02 6.09030E-03
 -1      9133 6.38675E+00 6.29631E+00 2.11187E+00-1.19314E+00 6.89225E-02 2.25457E-02
 -1      9134 6.65108E+00 5.70092E+00 2.02453E+00-6.64904E-01 1.76104E-02 1.57230E-02
 -1      9135 5.02169E+00 4.04922E+00 1.48596E+00-5.83795E-01 1.87405E-02-1.47788E-02
 -1      9136 5.00885E+00 4.06956E+00 1.47313E+00-5.91018E-01 1.76056E-02-1.36537E-02
 -1      9137 4.69875E+00 3.73419E+00 1.30751E+00-5.29700E-01 1.24805E-02-2.43229E-02
 -1      9138-5.43527E-03 8.41361E-01-6.72070E-03 4.99250E-01 2.52961E-02 2.33151E-02
 -1      9139-9.18932E-02 1.03222E+00-4.65088E-03 3.85087E-01 3.35939E-02 2.33286E-02
 -1      9140 1.09881E-01 1.04412E+00-1.03414E-02 4.54610E-01 6.14650E-02 4.98515E-02
 -1      9141 1.01397E+01 2.11764E+01 8.19644E+00-1.66366E+00-1.35998E-01-3.16790E-01
 -1      9142 1.01761E+01 2.98572E+01 1.05561E+01 1.70247E+00-4.44150E-01-1.98605E-01
 -1      9143 1.07773E+01 3.03969E+01 1.12388E+01 2.58390E+00 6.78296E-01-3.38985E-01
 -1      9144 5.88731E+00 8.59020E+00 3.05956E+00-1.64806E+00-6.80059E-02 1.12273E-01
 -1      9145 5.21706E+00 1.03857E+01 3.33525E+00-1.06519E+00 2.57490E-02 4.49241E-02
 -1      9146 8.51198E-01 1.10624E+00-5.01325E-03 8.63292E-01 5.49798E-02 1.18935E-01
 -1      9147 5.03521E-01 1.64334E+00-6.74805E-03 6.47287E-01 1.21829E-01 9.10704E-02
 -1      9148 3.58932E-01 4.53797E-01 1.45899E-01 9.33997E-01 2.20542E-02-3.66541E-02
 -1      9149 5.48716E+00 5.53838E+00 2.08976E+00-1.12421E+00-6.92511E-03 2.44700E-02
 -1      9150 6.81788E+00 5.80025E+00 2.58152E+00-5.51641E-01 1.23773E-02-3.97822E-03
 -1      9151 6.56752E+00 6.55540E+00 2.71086E+00-1.31892E+00 1.19557E-02 5.64428E-02
 -1      9152 5.65641E+00 5.43415E+00 2.14024E+00-1.02764E+00 9.48251E-03-4.80442E-03
 -1      9153 1.17643E+01 2.09422E+01 8.37581E+00-1.83311E+00 2.95336E-01 1.19007E-01
 -1      9154 1.25357E+01 1.83034E+01 8.00925E+00-1.77935E+00-4.05934E-02 1.10694E-02
 -1      9155 2.06889E+00 4.88425E+00 2.06321E-01-4.23636E-01 3.49091E-01 4.97868E-04
 -1      9156 2.63395E+00 5.57015E+00 2.45669E-01-8.06242E-01 3.95968E-01-4.45290E-02
 -1      9157 4.89463E+00 8.30278E+00 2.60781E+00-1.34957E+00 3.59532E-02 9.74271E-02
 -1      9158 4.04932E+00 9.26525E+00 2.65882E+00-4.94845E-01 8.55120E-02 6.16148E-02
 -1      9159 4.41645E-02 5.44185E-01-1.42817E-02 5.79173E-01 2.00318E-02 2.80277E-02
 -1      9160-4.84753E-02 6.10255E-01-4.45876E-03 5.58832E-01 1.76037E-02 1.87061E-02
 -1      9161-1.75801E-01 7.35046E-01-1.59470E-02 3.60338E-01 3.74383E-02 1.93502E-02
 -1      9162 1.06321E-01 7.63852E-01-1.44540E-02 5.34877E-01 3.66023E-02 3.55532E-02
 -1      9163 6.58296E+00 1.22901E+01 4.50006E+00-1.68332E+00 1.24197E-02 4.65657E-02
 -1      9164 6.68999E+00 8.99035E+00 3.49563E+00-1.86528E+00-3.81602E-02 4.04229E-02
 -1      9165 1.06220E+01 3.54195E+00 3.38182E+00 5.88428E+00-1.66451E-01-7.29586E-02
 -1      9166 7.74278E+00 7.20597E+00 3.23950E+00-8.34418E-01 1.90999E-02 3.97548E-02
 -1      9167 9.22450E+00 9.28819E+00 4.36055E+00-1.11802E+00 3.72716E-02-4.55228E-02
 -1      9168 5.57537E-01 2.59596E-01 2.04761E-02 1.09881E-01 3.24564E-02 2.71735E-02
 -1      9169 9.68571E-01 2.07264E-01 5.10858E-02 6.45331E-02 2.27556E-02-1.46488E-02
 -1      9170 5.54079E+00 1.39230E+00 8.17964E-01 1.67709E+00-4.63752E-02-1.33602E-02
 -1      9171 5.09377E+00 9.68587E-01 5.62103E-01 1.47536E+00-9.82758E-03 5.23346E-03
 -1      9172 1.02683E+01 1.21882E+01 5.57311E+00-1.55524E+00 2.88845E-03 5.58617E-02
 -1      9173 1.11207E+01 1.14644E+01 3.86523E+00-1.72007E+00 1.25603E-01 2.48046E-01
 -1      9174 1.08745E+01 1.14796E+01 3.71762E+00-1.49102E+00 1.23450E-01 2.18231E-01
 -1      9175 1.01401E+01 1.00915E+01 3.08761E+00-1.43174E+00 1.03218E-01 1.63365E-01
 -1      9176 5.59561E+00 7.26908E+00 2.45099E-01 3.10534E+00 3.11189E-01 1.06992E+00
 -1      9177 5.62051E+00 8.65691E-01 6.92241E-01 1.60642E+00-3.88795E-02 1.01734E-01
 -1      9178 5.11645E+00 1.35430E+01 4.50726E+00 2.71893E+00-1.00410E-01 8.05123E-02
 -1      9179 8.39509E+00 1.93174E+01 4.72296E+00 5.50164E-01 9.36745E-01 2.28310E-01
 -1      9180 1.00635E+01 2.69222E+01 8.55635E+00 5.36554E+00 4.40380E-01-1.20139E-02
 -1      9181 9.87252E+00 8.24713E+00 4.12007E+00 4.86086E+00-1.59500E-01 8.96302E-02
 -1      9182 7.48749E+00 8.11500E+00 3.75085E+00 6.03537E+00 1.38648E-01 3.65326E-01
 -1      9183 3.95828E+00 1.12244E+01 1.47952E+00 3.68774E-01 2.92829E-01 3.46657E-01
 -1      9184 5.37586E+00 8.99792E+00 1.01335E+00-1.46104E+00 4.43693E-01 1.58491E-01
 -1      9185 4.79243E+00 1.00879E+01 1.48671E+00-3.90709E-01 3.05480E-01 2.35579E-01
 -1      9186 5.44804E+00 1.28974E+01 2.46700E+00-2.76411E-01 2.84103E-01 3.97789E-01
 -1      9187 6.47551E+00 8.98920E+00 1.40193E+00-1.89555E+00 2.38034E-01 1.19317E-01
 -1      9188 6.17140E+00 1.16419E+01 1.96129E+00-1.89639E+00 4.02555E-01 2.87091E-01
 -1      9189 2.51362E+00 2.15419E-01-4.15689E-01 4.72338E-01-6.83748E-02 7.05138E-01
 -1      9190 2.48734E+00 4.57565E-02-5.33944E-01 4.15449E-01-5.62947E-02 7.50247E-01
 -1      9191 2.32286E+00 1.71325E+01 4.45077E+00 3.54892E+00 1.82409E-01 2.42574E-01
 -1      9192-1.78430E-01 4.70931E-01-3.89021E-03 5.27058E-01 1.24903E-02 1.08928E-02
 -1      9193 8.82398E-02 4.75247E-01-5.65023E-03 6.68485E-01 9.05259E-03 1.22584E-02
 -1      9194 9.26208E-01-2.68904E-02-2.35455E-02 1.23609E-01-1.18527E-02 2.20802E-02
 -1      9195 1.01411E+00-5.64523E-02-3.52023E-02 2.67405E-01-2.34413E-02 2.23290E-03
 -1      9196 7.84710E+00 1.62456E+01 5.98585E+00 4.71385E+00-1.19639E+00 2.67992E-01
 -1      9197 1.58964E+01 2.46098E+01 1.12266E+01 1.19827E+01 2.89504E-01 1.02408E-01
 -1      9198 8.98497E+00 1.72754E+01 6.62515E+00 3.86267E+00 7.91305E-01 4.00962E-01
 -1      9199 5.19541E+00 4.72953E+00 1.65388E+00-9.48999E-01 3.17161E-02-6.90300E-03
 -1      9200 1.30808E+00 6.65581E-02-2.69230E-01 2.17148E-01 4.35347E-03 1.03361E-01
 -1      9201 1.21773E+00 5.26113E-02-2.40437E-01 2.08444E-01-1.19484E-02 1.10061E-01
 -1      9202 1.33709E+00 6.94519E-02-2.70899E-01 2.26188E-01 6.77209E-04 1.27628E-01
 -1      9203 1.52982E+00 2.00309E-01-1.32696E-01 5.33971E-01-5.14471E-03 9.65884E-02
 -1      9204 6.22389E+00 1.63697E+00 8.74122E-01 2.80016E+00-2.26215E-02-2.04877E-03
 -1      9205 5.92097E+00 2.38712E+00 9.23386E-01 3.28639E+00-2.40169E-02 2.30689E-01
 -1      9206 4.58229E+00 2.77205E+00 7.46360E-01 2.66245E+00 7.57457E-02 2.49860E-01
 -1      9207 4.25421E+00 1.13979E+01 2.87750E+00 6.46462E-01 6.35352E-02 2.28215E-01
 -1      9208 4.33924E+00 1.06479E+01 2.63192E+00-5.53389E-01 1.14320E-01 2.03451E-01
 -1      9209 4.65146E+00 4.22023E+00 1.47343E+00-1.00307E+00 2.39287E-02 4.01918E-03
 -1      9210 4.96462E+00 3.78725E+00 1.43396E+00-4.26046E-01 4.92061E-03-1.50220E-02
 -1      9211 4.56400E+00 3.56080E+00 1.24991E+00-4.85222E-01 2.56367E-02-1.64214E-02
 -1      9212 4.49425E+00 3.96006E+00 1.36273E+00-8.61761E-01 3.12245E-02 4.86261E-03
 -1      9213 4.78419E+00 3.58160E+00 1.33180E+00-3.84119E-01-6.55365E-03-1.40051E-02
 -1      9214 5.53922E+00 4.92649E+00 8.75586E-02-5.73606E-01 1.44234E-01-4.93115E-01
 -1      9215 2.72369E+00 5.18323E+00 7.98787E-01 2.17649E+00 1.17409E-01 2.89933E-01
 -1      9216 3.01555E+00 5.45194E+00 8.76333E-01 2.77397E+00 7.58666E-03 2.77684E-01
 -1      9217 6.12712E+00 9.89580E+00 3.21875E+00-1.72724E+00 3.54880E-02 7.36530E-02
 -1      9218 7.36338E+00 9.75025E+00 3.54685E+00-2.05684E+00 2.21288E-02 1.48885E-01
 -1      9219 4.19372E+00 3.88012E-01 1.57758E-01 1.00504E+00-6.53125E-03 1.24793E-01
 -1      9220 1.15428E+00 2.49085E-01-1.11520E-01 5.28141E-01 3.58529E-03 6.96930E-02
 -1      9221 5.41683E+00 5.66333E+00 1.07433E+00 3.82252E+00-2.75957E-01 2.80786E-01
 -1      9222 1.11178E+01 2.66160E+01 9.83027E+00 9.56539E+00 2.75660E-01-4.27720E-01
 -1      9223 1.04056E+01 4.00828E+00 2.66909E+00 6.53871E+00 4.68310E-02 2.30068E-01
 -1      9224 9.94339E+00 7.39836E+00 3.21634E+00 5.77165E+00-8.85642E-02 2.49561E-01
 -1      9225 9.10200E+00 9.72150E+00 3.74621E+00 7.29121E+00-1.26277E-01-3.93984E-02
 -1      9226 1.19941E+01 9.13102E+00 3.88739E+00 7.53813E+00-6.22496E-01 6.10932E-01
 -1      9227 5.68976E+00 2.89158E+00 1.80798E-01 3.56930E+00 1.25339E-01 7.65144E-01
 -1      9228 4.04037E+00 1.46751E+00-2.09223E-01 2.04209E+00-1.02441E-02 7.38064E-01
 -1      9229 4.66574E+00 1.48545E+00-1.86599E-01 2.20959E+00 5.42595E-02 7.91392E-01
 -1      9230 9.12813E+00 6.63687E+00 3.73785E+00 4.68650E+00 2.01507E-01 3.03139E-01
 -1      9231 7.63234E+00 6.19681E+00 3.39024E+00 3.85107E+00 1.05371E-01 1.70940E-01
 -1      9232 9.67796E+00 6.00652E+00 3.79179E+00 4.52397E+00 2.22903E-01 1.39016E-01
 -1      9233 2.68996E+00 6.55826E+00 1.58050E+00 2.03915E+00 5.59126E-02 3.44994E-02
 -1      9234 3.05002E+00 5.43602E+00 1.36411E+00 2.29658E+00 4.76498E-02 6.10751E-02
 -1      9235 3.53432E+00 5.91374E+00 1.67365E+00 2.98907E+00-1.56893E-02 3.70281E-02
 -1      9236 3.60307E+00 6.97679E+00 1.97380E+00 3.17989E+00-8.99307E-03 6.43951E-02
 -1      9237 2.69961E+00 1.61256E+00 7.79412E-02-2.96650E-01 5.41344E-02-2.75803E-01
 -1      9238 2.98269E+00 1.85353E+00 1.12379E-01-3.27677E-01 5.97804E-02-2.90452E-01
 -1      9239 2.37952E+00 1.52419E+00 4.31662E-02-6.34327E-01 1.06340E-01-2.51008E-01
 -1      9240 1.01516E+01 5.86051E+00 3.15017E+00 4.84184E+00 2.16071E-01-1.73508E-01
 -1      9241 1.13914E+01 7.14260E+00 3.55789E+00 6.33578E+00 6.75649E-01 2.99879E-01
 -1      9242 7.51078E+00 6.64040E+00 2.57677E+00 6.06445E+00 2.98205E-01 2.48737E-01
 -1      9243 5.53989E+00 2.39149E+00 5.02137E-01 3.33890E+00-1.14497E-02 3.71401E-01
 -1      9244 4.51366E+00 5.64177E+00 1.89613E+00-1.09941E+00 1.22464E-02-5.23851E-03
 -1      9245 5.49401E+00 5.42972E+00 2.11959E+00-1.11839E+00 2.33628E-03 2.14102E-02
 -1      9246 1.24511E+01 1.30722E+01 6.38223E+00-1.69608E+00 1.19588E-01 1.65024E-01
 -1      9247 1.31423E+01 1.49582E+01 6.97844E+00-1.97239E+00 5.40455E-02 2.27905E-01
 -1      9248 5.09276E+00 1.95492E+01 6.38525E+00-4.13723E-02 6.21397E-02 5.34627E-01
 -1      9249 5.27823E+00 8.56246E-01 3.96574E-01 1.79176E+00 3.69857E-02 1.02868E-01
 -1      9250 4.92697E+00 8.78913E-01 3.02164E-01 1.52775E+00 2.77310E-02 1.04555E-01
 -1      9251 5.40901E+00 1.00242E+00 4.89577E-01 1.58709E+00 4.64499E-02 6.14922E-02
 -1      9252 6.11020E-01 2.97756E+00 1.16742E-02 9.18545E-01 1.64704E-01 1.10172E-01
 -1      9253 1.18955E+00 2.63300E+00 3.89590E-02 1.23442E+00 1.84347E-01 2.42430E-01
 -1      9254 1.04533E+00 2.99891E+00 3.40486E-02 1.38539E+00 1.62397E-01 1.71816E-01
 -1      9255 7.08009E-01 3.85048E+00 7.48795E-03 5.90784E-01 1.98575E-01 8.92197E-02
 -1      9256 1.99799E-02 1.28226E+00-2.42316E-02 3.15890E-01 8.29118E-02 4.21121E-02
 -1      9257-6.15343E-01 1.48164E-01-5.98658E-03 3.28818E-01 1.14571E-02-2.53771E-03
 -1      9258-5.58240E-01 1.19062E-01-1.30924E-02 3.61075E-01 1.45216E-02-7.97296E-03
 -1      9259-6.35799E-01 1.62071E-01-1.25823E-02 3.05633E-01 8.24745E-03-9.44328E-04
 -1      9260 9.70580E+00 8.12177E+00 4.44316E+00 5.09391E+00 1.84559E-01 2.48061E-01
 -1      9261 8.76064E+00 8.91862E+00 4.70934E+00 4.73255E+00-2.64781E-01 2.53354E-01
 -1      9262 1.94901E+00 1.84147E-01-1.80011E-01 5.60446E-01 1.99241E-03 1.14696E-01
 -1      9263 1.55326E+00 4.87103E-02-3.96752E-01 1.89957E-01 3.17478E-03 1.25635E-01
 -1      9264 2.09752E+00 1.19986E-01-2.73377E-01 4.39183E-01 1.04360E-02 1.48394E-01
 -1      9265 5.86827E+00 1.81970E+00 1.16125E+00 2.96968E+00 6.43374E-02 2.52162E-02
 -1      9266 9.90519E+00 3.59936E+00 2.48479E+00 3.67899E+00 2.00317E-01-1.36725E-01
 -1      9267-2.19742E-01 6.00855E-01-2.44441E-03 4.20615E-01 2.07561E-02 9.42619E-03
 -1      9268-1.99859E-01 8.14246E-01-7.55663E-03 3.45972E-01 2.87317E-02 1.52186E-02
 -1      9269 2.80625E+00 1.17807E-01-2.52834E-01 2.93093E-01 1.26479E-02 9.24953E-03
 -1      9270 2.59846E+00 1.63126E-01-2.65535E-01 2.68437E-01-6.03792E-03 2.55771E-02
 -1      9271 3.15268E+00-6.38780E-02-2.09175E-01 3.20019E-01-3.27177E-03 2.22940E-02
 -1      9272 1.20093E+01 3.17932E+01 1.12484E+01-1.08107E+00-1.13776E+00 3.79377E-01
 -1      9273 1.17759E+01 2.11040E+01 8.08937E+00-1.31003E+00-1.01697E-01 2.26704E-01
 -1      9274 1.23427E+01 2.16131E+01 8.56877E+00-2.13255E+00-1.59159E-01 7.38411E-01
 -1      9275 1.50740E+00 1.27597E+00 1.26246E-02 1.07769E+00 7.13658E-02 2.00621E-01
 -1      9276 4.12935E+00 1.74859E+00 6.59509E-01 2.35373E+00-5.58610E-02 1.23718E-02
 -1      9277 4.03848E+00 4.73011E+00 1.46783E+00 2.91797E+00-3.45026E-02 1.49104E-02
 -1      9278 3.78933E+00 4.18197E+00 1.22653E+00 2.64497E+00 6.61824E-03-2.98775E-03
 -1      9279 2.48706E+00 4.60060E+00 1.03944E+00 2.19172E+00 8.31142E-02 8.31875E-02
 -1      9280 3.37423E+00 3.10220E+00 8.35085E-01 2.42589E+00 1.36707E-02 3.28793E-02
 -1      9281 1.33565E+01 1.61119E+01 7.25569E+00-2.51752E+00-3.93551E-02 3.36863E-01
 -1      9282 1.28832E+01 1.63264E+01 6.82594E+00-2.65634E+00-1.06829E-01 1.72517E-01
 -1      9283 1.20145E+01 1.36133E+01 6.17279E+00-1.82046E+00-3.19183E-02 2.77507E-01
 -1      9284 2.46576E+00 5.96118E-01-1.31552E-01 9.26764E-01 2.25116E-02 2.95113E-01
 -1      9285 1.99894E+00 9.79523E-02-2.71309E-01 4.28370E-01-1.06533E-02 2.38703E-01
 -1      9286 2.12178E+00 4.78688E-01-1.35052E-01 7.79639E-01 1.17339E-02 2.60036E-01
 -1      9287 2.24789E+00 4.90429E-01-1.38169E-01 8.09964E-01 1.89222E-02 3.15199E-01
 -1      9288 1.82375E+00 7.51341E-02-2.35985E-01 3.46386E-01-1.50524E-02 2.60449E-01
 -1      9289 2.10818E+00 7.63345E-02-2.69598E-01 4.08933E-01-3.17755E-03 2.89241E-01
 -1      9290 3.13136E+00 5.85825E+00 1.26184E+00 2.66696E+00 5.26347E-02 2.46948E-01
 -1      9291 4.52964E+00 3.17709E+00 8.86995E-01 3.10066E+00 1.63696E-01 2.37251E-01
 -1      9292 5.89742E+00 6.28927E+00 1.65678E+00-1.35264E+00 1.17243E-01 5.29046E-03
 -1      9293 6.11198E+00 4.81924E+00 2.03795E+00 4.47575E+00 6.85546E-02 4.45233E-02
 -1      9294 5.51754E+00 4.30535E-01 6.00006E-01 1.32665E+00 5.36599E-02 2.74993E-02
 -1      9295 6.86294E+00 2.51617E+00 1.60910E+00 3.70454E+00 8.55994E-02 1.65326E-02
 -1      9296-4.71764E-01 1.01300E-01-1.08551E-02 3.47195E-01-5.07651E-03-2.87950E-02
 -1      9297 6.44534E-01-4.17101E-02 1.50614E-01 7.09561E-01 2.02560E-02 5.98912E-02
 -1      9298-1.45474E-01 1.85738E-01 3.28275E-02 4.61992E-01 1.38078E-03-3.22643E-02
 -1      9299 1.07666E-01-2.81798E-01-1.94967E-01 1.76736E-01-4.90292E-03-3.38908E-03
 -1      9300-1.78271E-01-1.31491E-01-2.31105E-01 2.55094E-01-4.08185E-04-9.40135E-03
 -1      9301 5.99672E-01 2.15176E-01 2.68684E-02 1.09430E-01 2.92204E-03 9.80592E-03
 -1      9302 4.46953E+00 6.32845E-01 1.95402E-01 1.07456E+00-6.32462E-02-2.39635E-02
 -1      9303 7.97352E+00 7.06664E+00 2.31623E+00 4.17129E+00-1.61190E-01 3.59158E-01
 -1      9304 8.49444E+00 5.52203E+00 1.67612E+00 4.20044E+00 1.30263E-01 5.63747E-01
 -1      9305 9.96528E+00 2.97456E+01 1.08361E+01 2.96571E+00 6.26583E-01 2.01860E-01
 -1      9306 3.71053E+00 6.48714E-01-4.78870E-01 1.12559E+00-1.38385E-02 4.73526E-01
 -1      9307 5.14392E+00 2.04917E+00 2.90573E-01 2.80701E+00-3.97543E-02 4.52145E-01
 -1      9308 1.01475E+01 1.05596E+01 1.97235E+00-1.57855E+00 1.14112E-01-6.28221E-02
 -1      9309 3.23786E+00 3.18543E+00 8.24648E-01-9.57639E-01 2.20085E-02-1.40845E-02
 -1      9310 3.60957E+00 3.31038E+00 9.65051E-01-8.89803E-01 1.07233E-02-2.67347E-03
 -1      9311 7.62293E+00 2.44684E+00 1.65966E+00 4.14782E+00 2.01126E-01 7.40606E-02
 -1      9312 7.73674E+00 7.32840E+00 3.06583E+00-1.00350E+00 7.79185E-02 2.22597E-02
 -1      9313 9.04909E+00 8.47760E+00 3.74777E+00-1.06186E+00-2.35201E-02 1.35740E-01
 -1      9314 2.33373E+00 1.38871E-01-2.59513E-01 4.14065E-01 1.20224E-02 2.95823E-02
 -1      9315 1.65195E+00 9.91530E-04-5.26029E-01 7.42988E-02-1.34151E-04 1.25911E-03
 -1      9316 1.91382E+00 4.03979E-02-4.61097E-01 1.82832E-01 7.75763E-03 2.12485E-02
 -1      9317 2.38723E+00 8.24196E-02-2.72709E-01 3.69725E-01 4.05522E-03 3.80760E-02
 -1      9318 2.53638E+00 2.03730E+00 6.35581E-02-7.39040E-01 1.39996E-01-2.47309E-01
 -1      9319 2.75221E+00 2.07990E+00 1.32999E-01-6.87947E-01 1.12395E-01-2.30386E-01
 -1      9320 1.27202E+01 2.15531E+01 9.10215E+00-1.77817E+00 2.98353E-02 8.92437E-02
 -1      9321 3.62259E+00 2.35172E+00 7.08076E-01-2.97675E-01 5.93664E-03-1.26090E-02
 -1      9322 3.11464E+00 2.10590E+00 5.27782E-01-5.96796E-01 1.03439E-02-1.30631E-02
 -1      9323 3.23008E+00 2.11637E+00 3.02460E-01-3.97725E-01 5.06791E-02-1.96633E-01
 -1      9324 3.56488E+00 1.06475E+01 3.10462E+00 2.74320E+00 1.48721E-02 2.16147E-02
 -1      9325 2.97324E+00 8.77360E+00 2.39081E+00 2.07382E+00-5.19597E-02 5.00093E-02
 -1      9326 3.64356E+00 8.98092E+00 2.63434E+00-1.41599E-01-9.14430E-03 8.52352E-03
 -1      9327 4.48393E+00 1.07036E+01 3.40580E+00 5.81654E-01 7.87128E-02-4.91531E-02
 -1      9328 4.27371E+00 1.02598E+01 3.22587E+00-1.75273E-01-4.22019E-02-2.99947E-02
 -1      9329 9.70479E+00 2.73921E+01 8.16815E+00 3.33729E+00-1.45258E-01 6.86569E-01
 -1      9330 4.67110E+00 8.73381E-01-9.24169E-01 1.40228E+00-1.04096E-01 1.12677E+00
 -1      9331 4.54917E+00 1.39661E+01 4.05512E+00 3.90287E+00 2.25358E-02 1.90415E-01
 -1      9332 3.66756E+00 1.23073E+01 3.36331E+00 2.57997E+00 4.67620E-02 8.69227E-02
 -1      9333 6.45956E+00 1.56200E+01 5.08295E+00 6.51384E-01-4.28529E-02 2.12847E-01
 -1      9334 5.17664E+00 1.31053E+01 4.09259E+00 5.37644E-01 4.34393E-02 1.52730E-01
 -1      9335 1.09100E+01 2.23453E+01 8.32458E+00-8.89686E-01 2.98666E-01 2.63032E-01
 -1      9336 6.53597E-01 2.18891E+00 8.51617E-03-6.52660E-01 1.86304E-01-6.35603E-02
 -1      9337 1.33638E+00 2.59973E+00 5.33589E-02-7.01608E-01 2.24008E-01-1.13324E-01
 -1      9338 9.31885E-01 3.09115E+00 7.78268E-02-4.43871E-01 2.21987E-01-1.40331E-02
 -1      9339 1.88634E+00 3.95291E+00 6.90234E-01 1.45051E+00 3.69853E-02 4.67699E-02
 -1      9340 1.55153E+00 3.29189E+00 4.19001E-01 1.25774E+00 3.98077E-02 5.22591E-02
 -1      9341 2.09596E+00 3.22254E+00 5.21065E-01 1.74227E+00 5.43461E-02 6.78726E-02
 -1      9342 2.88708E+00 6.98134E+00-3.24788E-02-1.24014E+00 4.62017E-01-1.41188E-01
 -1      9343 3.93473E+00 1.02075E+01 6.05554E-01-2.51459E-01 6.11542E-01 2.03607E-01
 -1      9344 4.44805E+00 7.21292E+00 2.66237E-01-1.45502E+00 5.53985E-01-2.84335E-01
 -1      9345 5.75558E+00 1.04061E+01 3.59183E+00 5.55074E+00 9.90352E-02-6.68676E-02
 -1      9346 4.85411E+00 9.19027E+00 3.14598E+00 4.51428E+00 1.10383E-01 3.61989E-02
 -1      9347 6.58799E+00 4.17194E+00 2.03656E+00 4.28065E+00-9.79001E-02-4.84116E-02
 -1      9348 1.17033E+01 3.17188E+01 1.15063E+01 2.18185E+00-1.11777E-01 6.80665E-01
 -1      9349 1.09755E+01 2.21537E+01 8.40300E+00-1.07113E+00 2.08714E-01 3.55080E-01
 -1      9350 1.24120E+01 3.19084E+01 1.21274E+01 2.88246E+00-4.88443E-01 1.89759E-01
 -1      9351 1.90937E+00 7.16003E-01 7.13871E-02-3.86467E-01 8.92469E-03-6.48958E-02
 -1      9352 1.80561E+00 6.06177E-01 4.63672E-02-3.67185E-01 1.93484E-02-9.57908E-02
 -1      9353 1.54866E+00 9.63201E-01 4.28870E-02-7.86353E-01 4.44934E-02-7.80391E-02
 -1      9354 8.56587E+00 8.00616E+00 2.49842E+00-1.13082E+00 7.89605E-02 1.05008E-01
 -1      9355 9.08099E+00 9.07777E+00 3.78320E+00-1.33139E+00 5.24940E-02 9.80894E-02
 -1      9356 6.89949E+00 9.61509E+00 3.27214E+00-1.86416E+00 3.91833E-02 7.57846E-02
 -1      9357 4.96507E+00 3.68607E+00 7.83819E-01 3.73808E+00-4.23772E-02 3.69689E-01
 -1      9358 5.02763E+00 5.58845E+00 1.38977E+00 4.30876E+00 8.42354E-02 3.80735E-01
 -1      9359 2.04402E+00 6.20866E+00 1.30577E+00 3.65863E-01 4.74517E-03 4.54657E-02
 -1      9360 1.20200E+01 1.31742E+01 4.51734E+00-1.76131E+00 8.19698E-04 2.32623E-01
 -1      9361 1.16487E+01 1.27244E+01 4.56773E+00-1.73302E+00 1.07203E-01 2.98689E-01
 -1      9362 1.23527E+01 1.46450E+01 5.12735E+00-2.03571E+00 1.20924E-02 4.40326E-01
 -1      9363 6.60760E+00 5.83093E+00 2.34483E+00-6.83593E-01 8.83204E-03 2.59175E-02
 -1      9364 8.30493E+00 7.40261E+00 3.54158E+00-7.10044E-01-4.96970E-04 4.08640E-02
 -1      9365 3.04421E+00 1.87394E+00 4.26220E-01-3.44851E-01 1.75107E-02-6.33423E-02
 -1      9366 1.12834E+00 2.24440E+00 1.56254E-01-8.04304E-01 4.18162E-02-1.50268E-02
 -1      9367 6.64773E-01 1.43811E+00 7.75176E-03-8.51504E-01 4.01169E-02-4.07956E-02
 -1      9368 1.14008E+00 1.61685E+00 6.36190E-02-8.63580E-01 1.69170E-02-2.79473E-02
 -1      9369 1.05165E+01 1.05039E+01 4.19312E+00-1.23849E+00 9.74117E-02 1.79997E-01
 -1      9370 2.71936E+00 7.74800E+00 1.94975E+00 1.20256E+00 1.60498E-01 6.35974E-02
 -1      9371 2.45075E+00 7.40801E+00 1.69528E+00 1.01727E-01 2.87368E-02 8.39866E-02
 -1      9372 6.24007E+00 5.27570E+00 1.45100E+00-6.60500E-01 2.27196E-02-3.71042E-02
 -1      9373 4.41393E+00 1.55414E+01 4.60701E+00 4.02960E+00 1.80796E-01 6.88025E-02
 -1      9374 1.15595E+01 1.22305E+01 5.42981E+00-1.51291E+00-5.45045E-02 1.04341E-01
 -1      9375 7.58301E+00 1.20298E+01 4.24038E+00-2.06298E+00-6.95830E-02 2.57889E-01
 -1      9376 1.09326E+01 1.11232E+01 4.92939E+00-1.36909E+00 4.31505E-02 1.19648E-01
 -1      9377 1.14948E+01 1.85782E+01 5.79568E+00-1.58587E+00 3.76999E-01 1.38393E-01
 -1      9378 8.27163E+00 1.94117E+01 5.73333E+00-4.24766E-01 2.01666E-01 2.29194E-01
 -1      9379 3.68999E+00 9.12363E-01 2.51498E-01 1.42721E+00 1.66041E-02 6.17178E-02
 -1      9380 4.09917E+00 8.36336E-01 3.68255E-01 1.43967E+00-2.18672E-02 9.09484E-02
 -1      9381 3.24761E+00 6.68513E-01 8.00734E-02 1.24898E+00 1.61099E-02 5.80539E-02
 -1      9382 3.47035E+00 6.05745E-01 1.35206E-01 1.20179E+00 1.28887E-02 4.28133E-02
 -1      9383 3.15902E+00 2.48551E-01-7.84102E-02 7.20079E-01 1.01316E-02 6.19585E-02
 -1      9384 3.66987E+00 2.83912E+00 5.68013E-01 2.59034E+00 8.64855E-02 2.49368E-01
 -1      9385 1.02477E+01 2.12055E+01 6.80648E+00 2.68872E+00-6.58609E-01 8.99615E-02
 -1      9386 1.56824E+01 2.64214E+01 1.19404E+01 1.12706E+01 2.11671E-01 1.59003E-01
 -1      9387 8.33150E+00 4.82808E+00 1.74164E+00 3.04174E+00 5.94674E-01 8.79357E-03
 -1      9388 1.12992E+01 7.73061E+00 3.29261E+00 6.50785E+00 7.14018E-01 1.02174E-01
 -1      9389 9.09765E+00 4.26842E+00 1.67417E+00 4.54000E+00 2.09494E-01 3.88221E-01
 -1      9390 1.26381E+01 1.60394E+01 7.10833E+00-2.07421E+00 8.04762E-02-1.29548E-01
 -1      9391 4.61829E+00 4.54577E-01 3.09367E-01 1.29158E+00-2.20981E-02 2.46347E-02
 -1      9392 7.46279E+00 2.64453E+00 1.72630E+00 3.89181E+00 1.07039E-01 1.06910E-01
 -1      9393 5.23006E+00 6.93337E-01 4.91632E-01 1.41228E+00 1.35690E-02 1.06137E-01
 -1      9394 7.16958E-01-7.81346E-01-5.63428E-02-1.85256E-01 1.72726E-03-3.79413E-02
 -1      9395 4.00613E-01-1.09573E+00-6.40439E-02-4.10660E-01-5.17276E-05-2.81457E-02
 -1      9396 1.04983E+01 1.41058E+01 6.21694E+00-1.48324E+00 6.28524E-02-5.22946E-02
 -1      9397 1.07198E+01 1.36640E+01 6.12491E+00-1.33165E+00 2.82201E-02-2.35062E-02
 -1      9398 1.05760E+01 1.59424E+01 6.76497E+00-1.68234E+00 1.83566E-01-2.30957E-01
 -1      9399 3.94809E+00 3.63085E-01 1.47275E-01 9.65516E-01 5.43207E-03 1.08639E-01
 -1      9400 3.26746E+00 2.74014E-01-5.96141E-02 7.59138E-01 2.21618E-02 6.99233E-02
 -1      9401 1.56497E+00-1.11825E-02-5.29051E-01 6.86900E-02-2.30334E-03 2.15365E-03
 -1      9402 2.64182E+00 8.07923E+00 1.28385E+00 4.02580E-01 2.07085E-01 2.53479E-01
 -1      9403 9.27906E+00 2.08009E+01 7.43979E+00-8.75458E-01-1.50932E-01 3.42165E-01
 -1      9404 3.02206E+00 2.66599E+00 3.71187E-01 2.06277E+00 1.12667E-01 2.69406E-01
 -1      9405 2.50035E+00 5.01265E+00 8.54581E-01 2.11356E+00 7.73019E-02 2.19748E-01
 -1      9406 2.40284E+00 3.82335E+00 5.68147E-01 2.02311E+00 1.18590E-01 2.12086E-01
 -1      9407 1.44493E+01 1.96334E+01 8.43054E+00-3.24154E+00-7.84608E-02 3.90791E-01
 -1      9408-1.64238E-01 1.06607E-01 2.29955E-02 4.85598E-01 8.13946E-03-1.49539E-02
 -1      9409 9.71575E-02 2.38153E-01 6.01136E-02 6.46222E-01 9.42025E-03-2.42601E-02
 -1      9410-2.28411E-01 8.86561E-02 7.09976E-06 4.94520E-01 1.34044E-02-2.62900E-02
 -1      9411 8.52179E+00 2.07266E+01 7.13351E+00-8.32826E-01 5.68237E-01-3.25418E-01
 -1      9412 5.55655E+00 5.74824E+00 2.19233E+00-1.26659E+00 2.99545E-02-2.51936E-02
 -1      9413 2.54636E+00 4.90227E+00 3.75926E-01 2.35358E+00 2.33057E-01 4.16661E-01
 -1      9414 2.47732E+00 5.85219E+00 6.45747E-01 1.68064E+00 1.98349E-01 3.30216E-01
 -1      9415 7.62991E+00 1.53163E+01 5.50257E+00-2.33170E+00 8.52902E-02 1.33629E-01
 -1      9416 1.34347E+01 1.52874E+01 7.15634E+00-2.07750E+00-1.27073E-01 4.86237E-02
 -1      9417 9.34480E+00 1.76647E+01 6.54878E+00-2.88388E+00 3.38646E-02 1.56568E-01
 -1      9418 1.40646E+01 2.51750E+01 1.07701E+01 1.14977E+01-5.11052E-01-1.64364E-01
 -1      9419 1.63521E+00 1.26185E-01-1.36167E-01 4.21469E-01-3.33866E-02 2.10417E-01
 -1      9420 1.32414E+00 1.04489E-02-3.08590E-01 1.17168E-01-1.83290E-02 2.66207E-01
 -1      9421 8.93477E-01 5.51866E-01-1.08520E-02-8.90000E-01 6.72593E-02-1.06422E-01
 -1      9422 9.64955E-01 3.70415E-01-4.07121E-02-7.91343E-01 6.42175E-02-1.26592E-01
 -1      9423 2.56275E+00 7.29121E+00 1.68620E+00 7.61219E-01 2.09867E-02 9.93389E-02
 -1      9424 2.43871E+00 6.17002E+00 1.32518E+00 1.80566E+00 7.28629E-02 7.55869E-02
 -1      9425 3.02594E+00 6.08680E+00 1.51013E+00 2.52504E+00 6.14815E-02 5.55824E-02
 -1      9426 2.56626E+00 4.71642E+00 9.93114E-01 2.15665E+00 6.30444E-02 8.23172E-02
 -1      9427 2.54601E+00 5.75444E+00 1.26403E+00 1.41066E+00 4.56362E-02 8.66712E-02
 -1      9428 2.91817E+00 3.98429E-01-1.19581E-01 9.93349E-01 1.19090E-02 2.48261E-01
 -1      9429 3.05880E+00 1.30103E+00 1.60718E-01 1.62112E+00-2.29728E-02 1.31328E-01
 -1      9430 2.72478E+00 1.95212E+00 2.34635E-01 1.71160E+00 3.23997E-02 1.62805E-01
 -1      9431 4.39574E+00 8.56762E+00 1.55931E+00-1.24036E+00 1.95395E-01 1.69230E-01
 -1      9432 2.91004E+00 2.29723E+00 2.44627E-01-7.49672E-01 1.22794E-01-1.93646E-01
 -1      9433 5.61382E+00 4.44790E+00 1.61992E+00-4.87664E-01 1.74163E-02-1.12902E-02
 -1      9434 5.33087E+00 5.10936E+00 1.76558E+00-1.01407E+00 3.86079E-02-7.16666E-03
 -1      9435 4.17075E+00 1.31423E+01 3.16252E+00 2.92397E+00-2.00475E-02 3.31521E-01
 -1      9436 6.40147E+00 9.41771E+00 2.73162E+00 5.17137E+00-1.94608E-02 3.11517E-01
 -1      9437 2.63753E+00 1.41333E-01-3.25398E-01 4.11304E-01-1.53140E-01 7.65703E-01
 -1      9438 2.71258E+00 2.72861E-01-4.77816E-02 5.34894E-01-8.73089E-02 5.87397E-01
 -1      9439 2.93985E+00 2.16734E-01-1.62433E-01 6.40667E-01-1.19272E-01 8.08693E-01
 -1      9440 3.03226E+00 1.92409E+00 2.59866E-01-3.61301E-01 4.21009E-02-1.92258E-01
 -1      9441 2.77292E+00 1.65178E+00 1.79325E-01-3.22670E-01 4.52637E-02-2.07931E-01
 -1      9442 7.30253E+00 1.09226E+01 4.28454E+00-1.89776E+00-6.64079E-02 3.94444E-02
 -1      9443 2.73684E+00 6.04944E+00 1.16695E+00 1.75996E+00 9.14150E-02 1.81964E-01
 -1      9444 2.38155E+00 6.79061E+00 1.28390E+00 1.09485E+00 1.54961E-01 1.20013E-01
 -1      9445 2.92397E+00 8.11180E+00 1.83103E+00 1.13109E+00 1.17604E-01 1.55132E-01
 -1      9446 2.26326E+00 7.12410E+00 1.31592E+00 4.43529E-01 1.35724E-01 1.51321E-01
 -1      9447 1.04989E+01 1.06658E+01 5.23157E+00-1.71979E+00 7.90528E-02-7.84001E-02
 -1      9448 9.31960E+00 9.47977E+00 4.49754E+00-1.20726E+00-8.15844E-03-2.73166E-02
 -1      9449 8.01079E+00 1.09936E+01 4.58208E+00-2.10607E+00 6.05617E-02 5.30296E-03
 -1      9450 2.65100E+00 9.95130E-02-7.61159E-01 3.43269E-01-3.28987E-02 5.16084E-01
 -1      9451 3.26027E-02-1.70817E+00-1.48504E-02-3.97750E-01-4.58993E-02-1.19554E-02
 -1      9452 1.04244E-01-1.70565E+00-5.18321E-02-3.45928E-01-4.38788E-02-3.19614E-02
 -1      9453 1.19279E-02-1.19676E+00-1.65077E-02-5.35106E-01-4.51211E-02-1.56056E-02
 -1      9454 6.43013E+00 5.61198E+00 2.43371E+00-6.34518E-01 1.43027E-02-3.67650E-03
 -1      9455 1.76038E+01 3.63533E+01 1.39135E+01 6.23694E-01-6.63447E-01 4.25418E-01
 -1      9456 1.61833E+01 3.46512E+01 1.28734E+01 6.64508E-01 8.79861E-02 8.69621E-01
 -1      9457 7.99837E+00 1.22143E+01 4.57904E+00 4.07036E+00 3.53457E-01 5.79696E-01
 -1      9458 1.18461E+01 1.25612E+01 5.65953E+00-1.58949E+00 9.12111E-02 7.58578E-02
 -1      9459 1.14628E+01 1.27445E+01 5.66183E+00-1.59671E+00-1.66501E-02 3.55015E-02
 -1      9460 5.10252E+00 5.87942E-01 1.35741E-01 1.20174E+00 3.50407E-02 2.42440E-01
 -1      9461 6.84602E+00 2.25267E+00 1.08174E+00 2.64958E+00 5.60828E-03 2.21174E-01
 -1      9462 6.56329E+00 1.11005E+00 5.53402E-01 2.47620E+00 6.59122E-02 2.24883E-01
 -1      9463 8.29696E+00 5.76742E+00 2.56882E+00 5.97701E+00 9.94748E-02 7.68260E-01
 -1      9464 5.91745E+00 2.34056E+00 8.07482E-01 3.24600E+00 1.45886E-01 4.26520E-01
 -1      9465 1.51105E+01 1.31345E+01 7.01495E+00 1.06147E+01-1.41906E+00-7.07646E-01
 -1      9466 3.36820E+00 5.15609E+00 1.29540E+00 2.71055E+00 3.84419E-02 1.15925E-01
 -1      9467 1.07661E+01 3.20007E+01 1.15686E+01-6.38866E-01 8.80412E-01 4.82292E-01
 -1      9468 6.32719E+00 1.93190E+01 6.65923E+00-2.38169E-01 1.11457E-01-3.63514E-01
 -1      9469 1.33037E+01 1.55748E+01 7.06249E+00-2.11023E+00 3.31668E-02-9.74707E-03
 -1      9470 1.28797E+01 1.49404E+01 6.68600E+00-1.78197E+00-1.49071E-01 2.21474E-01
 -1      9471 8.77714E+00 8.41758E+00 3.98256E+00-1.01392E+00-2.83679E-03 7.05826E-02
 -1      9472 8.54611E+00 7.75370E+00 3.62919E+00-7.86460E-01-1.25019E-02 8.78607E-03
 -1      9473 8.90968E+00 8.61742E+00 4.00060E+00-9.46428E-01 6.58204E-02 5.37026E-03
 -1      9474 7.40642E+00 9.57070E+00 3.81249E+00-1.96531E+00 8.25636E-02 3.92377E-02
 -1      9475 1.24194E+01 1.84988E+01 8.15522E+00-2.02976E+00 4.80912E-03 4.30116E-02
 -1      9476 1.20596E+01 1.69811E+01 7.69169E+00-1.41339E+00 1.13679E-01-1.33210E-01
 -1      9477 1.18918E+01 1.16481E+01 5.84841E+00-1.43204E+00-1.72886E-01 1.24596E-01
 -1      9478 8.63701E+00 1.57157E+01 6.03623E+00-2.13930E+00 1.01841E-01 1.89452E-02
 -1      9479 1.24139E+01 1.24250E+01 6.26314E+00-1.95562E+00 1.48126E-01-5.59564E-03
 -1      9480 1.05074E+01 1.20419E+01 5.58507E+00-1.40036E+00-5.76565E-02 6.34434E-02
 -1      9481 1.70944E+00 1.04814E+00-1.37750E-02-7.34902E-01 6.37934E-02-1.14144E-01
 -1      9482 3.49504E+00 4.59808E+00 1.28822E+00-9.57880E-01 9.10298E-03-4.39400E-03
 -1      9483 4.76013E+00 4.32253E+00 1.56947E+00-9.05068E-01-3.13013E-03-1.35520E-02
 -1      9484 4.57011E+00 5.79777E+00 1.94103E+00-1.17525E+00 2.72764E-02-9.64209E-03
 -1      9485 5.07262E+00 4.46185E+00 1.68585E+00-8.99191E-01 6.59433E-03 1.39550E-02
 -1      9486 4.63177E+00 3.81847E+00 1.36818E+00-8.42380E-01 4.83554E-03-3.41491E-02
 -1      9487-1.28350E+00 1.12074E-02-5.03162E-03 1.34685E-01 3.88662E-03-1.41694E-02
 -1      9488-9.49142E-01 6.86669E-02-4.04976E-03 2.45150E-01 1.28177E-02-1.54776E-02
 -1      9489-4.98439E-01 6.17208E-02-4.33681E-03 4.11392E-01 1.18600E-02-1.32044E-02
 -1      9490-8.36152E-01 6.19741E-02-1.20075E-02 2.48121E-01 1.48163E-02-4.59834E-03
 -1      9491-1.29398E+00 5.76924E-02-1.51869E-02 8.97437E-02 1.35384E-02-8.75848E-03
 -1      9492 6.14461E+00 5.40703E+00-6.80326E-02-7.47643E-01 8.22340E-02-4.10617E-01
 -1      9493 1.96800E+00 1.25758E-01-5.15302E-01 2.35027E-01-1.05745E-02 3.93475E-01
 -1      9494 1.95610E+00 7.01585E-02-5.28594E-01 2.26953E-01 3.90388E-03 3.67059E-01
 -1      9495 1.82755E+00 6.61860E-02-4.81572E-01 2.14910E-01-1.11917E-02 3.87332E-01
 -1      9496 3.28085E+00 3.90076E+00 7.41135E-01-9.89940E-01 1.16849E-01-6.34139E-02
 -1      9497 2.02086E+00 3.10825E-02-5.79345E-01 2.12156E-01 1.45548E-02 2.78801E-01
 -1      9498 1.98200E+00 3.88130E-02-5.96601E-01 2.12758E-01 4.18071E-03 2.90651E-01
 -1      9499 5.90017E+00 7.19239E+00 2.58937E+00-1.40931E+00-1.86924E-02 3.49229E-02
 -1      9500 1.03525E+01 1.09952E+01 5.08955E+00-1.77445E+00-1.44586E-01 7.08013E-02
 -1      9501 1.02472E+01 1.06395E+01 4.83077E+00-1.60707E+00-2.73235E-02 4.91999E-02
 -1      9502 1.10801E+01 1.39268E+01 6.30622E+00-1.64484E+00-6.70647E-02 3.40000E-02
 -1      9503 1.11179E+01 1.34711E+01 6.10225E+00-1.52739E+00 1.14052E-02 8.30567E-02
 -1      9504 7.11871E+00 1.29068E+01 4.67223E+00-1.81548E+00-1.30394E-03 6.55054E-02
 -1      9505 3.37339E+00 9.78597E+00 2.38714E+00 1.36182E+00 1.42678E-01 1.89809E-01
 -1      9506 1.26693E+01 1.97601E+01 8.50553E+00-2.04661E+00 2.76724E-01-4.22912E-02
 -1      9507-4.67210E-01 6.60635E-01-2.82063E-02-2.18224E-01 2.49925E-02 6.41297E-03
 -1      9508 1.71205E-01-1.13133E+00-5.21352E-02-5.89005E-01 8.74443E-03-3.34411E-02
 -1      9509 3.51890E-02-6.61621E-01-9.89536E-03-7.81881E-01 1.01257E-02 3.56910E-03
 -1      9510 3.48193E+00 5.53430E-01-3.92508E-01 8.36229E-01 2.07825E-02 3.78548E-01
 -1      9511 3.52138E+00 5.27120E-01-3.93208E-01 8.13361E-01 3.19120E-02 3.76012E-01
 -1      9512 2.99256E+00 3.23201E-01-5.21884E-01 6.63134E-01 1.67826E-02 3.72045E-01
 -1      9513 1.07720E+00 8.12617E-01-5.99575E-02 8.48516E-01 1.24903E-02 4.16605E-02
 -1      9514 1.09564E+00 5.06968E-01-7.10967E-02 7.46969E-01 9.80600E-03 3.92658E-02
 -1      9515 1.22984E+00 9.35326E-01-2.92287E-02 9.15420E-01 2.18783E-02 7.30135E-02
 -1      9516 5.84749E+00 6.41658E+00 1.80462E+00-1.37872E+00 7.28116E-02 7.85375E-02
 -1      9517 1.18811E+01 1.35423E+01 5.72586E+00-1.77453E+00 2.75099E-02 1.07967E-01
 -1      9518 2.16849E+00 9.87414E-02-2.97292E-01 4.78107E-01-8.02413E-03 3.47384E-01
 -1      9519 1.90394E+00 5.44800E-02-5.03606E-01 2.30902E-01-2.06490E-02 4.07889E-01
 -1      9520 2.49191E+00 1.51146E-01-3.51138E-01 4.81239E-01-2.90231E-02 4.25392E-01
 -1      9521 5.98700E+00 1.29160E+00 6.76612E-01 1.85413E+00 1.50857E-01 2.45588E-01
 -1      9522 4.26335E+00 7.22034E+00 2.02141E+00-1.12642E+00 9.67674E-02 4.64013E-02
 -1      9523 3.29546E+00 6.42778E+00 1.50238E+00-9.25027E-01 1.04567E-01 6.27357E-02
 -1      9524 2.95355E+00 7.51863E+00 1.72906E+00-1.97403E-01 9.90706E-02 7.55891E-02
 -1      9525 4.17552E+00 7.18129E-01 1.30811E-02 1.30909E+00 4.05672E-02 2.76695E-01
 -1      9526 4.42321E+00 7.51755E-01 9.89724E-02 1.37337E+00-3.94697E-02 2.28317E-01
 -1      9527-5.16250E-01 7.76173E-02-5.91125E-03 3.87174E-01 4.79906E-03-5.78283E-03
 -1      9528-1.31524E+00 1.67574E-02-3.30471E-02 1.16208E-01 8.67235E-03-5.92752E-03
 -1      9529-8.60040E-01 7.29958E-02-2.25587E-02 2.30085E-01 5.87757E-03-1.69494E-03
 -1      9530 4.93965E+00 1.49536E+01 4.30131E+00 1.17506E+00 6.92557E-02 1.05713E-01
 -1      9531 3.58318E+00 1.19012E+01 3.07826E+00 1.62473E+00 7.39247E-02 1.06623E-01
 -1      9532 5.59302E+00 1.20705E+01 3.71141E+00 5.89981E-03 1.53123E-01 1.62807E-01
 -1      9533 6.74092E+00 1.29210E+01 4.27984E+00-1.28073E+00-1.49376E-02 2.57420E-01
 -1      9534 6.08720E+00 1.66827E+00 1.17651E+00 3.28985E+00 8.38410E-02 1.65372E-01
 -1      9535 5.16832E+00 6.19685E-01 5.04384E-01 1.42212E+00-2.17767E-02-2.55790E-02
 -1      9536 4.49697E+00 6.16661E-01 2.56503E-01 1.23207E+00-4.82752E-03 5.41547E-02
 -1      9537 4.12314E+00 2.95915E+00 9.63313E-01-4.06011E-01-3.56516E-04-1.62854E-02
 -1      9538 3.80609E+00 3.26900E+00 9.58351E-01-8.27643E-01 2.40333E-02-3.10100E-02
 -1      9539 4.08615E+00 3.31179E+00 1.05436E+00-7.37930E-01 5.65246E-04 1.69325E-02
 -1      9540 5.66344E+00 6.40094E+00 1.84801E+00-1.33199E+00 1.05241E-01 7.79429E-04
 -1      9541 5.21952E+00 6.91820E+00 1.91706E+00-1.35549E+00 9.85346E-02 4.83824E-02
 -1      9542 5.54380E+00 7.87915E+00 2.25177E+00-1.44407E+00 4.16969E-02 8.72385E-02
 -1      9543 6.77604E+00 7.27918E+00 2.43043E+00-1.45587E+00 8.57705E-02 6.82082E-02
 -1      9544 5.89175E+00 7.79594E+00 2.36339E+00-1.37593E+00 8.14262E-02 7.00810E-02
 -1      9545 5.91485E+00 6.02741E+00 1.85911E+00-1.16232E+00 9.65870E-02-7.48228E-03
 -1      9546 1.06804E+01 8.10242E+00 4.05561E+00 6.11617E+00 2.88672E-01-3.44333E-01
 -1      9547 7.89169E+00 7.48179E+00 3.02014E+00 4.94518E+00 1.23644E-01 7.97441E-02
 -1      9548 8.57612E+00 8.25099E+00 3.80248E+00-1.10587E+00-8.61628E-03 4.01369E-02
 -1      9549 7.87721E+00 9.09389E+00 3.88078E+00-1.76325E+00 4.09800E-02-3.20220E-03
 -1      9550 1.80748E+00 3.81253E+00 5.73244E-02-7.62694E-01 3.56384E-01-1.26117E-01
 -1      9551 1.29625E+00 3.04890E+00 1.99220E-02-7.95516E-01 2.07285E-01-8.74110E-02
 -1      9552 1.83811E+00 2.96914E+00 3.41057E-02-7.96135E-01 2.72993E-01-1.68983E-01
 -1      9553 6.34331E+00 7.15858E+00 2.42738E+00-1.44815E+00 6.47193E-02 4.62107E-02
 -1      9554 3.53601E+00 3.97891E-01-5.20104E-01 7.55137E-01 5.35615E-02 3.58166E-01
 -1      9555 3.73261E+00 3.34460E-01-5.17360E-01 7.97892E-01-4.41741E-02 2.94851E-01
 -1      9556 4.02725E+00 3.76873E-01-4.14092E-01 8.68249E-01 6.36567E-02 3.97413E-01
 -1      9557 5.59056E+00 7.71700E-01 1.88756E-01 2.02217E+00 6.84462E-02 2.92660E-01
 -1      9558 2.61393E+00 7.17709E+00 1.14100E+00 1.09870E+00 2.40529E-01 2.27881E-01
 -1      9559 6.67132E+00 5.97243E+00 2.62991E+00-6.90283E-01 8.17520E-03 8.42919E-03
 -1      9560 2.68903E+00 1.52004E+00-2.02499E-02 1.51180E+00 9.01730E-02 3.41371E-01
 -1      9561 3.11959E+00 2.64253E+00 2.95205E-01 2.08389E+00 1.61748E-01 3.69078E-01
 -1      9562 2.63166E+00 3.57682E+00 3.88393E-01 2.23423E+00 1.46816E-01 3.42704E-01
 -1      9563 3.31500E+00 5.88239E-01-5.41528E-01 8.70687E-01 1.97914E-02 6.34855E-01
 -1      9564 3.36705E+00 6.03414E-01-5.58234E-01 9.35680E-01-3.31016E-02 5.35139E-01
 -1      9565 2.60105E+00 4.30883E+00 2.56952E-01-9.43297E-01 2.96833E-01-1.03109E-01
 -1      9566 2.83805E+00 3.80172E+00 5.73742E-01 2.50583E+00 7.09753E-02 2.59547E-01
 -1      9567 2.08208E-01 1.94260E+00-1.95940E-02-2.11900E-01 1.51636E-01 1.27452E-02
 -1      9568 5.66567E-01 2.01158E+00 8.52180E-03-5.62876E-01 1.66278E-01-4.43783E-02
 -1      9569 4.58522E-01 1.79068E+00 1.20755E-02-5.97539E-01 1.27968E-01-3.97747E-02
 -1      9570 3.77658E-01 2.14601E+00 1.55676E-02-2.95779E-01 1.13727E-01 2.55883E-03
 -1      9571 7.22380E+00 8.33952E+00 3.19479E+00 5.74577E+00 5.33722E-02 3.16402E-01
 -1      9572 6.07324E+00 5.02402E+00 1.69925E+00-5.36895E-01 3.62697E-02-5.96433E-03
 -1      9573 5.82783E+00 7.00179E+00 2.94264E+00 4.07217E+00-3.08056E-01 5.25091E-01
 -1      9574 9.81548E+00 5.89836E+00 2.08722E+00 4.36439E+00-2.53974E-01 7.36342E-01
 -1      9575 8.49247E+00 4.89770E+00 1.68990E+00 2.96218E+00-1.66890E-01 6.66045E-01
 -1      9576 3.36091E+00 2.89600E+00 1.12631E-01-8.12096E-01 1.61652E-01-2.89554E-01
 -1      9577 2.92110E+00 7.34788E-01-1.19816E-01 1.18304E+00 3.76915E-02 4.39604E-01
 -1      9578 2.19440E+00 2.50744E-01-2.11044E-01 6.96847E-01-3.11102E-02 3.45657E-01
 -1      9579 2.25781E+00 5.71008E-01-1.26849E-01 1.00826E+00-3.03583E-02 3.61968E-01
 -1      9580 2.69220E+00 5.49567E-01-2.13433E-01 9.25731E-01 3.85212E-03 4.63569E-01
 -1      9581 2.14342E+00 1.92415E-01-1.90681E-01 5.24300E-01-4.00080E-02 3.86106E-01
 -1      9582 8.54701E+00 7.98680E+00 2.32897E+00-1.12363E+00 3.70451E-02 1.11549E-01
 -1      9583 6.16898E+00 8.77725E+00 1.87574E+00-1.74196E+00 2.30372E-01 1.34367E-01
 -1      9584 7.22384E+00 9.39000E+00 2.39162E+00-1.90350E+00 1.84108E-01 1.04014E-01
 -1      9585 6.36691E+00 6.58243E+00 1.72833E+00-1.39285E+00 9.04803E-02 3.99338E-02
 -1      9586 7.09907E+00 1.85920E+00 6.10178E-01 2.28092E+00-1.53788E-01 3.97308E-01
 -1      9587 7.59436E+00 1.10989E+00 5.03192E-01 2.95298E+00-9.61356E-02 5.19859E-01
 -1      9588 9.71006E+00 2.08313E+00 1.28863E+00 5.12691E+00-2.73205E-01 3.15371E-01
 -1      9589 1.25008E+00 1.10665E+00-3.06504E-02 9.32818E-01 6.01986E-02 1.69045E-01
 -1      9590 3.59985E+00 1.07177E+01 2.69672E+00 2.24548E+00 8.12725E-02 2.46730E-01
 -1      9591 3.73606E+00 9.72049E+00 2.44717E+00 2.81485E+00 2.49812E-02 2.29349E-01
 -1      9592 5.06517E+00 7.22770E+00 2.11282E+00 4.28664E+00 2.30205E-01 1.60361E-01
 -1      9593 4.77432E+00 9.71913E+00 2.89296E+00 3.39986E+00 1.37956E-02 1.71164E-01
 -1      9594 3.08315E+00 9.55536E+00 2.20728E+00 1.72568E+00 6.71315E-02 1.59129E-01
 -1      9595 9.40677E+00 7.41087E+00 3.53792E+00 4.88826E+00 1.19085E-01 1.18097E-01
 -1      9596 9.55152E+00 7.35686E+00 3.36355E+00 5.03565E+00-8.55328E-03 2.96815E-01
 -1      9597 7.73149E+00 8.23710E+00 3.38493E+00 4.40773E+00 2.35111E-01 1.09130E-01
 -1      9598 9.88951E-01 3.46993E+00 1.50036E-01 1.41141E-01 2.62175E-01 7.23257E-02
 -1      9599 9.62583E-01 3.38839E+00 9.02467E-02-1.91479E-01 2.88193E-01 2.14731E-02
 -1      9600 1.81500E+00 2.96762E-02-5.08710E-01 1.79273E-01-1.57026E-02 3.24122E-01
 -1      9601 1.79563E+00 6.65367E-02-5.05474E-01 1.86766E-01-5.43454E-03 3.02228E-01
 -1      9602 1.96228E+00 1.94017E-02-6.00295E-01 2.05942E-01 7.00746E-03 3.21949E-01
 -1      9603 2.61211E+00 1.58529E-01-3.05655E-01 5.37286E-01 1.25633E-02 3.05630E-01
 -1      9604 1.77724E+00 4.34932E+00 5.78720E-01-3.51592E-01 1.39125E-01 4.31836E-02
 -1      9605 2.29531E+00 4.88967E+00 7.03617E-01-6.33393E-01 1.85824E-01 4.35578E-02
 -1      9606 1.19087E+00 3.62140E+00 2.74280E-01-1.94457E-01 1.86939E-01 1.60003E-02
 -1      9607 1.53811E+00 4.11534E+00 3.50881E-01-3.72341E-01 2.14727E-01 1.76751E-02
 -1      9608 1.83226E+00 3.90874E+00 4.16926E-01-6.70398E-01 1.66419E-01-6.39137E-03
 -1      9609 9.78401E+00 2.03451E+01 7.94450E+00 2.97561E+00 2.79262E-01 8.41803E-02
 -1      9610 1.53149E+01 2.97245E+01 1.24108E+01 1.03629E+01 6.08360E-02-2.04555E-01
 -1      9611 1.30832E+01 2.71262E+01 1.12283E+01 8.81268E+00-1.08434E+00 4.28247E-01
 -1      9612 4.11740E-01 2.04830E+00-5.25385E-03-6.76782E-01 1.39930E-01-3.51133E-02
 -1      9613 5.12458E-01 2.48224E+00 1.33201E-02-5.34730E-01 1.66368E-01-3.41456E-02
 -1      9614 6.66237E-01 1.64654E+00-2.08910E-02-9.15348E-01 1.00409E-01-8.73814E-02
 -1      9615 8.19121E-01 2.09612E+00 7.13382E-03-8.13897E-01 1.29723E-01-8.23787E-02
 -1      9616 9.89231E-01 2.42490E+00 1.01699E-02-6.65010E-01 2.35650E-01-8.84800E-02
 -1      9617 4.67340E+00 4.73355E+00 1.56166E+00-1.06870E+00 5.31951E-02-3.52280E-02
 -1      9618 2.45602E+00-8.01416E-02-4.25978E-01 2.29402E-01 2.24709E-02 6.19022E-02
 -1      9619 2.59940E+00 6.59567E-02-3.58425E-01 1.82165E-01 1.15270E-02 6.52721E-02
 -1      9620 2.68296E+00-1.12167E-01-3.61286E-01 1.61742E-01 3.70209E-02 8.37497E-02
 -1      9621 4.55930E+00 3.65646E+00 3.17903E-01-4.76555E-01 1.06551E-01-2.85470E-01
 -1      9622 4.70625E+00 3.70706E+00 4.07226E-01-5.20811E-01 1.09213E-01-2.46201E-01
 -1      9623 4.47336E+00 4.41834E+00 4.44642E-01-1.01140E+00 2.01201E-01-1.87118E-01
 -1      9624 1.34365E+01 2.37492E+01 9.63415E+00-1.86169E+00-1.56135E-01 3.09254E-01
 -1      9625 1.04825E+01 2.21104E+01 8.35589E+00-2.37216E+00 4.06184E-01-6.73529E-02
 -1      9626 2.92898E+00 4.16904E+00 9.70828E-01 2.45209E+00 5.32678E-02 1.08133E-01
 -1      9627 3.24331E+00 2.93176E+00 7.34425E-01 2.17836E+00 6.42407E-02 9.88734E-02
 -1      9628 3.56627E+00 2.73184E+00 7.33956E-01 2.39006E+00 3.47922E-02 1.11864E-01
 -1      9629 3.61305E+00 4.41613E+00 1.19752E+00 2.97132E+00 4.15481E-02 6.11678E-02
 -1      9630 3.91157E+00 2.93909E+00 8.98418E-01 2.65915E+00 6.95530E-02 9.93129E-02
 -1      9631 3.09030E+00 4.33766E+00 1.10296E+00 2.62061E+00 1.97987E-03 6.67854E-02
 -1      9632 3.68433E+00 2.71309E+00 1.23625E-01-4.25237E-01 7.94234E-02-3.20686E-01
 -1      9633 1.65170E+01 1.41034E+01 7.76880E+00 1.18282E+01 6.79668E-01 1.18785E+00
 -1      9634 1.59185E+01 1.34332E+01 7.45443E+00 1.10095E+01-2.56474E-02 1.63315E-01
 -1      9635 8.43288E+00 3.82960E+00 2.35716E+00 3.03519E+00-6.79144E-01 9.12614E-03
 -1      9636 4.69080E+00 1.59408E+00 1.61455E-01 2.22297E+00 9.83953E-02 4.49869E-01
 -1      9637 2.71203E+00 1.50672E+00-7.47571E-03-2.95863E-01 1.23500E-02-1.01606E-01
 -1      9638 2.43017E+00 1.72043E-02-3.74836E-01 2.34087E-01 4.28905E-03 6.09087E-02
 -1      9639 3.60861E+00 5.37018E-01 1.45631E-01 1.18379E+00-3.64799E-03 6.85056E-02
 -1      9640 2.51208E+00-2.19340E-02-3.47946E-01 2.43166E-01 8.44056E-03 4.02476E-02
 -1      9641 6.34581E+00 1.65234E+01 5.58366E+00-1.03113E+00 1.35128E-01-1.03768E-01
 -1      9642 1.36741E+01 1.68228E+01 8.11336E+00-2.92309E+00-4.90318E-02 2.55377E-01
 -1      9643 6.97780E+00 1.39422E+01 5.09398E+00-1.95666E+00 1.74632E-02 8.29095E-02
 -1      9644 3.15726E+00 6.51756E-01 7.49840E-02 1.12739E+00 2.85091E-02 7.94446E-02
 -1      9645 5.18625E+00 4.16476E+00 1.25374E+00-5.21000E-01 5.06677E-02-4.11767E-02
 -1      9646 4.76394E+00 3.69199E+00 6.63428E-01-4.49035E-01 6.59157E-02-1.63853E-01
 -1      9647 1.17442E+01 1.57111E+01 7.00490E+00-1.85283E+00 1.91477E-01-8.02507E-02
 -1      9648 1.22626E+01 1.80386E+01 7.69069E+00-2.59498E+00 1.27661E-01-9.15084E-02
 -1      9649 1.29353E+01 1.83162E+01 7.84658E+00-2.70005E+00-1.57014E-01-1.09509E-01
 -1      9650 2.38083E+00 1.29263E+00 1.53379E-01-3.95028E-01 4.64057E-02-1.46670E-01
 -1      9651 1.17984E+01 1.44880E+01 3.99861E+00-2.11714E+00 5.80793E-02 5.40716E-01
 -1      9652 1.18512E+01 1.39252E+01 3.66530E+00-2.10279E+00-7.28151E-02 2.00667E-01
 -1      9653 1.10564E+01 1.23786E+01 3.21405E+00-1.81476E+00 9.38752E-02 2.33755E-01
 -1      9654 9.14654E-01-4.77401E-02-1.47108E-01 1.64055E-01-1.53437E-02 3.49039E-02
 -1      9655 1.02471E+00-2.92974E-02-1.30419E-01 2.63164E-01-1.15482E-02 2.85067E-02
 -1      9656 1.02956E+00 2.59675E-03-9.23033E-02 2.77171E-01-2.01878E-02 3.98346E-02
 -1      9657 9.74836E-01-5.50923E-02-5.53451E-02 2.25348E-01-2.52287E-02 8.91686E-03
 -1      9658 3.08996E+00 2.37340E+00 2.08133E-01 2.12078E+00 8.00320E-02 3.77258E-01
 -1      9659 3.14246E+00 7.88480E-01-1.40973E-01 1.16858E+00 6.08545E-02 4.63024E-01
 -1      9660-3.69985E-01 4.13920E-01-8.71253E-03 3.62810E-01 1.78050E-02 6.36883E-03
 -1      9661-5.04116E-01 5.17461E-01-1.40807E-02 1.07776E-01 2.00397E-02 7.51495E-03
 -1      9662-6.60695E-01 2.43753E-01 3.60211E-03 2.47087E-01 1.37994E-02 1.12941E-03
 -1      9663 2.71123E+00 1.65858E+00 4.40872E-02-3.78089E-01 6.23577E-02-2.74781E-01
 -1      9664 2.31685E+00 1.93280E+00 1.32130E-02-7.86333E-01 1.63502E-01-2.50737E-01
 -1      9665 5.60964E+00 4.50944E+00 1.77685E+00-4.73313E-01 1.55134E-02-2.67510E-03
 -1      9666 4.72927E+00 4.38937E+00 1.47836E+00-9.46343E-01 4.26773E-02-1.44476E-02
 -1      9667 5.66088E+00 4.47738E+00 1.78540E+00-4.65823E-01 2.76401E-02 1.00681E-03
 -1      9668 1.14292E+00-2.30006E-01-4.19731E-02-1.79949E-01 3.04782E-04-2.30851E-02
 -1      9669 1.40946E+00 1.80928E-01-1.73618E-02-3.27027E-01 1.82955E-02-6.97467E-02
 -1      9670 6.53109E+00 6.26928E+00 2.69416E+00 5.11183E+00-1.02668E-01 1.59297E-01
 -1      9671 6.40371E+00 1.18176E+01 4.42448E+00 4.91739E+00 4.52189E-02-8.23724E-02
 -1      9672 7.08955E+00 9.28415E+00 3.49290E+00 6.35479E+00 2.33066E-01-2.33493E-01
 -1      9673 7.68815E+00 3.30068E+00 2.03419E+00 5.04151E+00-4.01048E-02 1.81758E-01
 -1      9674 1.89918E+00 2.26636E+00-2.22780E-02 1.93092E+00 1.21258E-01 2.49816E-01
 -1      9675 2.57835E+00 2.38438E+00-1.06057E-02 1.97519E+00 9.62297E-02 4.76639E-01
 -1      9676 1.66162E+00 2.72363E+00 1.76155E-02 1.74950E+00 1.88675E-01 3.72113E-01
 -1      9677 1.13236E+01 1.52083E+01 6.81758E+00-1.89404E+00-4.76024E-02 2.17927E-01
 -1      9678 1.15875E+01 2.22392E+01 8.90767E+00-7.86079E-01 2.07847E-01 2.75733E-01
 -1      9679 2.73104E+00 6.30656E-01-2.67751E-03 1.09308E+00 3.59794E-02 6.27563E-02
 -1      9680 3.26896E+00 1.28715E+00 2.93417E-01 1.67782E+00 1.20862E-02 6.87874E-02
 -1      9681 2.65731E+00 2.10827E+00 4.00275E-01 1.81284E+00 4.98799E-03 5.57775E-02
 -1      9682 2.41635E+00 1.17736E+00 1.25478E-02-2.96964E-01 5.61716E-03-1.03954E-01
 -1      9683 2.48312E+00 1.66842E+00-1.29707E-02-6.00112E-01 5.85402E-02-1.67092E-01
 -1      9684 6.54019E+00 5.64073E+00 1.77643E+00-7.00828E-01 4.54258E-02 1.43074E-02
 -1      9685 6.19646E+00 6.16748E+00 1.86297E+00-1.19899E+00 7.64584E-02 5.86500E-02
 -1      9686 7.25238E+00 6.31739E+00 2.29158E+00-6.45536E-01 1.15873E-02 3.39572E-02
 -1      9687 6.21980E+00 1.88808E+00 5.90559E-01 2.42837E+00-3.60990E-02 1.83545E-01
 -1      9688 2.03850E+00 6.07046E-02-5.62392E-01 2.38080E-01-4.60752E-02 6.24356E-01
 -1      9689 2.07480E+00 8.69689E-02-6.31187E-01 2.17129E-01-6.38015E-02 6.10256E-01
 -1      9690 8.81394E+00 8.42313E+00 3.84923E+00-1.04263E+00-1.75044E-02 5.01859E-02
 -1      9691 8.26280E+00 7.63313E+00 3.45826E+00-9.71206E-01 1.48431E-02 5.85187E-02
 -1      9692 7.37064E+00 9.26715E+00 3.70137E+00-1.89103E+00-9.11030E-02 1.10734E-01
 -1      9693 5.32061E+00 6.02731E+00 1.71806E+00 4.46741E+00-4.35273E-02 3.08790E-01
 -1      9694 5.31150E+00 3.24308E+00 7.88482E-01 3.05936E+00 3.17400E-02 3.12751E-01
 -1      9695 5.79677E+00 1.03549E+01 3.03141E+00-1.34131E+00 1.58174E-01 1.54905E-01
 -1      9696 3.44303E+00 7.27117E+00 1.54920E+00-7.98910E-01 1.41999E-01 1.05272E-01
 -1      9697 6.78439E-01 2.45762E+00 8.06718E-02 5.38067E-01 1.53506E-01 8.49805E-02
 -1      9698 4.93735E-01 2.35715E+00 5.81054E-02 1.64936E-01 1.28101E-01 3.07308E-02
 -1      9699 6.98443E-01 2.77826E+00 1.12887E-01 2.35061E-01 1.88730E-01 6.01479E-02
 -1      9700 6.06775E-01 2.10853E+00 2.20995E-02 4.58170E-01 1.25242E-01 7.77614E-02
 -1      9701 6.10517E-01 1.72674E+00-1.78028E-02 6.95787E-01 7.26089E-02 9.01496E-02
 -1      9702 8.76007E+00 8.33596E+00 3.91605E+00-9.88369E-01-1.17716E-02 1.99815E-02
 -1      9703 8.39178E+00 7.82065E+00 3.67231E+00-8.73678E-01-1.93497E-02 1.84786E-02
 -1      9704 5.14312E+00 8.58997E-01 3.72179E-01 1.53867E+00 5.84956E-03 1.98141E-01
 -1      9705 5.52870E+00 1.09883E+00 5.70579E-01 1.60232E+00-1.48094E-02 1.12110E-01
 -1      9706 1.29959E+01 1.63254E+01 6.52537E+00-2.15412E+00 1.99923E-01 2.51616E-01
 -1      9707 1.27347E+01 1.32745E+01 5.65143E+00-1.89046E+00 1.19872E-01 3.55742E-01
 -1      9708 6.14037E+00 6.36496E+00 3.15072E+00 3.35564E+00-3.38524E-01 1.36720E-01
 -1      9709 9.02891E+00 1.07708E+01 4.73367E+00 6.69994E+00-4.72693E-01 2.25906E-01
 -1      9710 4.09672E+00 2.97632E+00 8.98706E-01-4.10430E-01 2.38945E-02-4.94323E-02
 -1      9711 4.77386E+00 1.55274E+00 8.03575E-01 2.57652E+00-2.56036E-02 7.86294E-02
 -1      9712 3.62517E-02-1.73027E+00-5.61269E-02-3.36422E-01-3.64425E-02-3.59649E-03
 -1      9713 4.33221E+00 2.53193E-01-3.87045E-01 7.32063E-01 1.25651E-01 3.93296E-01
 -1      9714 7.58067E-01 1.73731E-01 1.27145E-02 3.49066E-01-1.81514E-03 4.47172E-03
 -1      9715 8.92923E-01 1.48822E-01 4.65141E-02 2.12784E-01 1.53892E-03 1.34419E-02
 -1      9716-2.72812E-02 4.38030E-01-3.05413E-02-8.57313E-01 3.76221E-02-2.07544E-02
 -1      9717-2.48929E-01 3.66078E-01-2.04734E-02-7.47737E-01 2.22910E-02 4.11302E-03
 -1      9718 9.20823E-01 2.59625E+00 1.33003E-01-5.57811E-01 1.50567E-01-3.18215E-02
 -1      9719 6.32806E-01 1.86423E+00 3.77343E-02-6.44939E-01 1.19706E-01-4.24100E-02
 -1      9720 4.25443E+00 3.09716E+00 5.36397E-01-3.82959E-01 5.28200E-02-1.89636E-01
 -1      9721 4.51310E+00 3.44135E+00 6.32867E-01-4.10720E-01 5.47377E-02-1.67041E-01
 -1      9722 4.69051E+00 3.60687E+00 7.80943E-01-3.79713E-01 3.92070E-02-1.38998E-01
 -1      9723 4.51968E+00 3.67637E+00 7.35057E-01-7.81388E-01 9.13938E-02-1.08163E-01
 -1      9724 1.29252E+01 1.56239E+01 7.36623E+00-2.13067E+00-3.57186E-02-4.60475E-03
 -1      9725 1.26896E+01 1.39753E+01 6.72734E+00-1.85064E+00-1.25888E-01-8.21318E-02
 -1      9726 1.36920E+01 1.58441E+01 7.47306E+00-2.28207E+00 4.13283E-02-3.07320E-01
 -1      9727 3.77323E+00 4.30185E+00 1.25467E+00 2.69163E+00 4.58115E-02 1.00933E-01
 -1      9728 4.36601E+00 1.44744E+00 5.92027E-01 2.35873E+00 5.19564E-02 6.22911E-02
 -1      9729 6.78273E+00 2.00973E+01 2.49310E+00-2.66898E-01 3.77669E-01 5.40313E-01
 -1      9730 7.66159E+00 1.44097E+01 7.47697E-01-1.62450E+00 7.44750E-01 2.42321E-01
 -1      9731 1.31496E+01 2.26621E+01 8.98758E+00-2.27225E+00 3.18886E-01-3.41465E-01
 -1      9732 1.17791E+01 2.12596E+01 8.71480E+00-1.69140E+00-7.41770E-02 3.65769E-01
 -1      9733 1.15174E+01 1.74686E+01 7.29932E+00-1.33698E+00 1.75529E-01-1.43393E-01
 -1      9734-7.49776E-02-2.50165E-02-2.62727E-02-8.54630E-01 3.90738E-03-6.27406E-03
 -1      9735-4.00522E-01 9.91553E-02-1.89444E-01 4.80267E-01-3.70817E-02 2.22512E-04
 -1      9736-1.17392E-01 4.44095E-01-1.34214E-02 6.69089E-01-6.22022E-02 1.59504E-02
 -1      9737 5.93388E+00 9.47615E+00 3.39990E+00 5.05680E+00-8.40028E-02 5.58697E-02
 -1      9738 5.79621E+00 2.72380E+00 1.41371E+00 3.75370E+00-3.98041E-02 1.52117E-01
 -1      9739 3.34053E+00 9.42654E+00 8.26276E-01 5.45828E-01 5.34239E-01 3.42662E-01
 -1      9740 3.99177E+00 8.36829E+00 5.52623E-01-1.21899E+00 4.49727E-01-1.46310E-02
 -1      9741 3.71815E+00 1.10425E+01 8.33931E-01 8.57406E-02 5.54287E-01 4.43575E-01
 -1      9742 4.13483E+00 1.11555E+01 2.55557E+00 1.71669E+00 2.11263E-01 2.98262E-01
 -1      9743-1.30009E-01-2.89863E-02-1.17312E-02-9.44082E-01 1.52806E-02-1.99961E-02
 -1      9744-1.04052E-01 4.11343E-01-1.80157E-02-9.40952E-01 3.33787E-02-2.30729E-02
 -1      9745-3.04904E-01 3.54000E-01 2.40148E-03-8.32708E-01 1.81671E-02-1.31428E-02
 -1      9746 3.24631E+00 2.03767E-01-1.37401E-01 4.76038E-01-3.77274E-02 5.73223E-02
 -1      9747 2.88785E+00 1.34403E-01-2.92409E-01 3.86385E-01-1.14655E-03 7.35189E-02
 -1      9748 3.19606E+00 3.72862E+00 8.71834E-01-9.32892E-01 4.29139E-02-1.48829E-02
 -1      9749-6.95863E-02 3.63854E-01-3.41313E-03 6.55243E-01 4.74981E-04 5.77894E-03
 -1      9750-2.53994E-01 3.42992E-01 8.96325E-04 5.04121E-01 2.41308E-03 2.62704E-03
 -1      9751 1.61637E+00 4.99707E-02-1.33173E-01 3.15285E-01-3.60447E-02 2.04459E-01
 -1      9752 4.03501E+00 3.70479E+00 1.18775E+00-9.12643E-01 3.85364E-03-7.83237E-03
 -1      9753 6.77814E+00 2.57573E+00 1.01292E+00 2.96700E+00 2.56716E-01 3.02839E-01
 -1      9754 7.54518E+00 5.76793E+00 2.43764E+00 5.64881E+00 2.48918E-01 1.90320E-01
 -1      9755 5.50821E+00 9.22383E+00 2.95936E+00 5.02634E+00 4.29033E-02 1.56185E-01
 -1      9756 5.63210E+00 3.16957E+00 1.16020E+00 3.64943E+00-3.04649E-02 1.98976E-01
 -1      9757 1.22051E+00-1.87471E-02-3.91004E-01 7.17130E-02-1.98676E-02 6.98835E-02
 -1      9758 1.13753E+00-1.02341E-03-3.40037E-01 7.97254E-02-5.43729E-03 6.97992E-02
 -1      9759 7.65769E-01-2.28048E-02-3.52647E-02-7.02672E-01 3.72640E-02-1.11381E-01
 -1      9760 9.44843E+00 9.07919E+00 4.35387E+00-1.12845E+00-2.73523E-02-1.39805E-02
 -1      9761 8.40661E+00 6.53798E+00 3.46133E+00 5.48605E+00-3.39663E-01 4.76852E-01
 -1      9762 3.51131E+00 8.70574E+00 2.49890E+00 3.14704E+00-3.49321E-02-4.04797E-02
 -1      9763 2.60928E+00 7.70994E+00 1.95051E+00 1.70953E+00 3.17949E-03 3.09288E-02
 -1      9764 1.35176E+01 1.53568E+01 7.25250E+00-2.06748E+00-6.29253E-03 1.26337E-01
 -1      9765 3.71034E+00 1.17012E+01 2.69354E+00 1.51609E+00 4.65228E-02 3.15895E-01
 -1      9766 3.98785E+00 1.22320E+01 2.87246E+00 2.23725E+00 1.50742E-01 3.19221E-01
 -1      9767 6.10945E+00 6.34860E+00 1.43305E+00 5.16887E+00-1.02698E-01 5.48602E-01
 -1      9768 3.98251E+00 5.08034E-01 1.20832E-01 1.01578E+00 1.24568E-02 7.93579E-02
 -1      9769 4.55429E+00 7.56927E-01 4.03814E-01 1.23058E+00 3.90175E-02 1.10940E-01
 -1      9770 2.60953E+00 5.87248E-01-1.27366E-02 9.98598E-01-6.79744E-03 1.89593E-02
 -1      9771 2.54924E+00 1.89342E+00 3.11664E-01 1.65191E+00 9.30491E-03 3.07236E-02
 -1      9772 1.42878E+01 1.94611E+01 8.78504E+00-2.90310E+00 1.74966E-01 1.18555E-01
 -1      9773 1.44053E+01 2.97242E+01 1.19157E+01-2.54552E+00 1.55792E-01 3.12046E-03
 -1      9774 3.78558E+00 1.09316E+01 3.17768E+00 4.11237E-01 2.74039E-02 9.35696E-02
 -1      9775 4.91613E+00 6.34648E-01 2.93711E-01 1.05404E+00-1.16160E-01 1.01640E-01
 -1      9776 7.15070E+00 6.26565E+00 2.83489E+00 4.88502E+00 2.44346E-01 3.21731E-01
 -1      9777 6.52331E+00 2.69837E+00 1.50138E+00 3.70658E+00-6.62873E-02 1.13743E-01
 -1      9778 7.93993E+00 7.78671E+00 3.36094E+00 5.60697E+00 6.22098E-02 8.94103E-02
 -1      9779 2.02369E+00 3.25979E+00 3.64614E-01 1.61881E+00 1.02712E-01 2.18322E-01
 -1      9780 1.78819E+00 3.19471E+00 2.53427E-01 1.39658E+00 1.38408E-01 2.07410E-01
 -1      9781 2.14342E+00 4.23146E+00 5.68933E-01 1.74854E+00 1.05636E-01 2.25902E-01
 -1      9782 1.83922E+00 4.00467E+00 4.01115E-01 1.39431E+00 1.50027E-01 2.02203E-01
 -1      9783 2.27853E+00 2.67539E+00 2.55989E-01 1.84002E+00 1.29167E-01 2.83212E-01
 -1      9784 5.94601E+00 4.57879E+00-5.60708E-01 2.79643E+00 1.41703E-01 1.21300E+00
 -1      9785 8.64264E+00 5.41970E+00-5.39256E-02 4.95989E+00 5.76962E-01 9.76032E-01
 -1      9786 6.92889E+00 3.87512E+00-4.47500E-02 3.24511E+00 1.23832E-01 1.26327E+00
 -1      9787 1.23912E+00 3.75648E+00 2.49274E-01 5.32134E-02 2.36864E-01 7.53484E-02
 -1      9788 3.54320E-02 3.38249E-01-2.91239E-02 7.46534E-01 5.86786E-03 6.64443E-03
 -1      9789 4.59252E-02 2.89614E-01-1.29106E-03 8.25374E-01-6.11064E-03-1.04344E-02
 -1      9790 3.31985E+00 6.89091E+00 1.72816E+00 2.81429E+00 2.52199E-02 1.70183E-01
 -1      9791 4.89098E+00 4.99094E+00 1.59925E+00 3.56257E+00 1.00988E-01 1.20938E-01
 -1      9792 3.66870E+00 8.38434E+00 2.17020E+00 2.89538E+00 7.50406E-03 1.58655E-01
 -1      9793 9.26795E+00 9.71827E+00 4.34446E+00-1.29530E+00 5.97951E-02 3.15217E-02
 -1      9794 7.57172E+00 6.70676E+00 3.03664E+00-7.40825E-01-5.79142E-03 1.61724E-02
 -1      9795 6.43572E+00 8.08582E+00 3.07546E+00-1.61551E+00 1.51399E-02 1.15323E-02
 -1      9796 7.39664E+00 4.14958E+00 1.87593E+00 4.75556E+00-7.94465E-02 2.02951E-01
 -1      9797 4.66234E+00 3.86982E+00 9.78711E-01 3.05078E+00-4.47708E-03 2.02638E-01
 -1      9798 5.35952E+00 2.26513E+00 7.42621E-01 3.02384E+00-1.38882E-01 1.68216E-01
 -1      9799 5.33179E+00 1.16407E+00 4.69340E-01 2.51585E+00-4.71876E-02 1.94376E-01
 -1      9800 4.82190E+00 3.85219E+00 1.37937E+00-5.40637E-01 2.70252E-02-2.16143E-02
 -1      9801 5.20310E+00 4.07313E+00 1.57557E+00-4.62979E-01 4.49349E-03-2.41455E-02
 -1      9802 1.16263E+01 1.32446E+01 3.89781E+00-1.82654E+00 2.56490E-01 3.41299E-01
 -1      9803 5.52147E+00 1.19738E+01 4.06611E+00 2.82992E-01 4.93916E-02-7.09962E-02
 -1      9804 5.07817E+00 1.08637E+01 3.65055E+00-3.06259E-01-3.20834E-02-9.12108E-03
 -1      9805 6.01177E+00 9.80595E+00 3.61218E+00-1.83905E+00-1.67473E-04 6.08094E-02
 -1      9806 3.26159E+00 2.77449E-01-6.87225E-02 8.47095E-01-5.89538E-04 1.51341E-01
 -1      9807 2.30252E+00 8.19427E-02-4.00596E-01 2.94732E-01-9.29916E-03 1.20619E-01
 -1      9808 2.83999E+00 1.61451E-01-1.79542E-01 6.15652E-01 1.73255E-02 1.37792E-01
 -1      9809 5.50956E+00 5.97324E+00 2.28279E+00-1.22473E+00 1.19929E-02 5.49793E-03
 -1      9810 5.13147E+00 5.03644E+00 1.88329E+00-1.04042E+00-4.20380E-03 7.55090E-03
 -1      9811 8.12970E+00 1.18120E+01 4.69823E+00-1.86381E+00-6.44158E-02 4.13343E-02
 -1      9812 9.75795E+00 1.01727E+01 4.57134E+00-1.51260E+00-5.55704E-02 7.32609E-02
 -1      9813 7.93323E+00 1.23918E+01 4.76958E+00-2.01651E+00 1.06165E-01-9.59513E-02
 -1      9814 1.30900E+01 1.53070E+01 5.46560E+00-2.35274E+00-4.33253E-02 2.28312E-01
 -1      9815 2.71240E+00 3.21851E+00 6.94778E-01-1.00654E+00 1.49921E-02-1.33090E-02
 -1      9816 3.07775E+00 3.74814E+00 9.32694E-01-1.03702E+00 9.13296E-03-1.44773E-02
 -1      9817 1.94366E+00 3.73598E+00 6.41853E-01-7.49477E-01 1.01762E-02 1.05931E-02
 -1      9818 2.20617E+00 4.29500E+00 8.54733E-01-7.29680E-01 1.98978E-02 7.82135E-03
 -1      9819 2.51281E+00 4.13319E+00 8.84604E-01-7.99979E-01 3.12441E-02-1.70564E-03
 -1      9820 2.84673E+00 1.39920E-01-2.88437E-01 4.51530E-01 1.35303E-02 7.80012E-02
 -1      9821 1.80378E+00 9.21936E-03-4.86211E-01 1.68561E-01 1.93022E-02 4.19985E-02
 -1      9822 2.22710E-01 4.32290E-01-1.33672E-02 7.04824E-01-5.01077E-03 2.45498E-02
 -1      9823 4.51291E+00 5.17976E+00 9.31511E-01 3.16678E+00 6.77184E-02 4.52066E-01
 -1      9824 5.20340E+00 5.73422E+00 1.33053E+00 3.85608E+00 2.36549E-01 4.61399E-01
 -1      9825 5.55663E+00 5.56039E+00 1.25299E+00 4.05013E+00 9.50029E-02 5.53113E-01
 -1      9826 2.14145E+00 4.86789E+00 3.42876E-01-4.75589E-01 3.09039E-01 2.39551E-02
 -1      9827 6.26366E+00 1.98448E+01 6.80880E+00 1.29430E-01 1.74057E-01-2.64342E-01
 -1      9828 2.48196E+00 5.13476E+00 1.12197E+00 2.03200E+00 4.55156E-02 5.21111E-02
 -1      9829 2.79349E+00 5.19735E+00 1.20348E+00 2.29869E+00 2.06900E-02 1.26979E-01
 -1      9830 4.26343E+00 1.23784E+00 4.14310E-01 2.09960E+00-1.20060E-02 7.71115E-02
 -1      9831 5.64073E+00 2.28034E+00 1.06260E+00 2.77071E+00 2.46682E-03 1.02089E-01
 -1      9832-2.96485E-02 2.05472E-01-5.85351E-03 4.06741E-01-3.19162E-02 1.97178E-02
 -1      9833 9.59418E-01 3.39189E+00 2.26562E-01 4.66213E-01 1.62206E-01 1.06228E-01
 -1      9834 7.62748E-01 2.99206E+00 1.31983E-01-8.55850E-03 1.32139E-01 3.16328E-02
 -1      9835 9.17598E-01 2.72000E+00 1.32197E-01 7.85428E-01 1.35882E-01 1.08231E-01
 -1      9836 6.87752E-01 2.54889E+00 8.28906E-02 3.71152E-01 1.27057E-01 5.58860E-02
 -1      9837 1.04321E+00 3.22787E+00 2.55977E-01 6.37318E-01 1.25211E-01 7.82049E-02
 -1      9838 4.95604E+00 1.34469E+01 4.26642E+00 3.00839E+00 1.87576E-01 6.56294E-03
 -1      9839 1.52998E+01 2.51712E+01 9.82090E+00-2.96048E+00-2.04994E-02-1.68681E-01
 -1      9840 4.05141E+00 2.21354E+01 5.89409E+00 3.70396E+00-3.78739E-01 1.70492E-01
 -1      9841 7.92933E+00 7.27288E+00 3.23236E+00-8.09965E-01 3.27855E-02 5.94607E-02
 -1      9842 7.06714E+00 7.55466E+00 3.04945E+00-1.52743E+00-1.34181E-02 1.20599E-01
 -1      9843 1.67254E+00-3.57299E-03-7.78037E-02 1.73381E-01-4.68201E-02 1.60908E-01
 -1      9844 2.48562E+00 1.12355E-01-1.23689E-01 6.28301E-01-7.32271E-02 2.82306E-01
 -1      9845 2.18346E+00 9.02998E-02-5.40152E-02 4.98909E-01-8.72745E-02 1.56070E-01
 -1      9846 4.93278E+00 9.83263E+00 6.53140E-01-1.26449E+00 4.60497E-01 4.57305E-02
 -1      9847-3.19480E-01 1.60473E-01-5.58516E-02 5.30212E-01-9.40136E-02 5.27987E-02
 -1      9848 1.45654E+00 2.05869E-02-4.38830E-01 1.03113E-01 1.79005E-03 6.84785E-02
 -1      9849 1.38814E+00 2.47581E-03-4.21804E-01 8.60888E-02 2.76582E-03 8.81159E-02
 -1      9850 1.49310E+00 2.08193E-02-4.44813E-01 1.00946E-01 1.45573E-03 8.90216E-02
 -1      9851 4.58114E+00 6.14128E-01-7.53740E-01 1.47302E+00 5.45398E-02 7.03364E-01
 -1      9852 3.47703E+00 3.53750E-01-7.54191E-01 6.37128E-01-5.04078E-04 7.86601E-01
 -1      9853 1.29371E+01 1.42389E+01 6.90050E+00-2.21051E+00 1.04885E-01 1.69257E-01
 -1      9854 1.28852E+01 1.45866E+01 6.79092E+00-2.55246E+00 1.82542E-01-3.36938E-02
 -1      9855 5.42708E+00 4.27491E+00 1.70923E+00-4.79182E-01-3.05288E-03-1.70366E-02
 -1      9856 9.00194E+00 4.64041E+00 2.79677E+00 4.29958E+00-1.64761E-01 3.87016E-01
 -1      9857 1.12642E+01 1.11252E+01 4.99012E+00-1.31662E+00 9.09888E-02 1.49953E-01
 -1      9858 1.24532E+01 1.25152E+01 5.74378E+00-1.60137E+00 9.75275E-02 1.72243E-01
 -1      9859 1.20275E+01 1.27352E+01 5.63055E+00-1.51322E+00 2.50556E-02 1.90250E-01
 -1      9860 2.75309E+00 6.56215E+00 1.65066E+00-2.25191E-01 1.55927E-02 9.63645E-03
 -1      9861 7.85233E+00 1.68616E+00 8.73641E-01 2.27185E+00-4.01011E-01 1.86562E-01
 -1      9862 6.77580E+00 9.81602E+00 2.50805E+00-1.77643E+00 5.76199E-02 1.94139E-01
 -1      9863 8.56879E+00 8.01606E+00 2.48260E+00-1.02570E+00 1.63464E-01 4.71099E-02
 -1      9864 1.55196E+00 4.54185E-01-8.39457E-02 7.27355E-01 1.01595E-02 1.53035E-01
 -1      9865 1.11526E+00 4.48684E-01-7.08155E-02 6.75357E-01 1.65001E-02 1.17934E-01
 -1      9866 1.87660E+00-3.54811E-03-4.90191E-01 1.99899E-01 8.79242E-04 9.57422E-02
 -1      9867 2.02251E+00 7.39100E-02-4.26254E-01 2.05797E-01-7.46573E-03 7.52092E-02
 -1      9868 4.25044E+00 2.04711E+01 6.20968E+00 1.99520E+00-1.24029E-01-1.22216E-01
 -1      9869 1.64162E+00 4.85446E-01-1.35897E-02-2.59087E-01 2.97085E-02-1.89606E-01
 -1      9870 1.57182E+00 4.13196E-01-1.44019E-02-2.50745E-01 2.70007E-02-1.79817E-01
 -1      9871 1.39387E+00 1.79996E-01-1.04384E-02-2.35248E-01 2.47918E-02-1.59330E-01
 -1      9872 4.30000E+00 7.11819E+00 2.25430E+00-1.16061E+00 1.11476E-02 1.98279E-03
 -1      9873 6.39903E+00 9.38859E+00 2.76900E+00-1.68726E+00 1.43440E-01 1.50947E-01
 -1      9874 7.86452E+00 4.83995E+00 2.83889E+00 5.08987E+00 4.91496E-02 6.54278E-02
 -1      9875 7.74386E+00 8.95579E+00 4.00091E+00 5.84832E+00-2.59807E-01-2.07030E-01
 -1      9876 7.77918E+00 3.59233E+00 2.28864E+00 4.27021E+00-6.92043E-02 1.38467E-02
 -1      9877 3.34538E+00 8.61939E-01-2.73771E-02 1.31130E+00 3.68791E-02 3.22128E-01
 -1      9878 3.97318E+00 1.24969E+00 1.99268E-01 1.70326E+00-2.46477E-02 2.20414E-01
 -1      9879 3.58747E+00 1.00355E+00 8.07457E-02 1.41512E+00 4.70320E-02 2.40297E-01
 -1      9880 2.74964E+00 1.34106E-01-3.03044E-01 3.53632E-01-1.34402E-03 5.85018E-02
 -1      9881 5.42297E+00 6.60416E+00 1.67244E-01-1.48905E+00 3.45727E-01-2.97609E-01
 -1      9882 8.59585E-01 7.83840E-01-4.78064E-02 7.63277E-01 6.35035E-03 3.30057E-02
 -1      9883 9.38945E-01 8.66490E-01-4.11645E-02 7.84019E-01 1.31882E-02 2.73566E-02
 -1      9884 6.63299E-01 1.07586E+00-3.98803E-02 7.66080E-01 1.41347E-02 1.89591E-02
 -1      9885 8.73192E-01 8.51381E-01-5.48949E-02 7.72807E-01 2.47744E-02 6.23971E-02
 -1      9886 5.55781E-01 1.55817E-01-3.57180E-02 2.94580E-02 2.13200E-02-1.22949E-02
 -1      9887 8.41565E-01 1.38869E-01-2.35267E-02 1.85730E-01 1.68743E-02 1.34535E-02
 -1      9888 2.77710E+00 6.09718E+00 8.23608E-02 3.04437E+00 4.18145E-01 5.19565E-01
 -1      9889 3.75321E+00 6.85597E+00 3.64130E-01 3.17859E+00 2.16898E-01 7.36346E-01
 -1      9890 3.67861E+00 2.58537E+00-1.75809E-01 3.44924E+00 8.40632E-02 6.48619E-01
 -1      9891 4.56249E+00 3.02915E+00 7.81743E-02 3.45713E+00 1.48185E-02 9.77094E-01
 -1      9892 3.40045E+00 6.14905E+00-1.30692E-02 3.16491E+00 4.07780E-01 8.89411E-01
 -1      9893 7.40458E+00 1.26383E+01 6.77286E-01-1.33126E+00 5.66730E-01 4.26384E-02
 -1      9894 7.77992E+00 1.16762E+01 7.67262E-01-1.44588E+00 4.49067E-01-1.54379E-01
 -1      9895 1.32444E+01 1.83348E+01 7.54178E+00-2.03480E+00 1.29437E-01 1.86597E-01
 -1      9896 1.09217E+01 2.01092E+01 7.78914E+00-2.16683E+00-2.73476E-02-8.36366E-02
 -1      9897 1.27552E+01 1.70049E+01 7.08757E+00-1.67876E+00 1.04785E-01 3.41670E-04
 -1      9898 8.42362E+00 1.68653E+00 1.88058E+00 2.31885E+00 3.23062E-01-1.41427E-01
 -1      9899 9.20031E+00 1.85131E+00 1.71562E+00 2.70510E+00 1.14173E+00-5.09977E-02
 -1      9900 7.57907E+00 1.78011E-01 1.37592E+00 2.48942E+00 7.18338E-02 1.25974E-01
 -1      9901 1.01371E+01 6.86044E+00 2.99093E+00 5.34268E+00 1.39733E-03 3.46586E-01
 -1      9902 5.92286E+00 8.78856E+00 2.81864E+00 6.14204E+00-1.45669E-01 1.95732E-01
 -1      9903 7.93950E+00 7.39398E+00 1.12971E+00-1.03916E+00 1.75383E-01-1.24347E-01
 -1      9904 8.36448E+00 7.79718E+00 1.12548E+00-1.18969E+00 1.92162E-01-8.70742E-02
 -1      9905 7.65457E+00 7.18356E+00 8.00351E-01-9.54554E-01 1.50119E-01-1.79629E-01
 -1      9906 3.24521E+00 5.52938E+00 1.13872E+00-1.00089E+00 1.51315E-01 6.98021E-03
 -1      9907 4.37424E+00 5.90846E+00 1.56995E+00-1.17251E+00 1.00052E-01 4.41206E-02
 -1      9908 4.56807E+00 5.50461E+00 1.44993E+00-1.12191E+00 8.01616E-02 2.48502E-02
 -1      9909 3.70669E+00 4.54193E+00 9.83366E-01-1.05912E+00 9.44735E-02-3.01326E-02
 -1      9910 5.44449E+00 1.57332E+01 4.86572E+00 6.26188E-01-3.84799E-02 3.91182E-02
 -1      9911 6.44761E+00 1.32614E+01 4.41221E+00-1.33450E+00 2.72928E-02 1.45880E-01
 -1      9912 4.46486E+00 3.43099E+00 1.16865E+00-4.67309E-01 2.73720E-02-2.90403E-02
 -1      9913 4.26179E+00 3.33374E+00 2.52538E-01-4.59917E-01 8.42932E-02-2.94906E-01
 -1      9914 5.23539E+00 5.60599E+00 1.21112E+00-1.22220E+00 1.47665E-01-3.71360E-02
 -1      9915 5.62744E+00 4.78247E+00 1.06832E+00-6.57230E-01 8.37556E-02-1.08336E-01
 -1      9916 6.57347E+00 5.55050E+00 1.46269E+00-6.02869E-01 7.42193E-02-3.55127E-02
 -1      9917 5.23620E+00 5.16609E+00 1.02108E+00-1.09384E+00 1.42025E-01-8.51008E-02
 -1      9918 2.30241E+00 6.92216E+00 1.63375E+00 8.06922E-01-3.25413E-02 3.11386E-03
 -1      9919 1.04980E+01 2.28639E+00 2.21090E+00 5.46970E+00-6.13227E-01 5.76132E-01
 -1      9920 7.41387E+00 2.58536E+00 1.61599E+00 2.85491E+00-1.71603E-01 1.50561E-01
 -1      9921 6.41796E+00 1.94802E+00 1.07545E+00 2.39051E+00-9.82301E-02 1.63337E-01
 -1      9922 4.62832E+00 3.43333E+00 1.26040E+00-3.98080E-01-3.43103E-03-1.15157E-02
 -1      9923 1.29714E+01 1.66857E+01 6.50562E+00-2.15518E+00 8.73916E-02 5.09306E-02
 -1      9924 9.61032E-01 6.26624E-01-3.68304E-02 7.88967E-01 3.04599E-02 9.80909E-02
 -1      9925 6.38206E-01 5.94122E-01-3.20501E-02 7.35067E-01 2.36790E-02 7.42606E-02
 -1      9926-1.10594E+00 4.05585E-03-9.05959E-03 1.43868E-01 6.36404E-03-1.93413E-02
 -1      9927-7.72635E-01 5.08877E-02-9.11498E-03 2.70520E-01 1.33037E-02-2.61595E-02
 -1      9928 1.26383E+00 1.51633E-02 1.54254E-01 8.55077E-03 1.68327E-02-2.20768E-02
 -1      9929 5.46492E-01-3.81655E-01-9.03264E-02 2.51259E-01 3.85197E-02-3.02657E-02
 -1      9930 9.51082E-01 1.57741E-01 8.34494E-02 7.48726E-02 2.85363E-04 7.45770E-03
 -1      9931 6.37421E+00 6.31132E+00 7.07451E-03-8.52441E-01 1.49291E-01-4.83544E-01
 -1      9932 7.93672E+00 7.57120E+00 2.26647E-01-1.32291E+00 2.40832E-01-4.99877E-01
 -1      9933 7.93608E+00 7.22146E+00-2.11402E-01-1.40766E+00 1.73599E-01-5.54971E-01
 -1      9934 1.70208E+00 4.70205E-02-4.62517E-01 1.77529E-01-5.26470E-03 3.10741E-01
 -1      9935 1.81363E+00 1.31894E+00-4.81377E-02 1.47985E+00 2.82379E-02 1.99690E-01
 -1      9936 2.16587E+00 4.22133E-01-5.94887E-04 1.00013E+00-3.19806E-02 1.82472E-01
 -1      9937 2.65115E+00 2.07076E-03-3.20215E-01 3.08786E-01 2.29491E-02 7.39994E-02
 -1      9938 2.44413E+00 8.88962E-02-3.76878E-01 3.31200E-01-9.78002E-04 7.67014E-02
 -1      9939 2.55419E+00 8.05838E-02-3.41627E-01 3.35705E-01 1.58415E-02 3.45992E-02
 -1      9940 5.38307E+00 4.52666E+00 8.98754E-01-6.24681E-01 7.47838E-02-1.23241E-01
 -1      9941 8.15527E+00 2.51665E+01 6.12084E+00 3.47640E+00 6.28074E-01 8.60550E-01
 -1      9942-2.81516E-01 8.86707E-01-7.08284E-03 7.79762E-02 5.21580E-02 1.66566E-02
 -1      9943 3.23013E+00 5.69204E+00 1.45643E+00 2.96147E+00-2.78784E-02 8.36224E-02
 -1      9944 4.40773E+00 3.57152E+00 1.20500E+00 3.03759E+00 3.33586E-03 1.22276E-01
 -1      9945 4.20771E+00 3.81645E+00 1.20433E+00 3.18325E+00-3.08184E-03 1.26401E-01
 -1      9946 3.99675E+00 1.37940E+00 1.19365E-01 1.95011E+00 1.43831E-02 3.42636E-01
 -1      9947 9.03828E+00 5.41191E+00 3.06143E+00 5.21142E+00 1.17748E-01-9.16119E-02
 -1      9948 1.89762E+01 3.57769E+01 1.53245E+01 1.01587E+01-2.26705E-01-4.69605E-02
 -1      9949 1.70881E+01 3.78882E+01 1.50638E+01 1.04646E+01-5.29706E-01-9.41936E-01
 -1      9950 6.08281E-02 1.78444E-01 6.19981E-03-2.44430E-01-1.59375E-03-2.32833E-02
 -1      9951 4.16519E-02 1.37951E-01 1.19450E-02-1.58084E-01 1.16184E-02-6.28929E-03
 -1      9952 2.23696E+00 8.87384E-02-3.78768E-01 2.01311E-01 7.30430E-03 3.24894E-02
 -1      9953 6.37388E+00 6.29988E+00 1.75430E+00 4.75200E+00 1.33713E-02 4.34708E-01
 -1      9954 6.41936E+00 9.71329E+00 2.81610E+00 5.04511E+00 2.63095E-01 3.86401E-01
 -1      9955 2.18326E+00 1.34586E-01-3.93804E-01 2.48570E-01-3.06429E-03 5.88586E-02
 -1      9956 2.26605E+00 1.44795E-01-3.69015E-01 3.00627E-01 6.19516E-03 8.15934E-02
 -1      9957 1.34105E+00 1.22891E-02-2.66614E-01 1.15822E-01-1.99306E-02 2.72695E-01
 -1      9958 1.40750E+00 3.01511E-02-3.57075E-01 1.22797E-01-1.64740E-02 3.12376E-01
 -1      9959 1.08839E+01 8.45943E+00 4.30202E+00 5.73377E+00 1.18262E-01 2.23049E-01
 -1      9960 1.14115E+01 9.74712E+00 4.19867E+00 7.30019E+00-7.92986E-02 2.40700E-01
 -1      9961 8.88557E+00 8.89152E+00 4.36186E+00 4.89060E+00-9.32645E-02 5.57448E-01
 -1      9962 1.19020E+01 1.27880E+01 5.84524E+00-1.75107E+00 8.05232E-02 1.12126E-01
 -1      9963 1.30573E+01 1.47238E+01 6.93254E+00-2.60242E+00-1.42411E-01 2.85264E-01
 -1      9964 1.26940E+01 1.38709E+01 6.54079E+00-2.02101E+00 1.26577E-01 1.89350E-01
 -1      9965 1.20676E+01 1.25106E+01 5.67635E+00-1.43380E+00 4.56935E-02 1.63938E-01
 -1      9966 1.25211E+01 1.38412E+01 6.16905E+00-1.82738E+00 5.53566E-02 2.09609E-01
 -1      9967 2.99709E+00 1.58121E-01-6.28795E-01 6.27503E-01-1.05722E-01 6.82593E-01
 -1      9968 2.45274E+00 1.53780E-01-5.59534E-01 4.16721E-01-6.18394E-02 7.08460E-01
 -1      9969 3.14518E+00 8.21788E-02-2.11427E-01 3.80992E-01 5.70336E-02 7.73488E-02
 -1      9970 4.66687E+00 8.49108E-01 4.83562E-01 1.82481E+00 9.05369E-03 7.74998E-02
 -1      9971 5.64349E+00 8.24727E-01 7.91017E-01 1.54656E+00-1.16674E-02-2.28816E-02
 -1      9972 4.78671E-01 1.86044E+00 1.71875E-02-5.76739E-01 4.50056E-02-1.73199E-03
 -1      9973-7.12285E-01 3.70624E-01-1.95188E-02-1.12577E-01 1.68044E-02 6.61369E-03
 -1      9974-9.34235E-01 1.49811E-01-2.52564E-02-2.14588E-02 1.99730E-02 8.27332E-03
 -1      9975-6.71773E-01 4.37447E-01-1.18562E-02-1.90546E-01 3.12759E-02 1.15752E-02
 -1      9976 2.07262E-02 5.17753E-01 7.56323E-02-3.08692E-01-1.14083E-02-2.51761E-02
 -1      9977-2.46187E-01 5.94051E-02-8.20512E-02-2.91056E-01-1.58793E-02-2.84405E-02
 -1      9978 6.42339E+00 5.57180E+00 1.70411E+00-6.61441E-01 6.56764E-02-1.84692E-02
 -1      9979 2.52696E+00 8.10939E-01-3.06242E-02 1.33256E+00-2.63423E-02 2.91632E-01
 -1      9980 2.28124E+00 1.57047E-01-2.66764E-02 8.14901E-01-6.17980E-02 1.62851E-01
 -1      9981 4.07908E+00 5.19998E+00 1.22883E-01-1.22653E+00 3.57041E-01-3.10026E-01
 -1      9982 6.98190E+00 6.17688E+00 2.54413E+00-7.86894E-01 2.28467E-02 1.08580E-02
 -1      9983 7.18500E+00 6.42458E+00 2.67235E+00-8.40793E-01 6.25865E-02 2.06601E-02
 -1      9984 8.36312E+00 7.82530E+00 3.47462E+00-9.30530E-01-6.46996E-03 5.57390E-02
 -1      9985 6.45355E+00 7.16405E+00 2.72975E+00-1.41537E+00 3.09399E-02 6.56407E-02
 -1      9986 5.84182E+00 1.69047E+00 1.05339E+00 2.22215E+00-3.17395E-02 5.93055E-03
 -1      9987 7.35101E+00 2.56587E+00 1.76504E+00 3.09864E+00-5.60260E-02 9.95851E-03
 -1      9988 5.84892E+00 1.77541E+00 1.11190E+00 2.22631E+00-8.16993E-03 2.07614E-02
 -1      9989-1.13498E+00 1.20864E-02-3.54201E-02 1.23758E-01 7.28214E-03-1.78490E-02
 -1      9990 1.19640E+00 6.20093E+00-1.29341E-02 1.34244E+00 3.27617E-01 2.23966E-01
 -1      9991 1.00936E+00 6.76391E+00-2.03712E-02 1.24270E+00 3.73318E-01 2.38385E-01
 -1      9992-2.45172E-02-4.83942E-02 7.22252E-02-2.02395E-02-1.71124E-02 1.69774E-02
 -1      9993 1.68790E+00 5.96669E-02-4.10669E-01 2.08889E-01 2.08785E-03 1.26059E-01
 -1      9994 1.98688E+00 5.93266E-02-2.76889E-01 4.05567E-01 9.68882E-03 1.19053E-01
 -1      9995 7.22673E+00 1.18057E+01 3.27649E-01-1.23170E+00 8.39740E-01-2.29849E-01
 -1      9996 3.83513E-01 5.37817E-01-2.53958E-02 6.98413E-01 5.49427E-03 4.05220E-02
 -1      9997 1.54357E-01 4.30021E-01-3.09456E-03 6.82334E-01 4.81608E-03 1.84615E-02
 -1      9998 1.23770E+00 3.83898E+00 1.19639E-01-3.34112E-01 3.18328E-01-1.88216E-02
 -1      9999 9.02890E+00 7.55132E+00 3.47384E+00 4.46620E+00 3.90345E-02 5.54277E-01
 -1     10000 7.94923E+00 7.56762E+00 3.39850E+00-8.90007E-01 2.01113E-03 4.21404E-02
 -1     10001 7.58948E+00 7.07803E+00 3.16254E+00-8.22872E-01-1.20714E-02 2.73402E-03
 -1     10002 7.55756E+00 8.36986E+00 3.52143E+00-1.79572E+00 3.12082E-02 6.80009E-02
 -1     10003 5.92407E+00 1.80627E+01 5.81766E+00-1.40427E-02 1.91742E-01-2.38029E-01
 -1     10004 2.67182E+00 1.83399E+00 1.67286E-01-6.34435E-01 9.02148E-02-2.16656E-01
 -1     10005-4.25361E-01 5.52472E-01-6.77010E-03-6.81435E-01 2.83117E-02-7.06868E-03
 -1     10006 4.91641E-01-1.13570E+00-7.08870E-02-1.70575E-01 3.30019E-03-2.62532E-02
 -1     10007 4.28530E-01-1.14888E+00-5.45512E-02-2.50907E-01-3.38857E-03-5.63273E-02
 -1     10008 1.03438E+01 1.03068E+01 5.05806E+00-1.46671E+00-1.29794E-02-4.93540E-02
 -1     10009 6.94143E+00 1.15360E+01 4.33487E+00 5.10607E+00-7.92702E-01-2.51860E-01
 -1     10010 8.60014E+00 8.11990E+00 3.67971E+00-9.89360E-01-3.04157E-02 7.40949E-02
 -1     10011 6.20851E+00 1.26998E+00 1.05380E+00 1.94468E+00 4.47516E-02 6.55109E-02
 -1     10012 4.60462E+00 9.25450E+00 3.01069E+00-1.06932E+00 1.35591E-02-1.38058E-02
 -1     10013 6.44205E+00 1.73934E+01 5.85922E+00 1.08231E+00-7.43588E-02 2.65301E-01
 -1     10014 3.30487E+00 2.68786E+00 6.41015E-01 2.28712E+00 2.90725E-02 1.39470E-01
 -1     10015 3.57593E+00 1.47354E+00 3.91512E-01 1.93046E+00 3.38374E-02 8.70209E-02
 -1     10016 3.03014E+00 2.84840E+00 6.43161E-01 2.08308E+00 4.96615E-02 1.16503E-01
 -1     10017 2.41703E-01 2.32362E+00 3.27583E-03-1.89045E-01 1.45525E-01 8.27564E-03
 -1     10018 4.78142E-02 1.98208E+00-9.01226E-03-2.10240E-01 1.08393E-01-3.87426E-03
 -1     10019-7.96998E-02 1.11860E+00-2.30183E-02 2.68320E-01 5.76451E-02 3.00324E-02
 -1     10020 5.86988E-01-3.72841E-01 2.93498E-02 6.21635E-01 2.69735E-03 4.70008E-02
 -1     10021-3.49715E-01 3.89272E-02 1.01197E-02 3.25371E-01 9.70711E-03-1.67873E-03
 -1     10022 1.01193E+01 9.72282E+00 4.77722E+00-1.20698E+00-1.63979E-03 6.92628E-02
 -1     10023 9.77523E+00 9.59132E+00 4.61593E+00-1.12323E+00 5.83040E-02-2.18832E-02
 -1     10024 1.03798E+01 1.01053E+01 4.90677E+00-1.39433E+00-2.02911E-02 8.67566E-02
 -1     10025 9.29313E+00 8.71137E+00 4.00958E+00-1.11659E+00-1.32093E-01 6.30003E-02
 -1     10026 9.26840E+00 8.63165E+00 3.94420E+00-1.16757E+00-4.20706E-02 4.67187E-02
 -1     10027 2.98703E+00 7.37303E-01-6.80620E-02 1.50117E+00-3.51735E-02 3.32667E-01
 -1     10028 2.43892E+00 3.65775E-01-3.45577E-02 1.05504E+00-7.48394E-02 2.08252E-01
 -1     10029 7.14541E+00 6.76080E+00 2.66039E+00 5.50947E+00 1.02701E-02 2.68671E-01
 -1     10030 6.64477E+00 1.07242E+00 8.24991E-01 2.27244E+00-1.39898E-02 1.79321E-01
 -1     10031 7.50983E+00 2.90127E+00 1.73029E+00 4.98134E+00-1.03025E-01 1.36554E-01
 -1     10032 4.13389E+00 5.16897E-01-5.09628E-01 1.08581E+00-2.06694E-03 5.20839E-01
 -1     10033 6.78508E+00 5.80116E+00 2.41626E+00-6.43278E-01 2.13369E-02 1.29586E-02
 -1     10034 5.94910E+00 5.02061E+00 1.33130E+00-6.01825E-01 2.89930E-02-5.96914E-02
 -1     10035 7.90134E+00 3.34542E+00 1.79627E+00 3.29709E+00 6.59195E-02 3.45875E-01
 -1     10036 1.76997E-01 2.34137E-01-4.28582E-02 8.41177E-02 2.49299E-03 3.07677E-02
 -1     10037 3.08036E-01 1.50382E-01-2.93876E-02 9.50054E-02-2.52924E-02-2.57223E-04
 -1     10038-2.08738E-01-9.08481E-02-6.76709E-02-2.75068E-01-1.64753E-02 3.58657E-02
 -1     10039 9.42021E-01 3.45959E-01 1.06245E-01 3.37772E-01-3.43154E-02 6.06327E-03
 -1     10040 5.53444E-01 4.01012E-01 5.19314E-02 2.69244E-01 5.49540E-03 2.78475E-02
 -1     10041 3.13485E-01 2.08610E+00-4.96211E-03 1.53399E-01 1.50970E-01 4.87882E-02
 -1     10042 1.76301E+00 7.36606E-01 5.60649E-02-5.70873E-01 1.40636E-02-3.95635E-02
 -1     10043 4.71133E-01 2.71035E+00 2.45779E-03 8.22037E-01 1.42449E-01 8.63336E-02
 -1     10044 6.07063E-01 3.51333E+00 6.23385E-03 5.12718E-01 1.67617E-01 4.19321E-02
 -1     10045 6.89136E+00 8.57430E+00 3.40264E+00-1.65019E+00 7.68088E-03 7.33603E-02
 -1     10046 7.97366E+00 7.13711E+00 3.30455E+00-8.92342E-01-9.58955E-03 4.20615E-02
 -1     10047 6.94100E+00 7.74430E+00 3.17465E+00-1.53987E+00-2.43290E-02 7.43857E-02
 -1     10048 8.95808E+00 8.38609E+00 3.99800E+00-9.15904E-01-2.49640E-02 3.31456E-02
 -1     10049 8.12946E+00 1.02206E+01 4.32365E+00-2.02169E+00 5.61700E-02 9.87853E-03
 -1     10050 4.89045E-01-3.82880E-01 1.26707E-02 5.65249E-01 7.60346E-03 5.06839E-02
 -1     10051-3.23294E-01 4.67709E-02 7.72185E-03 3.08477E-01 3.30285E-03-4.44557E-02
 -1     10052 6.08112E+00 9.30966E-01 7.56965E-02 1.94738E+00 2.28837E-02 4.27530E-01
 -1     10053 6.73285E+00 1.21278E+00 2.41094E-01 1.93360E+00 3.88663E-02 2.24953E-01
 -1     10054 5.23582E+00 7.89852E-01-1.06724E-01 1.64002E+00 1.47866E-02 3.60719E-01
 -1     10055 9.79152E+00 1.02783E+01 4.49667E+00-1.44764E+00 1.35284E-02 7.00628E-02
 -1     10056 9.32082E+00 9.39533E+00 4.08254E+00-1.33796E+00 6.60141E-02 5.66263E-02
 -1     10057 8.09921E+00 1.02865E+01 4.04588E+00-1.96394E+00 2.39538E-02 7.68463E-02
 -1     10058 1.10114E+01 1.63182E+01 6.91510E+00-1.92422E+00-2.20736E-02-2.87918E-02
 -1     10059 1.11041E+01 1.90056E+01 8.11116E+00-3.07352E+00 1.67093E-01-1.47545E-01
 -1     10060 4.41274E+00 1.68808E+01 5.27675E+00 7.45239E-01 8.82261E-02 2.40690E-01
 -1     10061 2.93920E+00 6.82428E+00 1.40667E+00-2.80506E-01 1.11085E-01 1.10229E-01
 -1     10062 2.84224E+00 5.97733E+00 1.08991E+00-6.70332E-01 1.74484E-01 6.55603E-02
 -1     10063 2.49940E+00 5.85677E+00 1.02036E+00-4.76712E-01 1.38801E-01 8.98424E-02
 -1     10064 3.43890E+00 6.74067E+00 1.56462E+00-9.00694E-01 9.52162E-02 6.66830E-02
 -1     10065 2.53442E+00 6.56340E+00 1.25227E+00-1.19257E-01 1.31847E-01 1.40455E-01
 -1     10066 9.56817E+00 9.33134E+00 4.50385E+00-1.30312E+00-5.75474E-02 1.11924E-01
 -1     10067 9.41984E+00 9.07186E+00 4.38331E+00-1.17288E+00-1.30142E-02 5.70423E-02
 -1     10068 7.74540E+00 1.10149E+01 4.45271E+00-1.99648E+00 4.08521E-02-2.24185E-02
 -1     10069 8.02178E+00 1.19033E+01 4.51612E+00-2.19359E+00-1.04403E-01 1.44298E-01
 -1     10070 3.91584E+00 2.74917E+00 7.99454E-01-4.02027E-01 1.92212E-02-4.32849E-02
 -1     10071 3.61191E+00 1.45155E+00 4.22023E-01 1.84124E+00 1.92405E-02 4.22072E-04
 -1     10072 3.25512E+00 5.35433E-01 7.34973E-02 1.08863E+00-1.30796E-02 1.67279E-02
 -1     10073 4.53883E+00 4.51148E+00 1.49400E+00-1.05004E+00 3.73585E-02-1.86096E-02
 -1     10074 7.02409E-01 1.64474E-01 4.18652E-03 2.05931E-01-1.17401E-02-4.00988E-04
 -1     10075 9.78168E-01 3.11186E-02-1.39214E-02 2.28623E-01-1.58714E-02-4.67999E-03
 -1     10076 1.05199E+01 1.06737E+01 4.97461E+00-1.24589E+00 1.65244E-02-4.47304E-02
 -1     10077 1.14481E+01 1.23444E+01 5.72241E+00-1.75832E+00-7.22706E-02 1.13657E-02
 -1     10078 3.01942E+00 2.43839E+00 5.81328E-01-7.69167E-01 3.37398E-03-1.85583E-02
 -1     10079 2.18789E+00 7.17421E-01-5.14305E-02 1.06351E+00 1.43990E-02 1.95172E-01
 -1     10080 2.05505E+00 1.31290E+00 5.30142E-02 1.31694E+00 3.57348E-02 1.84360E-01
 -1     10081 1.88802E+00 1.26738E+00 3.84107E-02 1.25688E+00 4.06506E-02 1.43846E-01
 -1     10082 2.66279E+00 3.86309E-01-1.57008E-01 8.45706E-01 7.03116E-02 2.15447E-01
 -1     10083 3.12075E+00 6.84077E+00 1.76424E+00 1.90403E+00 1.03331E-01 9.63776E-02
 -1     10084 3.12711E+00 5.33784E-02-1.67794E-01 4.90090E-01 1.44295E-02 2.19270E-02
 -1     10085 3.26994E+00 8.56315E-02-1.16451E-01 4.50447E-01-1.28953E-02 1.64747E-02
 -1     10086 3.52394E+00 1.91227E-01 5.39727E-03 4.62155E-01-4.87233E-03 2.00142E-02
 -1     10087 1.58772E+01 3.66435E+01 1.37357E+01 1.42531E+01-3.12636E+00 1.08842E-01
 -1     10088 9.55695E+00 6.39792E+00 3.62421E+00 4.84900E+00 8.74942E-01 4.87008E-01
 -1     10089 7.77508E+00 8.79187E+00 1.97725E+00-1.29821E+00 1.24982E-01 1.01346E-01
 -1     10090 5.82534E+00 8.57589E+00 1.32950E+00-1.87089E+00 2.03510E-01 5.72603E-02
 -1     10091 2.21614E+00 3.55917E+00 1.65450E-01-8.51895E-01 2.77996E-01-1.42880E-01
 -1     10092 1.83119E+00 3.82150E+00 1.59593E-01-7.74069E-01 2.72608E-01-4.99077E-02
 -1     10093 9.03710E+00 3.24855E+00 1.89265E+00 3.41741E+00 1.74807E-01-1.46782E-01
 -1     10094 6.99389E+00 7.94895E-01 9.89751E-01 2.52963E+00-1.20510E-02 1.79185E-01
 -1     10095 6.50509E+00 3.07284E+00 1.56848E+00 4.23668E+00 2.45988E-01 4.50966E-01
 -1     10096 5.15943E+00 4.83336E+00 1.80561E+00-9.95663E-01 1.07405E-02 1.51965E-02
 -1     10097 1.19722E+01 1.89514E+01 8.16369E+00-2.88240E+00 2.72528E-02-1.08958E-01
 -1     10098 5.49192E+00 1.28414E+01 2.98794E+00-2.95960E-01 1.99523E-01 3.61078E-01
 -1     10099 6.59476E+00 1.16585E+01 2.98847E+00-1.67283E+00 1.07524E-01 2.30913E-01
 -1     10100 5.38658E+00 8.93898E+00 1.75224E+00-1.51815E+00 2.24612E-01 1.94140E-01
 -1     10101 6.90835E+00 6.37740E+00 2.80237E+00-1.04863E+00-5.38977E-03-1.66180E-02
 -1     10102 7.29741E+00 6.27310E+00 2.90323E+00-6.21712E-01-3.49827E-03-1.95606E-02
 -1     10103 4.31975E+00 4.32333E+00 4.16583E-03-9.59634E-01 2.21255E-01-3.45523E-01
 -1     10104 1.19269E+01 1.33141E+01 6.13359E+00-1.87996E+00 9.59294E-03 1.87568E-01
 -1     10105 1.20393E+01 1.44103E+01 6.49387E+00-1.84085E+00 6.93326E-02 3.03108E-02
 -1     10106 1.17346E+01 1.26388E+01 5.86725E+00-1.52625E+00-2.94294E-02 3.67341E-02
 -1     10107 5.65153E+00 7.64794E+00 2.94450E-01-1.77333E+00 4.66078E-01-3.90888E-01
 -1     10108 7.11952E+00 1.39802E+01 5.26805E+00 6.26216E+00-7.41081E-01-1.68134E-02
 -1     10109 4.82564E+00 1.35379E+00 8.45719E-03 2.34777E+00 8.68151E-02 5.16632E-01
 -1     10110 6.29551E+00 2.41862E+00 5.09807E-01 3.44745E+00 9.14112E-03 5.60971E-01
 -1     10111 7.69362E+00 1.23916E+00 2.91584E-01 3.55265E+00-2.49153E-01 6.56617E-01
 -1     10112 6.71425E+00 1.02753E+01 2.53743E+00 6.18869E+00 2.44751E-01 6.53372E-01
 -1     10113 9.83025E+00 2.73373E+00 7.57753E-01 3.80993E+00-8.77859E-01 1.10021E+00
 -1     10114 6.49242E+00 2.08822E+01 6.79734E+00 8.43721E-01-9.70463E-01 6.56675E-01
 -1     10115 5.70768E+00 4.75150E+00 1.82917E+00-5.58739E-01 1.54797E-02 5.84182E-03
 -1     10116 5.71411E+00 4.74043E+00 1.79792E+00-5.75820E-01 1.00946E-02-1.42289E-02
 -1     10117 5.46562E+00 4.42846E+00 1.63966E+00-5.31927E-01 1.11585E-02-2.31410E-02
 -1     10118 4.12284E+00 4.36530E+00 1.29582E+00-1.10026E+00 3.49227E-02-8.50112E-03
 -1     10119 9.27837E+00 2.61778E+01 9.01923E+00 1.96332E+00 1.51106E-02 2.12315E-01
 -1     10120 1.03857E+01 1.92548E+01 7.34197E+00-1.20670E+00-1.92150E-01 1.30961E-01
 -1     10121 4.53462E+00 1.69096E+01 4.88652E+00 5.08499E+00-6.89387E-02 1.68438E-01
 -1     10122 5.18302E+00 1.48936E+00-5.50881E-01 2.09761E+00-2.04882E-02 1.07071E+00
 -1     10123 2.90082E+00 7.87791E+00 2.05631E+00 1.28579E+00 4.92496E-02 3.08832E-02
 -1     10124 3.02667E+00 8.99904E+00 2.39205E+00 1.11410E+00 4.48632E-03 5.75523E-02
 -1     10125 1.20860E+01 1.46230E+01 6.32412E+00-1.78909E+00-3.30962E-02 1.69874E-01
 -1     10126 8.14056E+00 1.59565E+01 5.41782E+00-2.50756E+00 9.59400E-02 2.22381E-01
 -1     10127 9.27178E+00 1.37473E+01 5.15221E+00-2.06048E+00 1.41286E-02 1.87215E-01
 -1     10128 8.80629E+00 1.58998E+01 5.74421E+00-2.25263E+00-4.50281E-02 1.79907E-01
 -1     10129 2.97888E+00 3.43016E+00 3.45328E-01-9.30261E-01 1.96739E-01-1.60191E-01
 -1     10130 3.49934E+00 4.06517E+00 5.19034E-01-9.78565E-01 2.02554E-01-1.35623E-01
 -1     10131 7.54674E+00 8.73811E+00 3.73747E+00-1.65986E+00-1.65493E-03-5.59754E-02
 -1     10132 1.12687E+00-7.09501E-03-1.79071E-03 1.16859E-01-5.83382E-03 2.05853E-02
 -1     10133 1.16083E+00 2.73000E-03-4.73604E-02 1.28270E-01-2.43466E-02 9.25389E-02
 -1     10134 1.20587E+01 2.44732E+01 9.88597E+00-2.30037E+00-7.63000E-01 5.71904E-01
 -1     10135 6.10591E+00 2.02885E+01 6.28939E+00 1.75969E+00 4.13245E-01-2.58208E-02
 -1     10136 6.22207E+00 5.55590E+00 2.31137E+00-7.23844E-01-1.68108E-02-2.92480E-02
 -1     10137 5.84974E+00 5.62250E+00 2.20550E+00-1.07699E+00 1.53707E-03-1.26519E-02
 -1     10138 2.85761E+00 7.90602E-01-2.30145E-01 1.14322E+00-2.82046E-02 5.61290E-01
 -1     10139 2.84342E+00 7.76430E-01-2.09920E-01 1.12464E+00 6.52122E-03 5.09668E-01
 -1     10140 8.04825E+00 7.59556E+00 2.86158E+00-1.06490E+00 4.93667E-02 8.63702E-02
 -1     10141 3.72779E+00 5.42616E-02-1.10280E-02 5.13370E-01 1.21356E-02 3.09715E-03
 -1     10142 6.91768E+00 1.28360E+01 3.88677E+00-1.73732E+00 1.22397E-01 2.15804E-01
 -1     10143 7.33338E+00 2.10302E+00 1.16715E+00 2.86463E+00-4.44276E-03 2.66299E-01
 -1     10144 7.53653E+00 1.87755E+00 1.20344E+00 2.72931E+00-4.69129E-02 2.82057E-01
 -1     10145 7.74442E+00 7.74873E+00 2.98530E+00 6.02190E+00-1.43976E-02 3.58815E-01
 -1     10146 3.91828E+00 5.40646E+00 1.19154E+00-1.14178E+00 1.14032E-01-1.57497E-03
 -1     10147 4.25643E+00 4.62241E+00 9.89748E-01-1.11790E+00 1.24328E-01-4.36260E-02
 -1     10148 4.69606E+00 6.19485E+00 1.62082E+00-1.23018E+00 8.76277E-02 3.70812E-02
 -1     10149 3.42004E+00 6.85374E+00 1.47769E+00-8.26586E-01 1.33143E-01 8.93287E-02
 -1     10150 3.91771E+00 6.24297E+00 1.40185E+00-9.79471E-01 1.23630E-01 5.40745E-02
 -1     10151 3.37197E+00 5.49062E+00 1.03704E+00-9.48899E-01 1.60300E-01 1.00600E-02
 -1     10152 1.76134E+00 5.01160E+00 5.84584E-01 9.74495E-01 1.74269E-01 1.73893E-01
 -1     10153 3.92247E+00 1.74364E+01 5.00669E+00 4.25947E+00 1.33076E-01-1.50443E-02
 -1     10154 4.43856E+00 3.41720E+00 1.14216E+00-4.69029E-01 3.54635E-02-2.17399E-02
 -1     10155 2.48074E+00 1.06562E-01-3.31376E-01 3.03081E-01-2.35452E-02 2.68117E-02
 -1     10156 2.78179E+00 4.97591E-02-2.85568E-01 2.88032E-01-2.02033E-02 3.54898E-02
 -1     10157 2.56876E+00 1.24112E-01-3.09807E-01 3.32434E-01-7.52642E-03 4.13246E-02
 -1     10158 3.07432E+00 4.35475E+00 1.01365E+00-1.07768E+00 4.75639E-02 8.44421E-03
 -1     10159 2.11252E+00 4.83075E+00 9.16911E-01-4.22535E-01 3.88441E-02 2.76346E-02
 -1     10160 5.13101E+00 3.67756E-01 4.70823E-01 1.36460E+00 8.78208E-02 6.05833E-02
 -1     10161 5.02162E+00 6.49438E-01 6.01203E-01 1.38919E+00-1.26231E-01 1.00483E-01
 -1     10162 6.89669E+00 1.99605E+00 1.62346E+00 3.73585E+00-1.20639E-02 1.78750E-01
 -1     10163 3.82928E+00 7.67608E+00 2.05184E+00 3.25973E+00 9.99008E-02 1.49657E-01
 -1     10164 8.04107E+00 9.37996E+00 4.04492E+00-1.88271E+00 1.78929E-02 1.76159E-01
 -1     10165 1.15912E+00 1.06237E-02-3.75708E-01 8.59865E-02-7.88882E-03 6.42236E-02
 -1     10166 2.41071E+00 1.66399E-01-2.93830E-01 5.71874E-01 2.14932E-03 3.32796E-01
 -1     10167 2.82879E+00 3.08496E-01-2.70580E-01 7.10411E-01 2.38684E-02 3.47072E-01
 -1     10168 3.45066E-02-7.13189E-02 2.10519E-02 3.30820E-01 3.04723E-03-3.17532E-03
 -1     10169 2.15952E+00 1.25284E+00 1.89390E-02-6.09813E-01 5.13269E-02-1.39001E-01
 -1     10170 8.53697E+00 2.32388E+01 7.93889E+00 7.02144E+00 5.45492E-01 2.72577E-01
 -1     10171 4.99722E+00 1.42508E+01 4.40631E+00 2.74208E+00-1.86511E-01 2.03795E-01
 -1     10172 6.04268E+00 7.66652E+00 1.82762E+00-1.57977E+00 1.56979E-01 7.73335E-02
 -1     10173 6.65948E+00 4.95651E+00 2.15953E+00 4.32648E+00-3.77567E-02-1.07599E-02
 -1     10174 7.07209E+00 1.21499E+00 1.33904E+00 3.64345E+00-1.21758E-01-3.85727E-02
 -1     10175 3.51953E+00 3.31037E-01-6.93059E-03 8.16528E-01 3.47004E-02 6.45455E-02
 -1     10176 4.24921E+00 4.68360E-01 2.26462E-01 1.08878E+00-1.69818E-02 1.14184E-01
 -1     10177 5.94848E+00 1.29642E+01 4.00999E+00-8.86383E-01 1.47001E-01 1.84063E-01
 -1     10178 3.65140E+00 1.03053E+01 2.57260E+00 6.67636E-01 5.11966E-02 1.27739E-01
 -1     10179 4.28348E+00 1.02278E+01 2.72627E+00-3.09796E-01 1.41648E-01 4.80924E-02
 -1     10180 3.60655E+00 8.52657E+00 2.42356E+00-4.20095E-01 4.66754E-02 1.15016E-02
 -1     10181 2.76944E+00 7.77559E+00 2.04228E+00 1.34596E+00-4.37239E-02 5.28601E-02
 -1     10182 3.53897E+00 8.84171E+00 2.55010E+00 7.61999E-01 3.76610E-02 1.75686E-02
 -1     10183 4.01164E+00 9.72226E+00 2.90434E+00-3.20842E-02 1.70490E-01-1.36162E-02
 -1     10184 3.02620E+00 8.78705E+00 2.43908E+00 2.16308E+00-6.47924E-02 1.53340E-03
 -1     10185 2.94418E+00 9.01622E+00 2.42211E+00 8.13994E-01-1.52123E-02 3.35098E-02
 -1     10186 1.06119E+01 2.11227E+00 2.26143E+00 4.66468E+00-9.61620E-01 5.93610E-01
 -1     10187 6.86798E+00 1.49226E+00 1.25233E+00 2.42746E+00 5.03875E-03 2.74185E-01
 -1     10188 7.84150E+00 2.15047E+00 1.76977E+00 3.31443E+00-1.23185E-01 2.15659E-01
 -1     10189 1.37781E+00 8.48815E+00 1.65514E-01 1.71842E+00 4.93755E-01 3.01513E-01
 -1     10190 5.20232E+00 4.01596E+00 1.28838E+00-3.98286E-01 2.58619E-02-3.80834E-02
 -1     10191 5.26262E+00 4.07849E+00 1.34682E+00-4.29798E-01 1.66444E-02-1.88635E-02
 -1     10192 3.00760E-01 2.30063E-01 7.04096E-02 7.60193E-02-2.83135E-02-1.43611E-03
 -1     10193 5.98888E+00 1.28243E+00 8.22258E-01 2.57962E+00 1.59023E-02 1.39079E-01
 -1     10194 3.68035E+00 3.06870E-01-1.64806E-01 7.28112E-01-1.28821E-02 1.71506E-01
 -1     10195 3.23606E+00 8.23399E-02-3.33969E-01 3.99822E-01 5.65278E-03 1.73170E-01
 -1     10196 4.55787E+00 7.24800E-01 2.56828E-01 1.50039E+00 6.93820E-03 1.65071E-01
 -1     10197 5.32622E+00 1.02555E+00 5.57061E-01 2.01550E+00 1.23795E-02 2.11665E-01
 -1     10198 6.27989E-02-5.63857E-02 3.86512E-02 2.86897E-01-9.49264E-03-1.93351E-02
 -1     10199 6.35950E+00 1.35297E+01 4.67502E+00-1.12628E+00 3.16219E-02 8.34554E-02
 -1     10200 5.79528E+00 1.41049E+01 4.70263E+00-5.13404E-01-1.12560E-01 7.49080E-02
 -1     10201 6.61845E+00 5.70079E+00 1.12108E+00-6.92251E-01 1.28785E-01-8.63063E-02
 -1     10202 5.90436E+00 3.69896E-01 6.46521E-01 1.53949E+00-2.73100E-02 1.18123E-01
 -1     10203 5.88626E+00 3.19506E-01 7.23705E-01 1.64290E+00 1.53353E-02 1.04832E-01
 -1     10204 9.93613E+00 1.03857E+01 3.88443E+00 7.03347E+00 4.53808E-01 2.84516E-02
 -1     10205 7.15273E+00 6.28337E+00 2.65131E+00-7.02942E-01-1.34452E-03 1.13379E-02
 -1     10206 7.77226E+00 6.78155E+00 2.97534E+00-7.75993E-01 5.95753E-03 2.10028E-02
 -1     10207 7.44690E+00 6.48974E+00 2.80151E+00-7.37563E-01-2.14547E-02 3.65795E-02
 -1     10208 8.39446E+00 1.91591E+00 1.95750E+00 3.22359E+00 1.93981E-01 5.65076E-02
 -1     10209 6.38983E+00 1.58163E+00 1.24821E+00 2.28355E+00 6.73100E-02-1.00182E-02
 -1     10210 7.99946E+00 2.51019E+00 2.05389E+00 2.63099E+00 1.50627E-01-4.62772E-02
 -1     10211 3.61012E+00 3.64538E+00 6.72009E-01-9.77407E-01 1.13899E-01-8.32248E-02
 -1     10212 3.36506E+00 3.30794E+00 4.62662E-01-9.37571E-01 1.28804E-01-1.38250E-01
 -1     10213 4.15074E+00 4.03813E+00 8.12904E-01-9.45799E-01 9.40898E-02-6.32256E-02
 -1     10214 3.28318E+00 9.46202E+00 2.32729E+00 1.42909E+00 5.37845E-02 1.70761E-01
 -1     10215 4.18124E+00 9.45978E+00 2.55673E+00-6.14128E-01 7.44897E-02 1.49457E-01
 -1     10216 5.99506E+00 4.82514E-01 8.06134E-01 1.69883E+00-7.82169E-02 3.85689E-03
 -1     10217 1.63921E+00 1.38175E+00 8.21471E-03 1.15527E+00 6.25369E-02 2.59283E-01
 -1     10218 1.21096E+01 1.28654E+01 6.26085E+00-1.58482E+00-2.22315E-02 3.64699E-02
 -1     10219 3.75890E+00 5.19101E+00 9.70308E-01-1.13526E+00 1.66400E-01-1.27436E-02
 -1     10220 1.03377E+01 1.03316E+01 4.19376E+00-1.49996E+00 9.74812E-02 1.85430E-01
 -1     10221 9.28865E-01 1.23053E+00-6.71072E-03 8.77206E-01 2.49546E-02 2.36716E-02
 -1     10222 1.05817E+00 1.36583E+00 1.00874E-02 9.56198E-01 4.12707E-02 6.71112E-02
 -1     10223 9.95654E+00 9.77152E+00 4.45185E+00-1.14596E+00 5.17743E-03 7.92489E-02
 -1     10224 9.02869E+00 1.14876E+01 4.67462E+00-2.17840E+00 6.27793E-02 3.50166E-02
 -1     10225 1.00421E+01 9.65944E+00 4.36986E+00-1.31191E+00 2.52462E-02 5.95136E-02
 -1     10226 1.05336E+01 1.01223E+01 5.02921E+00-1.34849E+00 6.38140E-02-3.05857E-03
 -1     10227 1.73096E+00 3.54122E-01-1.13470E-02 8.11672E-01-3.96381E-02 1.31170E-01
 -1     10228 1.60496E+00 4.24223E+00 5.44294E-01-3.18199E-01 1.22677E-01 4.51659E-02
 -1     10229 1.62563E+00 4.70650E+00 6.93766E-01 1.71664E-01 1.25266E-01 5.33206E-02
 -1     10230 1.70851E+00 4.51017E+00 6.25253E-01 1.16743E-01 1.12614E-01 7.71643E-02
 -1     10231 6.39327E+00 5.25123E+00 2.21679E+00-5.60413E-01 1.89611E-02 2.62500E-03
 -1     10232 6.24813E+00 5.07757E+00 2.09195E+00-5.67108E-01 1.32090E-02-1.32197E-02
 -1     10233 5.93379E+00 4.86036E+00 1.93869E+00-4.97705E-01 1.32581E-02-4.55121E-03
 -1     10234 9.93022E+00 9.81764E+00 2.83799E+00-1.35329E+00 7.60401E-02 1.63220E-01
 -1     10235 6.35929E+00 1.07199E+01 2.24583E+00-1.82161E+00 2.32135E-01 2.18423E-01
 -1     10236 9.58310E+00 9.16092E+00 4.32447E+00-1.29987E+00-5.07928E-02 9.87761E-02
 -1     10237 7.86719E+00 1.07461E+01 4.33782E+00-1.96820E+00 5.30515E-02 7.62948E-02
 -1     10238 9.54075E+00 9.04091E+00 4.29294E+00-1.13859E+00-8.77960E-03 9.52131E-02
 -1     10239 7.90763E+00 6.79840E+00 3.23049E+00 4.45245E+00-4.98636E-01-1.41793E-01
 -1     10240 7.22475E+00 8.65898E+00 3.02975E+00-1.69049E+00 3.72343E-02 1.02527E-01
 -1     10241 2.37434E+00 2.46841E-01-1.68889E-01 6.36574E-01-6.13530E-03 9.97516E-02
 -1     10242 2.56504E+00 6.26080E-01-3.38519E-02 9.89469E-01 1.11528E-02 1.11841E-01
 -1     10243 2.80016E+00 6.64692E-01-1.55913E-02 1.03241E+00 1.30365E-02 6.76332E-02
 -1     10244 2.47223E+00 1.80709E-01-1.95807E-01 5.51278E-01 1.12814E-02 1.16550E-01
 -1     10245 1.13845E+00 3.44640E+00 3.46004E-02-6.30588E-01 2.30179E-01-6.73438E-02
 -1     10246 1.71463E+00 4.01196E+00 3.96534E-02-8.17072E-01 2.60574E-01-8.47750E-02
 -1     10247 1.71551E+00 4.44952E+00 7.31934E-02-4.30403E-01 3.78646E-01-6.68832E-02
 -1     10248 1.00226E+00 4.01494E+00 3.57774E-02-3.35862E-01 2.31296E-01 4.93616E-04
 -1     10249 9.84983E+00 1.18133E+01 4.00553E+00-1.59670E+00-7.42042E-02 3.75007E-01
 -1     10250 9.38515E+00 2.78843E+01 7.98845E+00 2.26541E+00 9.51488E-01 8.86152E-01
 -1     10251 5.18744E+00 7.61095E+00 1.07721E+00 4.84992E+00 3.29051E-01 7.94123E-01
 -1     10252 1.17617E+01 1.49515E+01 6.87843E+00-1.98237E+00-1.10172E-01 1.54498E-01
 -1     10253 1.23359E+01 1.58552E+01 7.24189E+00-2.39360E+00 1.03680E-01-8.81913E-02
 -1     10254 1.15252E+01 1.31104E+01 6.19368E+00-1.62257E+00-4.13775E-02-2.80475E-02
 -1     10255 1.52583E+00 6.82053E-02-4.06027E-01 1.44929E-01-1.68421E-02 3.31479E-01
 -1     10256 1.85999E+00 6.71104E-01 4.92290E-02-3.75864E-01 2.50510E-02-1.23461E-01
 -1     10257 1.14733E+01 1.11668E+01 4.87440E+00-1.62995E+00 8.56732E-02 1.39863E-01
 -1     10258 8.49985E+00 2.86130E+00 2.21714E+00 2.71347E+00-2.28805E-01 1.18028E-01
 -1     10259 7.84094E+00 2.46921E+00 1.92374E+00 2.86638E+00-2.79819E-01 3.10103E-01
 -1     10260 6.05080E+00 5.48496E+00 2.20729E+00 4.20890E+00 3.00832E-01 2.49787E-01
 -1     10261 1.30973E+01 1.80755E+01 7.70890E+00-2.94244E+00 1.51296E-02 1.45177E-01
 -1     10262 1.18311E+01 1.57066E+01 6.66164E+00-1.92701E+00 9.42726E-02-1.64725E-02
 -1     10263 1.24964E+01 1.86648E+01 7.92737E+00-2.98191E+00-1.43008E-01 1.23682E-01
 -1     10264 6.12986E+00 5.22045E+00 1.13024E+00-5.40699E-01 8.54103E-02-1.18400E-01
 -1     10265 6.25520E+00 5.25675E+00 1.26163E+00-5.77778E-01 7.22104E-02-8.11780E-02
 -1     10266 6.68898E+00 5.79243E+00 1.46564E+00-6.52091E-01 4.70953E-02-5.11440E-02
 -1     10267 4.12421E+00 7.57445E+00 6.65545E-01-1.26200E+00 4.19692E-01 2.60675E-02
 -1     10268 3.07340E+00 2.35017E+00-3.41988E-02 2.20346E+00 1.45213E-01 6.39992E-01
 -1     10269 3.39089E+00 1.86917E+00-5.38480E-04 2.06020E+00 4.82201E-02 6.85865E-01
 -1     10270 2.99630E+00 1.00268E+00-1.02900E-01 1.50567E+00-4.27773E-02 5.96897E-01
 -1     10271 2.78655E+00 2.10591E+00 1.80161E-02 1.89983E+00 3.46305E-02 4.80121E-01
 -1     10272 2.49832E+00 3.38365E+00 6.42286E-02 2.30329E+00 1.88192E-01 5.21550E-01
 -1     10273 2.03317E+00 4.73020E-01-1.21087E-01 8.06100E-01 4.45608E-02 1.74243E-01
 -1     10274 3.05529E+00 1.90234E+00 1.93728E-01-3.28530E-01 4.94479E-02-2.31975E-01
 -1     10275 7.62037E+00 1.24160E+01 4.68125E+00 6.28573E+00 6.90153E-01 3.74211E-01
 -1     10276 7.37380E+00 2.76606E+00 1.29017E+00 3.16167E+00 1.59644E-01 1.76817E-01
 -1     10277-4.84356E-01 6.40107E-01-1.15337E-02-2.83562E-02 2.60276E-02 6.55388E-03
 -1     10278-6.64908E-01 3.46187E-01-9.65151E-04 1.34048E-01 1.83662E-02 4.76077E-05
 -1     10279 5.60345E+00 4.73088E+00 1.39324E+00-5.90919E-01 3.67363E-02-1.29783E-02
 -1     10280 5.75225E+00 4.87916E+00 1.50545E+00-6.07698E-01 5.53248E-02-5.68443E-03
 -1     10281 6.04861E+00 5.27319E+00 1.69094E+00-6.76866E-01 3.14515E-02 5.37850E-03
 -1     10282 1.39588E+01 1.61580E+01 7.19598E+00-2.07518E+00 1.39391E-01 2.84030E-01
 -1     10283 1.56754E+01 2.00919E+01 8.93662E+00-3.26028E+00-9.47647E-02 3.41030E-01
 -1     10284 6.08733E+00 1.09666E+01 3.76915E+00-1.10744E+00 5.83732E-02 3.99946E-02
 -1     10285 6.29751E+00 8.18305E+00 3.03032E+00-1.73072E+00 6.70773E-02-4.89815E-03
 -1     10286 1.12216E+01 1.12011E+01 5.42166E+00-1.50634E+00-4.06060E-02 4.76315E-03
 -1     10287 1.96076E+00 7.23692E-01-7.31702E-02 1.05005E+00 3.03797E-02 2.72656E-01
 -1     10288 7.11185E+00 1.78642E+01 5.54015E+00-5.86708E-01 9.74909E-02 4.77058E-01
 -1     10289 1.64268E+00 1.06236E-01-2.04395E-01 2.97850E-01-3.87982E-02 3.18685E-01
 -1     10290 1.57652E+00 1.15797E-01-1.95464E-01 2.40452E-01-4.27185E-02 2.90313E-01
 -1     10291 1.46096E+00 4.65810E+00 2.57353E-01 2.33541E-02 3.46410E-01 9.04247E-02
 -1     10292 6.23676E+00 1.26869E+01 3.76871E+00-1.23633E+00 6.54231E-02 2.49843E-01
 -1     10293 6.33858E+00 1.11157E+01 3.33381E+00-1.44994E+00 8.79877E-02 1.52039E-01
 -1     10294 3.71239E+00 7.84867E-01 2.59643E-01 1.26194E+00-9.31781E-03 2.18071E-04
 -1     10295 3.65457E+00 9.13097E-01 2.69301E-01 1.35773E+00-6.15385E-04 1.05481E-03
 -1     10296 3.06047E+00 7.50165E-02-1.38227E-01 5.72825E-01-8.76482E-03 3.34472E-02
 -1     10297 1.43051E+01 1.67540E+01 7.39850E+00-2.20238E+00 4.47056E-02 2.77265E-01
 -1     10298 1.00576E+01 3.33883E+00 2.77215E+00 5.36837E+00 1.22673E-01-3.15382E-02
 -1     10299 2.63687E+00 2.89672E+00 5.33697E-01 1.89039E+00 4.07956E-02 1.19944E-01
 -1     10300 2.47950E+00 4.23660E+00 8.52195E-01 2.14781E+00 2.37654E-02 1.30217E-01
 -1     10301 2.23439E+00 4.10601E+00 7.77706E-01 1.92100E+00 3.69299E-02 5.13138E-02
 -1     10302 1.06110E+01 1.14800E+01 5.21288E+00-1.76270E+00-4.30735E-02 8.08352E-02
 -1     10303 1.05491E+01 1.12519E+01 5.06445E+00-1.67453E+00 1.01171E-01 9.06706E-02
 -1     10304 7.25759E+00 1.36377E+01 4.98829E+00-1.87494E+00-1.37659E-02 6.74376E-02
 -1     10305 7.32394E+00 1.54362E+01 5.56160E+00-1.45632E+00 6.00243E-02 8.37992E-03
 -1     10306 4.53106E+00 1.95525E+01 6.15541E+00 1.11213E+00-1.73604E-01 4.71050E-01
 -1     10307 4.82846E+00 3.62747E+00 1.35751E+00 3.18313E+00 7.47547E-02 1.10152E-01
 -1     10308 2.34701E-01-1.24586E+00-2.07366E-02-5.35191E-01-5.73177E-03-5.23080E-02
 -1     10309 2.03569E-01-1.52151E+00-2.07806E-02-3.77163E-01-1.11765E-02-5.14960E-02
 -1     10310 3.72273E-01-1.09718E+00-1.51469E-02-4.35461E-01-1.10110E-04-5.96375E-02
 -1     10311 1.96848E+00 2.55190E+00 1.29118E-01-9.38483E-01 2.18514E-01-1.48262E-01
 -1     10312 1.25728E+00 2.94487E+00 7.90927E-02-6.71071E-01 2.67455E-01-9.05488E-02
 -1     10313 1.59258E+00 3.22015E+00 1.96274E-01-7.61136E-01 2.27472E-01-7.95617E-02
 -1     10314 6.25742E+00 8.78541E+00 2.14506E+00-1.75018E+00 1.20777E-01 1.00943E-01
 -1     10315 5.31846E+00 8.05711E+00 1.54357E+00-1.41813E+00 2.19994E-01 8.06556E-02
 -1     10316 5.21432E+00 7.08914E+00 1.33259E+00-1.30968E+00 2.11304E-01 6.30991E-02
 -1     10317 3.01449E+00 2.00267E+00 3.72092E-02 2.14575E+00 5.80556E-02 4.04499E-01
 -1     10318 2.20478E+00 1.91468E+00-8.24213E-02 1.90829E+00 9.52015E-02 2.80892E-01
 -1     10319 1.04185E+01 1.20735E+01 5.58438E+00-1.42565E+00-5.59428E-02 2.56829E-02
 -1     10320 1.11999E+01 1.41696E+01 6.47576E+00-1.87748E+00-8.47312E-03 2.78067E-02
 -1     10321 1.12123E+01 1.31167E+01 6.06550E+00-1.61199E+00-1.35111E-01 1.11189E-01
 -1     10322 5.85490E-01-2.80132E-01-8.03987E-02 1.63704E-01 4.62974E-02-1.77833E-02
 -1     10323 1.04024E+01 3.00363E+01 1.10698E+01 4.08463E+00-5.03954E-03 1.83082E-01
 -1     10324 1.33131E+00 4.34532E-04-4.17948E-01 9.31436E-02-2.13828E-03 6.77975E-02
 -1     10325 3.17022E+00 1.98084E+00 4.92791E-01-3.58855E-01 8.26895E-03-4.15839E-02
 -1     10326 6.64109E+00 6.04892E+00 2.57721E+00-8.17585E-01 7.63468E-03 7.50323E-03
 -1     10327 4.61266E-01-1.07099E+00-1.87596E-02-2.67732E-01 2.13637E-03-7.89501E-02
 -1     10328 4.73783E-01-1.08758E+00-3.27401E-03-1.99685E-01 1.63893E-03-4.70655E-02
 -1     10329 7.43495E-01-6.06600E-01-5.73702E-03-2.64223E-01 1.15461E-02-9.46447E-02
 -1     10330 6.34848E-01-6.48370E-01-9.60619E-03-4.71270E-01 1.27777E-02-6.41053E-02
 -1     10331 6.12156E-01-6.10981E-01-2.28936E-02-5.23854E-01 1.58010E-02-1.02549E-01
 -1     10332 9.71569E+00 1.02574E+01 4.53069E+00-1.42737E+00 2.38368E-02 9.74607E-02
 -1     10333 5.48264E+00 8.93471E-01 7.06075E-01 1.60881E+00 5.16306E-02 1.78078E-01
 -1     10334 3.05199E+00 2.03256E+00 5.21456E-02-3.54871E-01 5.90752E-02-2.47941E-01
 -1     10335 6.76062E+00 8.67812E+00 2.84193E+00-1.70800E+00 5.80010E-02 1.61137E-01
 -1     10336 3.30239E+00 3.04407E+00 1.94369E-01 2.39282E+00 1.22225E-01 5.39684E-01
 -1     10337 5.95720E+00 9.50292E+00 1.44554E+00 5.52763E+00 8.73445E-02 3.89625E-01
 -1     10338 1.05287E+01 2.12832E+01 7.88696E+00 1.98942E+00-4.23805E-01-2.54943E-01
 -1     10339 1.43302E+01 3.12898E+01 1.21640E+01 9.62578E+00-8.14402E-02-3.56903E-01
 -1     10340 1.64245E+01 3.07820E+01 1.28698E+01 1.00557E+01-2.47657E-02 6.34403E-02
 -1     10341 1.07174E+01 1.16059E+01 5.59903E+00-1.61549E+00 1.18767E-01-1.04945E-01
 -1     10342 1.13109E+01 1.25921E+01 6.04933E+00-2.19306E+00 1.46290E-01-1.73025E-01
 -1     10343 8.19903E+00 1.36747E+01 5.25308E+00-2.31869E+00-1.38727E-01 1.10962E-01
 -1     10344 1.72821E+00 3.86617E-02-4.34201E-01 2.02537E-01 1.39820E-02 1.04060E-01
 -1     10345 2.54833E+00 1.88735E-01-1.90848E-01 5.71292E-01 1.49399E-02 1.32944E-01
 -1     10346 1.90873E+00 6.12262E-02-4.41769E-01 2.18594E-01 1.33204E-02 1.16217E-01
 -1     10347 2.79818E+00 1.67945E-01-1.76666E-01 5.72590E-01-1.09323E-02 9.56680E-02
 -1     10348 1.14428E+01 1.35406E+01 3.39057E+00-2.37031E+00 2.03481E-01 8.79001E-02
 -1     10349 9.62529E+00 5.30035E+00 2.09434E+00 4.64965E+00 1.66938E-01 4.07490E-01
 -1     10350 9.17049E+00 8.52477E+00 3.80236E+00-9.69170E-01-1.38822E-02 7.77232E-02
 -1     10351 7.23751E+00 1.03041E+01 3.73459E+00-1.88524E+00 1.52558E-01 1.06951E-01
 -1     10352 2.74796E+00 5.61333E+00 1.38491E+00 2.29888E+00 3.72052E-02 1.37568E-02
 -1     10353 3.63693E+00 3.61935E+00 1.06935E+00 2.60544E+00-3.81038E-02 2.78502E-02
 -1     10354 2.33674E+00 3.77482E+00 7.46129E-01 2.08799E+00-2.04661E-02-1.19636E-02
 -1     10355 2.58953E+00 1.22996E-01-4.13291E-01 3.46767E-01 3.24360E-04 1.75805E-01
 -1     10356 2.38619E+00 4.09875E-02-4.69447E-01 3.15304E-01 1.38083E-03 1.57972E-01
 -1     10357 2.26044E+00 2.78800E-02-5.04240E-01 2.97551E-01-4.31644E-03 1.80372E-01
 -1     10358 2.08025E+00 7.10085E-02-4.20068E-01 2.30678E-01-6.44202E-03 9.14989E-02
 -1     10359 9.78799E+00 2.95643E+01 1.01212E+01 3.92425E+00 2.47498E-01-1.47941E-01
 -1     10360 1.08601E+01 2.13603E+01 7.88141E+00-9.57473E-01 3.08066E-01-1.15180E-01
 -1     10361 1.26664E+01 1.45022E+01 5.71184E+00-2.09291E+00 9.10227E-02 4.55321E-01
 -1     10362 1.17441E+01 1.45303E+01 5.67572E+00-1.80248E+00 7.65396E-02 4.59411E-01
 -1     10363 1.04324E+01 1.09735E+01 3.66089E+00-1.61597E+00 7.76210E-02 1.75671E-01
 -1     10364 8.58881E+00 1.17888E+01 3.32721E+00-2.14632E+00 1.63904E-01 2.43045E-01
 -1     10365 5.74891E+00 1.69633E+01 5.54414E+00-6.29981E-01 1.12876E-01 9.14001E-02
 -1     10366 3.55256E+00 1.36769E+01 1.65653E+00 3.43621E+00 2.64946E-01 8.87706E-01
 -1     10367 2.22649E+00 6.18121E+00 9.07963E-01 1.00080E-01 1.93835E-01 1.42968E-01
 -1     10368 2.37826E+00 6.56978E+00 1.14994E+00 1.03235E-01 1.31919E-01 1.02211E-01
 -1     10369 2.59463E+00 5.51282E+00 1.12113E+00 2.18181E+00 5.60773E-03 1.48400E-01
 -1     10370 5.61689E+00 7.93471E+00 2.57033E+00-1.46521E+00 1.87333E-02 3.00037E-02
 -1     10371 7.66867E+00 6.99929E+00 2.86186E+00-9.34050E-01 5.07997E-02 8.10609E-02
 -1     10372 6.47101E+00 9.42494E+00 3.30305E+00-1.81483E+00 4.47155E-02 3.85256E-02
 -1     10373 7.03577E+00 8.17997E+00 3.04009E+00-1.59370E+00 9.70114E-03 1.81014E-01
 -1     10374 1.31510E+01 1.49699E+01 7.12675E+00-2.23871E+00 3.83672E-02 3.53241E-01
 -1     10375 2.44565E+00 4.54055E+00 7.76187E-01-9.09708E-01 1.23427E-01-7.39940E-03
 -1     10376 3.18599E+00 4.15835E+00 9.25153E-01-9.53069E-01 7.11840E-02-3.07843E-03
 -1     10377 7.12192E+00 1.69323E+01 4.20630E+00-1.29299E+00 2.15487E-01 2.15400E-01
 -1     10378 5.01276E+00 1.48595E+01 4.26323E+00 1.20132E+00 2.02294E-01 1.39017E-01
 -1     10379 5.74766E+00 1.19816E+01 4.23417E+00 5.47645E+00-1.12126E-01 1.85731E-01
 -1     10380 7.46667E+00 1.03354E+01 4.14877E+00 5.73740E+00 9.43289E-02 3.50900E-02
 -1     10381 4.14648E+00 8.31876E-01 8.97373E-02 1.16921E+00 8.46910E-03 2.03655E-01
 -1     10382 3.50302E+00 4.30381E-01-2.14716E-01 9.12439E-01 2.76464E-02 1.77795E-01
 -1     10383 3.41041E+00 2.07263E-01-2.87509E-01 6.28889E-01-1.30808E-02 1.91263E-01
 -1     10384 3.13293E+00 1.40139E-01-3.88901E-01 5.32807E-01 7.65728E-03 1.56470E-01
 -1     10385 5.47785E+00 1.32633E+00 6.63107E-01 2.42104E+00 8.25902E-02 1.85668E-01
 -1     10386 8.37596E+00 5.09498E+00 2.80854E+00 5.30387E+00 7.11307E-02 3.14803E-01
 -1     10387 7.12678E+00 9.72262E-01 1.18280E+00 2.19638E+00-3.10887E-01 5.02309E-02
 -1     10388 8.85021E+00 6.38546E+00 3.46974E+00 6.12096E+00 2.19923E-01 5.01255E-01
 -1     10389 6.82563E+00 1.51396E+01 5.32148E+00 8.07468E+00-3.64221E-01 3.38770E-01
 -1     10390 4.20089E+00 3.28438E-01 2.28614E-01 9.86569E-01 1.01160E-02 9.26738E-02
 -1     10391 8.47754E+00 4.18716E+00 2.43068E+00 4.05510E+00-1.52132E-02 6.65302E-02
 -1     10392 9.14704E+00 1.80781E+01 7.36791E+00 1.98702E+00 8.53287E-01 9.98395E-02
 -1     10393 1.37761E+01 2.41762E+01 1.00853E+01 9.80897E+00-4.65243E-01-1.76717E-01
 -1     10394 5.21507E+00 6.41733E+00 1.49365E-01-1.39122E+00 4.28610E-01-3.72908E-01
 -1     10395 3.00756E+00 5.75526E+00 1.49495E+00 2.67138E+00 5.40720E-02 7.49540E-02
 -1     10396 5.61446E+00 8.23697E+00 2.99981E+00-1.20017E+00 2.83628E-02 4.37936E-03
 -1     10397 5.95709E+00 5.02294E+00 1.26922E+00 4.26674E+00 1.45391E-01 3.57989E-01
 -1     10398 6.78633E+00 8.72972E-01 9.21214E-01 2.11621E+00-3.84243E-01 6.13737E-02
 -1     10399 7.63057E+00 8.82169E-01 1.20022E+00 2.92165E+00-2.41700E-01 2.52339E-01
 -1     10400 3.15599E+00 4.34328E+00 7.60491E-01-1.04229E+00 1.28024E-01-4.83624E-02
 -1     10401 4.15354E+00 4.23084E+00 9.33395E-01-1.04933E+00 1.07116E-01-6.19491E-02
 -1     10402 1.34254E+01 1.50571E+01 6.60375E+00-2.75858E+00 1.66224E-01-6.24226E-02
 -1     10403 9.33579E+00 1.93637E+01 6.20589E+00 1.88202E-01 5.35463E-01 5.67023E-01
 -1     10404 3.24610E+00 1.79486E+01 4.03296E+00 4.22595E+00 3.80458E-02 4.62293E-01
 -1     10405 9.97020E+00 9.72084E+00 4.35069E+00-1.13437E+00-3.92753E-02 4.70419E-02
 -1     10406 5.01589E+00 1.07326E+01 3.06869E+00-8.55960E-02 1.43872E-01 1.66593E-01
 -1     10407 6.00820E+00 1.12731E+01 3.57930E+00-1.16155E+00 3.09133E-03 1.63161E-01
 -1     10408 4.68098E+00 9.49236E+00 2.59468E+00-6.75077E-01 9.73572E-02 1.00216E-01
 -1     10409 2.80145E+00 2.47408E+00 5.09374E-01 1.92137E+00 1.61832E-02 8.13401E-02
 -1     10410 3.04339E+00 1.29694E+00 2.20528E-01 1.70799E+00 4.32280E-02 1.27663E-01
 -1     10411 2.48879E+00 2.65450E+00 4.45178E-01 1.77013E+00 2.90416E-02 8.84769E-02
 -1     10412 3.95882E+00 1.15807E+00-8.77605E-02 1.76006E+00 7.85706E-02 5.09521E-01
 -1     10413 1.50273E+01 3.28701E+01 1.21258E+01-4.96691E-02-1.10489E-01-1.85082E-01
 -1     10414 8.12618E+00 1.74073E+01 4.27242E+00 4.37901E+00 3.73242E-01 9.43676E-01
 -1     10415 6.67029E+00 1.53642E+01 4.59819E+00 6.14916E+00 7.35524E-01 4.34890E-01
 -1     10416 7.85363E+00 7.08560E+00 2.88911E+00-9.59250E-01 3.99205E-02 5.50369E-02
 -1     10417 6.19066E+00 8.64575E+00 2.88193E+00-1.65622E+00 2.60977E-02 1.29172E-01
 -1     10418 6.53780E+00 7.89123E+00 2.72309E+00-1.63518E+00 8.80664E-02 7.50610E-02
 -1     10419 4.53922E+00 9.06840E+00 2.32731E+00 3.56690E+00 1.06890E-01 3.01420E-01
 -1     10420 1.98296E+00 1.06753E+00-3.04374E-02 1.21482E+00 3.25626E-02 3.04048E-01
 -1     10421 2.04168E+00 1.32778E-01-7.82728E-02 5.97411E-01-8.47060E-02 2.88502E-01
 -1     10422 4.88363E-01 2.42573E+00 4.20020E-02 9.54846E-02 1.79765E-01 4.23469E-02
 -1     10423 7.57252E+00 2.71604E+00 1.49274E+00 2.85853E+00 1.32392E-01 4.09136E-02
 -1     10424 6.38857E+00 3.06867E+00-6.76776E-02 3.04921E+00-1.78244E-01 1.21622E+00
 -1     10425 7.12486E+00 4.35188E+00 2.21122E-01 3.33358E+00-1.54511E-01 1.37582E+00
 -1     10426 4.99992E+00 4.45599E+00-2.04682E-01 4.41526E+00 1.60151E-01 1.24718E+00
 -1     10427 4.89793E+00 1.23857E+01 2.50791E+00-2.54434E-01 2.38481E-01 2.58167E-01
 -1     10428 4.46520E+00 8.57048E+00 1.31847E+00-1.37392E+00 3.40693E-01 8.11470E-02
 -1     10429 2.71243E+00 1.11656E+00-4.91198E-02 1.70079E+00-2.15495E-02 3.48500E-01
 -1     10430 4.02102E+00 3.38476E+00 9.51799E-01-8.56489E-01 4.98758E-02-5.52145E-02
 -1     10431 9.95813E+00 1.04663E+01 2.52285E+00-1.58112E+00 7.74711E-02 9.27978E-02
 -1     10432 9.26040E+00 9.49843E+00 2.25970E+00-1.16564E+00 1.14307E-01 1.24750E-01
 -1     10433 6.92257E+00 8.63755E+00 1.25275E+00-1.69161E+00 2.83312E-01 1.02198E-02
 -1     10434 2.12715E+00 2.35949E+00 2.36647E-01-8.83235E-01 1.09686E-01-1.18112E-01
 -1     10435 2.47069E+00 2.73923E+00 3.44315E-01-8.82981E-01 1.29390E-01-9.89243E-02
 -1     10436 4.41277E+00 1.26215E+00 2.13097E-01 1.87835E+00 5.58502E-02 3.07757E-01
 -1     10437 6.37143E+00 1.51116E+01 2.27464E+00-9.55241E-01 4.81598E-01 5.64413E-01
 -1     10438 1.09016E+01 7.52473E+00 4.04563E+00 6.80709E+00-4.74491E-01 3.63653E-01
 -1     10439 7.54606E+00 7.14256E+00 2.85666E+00 4.75880E+00-1.39534E-01 1.34847E-01
 -1     10440 9.70799E-01 3.33876E+00 1.33412E-01 7.03512E-01 2.15797E-01 1.41108E-01
 -1     10441 1.53194E+00 6.65556E-03-5.54803E-01 9.78367E-02-2.29070E-03 2.08668E-01
 -1     10442 2.74727E+00 5.48447E+00 1.03945E+00-8.28211E-01 1.36087E-01 3.58219E-02
 -1     10443 3.85057E+00 5.90298E+00 1.46927E+00-9.92337E-01 1.05659E-01 1.28615E-02
 -1     10444 2.89715E+00 1.60472E-01-5.14440E-01 5.14587E-01 1.01185E-02 2.54314E-01
 -1     10445 7.05551E+00 8.75444E+00 1.01111E+00-1.78322E+00 3.61253E-01-7.66150E-02
 -1     10446 1.02971E+01 1.05124E+01 2.27418E+00-1.55895E+00 2.09888E-01 1.09758E-01
 -1     10447 9.29646E+00 2.18602E+00 1.79264E+00 3.67210E+00 6.12352E-01 5.08796E-01
 -1     10448 7.49171E+00-2.75688E-02 4.29103E-01 2.29700E+00 3.47257E-01 4.72573E-01
 -1     10449 7.35967E+00 1.49915E+00 7.54513E-01 2.32950E+00 2.39960E-01 2.01119E-01
 -1     10450 5.36398E-01 5.06831E-01-4.00054E-02 6.62323E-01 1.18743E-02 1.84207E-02
 -1     10451 1.40443E+01 1.68044E+01 7.86263E+00-2.33988E+00-1.71123E-01-1.60954E-01
 -1     10452 1.49196E+01 1.80651E+01 8.38652E+00-2.60598E+00-8.43680E-02 2.14399E-01
 -1     10453 4.00698E-01 2.73269E+00 1.36212E-03-1.50227E-01 1.77078E-01 1.76454E-02
 -1     10454 4.62440E-01 2.83519E+00 2.59747E-02 4.21741E-01 1.54366E-01 6.31434E-02
 -1     10455 1.06790E+00 3.47082E+00 1.48904E-02 1.43558E+00 1.69473E-01 1.80763E-01
 -1     10456 1.38009E+00 4.17499E+00 6.25248E-02 1.01487E+00 2.93863E-01 2.13385E-01
 -1     10457 1.25018E+01 1.38259E+01 6.70522E+00-2.06062E+00-2.10716E-01 5.07022E-02
 -1     10458 1.26169E+01 1.41581E+01 6.87390E+00-2.19492E+00 5.55447E-02 2.21789E-01
 -1     10459 1.24175E+01 1.58274E+01 7.20730E+00-2.89106E+00-1.58874E-01 2.40611E-01
 -1     10460 1.48227E+00 2.78671E+00 1.83410E-01 1.22007E+00 1.37908E-01 1.78795E-01
 -1     10461 4.03904E+00 1.38561E+01 1.74599E+00 2.02060E+00 5.31470E-01 5.01449E-01
 -1     10462 2.25441E+00 3.28676E+00 1.19606E-02 2.48163E+00 1.76784E-01 4.01245E-01
 -1     10463 2.03726E+00 4.78403E+00 6.35046E-02 1.88130E+00 3.12097E-01 4.82755E-01
 -1     10464 2.48284E+00 6.12304E+00 1.30745E+00 1.84191E+00 5.59370E-02 1.29444E-01
 -1     10465 2.46602E+00 6.85140E+00 1.45545E+00 1.09187E+00 1.30472E-01 1.31115E-01
 -1     10466 2.42345E+00 5.10513E+00 1.07163E+00-6.11781E-01 6.42415E-02 6.72393E-03
 -1     10467 7.73108E+00 6.83789E+00 3.02317E+00-7.56585E-01-1.73535E-02 3.66236E-02
 -1     10468 6.78873E+00 8.11153E+00 3.14347E+00-1.59031E+00 1.79789E-02 3.35182E-02
 -1     10469-2.00735E-01 4.76303E-01-2.54125E-02 7.68739E-01-5.76309E-02 9.23667E-04
 -1     10470-2.03092E-01 4.24004E-01 1.32206E-02 7.79035E-01-7.64307E-02 1.76313E-02
 -1     10471 5.71928E-02 3.65314E-01 5.87541E-03 8.03411E-01-3.73105E-02 2.37635E-03
 -1     10472 3.91460E+00 8.79007E+00 2.30465E+00-5.91311E-01 8.15646E-02 1.29321E-01
 -1     10473 2.97946E+00 1.84990E+00 1.52249E-01-3.13135E-01 5.37805E-02-2.65461E-01
 -1     10474 2.07646E+00 2.11832E+00 4.47200E-02-8.17531E-01 1.66485E-01-2.04836E-01
 -1     10475 2.26206E+00 2.73821E+00 1.04092E-01-9.19915E-01 2.11396E-01-1.99243E-01
 -1     10476 2.28971E+00 2.25158E+00 1.12912E-01-7.93006E-01 1.68044E-01-2.18605E-01
 -1     10477 1.63754E+00 1.30310E-01-7.32420E-02 4.33560E-01-5.22300E-02 1.88775E-01
 -1     10478 1.46765E+00 1.88779E-01-1.78988E-02 5.99476E-01-3.87209E-02 9.21647E-02
 -1     10479 1.56606E+00 2.81910E-01-4.54092E-02 5.86226E-01-1.67914E-02 1.89690E-01
 -1     10480 6.31656E+00 8.77602E+00 3.35123E+00 3.81516E+00-2.45861E-01 3.24951E-01
 -1     10481 1.04692E+01 3.35025E+01 1.17414E+01 4.30987E+00-1.55566E-01 6.74844E-01
 -1     10482 1.87286E+00 3.73413E-02-4.76772E-01 1.66937E-01 1.18134E-02 5.32631E-02
 -1     10483 1.97223E+00 5.25984E-02-4.61856E-01 1.93278E-01 1.09877E-02 4.18420E-02
 -1     10484 1.89248E+00 1.47316E-02-4.83968E-01 1.65514E-01 4.68568E-03 4.92891E-02
 -1     10485 1.94223E+00-6.73847E-03-4.85057E-01 1.80797E-01-1.43188E-03 2.78481E-02
 -1     10486 2.84590E+00 7.42484E-02-1.89645E-01 5.03009E-01-1.02158E-02 5.06138E-02
 -1     10487 1.38097E+00 3.17352E+00 1.80559E-01 1.09633E+00 1.95726E-01 2.05382E-01
 -1     10488 1.07989E+00 2.44900E+00 8.28933E-03 1.06284E+00 1.80174E-01 2.08100E-01
 -1     10489 5.93412E+00 1.56218E+01 5.17884E+00 1.35179E-01-1.35043E-02 7.34587E-02
 -1     10490 2.04348E+00 5.25249E-01 1.67699E-02 1.00709E+00-3.25378E-02 1.83912E-01
 -1     10491 2.08040E+00 9.07708E-02-4.46371E-01 2.37577E-01 5.84495E-03 1.59785E-01
 -1     10492 6.99892E+00 1.47058E+01 5.28691E+00-1.55752E+00-1.28161E-01 4.11271E-02
 -1     10493 3.78514E-01 1.45771E+00 2.63113E-03-8.73450E-01 1.11185E-01-5.92702E-02
 -1     10494 6.06942E-01 2.58643E+00 2.35051E-02-2.95952E-01 2.08557E-01-8.75567E-03
 -1     10495 8.17759E-01 2.82429E+00 9.08675E-02-3.53862E-01 2.04350E-01-1.33013E-02
 -1     10496 1.23820E+01 2.64350E+01 1.15018E+01-1.87601E+00 1.07621E+00-3.51499E-01
 -1     10497 1.39346E+01 1.93774E+01 8.80541E+00-2.51324E+00 1.02177E-01-3.14696E-01
 -1     10498 1.36534E+01 1.89947E+01 8.38991E+00-2.53184E+00 6.07550E-02 5.98762E-02
 -1     10499 1.12452E+01 2.11852E+01 8.59657E+00-2.22208E+00 3.39681E-01 1.08213E-01
 -1     10500 4.03324E+00 1.62829E+00 6.10070E-01 2.17796E+00 1.72612E-02 3.82702E-02
 -1     10501 4.30191E+00 9.27903E-01 4.42140E-01 1.62631E+00-3.04170E-02 1.02911E-02
 -1     10502 6.81150E+00 5.82626E+00 2.03657E+00-6.02395E-01 3.06539E-02 3.00671E-02
 -1     10503 8.27433E+00 1.42746E+01 5.65376E+00 5.42092E+00-2.99867E-03 9.88683E-02
 -1     10504 1.82988E+00 6.46455E-01 7.99230E-03-2.74885E-01 3.00222E-02-1.97945E-01
 -1     10505 1.76739E+00 6.07302E-01 4.13618E-03-2.66939E-01 2.93249E-02-1.96262E-01
 -1     10506 6.20179E+00 1.40758E+00 8.99374E-01 2.03219E+00-1.40169E-01 1.68832E-01
 -1     10507 5.46772E+00 1.15398E+00 5.06187E-01 1.68999E+00-1.72639E-02 1.26579E-01
 -1     10508 1.19597E+01 1.89420E+01 7.42166E+00-2.48566E+00-3.17451E-02 2.08102E-01
 -1     10509 1.33465E+01 1.88624E+01 8.04870E+00-2.81199E+00 1.57867E-01 6.63943E-02
 -1     10510 2.23933E+00 2.51012E-02-4.06122E-01 2.38377E-01 1.82710E-02 5.05670E-02
 -1     10511 2.39799E+00 4.94338E-02-3.62952E-01 2.72917E-01 2.53912E-03 2.99917E-02
 -1     10512 3.00881E+00 4.39777E+00 1.09486E+00-9.77021E-01 1.42521E-02-1.69665E-02
 -1     10513 2.02028E+00 4.71902E+00 9.17236E-01-5.53672E-01 1.50161E-02 1.52194E-02
 -1     10514 6.93865E+00 6.57777E-01 1.10961E+00 1.90164E+00 1.01625E-01 1.74772E-01
 -1     10515 9.52764E+00 1.99261E+01 6.69151E+00-6.88621E-01 4.29686E-01 7.60096E-02
 -1     10516 1.50679E+00 4.21883E+00 6.30904E-01 3.34728E-01 6.65725E-02 2.71505E-02
 -1     10517 1.69505E+00 4.83626E+00 8.32816E-01-2.03362E-02 4.98533E-02 3.19159E-02
 -1     10518 1.54945E+00 4.38455E+00 7.04107E-01 2.39636E-01 3.36794E-02 2.16289E-02
 -1     10519 2.23852E+00 5.56311E+00 9.68582E-01 1.57723E+00 1.18129E-01 1.57846E-01
 -1     10520 2.13514E+00 4.40834E+00 6.63762E-01 1.74166E+00 1.44615E-01 1.63032E-01
 -1     10521 4.84805E+00 3.70424E+00 1.39608E+00-4.04487E-01 7.72116E-03 4.30959E-04
 -1     10522 7.67138E+00 6.76004E+00 3.16193E+00-6.74877E-01 8.57161E-03-1.69085E-02
 -1     10523 7.32734E+00 6.35193E+00 2.92561E+00-6.46747E-01 6.77632E-04-1.72423E-02
 -1     10524 7.05550E+00 6.28038E+00 2.50702E+00-7.06285E-01-1.10395E-02 1.75094E-02
 -1     10525 6.46760E+00 4.58825E+00-6.76176E-01 3.31219E+00-2.29268E-01 1.32096E+00
 -1     10526 3.10285E+00 9.06845E+00 2.28296E+00 1.68044E+00 3.25844E-02 1.56076E-01
 -1     10527 3.82664E+00 9.00428E+00 2.41016E+00-4.24156E-01 7.63860E-02 6.53483E-02
 -1     10528 2.37254E+00 5.37211E+00 9.45090E-01-4.11367E-01 1.33780E-01 4.49380E-02
 -1     10529 1.28590E+01 1.54452E+01 7.44864E+00-2.11939E+00-1.13340E-02 1.55007E-03
 -1     10530 1.24447E+01 1.52352E+01 7.09249E+00-1.68223E+00 5.19011E-02-6.42439E-02
 -1     10531 1.29937E+01 1.69551E+01 8.11135E+00-1.91981E+00-3.72925E-02-9.89246E-02
 -1     10532 1.23588E+00 1.44140E+00 1.89294E-02 1.20347E+00 5.90995E-02 1.62541E-01
 -1     10533 1.53631E+00 1.48907E+00 7.97088E-03 1.22204E+00 9.18279E-02 2.64793E-01
 -1     10534 4.79519E+00 1.04540E+00 3.27415E-01 1.90250E+00 3.19875E-03 2.20647E-01
 -1     10535 4.18351E+00 7.87779E-01 1.57142E-01 1.57365E+00 5.09258E-02 2.28023E-01
 -1     10536 1.34413E+01 1.64489E+01 7.44035E+00-2.39646E+00 1.19039E-01 3.87874E-02
 -1     10537 9.40722E+00 1.39721E+01 5.78727E+00-2.34607E+00 1.51983E-01-1.06789E-01
 -1     10538 1.78368E+00 4.41082E+00 1.30353E-01 1.65299E+00 3.11554E-01 3.86467E-01
 -1     10539 7.94660E+00 7.60531E+00 3.35603E+00 4.03238E+00-3.55434E-01 3.82454E-01
 -1     10540 8.51767E+00 7.68132E+00 3.57546E+00 4.20546E+00 3.00249E-01-2.65291E-01
 -1     10541 9.04355E+00 7.02768E+00 3.56701E+00 5.03037E+00 1.09526E-02 4.67535E-02
 -1     10542-1.37301E-01-2.89751E-02-9.36897E-02 2.80505E-01 4.92059E-03 1.32198E-02
 -1     10543 3.48803E-01 3.37316E-01 7.64294E-03 1.78094E-01 2.17229E-02 1.93197E-02
 -1     10544 7.12489E+00 6.16906E+00 1.16790E+00-7.55527E-01 9.65444E-02-1.22753E-01
 -1     10545 6.06141E+00 7.02461E+00 1.02085E+00-1.52073E+00 2.84544E-01-9.37208E-02
 -1     10546 2.47752E-01 3.71464E-01-1.62639E-03 6.17301E-01-1.85346E-02 2.37362E-02
 -1     10547 2.83859E+00 7.49653E+00 6.46490E-01 2.28263E+00 3.33470E-01 4.83481E-01
 -1     10548 2.92991E+00 8.66394E+00 7.81951E-01 2.25307E+00 2.88739E-01 5.16882E-01
 -1     10549 2.40513E+00 7.08325E+00 3.01632E-01 6.02587E-01 4.27981E-01 2.98471E-01
 -1     10550 2.64742E+00 1.88222E+00 2.86780E-01 1.71624E+00 4.70291E-02 1.22714E-01
 -1     10551 1.11869E+01 1.25175E+01 5.84481E+00-1.56901E+00 1.08915E-01 1.51814E-03
 -1     10552 4.82607E+00 3.70972E+00 7.45639E-01-4.57235E-01 6.94727E-02-1.39992E-01
 -1     10553 4.90716E+00 3.78818E+00 8.42119E-01-4.81588E-01 3.99415E-02-1.17070E-01
 -1     10554 2.09189E+00 5.87837E+00 1.21521E+00 9.23448E-01 3.83584E-02 5.77637E-02
 -1     10555 1.54059E+01 2.11043E+01 8.62074E+00-3.40037E+00-1.01461E-01 1.56693E-01
 -1     10556 1.40943E+01 2.08359E+01 8.24312E+00-3.22235E+00 2.40711E-01 2.60173E-01
 -1     10557 1.04615E+01 6.29155E+00 3.21255E+00 4.81272E+00 8.47020E-02 3.56817E-01
 -1     10558 3.72329E+00 3.70716E+00 1.07600E+00-1.04002E+00 4.07048E-02-3.60082E-02
 -1     10559 2.93902E+00 3.88579E+00 8.96519E-01-1.01834E+00 6.37150E-02-9.82341E-03
 -1     10560 7.51627E+00 1.84622E+01 6.44033E+00-1.07525E+00-7.16826E-02 2.62196E-01
 -1     10561 7.13335E+00 5.37218E+00 2.59468E+00 4.91616E+00 1.77107E-01 3.45981E-02
 -1     10562 8.00059E+00 1.05419E+01 3.20786E+00 6.35676E+00 2.61753E-01 3.66095E-01
 -1     10563-4.69551E-01 3.39452E-01-4.69852E-03-7.39574E-01 1.37510E-02-1.26586E-02
 -1     10564-4.33634E-01 3.35958E-01-2.00834E-02-6.59594E-01 1.48105E-02 9.77577E-03
 -1     10565 5.12978E+00 5.57000E+00 6.10878E-01-1.28818E+00 2.55679E-01-1.32004E-01
 -1     10566 4.07755E+00 8.43061E-01 3.32671E-01 1.43043E+00 9.74215E-03 5.28498E-02
 -1     10567 4.39991E+00 8.84845E-01 4.62584E-01 1.61877E+00 4.85380E-02 4.28250E-02
 -1     10568 4.21093E+00 7.48892E-01 2.06705E-01 1.13301E+00 3.98205E-02 1.21334E-01
 -1     10569 4.46757E+00 8.83552E-01 2.67944E-01 1.21710E+00 2.90468E-02 9.91234E-02
 -1     10570 4.66393E+00 4.83396E-01 2.14823E-01 1.32778E+00-2.41247E-02 1.35994E-01
 -1     10571 5.32310E+00 9.08074E-01 4.69751E-01 1.57722E+00 7.05362E-04 1.37759E-01
 -1     10572 5.98425E+00 1.47546E+00 9.50492E-01 3.02182E+00 5.55678E-02 4.32326E-02
 -1     10573-2.36957E-01 4.03380E-01-4.92173E-02 7.32430E-01-9.48486E-02-2.14016E-02
 -1     10574 1.42300E+00 4.11756E+00-2.64232E-02-8.04150E-01 2.22813E-01-7.10818E-02
 -1     10575 4.40863E+00 9.76466E-01 4.58903E-01 1.50117E+00-1.18316E-01 4.44728E-02
 -1     10576 2.01376E+00 9.81733E-01 1.05584E-02-3.37970E-01 4.19832E-02-2.26760E-01
 -1     10577 2.03854E+00 9.98260E-01 1.06149E-02-3.42301E-01 4.71351E-02-2.27743E-01
 -1     10578 2.20878E+00 1.18359E+00 3.55766E-02-3.65016E-01 5.00801E-02-2.40134E-01
 -1     10579 4.75529E+00 9.99307E+00 2.64504E+00 4.29429E+00 8.08164E-02 2.12289E-01
 -1     10580 3.81783E+00 1.09973E+01 2.70329E+00 1.59283E+00 8.77964E-02 2.22621E-01
 -1     10581 4.71695E+00 1.38100E+01 3.74768E+00 1.19205E+00 7.33070E-02 2.19711E-01
 -1     10582 4.81434E+00 1.13004E+01 3.16182E+00 3.22305E+00 5.69688E-02 1.59165E-01
 -1     10583 2.03029E+00 3.40935E+00 5.35576E-01-9.20442E-01 7.97771E-02-3.24431E-02
 -1     10584 2.26839E+00 2.59535E+00 4.12085E-01-9.05394E-01 4.80189E-02-5.25824E-02
 -1     10585 3.01546E+00 2.53904E+00 5.87451E-01 2.07546E+00-8.74691E-03 5.78743E-02
 -1     10586 2.57585E+00 3.65990E+00 7.98341E-01 2.25827E+00 1.81508E-02 6.74096E-02
 -1     10587 7.01283E+00 1.35872E+01 3.83897E+00-2.03215E+00 3.00819E-01 5.49201E-02
 -1     10588 3.18574E-01 3.57074E-01 2.71578E-02 3.55294E-01-5.77822E-02-3.13547E-04
 -1     10589 3.56247E-01 3.61268E-01 9.51082E-03 3.19494E-01-4.45309E-02-9.54384E-03
 -1     10590 1.05154E+01 1.10255E+01 5.25876E+00-1.32332E+00-3.44047E-02 4.94462E-02
 -1     10591 3.49530E+00 1.67591E+00 4.77859E-02 2.01740E+00 6.39544E-02 4.69896E-01
 -1     10592 1.40271E+01 1.72849E+01 7.91736E+00-2.69489E+00-5.23214E-03-2.27128E-01
 -1     10593 1.34171E+01 1.61770E+01 7.78460E+00-2.46054E+00-1.22089E-01 6.00856E-02
 -1     10594 1.33486E+00 2.37521E+00 1.84885E-02 1.59626E+00 1.03163E-01 2.08862E-01
 -1     10595 8.89099E-01 2.76199E+00 2.78320E-02 1.18695E+00 1.32678E-01 1.58850E-01
 -1     10596 4.12224E+00 9.66990E+00 2.56750E+00-2.27823E-01 8.75947E-02 1.12889E-01
 -1     10597 1.64528E+00 7.80487E-01-7.35545E-03-5.72196E-01 7.56719E-02-1.95023E-01
 -1     10598 1.06941E+01 1.29835E+01 5.71012E+00-1.39461E+00-4.57766E-02 1.14959E-01
 -1     10599 1.11016E+01 1.54736E+01 6.74810E+00-1.81606E+00-1.68855E-02 8.70924E-02
 -1     10600 1.09739E+01 1.42326E+01 6.17872E+00-1.69388E+00-3.95907E-02 1.66385E-01
 -1     10601 1.66451E+00 4.06892E+00 6.11201E-01 1.25640E+00 7.90651E-02 8.02217E-02
 -1     10602 1.47174E+00 3.90254E+00 4.84402E-01 9.89412E-01 1.00726E-01 9.35195E-02
 -1     10603 1.34332E+00 4.07317E+00 5.31974E-01 3.85639E-01 8.41430E-02 5.07222E-02
 -1     10604 1.28933E+01 1.68115E+01 7.53533E+00-2.25922E+00 5.51598E-02-2.75666E-01
 -1     10605 1.21148E+01 1.52743E+01 7.07638E+00-1.76255E+00 9.90148E-03-9.56057E-02
 -1     10606 1.22856E+01 1.46121E+01 6.75735E+00-1.70481E+00-3.60169E-02 4.00441E-02
 -1     10607 6.92432E+00 5.49117E+00 2.70748E+00 4.85395E+00-8.90898E-01 6.09992E-01
 -1     10608 6.12926E+00 1.07018E+01 1.98419E+00-1.75655E+00 2.65052E-01 1.42762E-01
 -1     10609 6.80974E+00 5.99203E+00 1.18180E+00-7.15239E-01 1.06841E-01-1.01100E-01
 -1     10610 6.71022E+00 1.35769E+01 4.71565E+00-1.74591E+00-5.68966E-02 1.50790E-01
 -1     10611 7.42660E+00 1.70925E+01 5.89311E+00-1.99908E+00 2.94546E-01 5.02637E-02
 -1     10612 8.92404E+00 7.30875E+00 3.72728E+00 5.06530E+00 1.00417E-01 2.62001E-01
 -1     10613 2.69138E+00 5.24629E+00 7.03745E-01 2.12692E+00 1.11688E-01 2.97684E-01
 -1     10614 2.25796E+00 4.60193E+00 4.81213E-01 1.84534E+00 1.93836E-01 3.26402E-01
 -1     10615 2.33704E+00 4.97721E+00 4.59572E-01 1.98222E+00 1.83117E-01 3.42024E-01
 -1     10616 2.84893E+00 3.95794E+00 4.28913E-01 2.37287E+00 1.59764E-01 3.69726E-01
 -1     10617 3.28959E+00 3.04904E+00 5.74588E-01-9.34026E-01 9.53932E-02-9.97801E-02
 -1     10618 1.53802E+00 2.35613E+00 1.40262E-02-9.07634E-01 2.07385E-01-1.33997E-01
 -1     10619 7.43061E-01 4.09436E+00-6.90175E-02 9.25515E-01 1.88088E-01 1.06458E-01
 -1     10620 1.08462E+00 4.72524E+00 4.16989E-02 4.27155E-01 3.57992E-01 1.48881E-01
 -1     10621 1.53166E+00 4.25465E+00 1.86059E-02 1.47000E+00 2.71022E-01 3.13959E-01
 -1     10622 3.36221E+00 3.47497E+00 3.42648E-01 2.60090E+00 1.44678E-01 4.46592E-01
 -1     10623 1.06401E+01 1.91770E+01 5.07963E+00 9.84746E+00-4.82643E-01 8.44502E-01
 -1     10624 4.43370E+00 3.60428E+00 4.20809E-01-5.77649E-01 1.02555E-01-2.36213E-01
 -1     10625 1.10143E+00 1.70705E-02-2.53324E-01 1.30759E-01-1.05854E-02 7.24225E-02
 -1     10626 1.29556E+01 1.48676E+01 6.60227E+00-2.02890E+00 4.88354E-02 2.17184E-01
 -1     10627 5.99248E-01 4.83329E-01 2.56891E-01 1.08428E+00 3.51476E-03 1.43567E-03
 -1     10628 8.18298E+00 1.60881E+01 6.06229E+00-2.33498E+00 5.35462E-02-8.11334E-02
 -1     10629 9.13867E-01 2.23858E-01 2.80215E-02 1.76377E-01 1.39722E-02 5.78354E-03
 -1     10630 9.16713E-01 4.72013E-03-7.25478E-02 2.54215E-01-1.58623E-02-2.02930E-02
 -1     10631 3.03935E+00 2.96191E-01-7.79159E-01 4.97079E-01 1.55851E-02 6.95994E-01
 -1     10632 4.62680E+00 1.40955E+00-1.40918E-01 2.15437E+00 5.71544E-03 5.84248E-01
 -1     10633 3.16663E+00 2.14111E-01-7.99329E-01 5.62263E-01 9.34630E-03 6.17588E-01
 -1     10634 3.80258E+00 6.56612E+00 1.20080E+00-1.12423E+00 2.05308E-01 5.96041E-02
 -1     10635 3.06195E+00 5.25978E+00 7.38819E-01-1.01220E+00 1.93203E-01 1.34157E-02
 -1     10636-5.11496E-01 4.45621E-02-5.23439E-03 3.73867E-01 1.43834E-02-1.92888E-02
 -1     10637-8.06378E-01 5.18731E-02-1.09779E-02 2.35170E-01 1.74936E-02-3.37787E-02
 -1     10638 4.29885E+00 6.36594E+00 7.05233E-01-1.15826E+00 3.28263E-01-6.06078E-02
 -1     10639 3.51945E+00 4.72532E+00 2.27205E-01-1.13399E+00 3.33238E-01-2.03400E-01
 -1     10640 4.70330E+00 5.20261E+00 5.94656E-01-1.22957E+00 2.50609E-01-1.67351E-01
 -1     10641 4.63970E+00 8.46810E-01 4.26841E-01 1.74142E+00 4.52297E-02 1.51023E-01
 -1     10642 4.25023E+00 8.28862E+00 2.38918E+00 3.85069E+00 6.23834E-02 1.70483E-01
 -1     10643 3.22571E+00 8.25259E+00 2.10322E+00 2.06386E+00 9.69598E-02 1.92511E-01
 -1     10644 4.15324E+00 9.66157E+00 2.68338E+00 3.36523E+00 1.11344E-01 1.00479E-01
 -1     10645 7.44167E+00 7.96685E+00 1.72142E+00-1.13476E+00 1.55946E-01-2.91353E-02
 -1     10646 8.40071E+00 6.00150E+00 3.66844E+00 3.88884E+00-2.05161E-01 1.83763E-03
 -1     10647 1.43864E+01 2.46876E+01 1.06894E+01 1.15323E+01 5.82363E-01 5.20652E-02
 -1     10648 1.39837E+00 3.02248E+00 7.84571E-02 1.25262E+00 2.05608E-01 2.60053E-01
 -1     10649 2.68072E+00 1.44099E-01-2.85095E-01 3.34530E-01 5.60904E-03 5.35463E-02
 -1     10650 4.64656E+00 3.54610E+00 9.11063E-01-4.41169E-01 4.02488E-02-9.78083E-02
 -1     10651 4.90430E+00 3.84836E+00 1.07855E+00-4.67381E-01 4.34920E-02-6.10981E-02
 -1     10652 5.08196E+00 4.07974E+00 1.15614E+00-5.14727E-01 3.54696E-02-5.54245E-02
 -1     10653 4.56457E+00 3.33481E+00 8.86231E-01-3.52606E-01 1.75327E-02-9.33676E-02
 -1     10654 4.76871E+00 3.59329E+00 1.02642E+00-3.55862E-01 2.21080E-02-5.98009E-02
 -1     10655 4.70016E+00 4.03489E+00 1.11172E+00-8.50706E-01 7.62734E-02-6.05192E-02
 -1     10656 6.13727E+00 1.82746E+00 1.99935E-01 2.14119E+00-5.72017E-02 4.56330E-01
 -1     10657 7.48502E+00 1.96119E+00 5.98783E-01 2.77652E+00-4.13428E-04 6.79091E-01
 -1     10658 1.92678E+00 5.49993E+00 6.60150E-01 8.49606E-02 2.04234E-01 1.32708E-01
 -1     10659 7.18994E+00 6.32729E+00 1.34508E+00-7.65928E-01 1.04440E-01-5.72705E-02
 -1     10660 7.59773E+00 6.91519E+00 1.64047E+00-9.34720E-01 5.19267E-02 2.44235E-02
 -1     10661 5.87847E+00 7.89118E+00 1.39823E+00-1.66904E+00 2.58433E-01 3.70295E-02
 -1     10662 1.55729E+00 5.82396E-02-4.45928E-01 1.10209E-01 1.15428E-02 8.62090E-02
 -1     10663 2.16047E+00 9.71345E-02-2.70763E-01 3.82717E-01 6.77154E-03 7.76186E-02
 -1     10664 2.06916E+00 8.36848E-02-2.70995E-01 4.11865E-01-1.74898E-03 5.56351E-02
 -1     10665 7.74615E+00 1.89038E+01 6.33735E+00-1.05254E+00-5.95520E-03 4.09331E-02
 -1     10666 2.13424E+00 1.47232E-01-4.03085E-01 2.24906E-01 8.09869E-03 9.53080E-02
 -1     10667 1.29557E+01 3.21338E+01 1.13282E+01 7.14521E-01-2.05413E-01 2.17092E-01
 -1     10668 1.90540E+00 2.24164E-01-3.00465E-02 7.32029E-01-4.39468E-02 1.38964E-01
 -1     10669 5.54861E+00 7.84762E+00 2.80241E+00-1.32080E+00 6.80892E-02-9.91151E-03
 -1     10670 6.16277E+00 8.24802E+00 3.09828E+00-1.64738E+00-2.07652E-03 2.23161E-02
 -1     10671 5.39030E+00 9.50636E+00 3.25300E+00-1.35791E+00 5.53918E-02-1.26085E-02
 -1     10672 3.50989E+00 8.37185E+00 2.38825E+00-4.02289E-01 6.61896E-03 6.81360E-02
 -1     10673 3.92824E+00 8.69309E+00 2.56675E+00-6.10735E-01-2.72090E-02 5.07830E-02
 -1     10674 4.32478E+00 7.47922E+00 2.32358E+00-8.17927E-01 2.96700E-02 3.19627E-02
 -1     10675 6.38105E-01 3.82824E+00 1.00980E-02 9.57405E-02 1.98024E-01 4.20541E-02
 -1     10676 1.61098E+00 1.07013E+00-2.50876E-02 1.10061E+00 2.31096E-02 1.32891E-01
 -1     10677 1.53323E+00 1.96665E+00 1.25985E-01 1.24523E+00 7.59211E-02 1.20006E-01
 -1     10678 1.45638E+00 1.64678E+00 4.01135E-02 1.09176E+00 7.55091E-02 1.43297E-01
 -1     10679 1.31738E+00 2.48195E+00 1.68300E-01 1.15670E+00 9.62357E-02 1.25300E-01
 -1     10680 8.65918E+00 1.99040E+00 2.06623E+00 4.36970E+00-9.23776E-02 3.88112E-01
 -1     10681 4.68373E+00 3.66289E+00 1.12640E+00-5.32464E-01 3.66911E-02-5.19046E-02
 -1     10682 4.87252E+00 3.70605E+00 1.12332E+00-3.82332E-01 2.47041E-02-4.94358E-02
 -1     10683 6.64621E+00 1.12547E+01 3.69487E+00 5.25746E+00 3.51721E-01 4.78618E-01
 -1     10684 7.09757E+00 1.02972E+01 3.35154E+00 4.32568E+00 2.65997E-01 2.86534E-01
 -1     10685 4.41251E+00 1.71991E+01 5.01744E+00 5.84168E+00-5.66718E-02 6.32868E-01
 -1     10686 2.25517E+00 7.35500E-02-2.20406E-01 4.52906E-01-4.70613E-02 3.87386E-01
 -1     10687 2.46075E+00 8.13079E-02-4.14665E-01 4.81371E-01-4.41569E-02 5.20408E-01
 -1     10688 1.13207E-01 3.07382E-01-1.51803E-02 5.48665E-01-3.44041E-03 2.34228E-02
 -1     10689 3.21408E+00 2.85061E+00 4.56472E-01 2.21491E+00 8.35055E-02 3.02602E-01
 -1     10690 2.62116E+00 3.69428E+00 4.37968E-01 2.26930E+00 1.04300E-01 2.99708E-01
 -1     10691 6.23615E+00 1.67208E+00 1.16792E+00 3.15609E+00 4.33693E-02 1.71171E-01
 -1     10692 8.18459E+00 1.52158E+01 5.63096E+00-2.16113E+00 1.82865E-01 1.11000E-02
 -1     10693 5.22736E+00 1.15478E+00 7.55046E-01 1.39954E+00-6.14585E-02 4.18143E-02
 -1     10694 4.61430E+00 6.44635E-01 4.51195E-01 1.23179E+00 1.59560E-02 4.60648E-02
 -1     10695 5.26233E+00 9.60463E-01 8.42129E-01 1.60924E+00-1.48466E-01 8.79055E-02
 -1     10696 2.47690E+00 1.79160E-01-6.92695E-01 4.60217E-01-2.62837E-02 6.77940E-01
 -1     10697 3.16792E+00 3.19977E-01-4.15107E-01 9.36679E-01-3.75398E-02 6.86931E-01
 -1     10698 2.39015E+00 1.41335E-01-6.28496E-01 4.36553E-01-2.45454E-03 6.66351E-01
 -1     10699 1.28251E+00 3.24463E+00 2.86271E-01-4.83198E-01 1.44875E-01-5.58588E-03
 -1     10700 1.55365E+00 3.36986E+00 2.65602E-01-6.72584E-01 1.85179E-01-3.06651E-02
 -1     10701 1.51985E+00 3.77443E+00 4.15109E-01-3.89773E-01 1.33502E-01 1.48060E-02
 -1     10702 4.54017E-01 2.22310E+00 5.01298E-02 2.00335E-01 4.31066E-02 2.26878E-02
 -1     10703 6.76836E-01 2.76277E+00 1.76738E-01 1.78940E-01 2.22896E-02 1.25259E-02
 -1     10704 1.97585E+00 5.68392E+00 5.32699E-01 7.78233E-01 3.11120E-01 1.91422E-01
 -1     10705 2.23589E+00 1.88842E-01-4.36780E-01 3.54665E-01-5.42701E-02 6.07157E-01
 -1     10706 7.63018E+00 6.77976E+00 3.08826E+00-8.06376E-01-3.46013E-03 4.63299E-02
 -1     10707 6.69430E+00 7.34135E+00 2.97627E+00-1.50823E+00 6.76467E-02-2.54466E-02
 -1     10708 7.37567E+00 6.54677E+00 2.91654E+00-7.59739E-01-2.61791E-02 4.14051E-02
 -1     10709 4.05222E+00 6.45615E-01 7.66820E-02 1.11567E+00 2.72245E-02 1.02431E-01
 -1     10710 4.76234E+00 7.24871E-01 3.40554E-01 1.27316E+00-2.42352E-03 1.98518E-01
 -1     10711 1.36862E+00 2.97146E-01-9.83443E-03-3.71734E-01 4.34775E-02-1.70104E-01
 -1     10712 4.63682E+00 1.20071E+01 3.20007E+00-2.45318E-01 9.13943E-02 1.97624E-01
 -1     10713 4.97529E+00 1.25236E+01 3.39814E+00-3.55516E-01 1.03059E-01 1.94764E-01
 -1     10714 1.02894E+01 1.05103E+01 4.82369E+00-1.52691E+00-7.08545E-02 1.97112E-01
 -1     10715 9.27312E+00 8.92484E+00 4.01308E+00-1.06467E+00 7.55585E-02 7.51841E-02
 -1     10716 6.53563E-01 2.73956E+00 1.02071E-01-2.06460E-01 1.11667E-01 1.01202E-02
 -1     10717 1.12313E+01 1.25869E+01 5.96973E+00-1.60942E+00-3.69683E-02 4.98438E-02
 -1     10718 1.09816E+01 1.69764E+01 6.49777E+00-1.30730E+00 1.12511E-02 4.50928E-01
 -1     10719 5.78809E+00 2.02565E+01 5.62448E+00 9.02118E-01-4.87712E-02 3.29089E-01
 -1     10720 2.71683E+00 1.37196E-01-5.61447E-01 3.63004E-01-2.51595E-03 2.42606E-01
 -1     10721 2.57624E+00 6.42415E-02-5.98550E-01 3.59199E-01-6.03692E-03 2.57705E-01
 -1     10722 6.04985E+00 4.23174E-01 6.97062E-01 1.31913E+00-3.40355E-01-7.84008E-03
 -1     10723 8.59073E+00 8.15373E+00 2.46282E+00-1.05697E+00 3.57503E-02 1.22641E-01
 -1     10724 9.16527E+00 8.97736E+00 2.93769E+00-1.29365E+00 5.52917E-02 1.26635E-01
 -1     10725 6.90766E-02 3.33627E-01 1.84741E-02 9.07928E-01-2.94679E-02-1.85611E-02
 -1     10726 5.55377E+00 1.70754E+01 5.53903E+00 1.53204E-02 4.28494E-02-8.27523E-03
 -1     10727 2.57823E+00 2.52861E+00 4.93561E-01-8.38358E-01 1.30501E-02-2.24390E-02
 -1     10728 1.79299E+00 2.80558E-01-1.73172E-01 5.71407E-01-2.78965E-03 3.15917E-02
 -1     10729 1.61391E+00 8.53665E-02-2.61429E-01 3.49818E-01-5.44925E-03 2.79319E-02
 -1     10730 1.53542E+00 1.59973E-02-3.14998E-01 2.28543E-01 1.51920E-04 5.54218E-02
 -1     10731 5.75435E+00 4.64780E+00 1.92993E+00-5.00446E-01 1.65233E-02-2.08939E-02
 -1     10732 6.65001E+00 5.57904E+00 2.47163E+00-5.01643E-01-1.04322E-02 2.42851E-02
 -1     10733 3.30397E+00 2.21977E-01-4.82418E-02 7.26568E-01 1.35788E-02 9.34168E-02
 -1     10734 2.83995E+00 1.86283E-01-1.63983E-01 5.48075E-01 5.19125E-02 5.61251E-02
 -1     10735 1.12230E+01 2.56152E+01 9.84120E+00 8.68385E+00 5.30510E-01-2.43664E-01
 -1     10736 1.28964E+01 2.65334E+01 1.01468E+01 1.04793E+01-7.78596E-01-6.80899E-02
 -1     10737 6.54844E+00 1.00488E+01 3.95773E+00 5.35956E+00-7.21360E-01 1.59453E-02
 -1     10738 1.14406E+01 1.27081E+01 6.08274E+00-1.63507E+00 1.00960E-03 1.37462E-01
 -1     10739 1.04933E+01 1.08708E+01 5.20923E+00-1.31596E+00 2.27583E-04 1.38192E-02
 -1     10740 6.06061E+00 5.35598E+00 1.02869E+00-7.57783E-01 9.17648E-02-1.08713E-01
 -1     10741 5.45340E+00 5.64722E+00 8.61548E-01-1.24909E+00 1.81556E-01-1.11945E-01
 -1     10742 1.27132E+01 1.44937E+01 6.88893E+00-2.47704E+00-1.04247E-01 4.75478E-02
 -1     10743 7.90645E+00 1.28350E+01 3.13483E+00 5.38348E+00-1.86254E-01 5.42640E-01
 -1     10744 2.53182E+00 1.65809E+01 2.67936E+00 2.86754E+00 2.23962E-01 4.93221E-01
 -1     10745 5.82949E+00 1.88250E+01 6.41238E+00 2.38666E+00-4.63634E-01 4.76763E-01
 -1     10746 2.10593E+00 6.72373E-02-6.09345E-01 2.24673E-01 5.85564E-03 3.11496E-01
 -1     10747 1.79159E+00-1.16021E-02-6.85074E-01 1.64170E-01-1.14379E-02 3.68122E-01
 -1     10748 1.96701E+00 2.72717E-02-6.81550E-01 1.77576E-01-6.67097E-03 3.52187E-01
 -1     10749 2.88831E+00 1.17505E-01-3.88246E-01 5.39308E-01-6.94027E-03 3.57881E-01
 -1     10750 3.76431E+00 2.56461E+00 7.49033E-01-3.79851E-01-6.61033E-04-5.83749E-02
 -1     10751 3.66874E+00 2.43056E+00 6.80496E-01-3.63956E-01 1.06837E-02-6.42359E-02
 -1     10752 3.71586E+00 2.90199E+00 8.10516E-01-7.28435E-01 3.57411E-02-5.75988E-02
 -1     10753 1.43537E-01 2.11841E-01 2.97975E-02 8.40381E-01-2.78912E-02-1.50758E-02
 -1     10754 8.38927E-01 5.04091E-01-5.18524E-02 6.96187E-01 9.85880E-03 3.53588E-02
 -1     10755 2.47225E+00 5.28276E+00 5.44472E-01-6.16680E-01 2.65963E-01 3.73800E-02
 -1     10756 3.04964E+00 6.62344E+00 9.34327E-01-6.44954E-01 2.20187E-01 1.04679E-01
 -1     10757 1.88275E+00 5.79182E+00 4.80278E-01 4.12666E-02 2.88782E-01 1.57232E-01
 -1     10758 6.05185E+00 1.40734E+01 5.02295E+00 6.12305E+00-8.76828E-02-5.88611E-03
 -1     10759 4.91516E+00 4.60773E+00 1.43480E+00 3.46004E+00-4.03108E-03 1.15372E-01
 -1     10760 5.24783E+00 4.51750E+00 1.50687E+00 3.52974E+00-1.01499E-02 1.52158E-01
 -1     10761 5.30770E+00 3.65256E+00 1.30757E+00 3.35691E+00 2.35071E-02 1.48427E-01
 -1     10762 2.73613E+00 7.93241E+00 2.04432E+00 1.37031E+00 5.89753E-02-1.06275E-02
 -1     10763 3.12736E+00 8.80537E+00 2.39733E+00 1.41775E+00 4.49408E-02 1.70205E-03
 -1     10764 3.80248E+00 8.36620E+00 2.47793E+00-7.27378E-01 1.09974E-02 4.60774E-02
 -1     10765-5.30707E-01 5.87003E-02-2.76076E-03 3.47764E-01 8.21154E-03-1.76333E-02
 -1     10766 1.58985E+00 8.25981E-02-7.26666E-02 2.62878E-01-4.10601E-02 1.92075E-01
 -1     10767 1.61914E+00 1.07752E-01-1.29188E-01 2.76981E-01-4.80383E-02 2.68323E-01
 -1     10768 1.60003E+00 5.69025E-02-1.30772E-01 2.35138E-01-5.97360E-02 2.53385E-01
 -1     10769 1.56404E+00 3.25403E-02-7.21959E-02 2.25305E-01-5.32575E-02 1.85681E-01
 -1     10770 5.29884E+00 7.44575E+00 2.59663E+00-1.34064E+00 3.07013E-02 6.09300E-02
 -1     10771 2.72015E+00 1.29653E-01-3.26738E-01 3.97591E-01 7.21610E-03 1.39203E-01
 -1     10772 3.25401E+00 2.37497E+00 5.84761E-01-7.05647E-01 2.87996E-02-5.64392E-02
 -1     10773 7.90256E+00 7.13894E+00 2.93651E+00-9.08344E-01 5.00913E-03 8.21331E-02
 -1     10774 1.85438E+00 4.13812E+00 6.57493E-01-5.86726E-01 8.99305E-02 1.05785E-02
 -1     10775 1.36186E+00 3.20197E+00 3.06928E-01-6.02751E-01 1.18310E-01-2.13597E-02
 -1     10776 1.57635E+00 3.45491E+00 4.42292E-01-6.26899E-01 8.13130E-02 6.92681E-03
 -1     10777 7.04337E-01 8.23001E-01-4.06962E-02 7.12961E-01 3.46804E-02 7.19816E-02
 -1     10778 4.94586E+00 3.80837E+00 1.46094E+00-4.09671E-01 4.47460E-03-6.23646E-03
 -1     10779 3.02244E+00 1.70693E-01-2.50558E-01 6.52943E-01 3.28739E-03 2.58920E-01
 -1     10780 2.29764E+00 1.39741E-01-5.06073E-01 2.95747E-01 3.37416E-03 2.36361E-01
 -1     10781 3.34511E+00 2.24775E-01-1.83289E-01 7.71041E-01 1.97991E-02 2.19400E-01
 -1     10782 8.47568E+00 7.54118E+00 3.70473E+00 5.42258E+00 8.11486E-01-3.75746E-01
 -1     10783 1.26248E+01 1.25712E+01 6.38671E+00-2.02433E+00-1.18724E-01 1.64800E-01
 -1     10784 1.20306E+01 1.18845E+01 6.07405E+00-1.90033E+00-4.96310E-02 7.57793E-02
 -1     10785 6.69466E-01 2.66122E+00 1.41343E-01 1.45570E-01 9.89053E-02 2.55349E-02
 -1     10786 6.50860E-01 2.68840E+00 1.53082E-01-1.35896E-01 4.36371E-02 7.13360E-03
 -1     10787 8.99731E-01 3.14686E+00 2.59036E-01 1.10023E-01 8.08028E-02 1.24858E-02
 -1     10788 3.15464E+00 3.92077E+00 8.81610E-01-9.17430E-01 5.43774E-02-1.67129E-02
 -1     10789 1.44022E+01 1.76116E+01 7.98987E+00-3.28703E+00 1.97248E-01 2.28820E-01
 -1     10790 1.37173E+00 6.33450E-01-6.71116E-02 8.50682E-01 2.87329E-02 1.29467E-01
 -1     10791 1.20422E+00 3.69099E-01-9.79146E-02 6.32193E-01 7.37533E-03 9.39871E-02
 -1     10792 3.91606E+00 4.97049E-01-6.50216E-02 7.76702E-01-2.55153E-02 1.45696E-01
 -1     10793 3.10614E+00 1.38613E-01-3.86145E-01 5.92990E-01 1.21296E-02 1.49903E-01
 -1     10794 9.07949E+00 2.86162E+01 9.36670E+00 6.46824E+00-3.68985E-01-1.51822E-01
 -1     10795 8.72691E+00 9.55983E+00 3.47205E+00 6.87530E+00 5.21528E-02 2.10430E-01
 -1     10796 3.59257E+00 4.39582E+00 6.95418E-01 2.99544E+00 1.05172E-01 3.78356E-01
 -1     10797 5.24630E+00 1.22180E+01 4.07396E+00 5.33990E+00-1.59744E-01-1.17391E-01
 -1     10798 8.35591E+00 1.23827E+01 5.01094E+00-2.12380E+00-8.64652E-02 6.45946E-02
 -1     10799 4.62537E+00 1.07732E-01 2.40755E-01 7.56531E-01 1.23720E-01 7.73322E-02
 -1     10800 4.20224E+00 3.43051E-01 2.07441E-01 6.47557E-01 1.90233E-01 1.55076E-01
 -1     10801 1.38609E+00 5.64950E-01-1.49131E-02-6.22161E-01 6.61761E-02-1.74882E-01
 -1     10802 1.22962E+00 4.48245E-01-6.43718E-03-6.99784E-01 2.99750E-02-8.65722E-02
 -1     10803 3.77900E+00 2.14600E+00 6.09695E-01 2.10162E+00 3.03648E-02 1.27709E-01
 -1     10804 3.99913E+00 1.07810E+00 3.71454E-01 1.67676E+00 8.56311E-03 1.20083E-01
 -1     10805 5.04152E+00 9.36395E-01 4.32042E-01 1.41570E+00 1.03299E-02 1.19506E-01
 -1     10806 4.33043E+00 1.23065E+01 3.90418E+00 1.05736E+00 9.38647E-02 1.46820E-02
 -1     10807 4.91438E+00 1.36892E+01 4.41861E+00 1.75392E+00-2.72615E-02-3.63933E-03
 -1     10808 6.96765E+00 1.31088E+01 4.88479E+00-1.62082E+00-3.54159E-02 2.99273E-02
 -1     10809 1.35893E+00 8.33419E-02 3.22399E-02 2.41828E-02 4.18448E-02 1.13949E-02
 -1     10810 1.46172E+00 3.03039E+00 2.99438E-01 1.21811E+00 7.91571E-02 1.19553E-01
 -1     10811 1.28443E+00 3.20764E+00 2.52287E-01 8.65828E-01 1.24247E-01 1.15549E-01
 -1     10812 1.27345E+00 3.88123E+00 4.31178E-01 5.86764E-01 1.13101E-01 6.61879E-02
 -1     10813 1.54178E+00 3.18370E+00 3.15204E-01 1.28453E+00 1.11637E-01 1.40742E-01
 -1     10814 7.87692E+00 7.26283E+00 1.92058E+00-8.97200E-01 2.66381E-02 4.89834E-02
 -1     10815 6.43152E+00 6.99652E+00 1.44195E+00-1.48692E+00 1.29268E-01 5.34921E-02
 -1     10816 5.43267E+00 1.18849E+01 4.07917E+00-1.09129E+00-4.25219E-02 1.38527E-01
 -1     10817-5.10406E-01 6.52678E-01-7.11726E-03-2.56374E-01 2.87989E-02 1.80029E-03
 -1     10818 1.50662E+00 2.10117E-02-4.63213E-01 1.20768E-01-4.75832E-04 2.21336E-01
 -1     10819 2.08102E+00 6.06648E-02-3.50368E-01 3.07200E-01-6.31740E-03 2.20202E-01
 -1     10820 1.58171E+00 4.89396E-02-4.69808E-01 1.31499E-01 5.42188E-03 2.08995E-01
 -1     10821 3.29276E+00 1.32315E-01-5.83048E-02 6.34502E-01 1.22217E-02 2.12450E-03
 -1     10822 1.71453E+00 4.88804E-01-9.80516E-02 7.98352E-01 2.53429E-02 1.46450E-01
 -1     10823 1.86070E+00 9.12066E-01-2.53814E-02 1.04281E+00 2.57877E-02 9.86491E-02
 -1     10824 3.66191E+00 7.40636E+00 1.83889E+00-8.74249E-01 9.03773E-02 8.12054E-02
 -1     10825 5.52750E+00 8.43721E+00 2.71759E+00-1.52144E+00 8.68230E-02 9.53802E-02
 -1     10826 4.35270E+00 6.51696E+00 1.78947E+00-1.06124E+00 6.33816E-02 5.96841E-02
 -1     10827 1.46334E+00 5.93409E-02-1.62054E-01 2.17120E-01-3.82221E-02 2.40863E-01
 -1     10828 1.91512E+00 1.12387E-01-1.55290E-01 4.81815E-01-3.02124E-02 2.97436E-01
 -1     10829 2.58549E+00 6.21546E+00 1.31608E+00 1.67181E+00 5.63559E-02 1.23081E-01
 -1     10830 3.17415E+00 7.46964E+00 1.84137E+00 2.00829E+00 4.69438E-03 1.42069E-01
 -1     10831 2.85922E+00 3.32882E-01-2.78246E-01 6.14984E-01 2.79038E-02 4.04843E-01
 -1     10832 8.49399E+00 3.84774E+00 1.96862E+00 3.26823E+00 1.35387E-01 2.20807E-01
 -1     10833 1.03780E+01 4.78035E+00 2.82055E+00 5.49580E+00 2.51382E-01 2.00876E-01
 -1     10834 9.34802E+00 8.87911E+00 4.13344E+00-1.15527E+00 4.50627E-02 4.23936E-02
 -1     10835 2.63951E+00 3.38692E+00 1.93616E-01-9.32519E-01 2.43002E-01-1.82727E-01
 -1     10836 1.38136E+00 4.56579E-01-8.03869E-02 7.06171E-01 1.63897E-02 8.58128E-02
 -1     10837 4.31244E+00 2.09009E+00 1.53444E-01 2.58081E+00 5.30972E-02 5.12689E-01
 -1     10838 4.98217E+00 3.87852E+00 1.01471E+00-3.96894E-01 3.69023E-02-8.97014E-02
 -1     10839 1.39158E+01 1.94137E+01 8.39778E+00-3.14854E+00 3.09385E-01-3.98813E-01
 -1     10840 5.57513E-01 7.53182E-01-3.76478E-02 7.14280E-01 7.51425E-03 1.98505E-02
 -1     10841 5.62299E-01 8.23905E-01-4.25415E-02 7.29656E-01 2.20793E-02 4.06400E-02
 -1     10842 8.85684E+00 7.94947E+00 3.89106E+00-8.43413E-01 9.11260E-03-2.20536E-02
 -1     10843 8.19779E+00 7.31024E+00 3.47154E+00-7.21146E-01-1.34871E-03-2.21141E-02
 -1     10844 7.46022E+00 7.22089E+00 3.24991E+00-1.26830E+00-1.42250E-03-9.99566E-03
 -1     10845 2.94727E+00 1.37125E+01 7.73698E-01 8.39739E-01 5.94460E-01 6.98154E-01
 -1     10846 2.11988E+00 6.44982E-02-6.97199E-01 1.54040E-01-9.28106E-04 3.45816E-01
 -1     10847 2.55202E+00 1.05769E-01-6.48297E-01 2.45940E-01-5.07913E-02 3.23560E-01
 -1     10848 3.60928E+00 4.34256E-01-2.28168E-01 1.05685E+00-2.59397E-02 2.85868E-01
 -1     10849 6.49668E+00 1.37588E+01 4.88111E+00-1.54458E+00 9.86811E-02 5.76971E-02
 -1     10850 7.24601E+00 3.34706E+00 6.71277E-01 4.80489E+00 5.94997E-04 1.00635E+00
 -1     10851 5.61972E+00 1.16170E+00-8.31417E-01 2.01600E+00-1.15747E-01 7.78458E-01
 -1     10852 7.27830E+00 2.45220E+00 2.26086E-01 4.02935E+00 2.64472E-02 9.16945E-01
 -1     10853 4.60978E+00 7.19098E-01-1.07509E+00 1.38276E+00-3.12179E-02 9.74928E-01
 -1     10854 8.37639E+00 3.03742E+00 3.86213E-01 4.79134E+00 1.41036E-01 7.04001E-01
 -1     10855 6.77041E+00 1.13789E+01 4.26791E+00-1.68134E+00-5.87522E-02-1.11129E-02
 -1     10856 6.57483E+00 1.42697E+01 5.14194E+00-8.95795E-01 1.15738E-01-1.90449E-02
 -1     10857 6.25972E+00 1.64261E+01 5.73365E+00-1.26325E+00 1.66696E-01 5.98532E-02
 -1     10858 6.71855E+00 1.43329E+01 5.22316E+00-1.45155E+00 9.01564E-02 2.28504E-02
 -1     10859 7.45287E+00 1.23710E+01 4.80155E+00-1.99841E+00-2.23828E-02 1.10196E-01
 -1     10860 5.17505E+00 4.03891E+00 1.36481E+00-4.37577E-01 2.69435E-02-2.37402E-02
 -1     10861 9.45640E+00 2.91666E+01 9.93561E+00 3.53508E+00-1.57374E-01 4.28568E-01
 -1     10862 3.86085E+00 2.68812E-01 1.19591E-01 8.55752E-01 1.43262E-02 4.89895E-02
 -1     10863 1.24241E+01 1.79070E+01 7.90097E+00-2.67095E+00 1.31055E-01 2.21498E-01
 -1     10864 1.27801E+01 2.39874E+01 9.93980E+00-2.53287E+00-1.84357E+00 1.01248E+00
 -1     10865 1.23262E+01 1.71199E+01 7.76702E+00-2.37056E+00-2.85521E-01 4.79645E-01
 -1     10866 1.30513E+01 1.89295E+01 8.29016E+00-3.07118E+00 4.77494E-02-3.19627E-01
 -1     10867 4.54375E+00 3.66667E+00 2.89392E-01-4.84089E-01 8.86021E-02-3.16408E-01
 -1     10868 4.17121E+00 4.35282E+00 2.65313E-01-1.05988E+00 2.47541E-01-2.69245E-01
 -1     10869 4.48856E+00 3.60734E+00 2.26180E-01-5.13357E-01 1.06711E-01-3.58221E-01
 -1     10870 2.16701E+00 5.17843E-02-6.99671E-01 1.80562E-01 3.44013E-03 3.78809E-01
 -1     10871 3.56708E+00 3.96973E-01-2.40856E-01 1.08842E+00-1.86615E-03 4.24512E-01
 -1     10872 1.54305E+00 6.74926E-02-1.02229E-01 2.49192E-01-4.46112E-02 2.17703E-01
 -1     10873 5.94090E+00 1.84258E+00 1.11998E+00 2.94529E+00-4.47022E-02 4.28077E-02
 -1     10874 4.73551E+00 5.76678E-01 3.72116E-01 1.19562E+00 2.35824E-02 2.23852E-01
 -1     10875 1.43531E+00 4.14257E+00 5.90207E-01-2.50364E-01 5.43011E-02 3.09313E-02
 -1     10876 1.41467E+00 4.48560E+00 6.57217E-01 6.24869E-02 3.51781E-02 4.37335E-02
 -1     10877 7.16263E+00 1.75490E+01 6.04460E+00-6.37546E-01 1.16729E-01-1.93711E-01
 -1     10878 2.26652E+00 8.75529E-01 2.05324E-02 1.20612E+00 7.09680E-03 1.54857E-02
 -1     10879 2.42884E+00 6.81943E-01-1.40751E-02 9.87487E-01 2.14734E-02 5.52395E-02
 -1     10880 2.20186E+00 1.73786E+00 2.14832E-01 1.52511E+00 9.81268E-03 3.60311E-02
 -1     10881 5.79058E+00 1.85117E+01 6.03308E+00-5.58817E-01-6.92197E-02-8.35762E-02
 -1     10882 1.37573E+00 1.35826E+00 1.38360E-03-8.96401E-01 1.03479E-01-1.06111E-01
 -1     10883 1.27202E+01 2.47106E+01 9.34461E+00-1.31901E+00-2.16584E-01 5.49128E-02
 -1     10884 1.26915E+01 1.42278E+01 6.51247E+00-2.17827E+00 3.69720E-02 6.19371E-02
 -1     10885 8.08096E+00 1.51754E+01 5.33020E+00-2.21549E+00-4.54456E-02 9.61226E-02
 -1     10886 1.25451E+01 1.61006E+01 7.21467E+00-2.77014E+00 5.28831E-03-3.19223E-03
 -1     10887 6.38003E+00 1.71978E+01 5.25596E+00 4.99722E-01-1.10852E-02 1.95183E-01
 -1     10888 7.02734E+00 1.38594E+01 4.63684E+00-1.58420E+00 8.02487E-02 6.97299E-02
 -1     10889 7.84159E+00 1.76229E+01 5.79015E+00-8.42947E-01 1.39346E-01 9.47348E-02
 -1     10890 7.22064E+00 1.14445E+01 4.10752E+00-1.92655E+00 8.32340E-02 9.93750E-02
 -1     10891 6.08428E+00 1.09673E+01 4.08334E+00 6.70339E+00-2.67174E-01-7.66377E-03
 -1     10892 8.24075E+00 1.46125E+01 5.63001E+00 8.36130E+00-3.79296E-01-6.96364E-02
 -1     10893 3.15749E+00 9.10345E+00 2.50903E+00 1.64129E+00 6.59608E-02 3.50233E-02
 -1     10894 3.07505E+00 8.90088E+00 2.39616E+00 4.06871E-01-7.70539E-02 1.01651E-01
 -1     10895 3.56271E+00 1.03628E+01 2.97920E+00 1.46037E+00 5.21030E-02 9.13422E-02
 -1     10896 8.67560E+00 1.83792E+01 6.81184E+00 2.65801E+00-7.17030E-02 6.08384E-01
 -1     10897 1.15728E+01 2.64935E+01 1.04222E+01 7.85626E+00-8.67710E-01 3.29450E-01
 -1     10898 5.00160E+00 1.60719E+01 5.01955E+00 3.32522E+00-2.98265E-01 3.42929E-01
 -1     10899 5.28855E+00 4.87587E+00 1.88822E+00-9.76973E-01 6.09922E-03-2.06674E-04
 -1     10900 6.01917E+00 8.86312E+00 2.98868E+00 5.92844E+00-4.10890E-01 2.65901E-03
 -1     10901 1.22000E+00 3.97155E+00 4.21887E-01-1.10096E-02 1.34140E-01 4.93638E-02
 -1     10902 1.33235E+01 1.54427E+01 7.15999E+00-2.87305E+00 1.85618E-02 2.89236E-02
 -1     10903 1.30421E+01 1.59899E+01 7.33364E+00-2.75781E+00 9.22459E-02 8.03774E-02
 -1     10904 1.21427E+01 1.39982E+01 6.38493E+00-1.82927E+00 9.76938E-02 1.81024E-01
 -1     10905 1.66869E+00 2.33200E+00 2.61102E-01-9.05972E-01 3.19115E-02-1.31749E-02
 -1     10906 1.63110E+00 1.66775E+00 1.55103E-01-9.02454E-01 1.91836E-02-3.19336E-02
 -1     10907 1.06872E+01 1.52903E+01 6.39612E+00-1.90566E+00 2.12935E-01-1.37268E-02
 -1     10908 1.07867E+01 1.56784E+01 6.56398E+00-2.10583E+00-2.01008E-01 1.89101E-01
 -1     10909 1.02604E+01 1.39949E+01 5.79585E+00-1.54260E+00 2.52292E-02 1.34254E-01
 -1     10910 5.01338E+00 6.49845E+00 2.09768E+00-1.28652E+00 1.52986E-02 5.19236E-02
 -1     10911 5.66521E+00 7.57017E+00 2.61196E+00-1.28684E+00 1.97412E-02 5.15729E-02
 -1     10912 2.18386E+00 1.17188E+00 1.92058E-02-3.56824E-01 4.95134E-02-2.41277E-01
 -1     10913-2.71839E-01 1.26550E-01-5.76949E-02 5.65664E-02-3.53179E-02 6.19566E-02
 -1     10914 9.73114E-01 5.05099E-01 9.78381E-02 4.71410E-01-6.03046E-02 7.86099E-03
 -1     10915-1.18745E-01 8.48341E-02-5.78540E-02-7.39720E-02-3.84595E-02 2.02348E-03
 -1     10916 8.10902E+00 1.48507E+01 4.94210E+00-2.05689E+00 6.41116E-02 2.40659E-01
 -1     10917 1.18072E+01 1.47641E+01 4.38937E+00-2.16508E+00 1.81557E-01 4.71705E-01
 -1     10918 8.24299E+00 7.25802E+00 3.45414E+00-6.62008E-01 3.62799E-03 2.31024E-02
 -1     10919 8.99769E+00 2.97773E+00 2.33920E+00 4.83412E+00-3.38445E-02-2.90638E-01
 -1     10920 1.21345E+01 2.27916E+01 8.69184E+00-1.39240E+00 7.99439E-02 5.83336E-02
 -1     10921 7.54110E+00 6.71714E+00 2.46584E+00-7.21473E-01 3.28676E-02 3.62931E-02
 -1     10922 7.63752E+00 6.79352E+00 2.53011E+00-7.15145E-01 1.74657E-02 6.18691E-02
 -1     10923 1.05098E+01 2.20682E+01 8.29421E+00-2.54679E-01 5.91515E-02 1.45863E-01
 -1     10924 2.68750E+00 1.07794E-01-3.42379E-01 3.04089E-01 1.11022E-02 8.95166E-02
 -1     10925 4.47318E+00 5.29536E+00 1.76996E+00 3.09720E+00-1.79409E-02-1.24353E-02
 -1     10926 3.09689E+00 6.03617E+00 1.59110E+00 2.82373E+00 4.62690E-02 3.58564E-02
 -1     10927 3.08405E+00 5.85172E+00 1.54991E+00 2.64002E+00-3.93680E-03 1.64292E-02
 -1     10928 4.27037E+00 3.91219E+00 1.35358E+00 2.98132E+00 2.88820E-02 3.81946E-02
 -1     10929 1.09287E+01 1.19995E+01 3.58671E+00-1.96203E+00 1.35257E-02 2.41551E-01
 -1     10930 1.07399E+01 1.35756E+01 4.10667E+00-2.52845E+00 2.31773E-01 5.80490E-02
 -1     10931 6.19750E+00 1.50820E+01 2.98759E+00-1.03680E+00 1.42955E-01 6.04330E-01
 -1     10932 6.00576E+00 1.06909E+01 3.14866E+00-1.38070E+00 7.64989E-02 1.84373E-01
 -1     10933 7.21564E+00 1.28150E+01 4.15095E+00-1.44783E+00 6.95736E-02 1.67899E-01
 -1     10934 1.45479E+00 6.02878E-01 4.38223E-03-6.50562E-01 3.33787E-02-9.32869E-02
 -1     10935 7.23610E+00 8.01889E+00 3.54124E+00 4.29082E+00-3.68883E-01 2.60138E-02
 -1     10936 9.79776E+00 7.15078E+00 3.34413E+00 5.00471E+00 1.14426E-01 3.95440E-01
 -1     10937 2.79990E+00 4.80591E+00 7.36394E-01-7.89180E-01 1.86984E-01-4.65329E-03
 -1     10938 2.25310E+00 5.78111E+00 8.66741E-01-3.27617E-01 1.88430E-01 7.67830E-02
 -1     10939 1.49229E+01 2.17902E+01 9.01579E+00 1.18475E+01 5.18516E-01 2.65645E-01
 -1     10940 5.77251E+00 3.10744E+00 1.49207E+00 3.77813E+00-1.50897E-01 3.20118E-02
 -1     10941 1.52250E+01 2.11126E+01 8.76997E+00 1.18913E+01-8.79779E-01 5.84547E-01
 -1     10942 4.30098E+00 7.32824E+00 1.70445E+00-1.21573E+00 6.51032E-02 1.22845E-01
 -1     10943 2.29662E+00 4.85956E+00 5.33193E-01-6.83294E-01 2.05266E-01 7.72426E-05
 -1     10944 3.12457E+00 4.26222E+00 5.67218E-01-1.04726E+00 2.12694E-01-6.28460E-02
 -1     10945 2.41386E+00 3.74351E+00 3.49455E-01-9.72972E-01 2.23145E-01-8.46278E-02
 -1     10946 2.87562E+00 3.59538E+00 4.73402E-01-1.02674E+00 1.62331E-01-8.19256E-02
 -1     10947 2.21428E+00 4.24216E+00 5.00968E-01-7.55383E-01 2.09427E-01-2.14259E-02
 -1     10948 1.27251E+01 2.39099E+01 8.61234E+00 8.65209E+00-1.89763E-01-1.12398E-02
 -1     10949 7.80057E+00 1.65475E+01 5.21629E+00 2.29237E+00 5.44697E-01-2.11151E-01
 -1     10950 1.09343E+01 2.45346E+01 8.44524E+00 8.08200E+00-4.50501E-01 3.09564E-01
 -1     10951 8.18473E+00 1.82118E+00 1.63265E+00 2.26291E+00 1.85453E-01-9.21745E-02
 -1     10952 1.23227E+00 3.47981E-02-1.23107E-01 1.36462E-01-3.37220E-02 1.69803E-01
 -1     10953 2.95175E+00 1.27892E+00 1.22915E-01 1.43508E+00 1.03048E-01 2.77059E-01
 -1     10954 2.95318E+00 1.88816E+00 2.33174E-01 1.84134E+00 6.91669E-02 2.64645E-01
 -1     10955 2.36166E+00 2.85824E+00 3.81133E-01 1.93649E+00 3.27489E-02 1.53237E-01
 -1     10956 5.26691E+00 4.11220E+00 1.31586E+00-4.25896E-01 3.57754E-02-4.45292E-02
 -1     10957 5.00722E+00 3.86191E+00 1.16869E+00-3.79736E-01 2.97412E-02-4.57734E-02
 -1     10958 1.70793E+00 1.70019E+00 1.13535E-01 1.29617E+00 4.14537E-02 9.36264E-02
 -1     10959 1.75703E+00 2.20332E+00 1.81536E-01 1.41931E+00 8.31878E-02 1.35671E-01
 -1     10960 6.34462E-01-3.49623E-01-1.10217E-02-7.12209E-01 1.79013E-02-6.91017E-02
 -1     10961 7.18757E+00 6.49923E+00 2.51812E+00-7.83134E-01 1.25728E-02 5.18686E-02
 -1     10962 2.50387E+00 6.34321E+00 1.50527E+00 1.82831E+00 3.24223E-03 5.61469E-02
 -1     10963 2.36373E+00 6.65304E+00 1.55351E+00 9.00169E-01 4.56049E-02 4.68500E-02
 -1     10964 2.31497E+00 6.62476E+00 1.54137E+00 8.77509E-01 2.19189E-02 5.15704E-02
 -1     10965 2.76526E+00 7.67425E+00 1.94762E+00 2.29634E-01 2.53337E-02 3.55380E-02
 -1     10966 7.03801E+00 6.36658E+00 1.85956E+00-7.90533E-01 4.81008E-02-3.56924E-03
 -1     10967 2.98160E+00 8.46558E-02-2.40767E-01 3.69041E-01 5.21928E-03 4.18334E-02
 -1     10968 1.14018E+01 3.09373E+01 1.07389E+01-3.37024E+00 2.43591E+00-5.50796E-02
 -1     10969 5.61074E+00 4.03668E-01 5.93992E-01 1.32932E+00 1.40455E-01-3.37890E-03
 -1     10970 7.78251E+00 6.70168E-01 1.42634E+00 2.80839E+00 1.34387E-01 9.31503E-02
 -1     10971 3.89060E+00 5.81056E+00 1.77025E+00 3.17242E+00 6.63439E-02-1.94428E-02
 -1     10972 4.55250E+00 6.70313E+00 2.23831E+00 3.86383E+00 3.68420E-02 2.69794E-02
 -1     10973 6.95051E+00 1.85699E+01 5.39808E+00-2.36841E-01 2.17389E-02 1.46804E-01
 -1     10974 7.22835E+00 3.76154E+00 2.13665E+00 4.36523E+00-3.60419E-02 2.82110E-02
 -1     10975 2.24002E+00 1.00138E-01-3.54031E-01 3.71493E-01 9.17968E-03 2.48628E-01
 -1     10976 4.67885E-01 1.00861E-03-2.85942E-01 1.50486E-01-1.89424E-02 3.01462E-02
 -1     10977 6.26555E+00 8.93181E+00 3.18390E+00-1.59414E+00 3.13113E-02 8.77220E-02
 -1     10978 6.61181E+00 1.06776E+01 1.07569E+00-2.07140E+00 3.64680E-01-4.28310E-02
 -1     10979 6.99507E+00 7.65116E+00 3.00661E+00-1.48423E+00 2.69325E-02 1.57779E-02
 -1     10980 9.79946E+00 1.03196E+01 4.87454E+00-1.31209E+00 6.78887E-02-4.64387E-02
 -1     10981 7.94909E-02 6.37620E-02-1.52939E-02-6.75184E-02-4.96320E-03 2.66841E-03
 -1     10982 1.07982E+01 1.77237E+01 7.18502E+00-2.33165E+00-7.38673E-02 1.36873E-01
 -1     10983 4.82014E+00 1.03518E+00 6.32206E-01 1.70001E+00 2.61247E-02 1.02284E-02
 -1     10984 6.62200E+00 2.58182E+00 1.68351E+00 3.64709E+00-1.14772E-02 3.59777E-02
 -1     10985 4.71054E+00 1.58963E+01 5.05445E+00 4.36503E+00-1.50644E-01 7.18651E-02
 -1     10986 7.38181E+00 1.45592E+00 1.55595E+00 2.53693E+00 1.31300E-01 9.06086E-03
 -1     10987 1.02815E+01 8.91032E+00 4.51812E+00 7.45825E+00-1.37359E-01-1.88963E-01
 -1     10988 2.96546E+00 1.17587E+00-1.36966E-02 1.60326E+00 8.39714E-02 3.44596E-01
 -1     10989 3.74683E+00 1.63556E+00 2.54106E-01 2.04042E+00 3.58565E-02 3.01935E-01
 -1     10990 2.91794E+00 1.29089E+00 4.37301E-02 1.61926E+00 2.82927E-02 2.65520E-01
 -1     10991 2.74797E+00 7.73197E-01-1.28851E-01 1.07099E+00 4.39957E-02 3.41869E-01
 -1     10992 3.42908E+00 7.05734E-01-1.19869E-01 1.26138E+00 2.31999E-02 3.18306E-01
 -1     10993 1.70346E+00 4.20702E+00 5.99881E-01-4.99497E-01 1.29143E-01 1.19052E-02
 -1     10994 1.72953E+00 3.79093E+00 3.14521E-01 1.32870E+00 2.10459E-01 2.34687E-01
 -1     10995 1.77454E+00 2.66539E+00 1.10824E-01 1.54284E+00 1.49833E-01 2.80095E-01
 -1     10996 2.23756E+00 3.36656E+00 3.10725E-01 1.98416E+00 1.14564E-01 2.86618E-01
 -1     10997 1.81741E+00 2.82536E+00 1.92302E-01 1.56652E+00 1.21168E-01 2.60302E-01
 -1     10998 9.76299E-01 1.01343E+00-2.24876E-02 8.41982E-01 4.21717E-02 9.05048E-02
 -1     10999 1.00064E+01 1.07660E+01 4.56547E+00-1.58100E+00 2.41420E-02 9.16101E-02
 -1     11000 2.26853E+00 6.94094E+00 1.62859E+00 4.10545E-01 8.86183E-02 5.73086E-03
 -1     11001 5.20867E+00 4.09536E+00 1.62396E+00-4.51491E-01-1.68172E-02-1.35737E-02
 -1     11002 5.50094E+00 4.45067E+00 1.81091E+00-4.91627E-01 1.79788E-03-1.82700E-03
 -1     11003 5.38746E+00 4.26119E+00 1.72017E+00-4.65295E-01-1.78203E-02 3.47234E-03
 -1     11004 1.42905E+00-1.09431E-02-3.88588E-02 1.23466E-01-2.26793E-02 8.68499E-02
 -1     11005 1.81808E+00 1.04843E-01-4.49714E-02 4.33025E-01-5.26631E-02 1.25598E-01
 -1     11006 1.55997E+00 3.47568E-02-3.22964E-02 3.13100E-01-4.47230E-02 8.32095E-02
 -1     11007 1.29580E+00 2.07475E-02-7.31851E-02 1.64510E-01-3.94405E-02 1.59581E-01
 -1     11008 1.77211E+00 1.69587E-01-2.04293E-01 4.45809E-01 2.02448E-02 9.35094E-02
 -1     11009 8.35329E+00 1.64681E+01 5.84565E+00-2.23310E+00-4.07898E-02 1.77608E-01
 -1     11010 8.96040E+00 9.03799E+00 3.71764E+00-1.12656E+00 1.37051E-02 1.04023E-01
 -1     11011 8.18590E+00 7.18655E+00 2.85162E+00-7.76946E-01 2.64641E-02 7.67704E-02
 -1     11012 7.26976E+00 8.42548E+00 2.92888E+00-1.62785E+00 6.36918E-02 9.79175E-02
 -1     11013 1.72549E+00 1.72014E+00 6.94492E-03-8.17023E-01 1.57594E-01-1.93152E-01
 -1     11014 1.98856E+00 1.14037E+00 2.20876E-02-5.87528E-01 9.46852E-02-2.19564E-01
 -1     11015 8.20589E+00 7.25419E+00 2.85480E+00-8.46482E-01 3.42224E-02 4.92003E-02
 -1     11016 6.55602E+00 1.04484E+00-4.33992E-01 2.61020E+00 1.82109E-01 8.68388E-01
 -1     11017 5.88112E+00 1.31868E+00-3.39339E-01 1.92288E+00 1.72255E-01 6.95182E-01
 -1     11018 5.43550E+00 1.42813E+00-3.53825E-01 1.69733E+00 1.00483E-01 7.19187E-01
 -1     11019 5.18366E+00 3.99127E+00 1.48886E+00-4.25041E-01 1.15955E-02-1.31466E-02
 -1     11020 4.82296E+00 3.64844E+00 1.29893E+00-3.78375E-01 1.68864E-03-2.81566E-02
 -1     11021 4.43207E+00 3.90965E+00 1.25790E+00-8.47691E-01 2.71352E-02-1.86823E-02
 -1     11022 1.64855E+00 3.99730E-01 1.68153E-03-2.49753E-01 1.35774E-03-8.76387E-02
 -1     11023 1.61266E+00 4.49405E-01-3.84624E-03-2.63076E-01 2.71754E-02-1.60236E-01
 -1     11024 1.78935E+00 6.26396E-01-3.58637E-04-2.83616E-01 3.25806E-02-1.81725E-01
 -1     11025 1.49727E+00 3.81493E-01 1.78341E-03-4.98479E-01 2.30523E-02-9.86725E-02
 -1     11026 9.48176E+00 1.23112E+01 5.36714E+00-1.55099E+00 3.31136E-02-4.39970E-03
 -1     11027 6.27843E+00 1.40078E+01 4.83016E+00-1.53814E+00 1.72307E-01-1.07769E-01
 -1     11028 7.03651E+00 1.08211E+01 4.04613E+00-1.68542E+00 1.29831E-01-7.30421E-02
 -1     11029 2.90399E+00 4.24727E+00 9.89671E-01 2.32134E+00 4.50131E-02 3.66509E-02
 -1     11030 2.45984E+00 3.44946E+00 6.92420E-01 2.05134E+00 2.57538E-02 6.78678E-02
 -1     11031 4.88091E+00 9.53711E+00 3.66234E-01-1.58235E+00 6.23735E-01-2.23252E-01
 -1     11032 4.89307E+00 1.03092E+01 3.37332E+00-5.48033E-01 7.89204E-03 2.84647E-02
 -1     11033 4.70834E+00 1.04164E+01 3.15262E+00 3.78676E+00 1.49588E-02 2.03128E-01
 -1     11034 4.02503E+00 6.59341E+00 1.78366E+00 3.52382E+00 1.04212E-01 1.66638E-01
 -1     11035 5.33039E+00 4.76498E+00 1.68467E+00 3.89110E+00 7.72746E-02 1.19718E-01
 -1     11036 6.45045E+00 1.95846E+00 9.23122E-01 1.89268E+00 1.17967E-02 1.09430E-01
 -1     11037 7.09794E+00 6.14234E+00 2.76978E+00-5.95065E-01 7.00083E-03 2.42899E-02
 -1     11038 1.88975E+00 5.58640E-02-4.68611E-01 2.01209E-01-1.59313E-03 1.73553E-01
 -1     11039 2.05825E+00 7.78589E-02-4.57171E-01 2.51136E-01 7.00875E-03 1.98067E-01
 -1     11040 7.15818E+00 1.52633E+01 5.36744E+00-1.22106E+00-3.54789E-01 2.89861E-01
 -1     11041 7.30876E+00 1.93120E+01 6.75291E+00-9.25376E-01 9.84747E-02 3.52689E-01
 -1     11042 2.68189E+00 5.82748E+00 8.97214E-01-6.51139E-01 1.74713E-01 6.93941E-02
 -1     11043 1.24041E+01 2.79965E+01 1.14871E+01 7.94363E+00-1.91613E-01 2.84800E-01
 -1     11044 8.97470E+00 1.83567E+01 7.89365E+00 2.37304E+00-1.38941E-01 6.13094E-01
 -1     11045 7.06252E+00 1.56941E+01 5.63720E+00-2.16526E+00 1.97037E-01-2.08731E-03
 -1     11046 6.38636E+00 5.44077E+00 1.88004E+00-6.17604E-01 1.82435E-02 5.10282E-03
 -1     11047 5.54781E+00 5.52717E+00 1.65906E+00-1.17088E+00 7.30033E-02 4.46190E-02
 -1     11048 4.88213E+00 1.39440E+01 4.21869E+00 6.47855E-01 1.64175E-01 7.28823E-02
 -1     11049 5.59733E+00 1.61898E+01 5.11381E+00 7.34651E-01 2.99928E-02 1.91821E-01
 -1     11050 5.92408E+00 9.44740E+00 3.12504E+00 5.27465E+00 1.24289E-01 6.17949E-02
 -1     11051 5.50318E+00 1.78627E+01 5.21853E+00 4.29172E+00 1.47018E-01 1.06729E-01
 -1     11052 2.25441E+00 2.13871E+00 3.70163E-02-9.10212E-01 1.27306E-01-1.70673E-01
 -1     11053 2.36673E+00 2.01911E+00-6.00355E-03-8.21227E-01 7.78484E-02-1.77769E-01
 -1     11054 3.93640E+00 6.47352E-01 6.39003E-02 1.06396E+00 1.59142E-02 1.42396E-01
 -1     11055 3.26652E+00 2.54063E-01-1.98853E-01 5.15943E-01-3.95204E-02 1.09199E-01
 -1     11056 3.21850E+00 2.07921E-01-2.23454E-01 5.07458E-01-1.87844E-02 1.23436E-01
 -1     11057 4.40604E+00 1.03688E+00 3.58447E-01 1.74134E+00-3.45671E-03 1.63150E-01
 -1     11058 9.06958E+00 3.38152E+00 1.99827E+00 4.11490E+00-3.72550E-01 2.70582E-01
 -1     11059 7.85918E+00 1.03171E+00 8.60453E-01 2.63822E+00-3.16571E-01 8.20688E-04
 -1     11060 1.23079E+01 1.35417E+01 6.48504E+00-2.19739E+00-1.41132E-02 7.53553E-02
 -1     11061 8.91854E+00 1.45610E+01 5.68540E+00-2.45292E+00 8.95895E-02-6.56960E-03
 -1     11062 3.22092E+00 6.95367E+00 1.89509E+00-5.02094E-01-9.31776E-03 4.69428E-02
 -1     11063 4.01375E+00 7.14507E+00 2.17310E+00-7.47596E-01 1.98045E-03 4.07380E-02
 -1     11064 3.15695E+00 6.89540E+00 1.83317E+00-4.88291E-01 4.43469E-02 3.26698E-03
 -1     11065 1.63046E+00 1.17334E-01-2.13428E-02 5.29550E-01-3.90197E-02 9.01238E-02
 -1     11066 1.40331E+00 2.98032E-02-3.64451E-01 1.44696E-01-1.32668E-02 2.41545E-01
 -1     11067 1.39970E+00 1.92626E-02-3.92331E-01 1.14215E-01-1.57254E-02 2.85611E-01
 -1     11068 5.08617E+00 4.14881E+00 8.33585E-01-5.45061E-01 9.80821E-02-1.30763E-01
 -1     11069 5.41956E+00 4.54935E+00 9.85240E-01-6.05341E-01 7.74670E-02-1.31355E-01
 -1     11070 4.77163E+00 6.65684E-01 4.19228E-01 1.38121E+00-1.17850E-02 3.11626E-02
 -1     11071 2.23915E+00 9.75068E-02-6.21626E-01 2.35962E-01 1.77869E-02 3.29438E-01
 -1     11072 3.45801E+00 3.31201E-01-2.26496E-01 9.30620E-01 3.17768E-02 2.95636E-01
 -1     11073 2.25305E+00 1.04012E-01-6.06911E-01 2.50851E-01 1.21811E-02 2.88898E-01
 -1     11074 3.65396E+00 4.53875E-01-2.17548E-01 1.21094E+00-4.50352E-02 5.82355E-01
 -1     11075 6.92208E+00 6.08087E+00 2.39404E+00-6.85498E-01 2.99568E-02 3.84576E-02
 -1     11076 8.24679E+00 4.73522E+00 2.09148E+00 3.52658E+00-1.67318E-01-3.42022E-01
 -1     11077 1.75977E+00 1.76943E+01 4.68683E+00 5.45225E+00-6.14872E-01 8.31718E-01
 -1     11078 1.65185E+00 3.50360E-01 1.02409E-02-1.96628E-01 3.39697E-03-2.69929E-02
 -1     11079 1.41730E+00 8.94549E-02-2.33067E-02-1.77645E-01 8.68598E-04-2.10783E-02
 -1     11080 1.50913E+00 4.27943E-01 6.97537E-03-5.25462E-01 1.58783E-02-4.50623E-02
 -1     11081 1.64141E+00 4.46063E-01 1.45439E-02-3.52510E-01 2.06268E-02-7.24147E-02
 -1     11082 2.53644E+00 2.80292E+00 2.05693E-01-9.08852E-01 2.00460E-01-1.96053E-01
 -1     11083 4.84272E+00 6.64270E-01 4.85893E-01 1.59525E+00-2.35064E-02-3.38813E-02
 -1     11084 7.72316E+00 1.75893E+01 6.00896E+00-8.60800E-01 3.99298E-02 2.53227E-01
 -1     11085 1.96981E+00 1.96370E-02-6.92621E-01 2.02163E-01 1.01581E-02 3.71465E-01
 -1     11086 2.25005E+00 1.64342E-01-6.70003E-01 2.70438E-01 1.62852E-02 4.32788E-01
 -1     11087 2.56820E+00 1.22733E-01-6.87489E-01 3.79131E-01-1.04919E-02 4.00461E-01
 -1     11088 3.79868E+00 3.09402E-01-2.53214E-01 1.02166E+00 2.50657E-02 4.22345E-01
 -1     11089 6.70383E+00 2.19778E+00 1.52200E+00 3.71088E+00 4.58322E-02 2.09071E-01
 -1     11090 1.28817E+01 1.54365E+01 7.06303E+00-2.31739E+00 4.30779E-02 7.21036E-03
 -1     11091 8.60051E+00 2.71789E+00 1.90085E+00 2.67078E+00 4.32918E-01 1.08735E-01
 -1     11092 7.45203E+00 4.90002E+00 4.23868E-01 4.88246E+00 2.27485E-01 1.22420E+00
 -1     11093 1.08675E+01 4.11496E+00 2.45823E+00 7.02895E+00 1.86166E-04 9.13695E-02
 -1     11094 6.74447E+00 1.59345E+01 4.91292E+00 5.30040E+00 3.95688E-01 1.99623E-01
 -1     11095 3.09750E+00 1.58565E+01 4.68400E+00 6.12923E+00 2.27721E-01 1.39146E-02
 -1     11096 4.79855E+00 4.12731E+00 1.04719E+00-8.73558E-01 7.45874E-02-7.08013E-02
 -1     11097 6.42040E+00 5.27734E+00 2.25318E+00-4.77849E-01-3.77149E-03 2.34557E-02
 -1     11098 6.64860E+00 5.50313E+00 2.38364E+00-4.62778E-01-1.70943E-02 4.97102E-03
 -1     11099 5.27471E+00 7.59589E+00 2.68514E+00-1.33321E+00-3.11531E-02 7.32033E-02
 -1     11100 4.01564E+00 7.39469E+00 2.22633E+00-1.06798E+00 2.44097E-02 3.08202E-02
 -1     11101 3.55558E+00 6.10310E+00 4.19163E-01-9.33770E-01 4.00455E-01-1.05461E-01
 -1     11102 8.47446E+00 1.41143E+00 1.69759E+00 2.21460E+00 1.16571E-01 9.52958E-02
 -1     11103 5.84760E+00 5.63774E-01 7.35253E-01 1.97084E+00 1.03390E-01 1.54976E-01
 -1     11104 2.14429E-02 1.48778E-01 2.95250E-03 7.43930E-01-1.68753E-02-2.01973E-02
 -1     11105-2.03302E-01 8.21455E-02-6.21141E-06 5.71234E-01 4.87262E-03-1.88124E-02
 -1     11106-1.67219E-01 6.85008E-02 4.29538E-03 5.27328E-01 1.15277E-02-2.11483E-02
 -1     11107 3.24649E+00 4.63966E-01-2.80930E-01 1.08032E+00-8.85866E-03 3.68359E-01
 -1     11108 4.85713E+00 3.97390E+00 3.67314E-01-5.41072E-01 9.77860E-02-2.77697E-01
 -1     11109 3.42992E+00 3.33210E+00 8.34201E-01 2.68012E+00 1.52076E-02 1.55966E-01
 -1     11110 3.09579E+00 4.62173E+00 1.06810E+00-1.04966E+00 1.03672E-01 1.84965E-03
 -1     11111 4.03081E+00 4.00247E+00 1.15894E+00-1.01562E+00 2.84046E-02-2.58353E-02
 -1     11112 2.38020E+00 1.50138E-01-6.91534E-01 3.04624E-01-4.07210E-03 5.25331E-01
 -1     11113 6.39022E+00 1.00583E+01 3.34233E+00 4.74116E+00-9.06860E-03 2.26719E-01
 -1     11114 6.91602E+00 1.15378E+01 4.06452E+00 5.28810E+00 2.71251E-01 2.05749E-01
 -1     11115 1.29378E+01 1.95770E+01 7.82992E+00-2.14264E+00-1.38143E-01 2.56597E-01
 -1     11116 8.16567E+00 2.10595E+00 1.69397E+00 2.56922E+00-1.72163E-02 4.44860E-01
 -1     11117 6.29655E+00 1.37876E+00 1.26519E+00 2.00420E+00 2.44036E-01 2.27251E-01
 -1     11118 7.89263E+00 1.87900E+01 6.40398E+00 1.91672E-01 8.43114E-02 1.51868E-03
 -1     11119 6.16952E+00 1.58046E+01 4.93465E+00 8.12047E+00 2.02423E-01 7.08748E-02
 -1     11120 3.74101E+00 3.56620E+00 2.40226E-01-8.97666E-01 1.98245E-01-2.88679E-01
 -1     11121 1.02296E+01 1.03057E+01 4.84632E+00 8.24707E+00-2.91409E-02 8.03565E-02
 -1     11122 7.45220E+00 8.21168E+00 2.57714E+00 5.39134E+00-1.43978E-01 3.03460E-01
 -1     11123 7.23559E+00 8.23482E+00 3.12294E+00 4.56921E+00-2.02739E-01 1.81455E-01
 -1     11124 1.79675E+00 3.67117E-04-6.82569E-01 1.59060E-01 2.79906E-03 3.84387E-01
 -1     11125 1.97229E+00 1.11646E-02-7.01739E-01 1.93224E-01 9.23688E-03 3.85127E-01
 -1     11126 2.04776E+00 4.19496E-01-1.42436E-01 7.13400E-01 1.01592E-03 5.78985E-02
 -1     11127 4.53150E+00 1.38817E+01 3.53549E+00 7.80763E-01 2.42447E-01 2.48085E-01
 -1     11128 4.70784E+00 1.30060E+01 3.25842E+00 1.78451E-02 1.31847E-03 3.42402E-01
 -1     11129 1.92312E+00 6.45202E-01 6.62177E-02-2.14409E-01 3.71483E-03-2.87380E-02
 -1     11130 1.22897E+00 3.58445E+00 4.24755E-01-2.73292E-01 5.14405E-02 9.96467E-03
 -1     11131 1.29013E+00 3.86782E+00 5.20095E-01-1.18086E-01 2.73014E-02 3.32779E-03
 -1     11132 9.24977E-01 3.15352E+00 2.71032E-01-1.00708E-01 3.83438E-02 5.69688E-03
 -1     11133 9.49982E-01 3.31382E+00 3.15909E-01 2.72252E-01 1.89043E-02 1.31773E-02
 -1     11134 1.24748E+00 3.83437E+00 5.06292E-01 1.25156E-01 4.72654E-02 1.97903E-02
 -1     11135 9.08823E+00 1.09204E+00 1.79734E+00 2.87059E+00-6.80988E-01 4.92693E-01
 -1     11136 7.17299E+00 1.52048E+01 5.18028E+00-1.87808E+00-1.10866E-01 5.41730E-02
 -1     11137 6.90307E+00 7.62103E+00 3.08619E+00-1.49858E+00-2.51012E-02 1.16060E-01
 -1     11138 5.70874E+00 1.00214E+00 5.88173E-01 1.73079E+00-1.71839E-02 1.30282E-01
 -1     11139 8.86594E-01 1.90870E+00 4.17053E-02 9.23655E-01 9.32744E-02 1.04965E-01
 -1     11140 5.58114E+00 4.03378E+00 1.68813E+00 3.88340E+00-2.83504E-02 1.35345E-01
 -1     11141 7.88855E+00 2.30251E+00 2.06452E-01 4.39548E+00 6.86321E-01 6.99367E-01
 -1     11142 6.39594E+00 9.63103E+00 2.02565E+00 5.34894E+00 2.31541E-02 6.19423E-01
 -1     11143 5.69888E+00 8.16542E+00 2.94433E+00-1.51218E+00 1.68383E-02 2.33737E-02
 -1     11144 5.64339E+00 7.13954E+00 2.56008E+00-1.21807E+00 4.64637E-02 2.21850E-02
 -1     11145 6.81365E+00 7.03114E+00 2.91971E+00-1.30141E+00 3.65168E-02 2.81032E-02
 -1     11146 6.53165E+00 6.35421E+00 2.63334E+00-1.17028E+00 1.35318E-02 8.95930E-03
 -1     11147 5.41886E+00 9.83146E+00 3.25396E+00-9.50610E-01 3.58118E-02 3.46185E-02
 -1     11148 1.03810E+01 3.94396E+00 3.20761E+00 6.08703E+00 1.51776E-02 1.01876E-01
 -1     11149 6.08252E+00 9.53464E-01 8.75126E-01 2.09744E+00 1.07413E-01 1.16781E-01
 -1     11150 9.18720E+00 4.85869E+00 3.07707E+00 6.18101E+00 6.85852E-02-2.21023E-01
 -1     11151 6.91602E+00 1.00027E+01 3.84465E+00-1.75166E+00 2.41276E-02 1.55779E-02
 -1     11152 5.64315E+00 9.26502E-01 5.84669E-01 1.48765E+00-1.57095E-02 1.51736E-01
 -1     11153 7.32457E+00 1.96784E+00 1.50288E+00 3.52137E+00 8.19644E-02 8.93212E-02
 -1     11154 4.48107E+00 1.57543E+00 5.82913E-01 2.14980E+00 5.81140E-02 1.51745E-01
 -1     11155 3.84050E+00 2.20614E+00 6.03165E-01 2.13557E+00 3.86220E-02 1.38233E-01
 -1     11156 1.93527E+00 6.42007E+00 1.30994E-01-3.57387E-01 3.54750E-01-2.11469E-02
 -1     11157 3.42420E+00 2.75893E-01-3.07224E-01 8.54861E-01 2.62573E-02 3.27995E-01
 -1     11158 4.03600E+00 3.67207E+00 8.25292E-01-8.83602E-01 9.32964E-02-7.04562E-02
 -1     11159 4.84807E+00 6.87986E+00 1.45212E+00-1.40522E+00 1.61738E-01 7.58747E-02
 -1     11160 3.45644E+00 7.57169E+00 1.33428E+00-5.46863E-01 1.93096E-01 1.29872E-01
 -1     11161 1.60493E+00 3.59926E+00 5.26184E-01 1.20812E+00 4.82786E-02 3.69764E-02
 -1     11162 9.76766E+00 9.80807E+00 4.43749E+00-1.29252E+00 1.47734E-02 7.12099E-03
 -1     11163 2.31177E+00 3.54200E-02-4.08261E-01 2.45371E-01-2.58358E-03 3.57468E-02
 -1     11164 2.39747E+00 4.49185E-02-3.75343E-01 2.28346E-01-6.62580E-03 3.20896E-02
 -1     11165 2.19517E+00 2.61409E-02-4.28315E-01 2.21799E-01 5.62431E-03 2.04580E-02
 -1     11166 5.61708E+00 3.15025E-01 4.44916E-01 1.45032E+00-4.61952E-02 1.43867E-01
 -1     11167 6.49364E+00 2.43325E+00 1.24225E+00 3.48064E+00-8.19597E-02-3.15244E-02
 -1     11168 1.03882E+00 3.07981E-01-1.16368E-02-7.57084E-01 5.40579E-02-9.97122E-02
 -1     11169 1.10236E+00 1.61421E-01-7.69517E-03-6.44039E-01 2.32228E-02-8.04562E-02
 -1     11170 5.75004E+00 8.75682E+00 2.65362E+00-1.64936E+00 4.63716E-02 1.25113E-01
 -1     11171 5.46053E+00 7.01715E+00 2.06350E+00-1.29638E+00 8.11508E-02 1.16052E-01
 -1     11172 2.59981E+00 8.37617E+00 1.47501E-01-4.69290E-02 5.35193E-01-1.93941E-02
 -1     11173 4.38060E+00 2.38226E+00 5.52521E-01 2.49872E+00 1.64989E-02 2.85112E-01
 -1     11174 3.67100E+00 6.04350E+00 1.70262E+00 3.15665E+00 5.15523E-03 5.50371E-02
 -1     11175 4.88329E+00 2.88534E+00 1.20268E+00 3.08709E+00-2.09355E-02-2.53745E-02
 -1     11176 4.53927E+00 5.24048E+00 1.80505E+00 3.54137E+00 5.68825E-02 1.14293E-01
 -1     11177 1.30699E+01 1.54703E+01 5.91972E+00-2.20209E+00-2.18940E-02 1.59590E-01
 -1     11178 1.26172E+01 1.37968E+01 5.26441E+00-1.76508E+00-4.83775E-02 2.70464E-01
 -1     11179 1.38881E+01 1.66116E+01 6.44809E+00-2.34060E+00-1.62891E-02 3.55198E-01
 -1     11180 1.61447E+00 5.40872E-02-4.35435E-01 1.20964E-01 6.21390E-03 4.89079E-02
 -1     11181 1.57451E+00 3.66919E-02-4.41595E-01 1.09254E-01 2.03943E-03 3.97598E-02
 -1     11182 1.97650E+00 4.43116E+00 3.53301E-01-5.55005E-01 2.73603E-01 1.04135E-02
 -1     11183 1.85949E+00 3.81104E+00 2.89847E-01-6.39366E-01 2.44717E-01-2.56931E-02
 -1     11184 1.63724E+00 4.67125E+00 4.07872E-01-1.79894E-01 2.18953E-01 7.48741E-02
 -1     11185 1.43491E+00 1.60542E+00 1.38951E-02-9.23951E-01 1.05557E-01-1.13873E-01
 -1     11186 1.83368E+00 1.29622E+00 3.36784E-03-7.88613E-01 6.16138E-02-1.21300E-01
 -1     11187 2.35337E+00 1.01267E+00 3.95651E-02 1.29850E+00 3.21031E-02 8.21816E-02
 -1     11188 2.18156E+00 5.08755E-01-1.05318E-01 8.54420E-01-6.99530E-03 9.19515E-02
 -1     11189 3.34753E+00 1.33580E+00-9.55372E-02 1.81238E+00 5.90718E-02 5.12930E-01
 -1     11190 3.10791E+00 9.59016E-01-1.50210E-01 1.25604E+00 2.34369E-02 4.81752E-01
 -1     11191 3.65900E+00 7.39778E-01-2.70084E-01 1.43131E+00 1.86025E-02 5.25034E-01
 -1     11192 6.79255E+00 1.68461E+00 4.35305E-01 2.16582E+00 1.63245E-01 4.71606E-01
 -1     11193 6.30651E+00 1.62335E+00 1.33836E+00 2.46063E+00-5.93789E-02 8.80646E-02
 -1     11194 4.04369E+00 9.81986E-01 3.54781E-01 1.58265E+00-3.57076E-02 5.27184E-02
 -1     11195 5.94738E+00 1.35625E+01 4.36808E+00-6.16913E-01 1.55770E-01 1.13618E-01
 -1     11196 8.12830E+00 1.24706E+01 4.90267E+00 6.94115E+00-2.03135E-01 1.82913E-01
 -1     11197 5.69467E+00 1.13208E+01 4.30906E+00 3.90568E+00 1.19108E-01-4.64738E-02
 -1     11198 1.70704E+00 3.32551E-01-1.46215E-01 6.21634E-01-2.72270E-03 2.20741E-01
 -1     11199 1.81868E+00 3.61383E-01-1.19256E-01 6.47426E-01-1.18711E-02 2.70863E-01
 -1     11200 4.81431E+00 6.49920E+00 2.18441E+00-1.31096E+00 3.11093E-02 2.90625E-02
 -1     11201 5.17222E+00 6.48840E+00 2.26867E+00-1.28724E+00 4.59061E-02 1.00836E-02
 -1     11202 5.90843E+00 7.74013E+00 2.89419E+00-1.30874E+00-1.11861E-03 3.89797E-02
 -1     11203 4.41687E-01 9.41110E-01-2.90090E-02 6.73993E-01 1.71998E-02 2.26877E-02
 -1     11204 9.07598E+00 9.51403E+00 4.29939E+00-1.38352E+00 7.18272E-02 2.29125E-02
 -1     11205 8.88513E-01 5.84423E-02-5.11744E-02 1.53960E-01-7.48870E-03 1.25284E-02
 -1     11206 8.50978E+00 1.16526E+01 4.26978E+00-2.12550E+00 1.01198E-01 6.13927E-02
 -1     11207 8.16898E+00 4.01986E+00 2.15045E+00 3.61293E+00 4.42803E-02 2.82136E-01
 -1     11208 2.81153E+00 1.95800E-01-4.83678E-01 3.98814E-01 2.91150E-02 2.44845E-01
 -1     11209 2.95893E+00 1.30291E-01-4.62578E-01 3.39314E-01 5.64894E-02 2.90060E-01
 -1     11210 2.94480E+00 6.60247E+00 1.03076E+00-5.95143E-01 2.03079E-01 1.17141E-01
 -1     11211 3.37507E+00 2.19664E+00 5.64973E-01-3.40375E-01 2.18637E-02-7.67825E-02
 -1     11212 3.50311E+00 2.29804E+00 6.30892E-01-3.52007E-01 1.55083E-02-6.02967E-02
 -1     11213 7.85509E+00 1.90586E+01 6.73905E+00-4.81401E-01-1.04820E-01 1.08350E-01
 -1     11214 4.29135E+00 5.18644E-01 7.31730E-02 8.45759E-01 1.73613E-02 1.56831E-01
 -1     11215 6.74226E+00 7.82937E-01 1.14665E+00 2.17995E+00 1.24856E-01 8.13768E-02
 -1     11216 7.57574E+00 1.03317E+00 1.51039E+00 2.25179E+00-8.85017E-02 5.95080E-01
 -1     11217 3.94709E+00 5.63315E-01-2.61877E-01 1.02372E+00 1.36384E-04 3.84440E-01
 -1     11218 4.22586E+00 3.25482E-01 1.85207E-01 1.03641E+00 1.97000E-02 1.17854E-01
 -1     11219 4.66683E+00 5.65392E-01 2.24348E-01 1.25395E+00 2.44001E-02 1.00700E-01
 -1     11220 5.36107E+00 6.48835E-01 5.77892E-01 1.40343E+00-4.93523E-02 2.78714E-02
 -1     11221 3.05610E+00 1.19989E-01-3.34152E-01 3.32742E-01 5.53753E-04 1.18633E-01
 -1     11222 2.89058E+00 1.40439E-01-3.93752E-01 4.39083E-01 7.96478E-03 1.82671E-01
 -1     11223 7.63631E-01 3.71139E-01-2.77459E-02-8.69733E-01 2.50608E-02-5.57204E-02
 -1     11224 7.28250E-01 9.09766E-01-1.95390E-02-9.03286E-01 4.50324E-02-2.84299E-02
 -1     11225 4.79652E+00 3.61037E+00 1.25955E+00-3.71985E-01 1.63198E-02-2.38579E-02
 -1     11226 2.79510E+00 1.82329E-01-2.97138E-01 4.25309E-01 1.78475E-02 8.21549E-02
 -1     11227 2.49156E+00 1.15718E-01-3.80177E-01 3.90997E-01 2.86470E-03 8.84769E-02
 -1     11228 4.58592E+00 5.90160E+00 8.23754E-01 3.77465E+00 1.79159E-02 5.61221E-01
 -1     11229 2.32229E+00 3.45114E-01-1.75453E-01 6.86097E-01 1.15353E-02 1.95679E-01
 -1     11230 1.94597E+00 4.25749E-01-1.63096E-01 7.03688E-01 3.30910E-02 1.86644E-01
 -1     11231 5.00348E+00 1.07033E+01 3.07291E+00-8.48887E-01 4.23302E-02 1.81759E-01
 -1     11232 1.00749E+00 3.39905E+00 2.72303E-01-6.31111E-02 1.30515E-01 3.42808E-02
 -1     11233 8.61433E-01 2.88006E+00 1.84829E-01 3.86109E-01 1.12126E-01 4.51153E-02
 -1     11234 5.72538E+00 5.80644E+00 2.13623E+00-1.15715E+00 6.69556E-02-3.82874E-02
 -1     11235 9.91564E+00 2.91481E+01 8.61032E+00 4.74516E+00 1.42074E+00 5.29688E-01
 -1     11236 5.05784E+00 1.51653E+01 3.40983E+00 2.04307E+00 7.40624E-01-7.07765E-03
 -1     11237 7.72254E+00 1.38315E+01 5.21684E+00-2.32412E+00 1.51696E-01-4.71253E-02
 -1     11238 7.75911E+00 1.03122E+01 4.22503E+00-2.07007E+00-3.91912E-02 2.54241E-02
 -1     11239 4.71612E+00 7.54698E+00 2.45455E+00 3.75482E+00 7.50679E-03-1.69420E-02
 -1     11240 8.47007E+00 7.95248E+00 3.75547E+00-9.69471E-01 2.49350E-02-6.24617E-03
 -1     11241 1.32995E+01 1.71411E+01 7.53542E+00-2.39273E+00 1.89876E-02 2.53431E-01
 -1     11242 8.10252E+00 8.07454E+00 3.43243E+00 3.94839E+00 8.90063E-02 2.78106E-01
 -1     11243 1.24752E+01 2.40419E+01 9.46997E+00 9.42332E+00 4.95185E-01-4.78122E-01
 -1     11244 5.71404E+00 1.47165E+01 5.14049E+00 2.19085E+00 5.15843E-01-3.03704E-01
 -1     11245 5.33140E+00 1.23658E+01 4.19429E+00 2.66056E+00-3.09709E-02 9.99827E-02
 -1     11246 4.76657E+00 1.29255E+01 4.03582E+00 2.04055E+00-1.94638E-02 1.68166E-01
 -1     11247 5.12719E+00 1.54236E+01 4.97947E+00 6.88274E-01 4.00198E-02 1.21365E-01
 -1     11248 4.30177E+00 1.35799E+01 4.14064E+00 4.43439E+00-6.94425E-02-1.91796E-02
 -1     11249 5.44914E+00 1.34469E+01 4.27753E+00 5.32887E+00 8.05702E-02-6.57099E-02
 -1     11250 3.53946E+00 1.92647E+01 5.59732E+00 3.60596E+00 5.67333E-02 8.02153E-02
 -1     11251 3.27279E+00 1.19321E+00 2.75710E-01 1.75616E+00 3.13235E-02 9.76162E-02
 -1     11252 7.72987E+00 1.48603E+01 4.42872E+00 6.93479E+00 1.02041E-01 7.46164E-01
 -1     11253 2.80859E+00 7.05435E-01-2.62580E-03 1.06124E+00 5.01872E-03 9.06393E-02
 -1     11254 3.05520E+00 7.32262E-01 3.35069E-02 1.16338E+00 7.81931E-03 9.06722E-02
 -1     11255 1.58821E+00 3.17408E-02-4.83598E-01 1.36901E-01-1.71103E-02 4.64991E-01
 -1     11256 1.63338E+00 4.48141E-02-5.39395E-01 1.40350E-01-9.97548E-03 4.71416E-01
 -1     11257 5.50918E+00 1.19216E+01 4.09819E+00 5.27907E+00-9.04508E-02-2.05137E-01
 -1     11258 6.13116E+00 6.33157E+00 2.54535E+00 4.45501E+00-1.63123E-01 2.91550E-02
 -1     11259 1.48760E+00 5.46535E+00 1.48956E-01 1.16426E+00 3.74779E-01 2.68813E-01
 -1     11260 1.14148E+00 1.52159E+00 3.68502E-02 1.02302E+00 6.86148E-02 9.86083E-02
 -1     11261 5.07078E-01 1.93619E+00 2.97351E-02 5.46027E-01 4.18435E-02 2.47541E-02
 -1     11262 7.16555E+00 3.12858E+00 2.01131E+00 4.28157E+00 8.61056E-02 2.16089E-01
 -1     11263 2.36688E+00 1.24356E+00-2.87676E-02 1.40303E+00 6.85507E-02 3.82788E-01
 -1     11264 1.84818E+00 1.71950E+00-5.30511E-03 1.45842E+00 1.02954E-01 3.41765E-01
 -1     11265 2.05974E+00 2.00034E+00 4.31355E-02 1.58863E+00 9.53227E-02 3.29968E-01
 -1     11266 3.87683E+00 9.45640E+00 2.79008E+00 3.94195E+00 5.55106E-02-7.72947E-03
 -1     11267 6.44390E+00 8.14052E+00 3.17017E+00 5.32991E+00 4.26972E-02 2.77203E-02
 -1     11268 6.99416E+00 8.19365E+00 3.27067E+00 5.68162E+00-2.07631E-02 2.43680E-01
 -1     11269 5.50316E+00 6.66781E+00 2.46741E+00 4.05931E+00 5.45072E-02 3.50811E-02
 -1     11270 9.93464E-01 3.24616E+00 1.61032E-01 1.16779E-01 2.19790E-01 5.58831E-02
 -1     11271 4.31485E+00 6.64567E+00 2.03447E+00 3.71292E+00 1.64474E-01 1.69372E-01
 -1     11272 5.25467E+00 4.02059E+00 1.52102E+00 3.58841E+00 1.27726E-01 9.19792E-02
 -1     11273 1.13739E+01 5.59608E+00 3.35150E+00 5.95807E+00-4.76151E-01 1.02709E-01
 -1     11274 8.23878E+00 6.11394E+00 3.07707E+00 4.95247E+00-3.59932E-01 8.91186E-02
 -1     11275-9.25267E-01 1.56731E-01-2.59613E-02 5.56205E-02 1.15600E-02-1.14792E-03
 -1     11276-9.58383E-01 1.82092E-01-2.66203E-02-1.54040E-01 8.13407E-03 5.46627E-03
 -1     11277-3.12131E-01 1.29012E-01-3.31043E-02-2.09978E-01 4.64930E-03-4.42808E-02
 -1     11278 1.85980E+00 4.90109E+00 9.18179E-01-3.42782E-01 4.90606E-02 7.12628E-03
 -1     11279 1.88608E+00 5.26718E+00 1.03781E+00 1.15890E-02 4.61630E-02 1.23784E-02
 -1     11280 1.08539E+00 6.11901E-01-2.31955E-02-7.89632E-01 1.60225E-02-4.29078E-02
 -1     11281 3.41157E+00 1.71706E+01 4.21955E+00 5.64946E+00-3.06296E-01 4.24392E-01
 -1     11282 5.83301E+00 9.13620E+00 3.29601E+00-1.52064E+00-4.48389E-03 7.21592E-02
 -1     11283 4.55860E+00 8.79164E+00 2.81239E+00-9.03223E-01 8.97488E-03 2.54679E-02
 -1     11284 1.25528E+01 1.41633E+01 6.75895E+00-2.20289E+00-5.01945E-02-1.41278E-01
 -1     11285 1.22725E+01 1.39611E+01 6.68858E+00-1.95911E+00 7.31034E-02-3.14689E-03
 -1     11286 1.26912E+01 1.64788E+01 7.46788E+00-2.85440E+00 1.50835E-01-8.57395E-02
 -1     11287 3.00027E-01-1.60121E+00-8.49830E-02-1.23684E-01-1.78632E-03-2.40709E-02
 -1     11288 2.27713E-01-1.53809E+00-7.00019E-02-3.43895E-01 8.92623E-08-2.14462E-02
 -1     11289 7.67087E+00 7.76000E+00 3.46332E+00 6.22441E+00-5.02789E-02 3.35277E-02
 -1     11290 4.90258E+00 4.75679E+00 1.26332E+00-1.05222E+00 8.90958E-02-2.50158E-02
 -1     11291 8.03572E+00 7.67208E+00 3.71220E+00 5.30473E+00-5.43226E-01-7.19518E-02
 -1     11292 9.32123E+00 1.25585E-01 4.90753E-01 4.44078E+00-2.80735E-01 5.52230E-01
 -1     11293 1.18792E+01 1.37542E+01 5.74965E+00 8.48496E+00-3.93266E-01-3.45347E-01
 -1     11294 7.26348E+00 1.46096E+01 4.53350E+00 5.55030E+00-9.28833E-01 1.64033E-01
 -1     11295 1.48070E+01 1.78619E+01 8.31655E+00-2.73095E+00 1.06291E-01 2.57724E-01
 -1     11296 2.90198E+00 2.51616E-01-2.41870E-01 4.47495E-01 9.23179E-03 1.18523E-01
 -1     11297 8.36590E-02 1.84619E+00 8.10182E-04 1.61587E-01 9.25637E-02 3.45806E-02
 -1     11298 2.42921E+00 2.14645E+00 1.92801E-01-8.48075E-01 1.30162E-01-1.68139E-01
 -1     11299 2.75684E+00 7.89634E+00 1.74411E+00 1.27771E+00 7.76697E-02 1.39875E-01
 -1     11300 4.55172E+00 2.32860E-01 2.77028E-01 7.77667E-01 6.48203E-02-4.63221E-02
 -1     11301 3.93452E+00 3.78196E-01 1.84139E-01 5.69180E-01 8.32434E-02-7.77965E-03
 -1     11302 3.33509E+00 2.36015E+00 2.54986E-01-3.99445E-01 6.93656E-02-2.33018E-01
 -1     11303 1.40786E+00 4.45371E-02-3.38224E-01 1.49801E-01-1.19126E-02 2.12783E-01
 -1     11304 3.89265E+00 9.77706E-01 1.88638E-01 1.49581E+00 3.46064E-02 2.38514E-01
 -1     11305-9.29647E-02-1.54317E-01-3.85990E-02-1.63069E-01-4.52185E-02 7.26742E-03
 -1     11306 3.24659E-01 1.34542E-01-8.32890E-03 2.09675E-01 5.51586E-03 4.96666E-03
 -1     11307 1.39529E-01-1.51093E-01-2.36172E-02-8.46498E-02-2.83353E-02 2.14357E-02
 -1     11308 2.31055E+00 2.56909E+00 2.14822E-01 1.79072E+00 1.37718E-01 2.87648E-01
 -1     11309 2.41712E+00 2.10845E+00 1.13206E-01 1.67120E+00 8.80844E-02 3.23525E-01
 -1     11310 2.51581E+00 2.24026E+00 1.90650E-01 1.72097E+00 1.11088E-01 3.02897E-01
 -1     11311 1.23139E+01 1.82695E+01 7.72209E+00-2.86745E+00-1.59166E-02 1.31439E-01
 -1     11312 1.15756E+01 1.61155E+01 6.91025E+00-1.98251E+00 4.86106E-02 1.12314E-01
 -1     11313 2.18775E+00 1.05947E-01-4.99262E-01 2.76275E-01-6.62292E-04 2.01286E-01
 -1     11314 2.16536E+00 1.15595E-01-4.97477E-01 2.74493E-01 4.23586E-03 2.19787E-01
 -1     11315 2.32190E+00 1.43460E-01-4.85517E-01 3.10374E-01 1.25623E-02 1.98484E-01
 -1     11316 2.53032E+00 5.81501E+00 1.37336E+00 1.64339E+00-5.97325E-03 3.36724E-02
 -1     11317 2.15843E+00 4.85425E+00 1.00734E+00 1.47914E+00-7.77102E-03 1.95105E-02
 -1     11318 7.93612E+00 1.82170E+01 6.83348E+00 3.61498E+00-6.03076E-02-1.39840E-01
 -1     11319 2.90987E+00 4.32583E+00 9.53369E-01 2.23291E+00 9.63840E-02 1.41935E-01
 -1     11320 2.86105E+00 5.19392E+00 1.14299E+00 2.03522E+00 6.32085E-02 1.56576E-01
 -1     11321 1.83553E+00 8.74668E-02-4.21442E-01 2.32787E-01 4.11545E-03 1.15493E-01
 -1     11322 6.21767E+00 5.22063E+00 2.12944E+00-6.35302E-01 9.14282E-03 2.13374E-02
 -1     11323 1.65548E+00 7.07285E-02-2.21256E-01 2.43360E-01-4.93645E-02 3.24772E-01
 -1     11324 1.75901E+01 3.84810E+01 1.49903E+01 5.92063E+00-5.15158E-01 3.99868E-01
 -1     11325 9.89771E+00 1.21673E+01 4.34414E+00 6.70576E+00-2.29464E-01 4.39259E-01
 -1     11326 2.43158E+00 6.15331E-02-4.75494E-01 3.22181E-01 1.25397E-02 1.95543E-01
 -1     11327 9.25533E+00 1.98583E+01 4.00619E+00 8.03292E+00 5.49143E-01 1.49738E+00
 -1     11328 3.27157E+00 3.38495E-01-4.04600E-01 5.97612E-01 2.56817E-02 2.39529E-01
 -1     11329 3.06770E+00 2.45602E-01-4.34394E-01 5.07408E-01 3.10912E-03 2.50782E-01
 -1     11330 2.87324E+00 1.88923E-01-5.24965E-01 4.11137E-01 6.66371E-03 2.40491E-01
 -1     11331 4.36799E+00 4.72118E-01 3.52578E-02 1.29470E+00 2.91905E-02 2.58566E-01
 -1     11332 5.39831E+00 1.75248E+01 5.41865E+00 5.49978E-01 1.02370E-01 9.96740E-02
 -1     11333 5.74128E+00 1.65547E+01 5.21718E+00 5.71490E+00 8.21803E-02-3.00623E-01
 -1     11334 2.35937E+00 1.29348E+00 2.02655E-02-3.30927E-01 5.23103E-02-2.46055E-01
 -1     11335 1.66672E+00 4.11043E+00 6.70046E-01-4.77245E-01 2.58961E-02-3.90592E-03
 -1     11336 8.88670E+00 2.47116E+00 1.91681E+00 4.97520E+00 1.25917E-01 1.60707E-01
 -1     11337 8.64845E+00 1.91554E+01 7.20290E+00 2.63961E+00 8.53580E-01-1.27584E-01
 -1     11338 1.94585E+00 1.05313E+00 2.03029E-02 1.27297E+00 2.15497E-02 2.19406E-01
 -1     11339 1.13894E+01 2.56690E+01 9.81384E+00-1.61668E+00-6.62643E-01-1.87673E-02
 -1     11340 4.75486E+00 6.16027E+00 1.29903E+00-1.20438E+00 1.42827E-01 2.31610E-02
 -1     11341 6.19410E+00 1.10376E+01 3.84890E+00-1.49239E+00-3.93781E-02 4.77581E-02
 -1     11342 5.24466E+00 9.33630E+00 3.10741E+00-9.48865E-01 3.23806E-02 7.99907E-02
 -1     11343 4.14911E-01 1.14334E-01 6.80851E-02 1.68924E-01-1.10848E-02 1.76935E-02
 -1     11344 5.03872E+00 1.33571E+01 4.39175E+00 3.83157E+00 8.61998E-02-6.87586E-02
 -1     11345 5.44649E+00 4.99151E+00 1.82643E+00-1.04780E+00 1.92563E-02 2.94402E-02
 -1     11346 2.17983E+00 6.48793E+00 8.74130E-01 4.60507E-01 2.02122E-01 1.59091E-01
 -1     11347 7.22469E+00 6.53739E+00 2.57509E+00-7.98586E-01 5.02216E-02 6.70688E-02
 -1     11348 2.71554E+00 5.19160E+00 1.23868E+00 2.41108E+00-3.91437E-03 5.77595E-02
 -1     11349 2.57523E+00 6.05034E+00 1.43574E+00 1.53101E+00 2.67712E-02 6.99800E-02
 -1     11350 6.00055E+00 1.17853E+00-4.21113E-02 2.07255E+00-1.29052E-02 4.16141E-01
 -1     11351 7.55829E+00 6.81405E+00 1.55063E+00-8.93905E-01 1.26805E-01-4.17762E-02
 -1     11352 3.28174E+00 1.06221E-01-3.02893E-01 3.73912E-01 2.97777E-02 1.36703E-01
 -1     11353 5.56317E+00 1.03452E+00 7.45328E-01 2.09976E+00-4.31170E-03 1.66620E-02
 -1     11354 5.45636E+00 1.01049E+00 6.13426E-01 1.94063E+00 3.02009E-02 7.59156E-02
 -1     11355 7.56245E+00 6.71573E+00 2.54277E+00-6.95308E-01 4.08617E-02 6.62640E-02
 -1     11356 7.26564E+00 9.34075E+00 3.57621E+00-1.68953E+00 4.23501E-03 1.06092E-01
 -1     11357 3.29240E+00 6.44503E-01 1.17447E-01 1.11544E+00 3.05425E-02 9.36185E-02
 -1     11358 1.60945E+01 1.94326E+01 8.75480E+00-2.94691E+00 2.44362E-02 3.47202E-01
 -1     11359 1.55130E+01 1.90311E+01 8.64093E+00-3.10312E+00 2.28547E-01 6.46488E-02
 -1     11360 1.20138E-01 2.39536E-01 8.36207E-02 6.07922E-01-4.13594E-03-1.38479E-02
 -1     11361-8.15041E-02 1.88512E-01 1.14967E-02 6.69637E-01-3.56280E-03-9.62254E-03
 -1     11362 3.96065E-02 2.24990E-01-7.45717E-03 8.13952E-01-2.07744E-02-7.22609E-03
 -1     11363 3.08590E+00 2.02492E+00 4.63338E-01-4.50378E-01 2.88837E-02-6.50060E-02
 -1     11364 3.11633E+00 2.39667E+00 5.49799E-01-7.77520E-01 2.78169E-02-3.40299E-02
 -1     11365 7.93329E+00 6.51285E+00 3.15001E+00 3.69139E+00-1.56975E-01-3.65882E-03
 -1     11366 1.50375E+01 1.89209E+01 7.92020E+00-2.73083E+00-4.55419E-02 1.87056E-01
 -1     11367 1.48013E+01 1.83920E+01 7.93517E+00-2.65201E+00 1.90059E-01 2.51166E-01
 -1     11368 1.76363E+00-1.80190E-02-5.92204E-03 1.81590E-01-4.20831E-02 8.71898E-02
 -1     11369 9.46889E+00 2.45602E+00 1.07383E+00 4.85449E+00 1.11454E-01 3.74414E-01
 -1     11370 4.71412E+00 9.62917E-01 4.36209E-01 1.71607E+00-2.16052E-02 1.24305E-01
 -1     11371 6.21947E+00 6.37065E+00 2.58449E+00-1.34380E+00 9.81554E-03-2.82380E-02
 -1     11372 3.31615E+00 1.79268E+01 4.81068E+00 5.07240E+00-1.08384E-01 1.30811E-02
 -1     11373 7.51724E+00 1.08107E+01 3.81394E+00-1.96295E+00 5.16193E-02 8.71520E-02
 -1     11374 9.64160E+00 2.76361E+01 1.02807E+01 6.67887E+00 2.91015E-01 7.27150E-01
 -1     11375 7.66244E+00 7.45713E+00 3.20136E+00 6.33898E+00 3.94480E-01 2.18556E-01
 -1     11376 7.65236E+00 1.57237E+00 1.47506E+00 2.37458E+00-6.97171E-02-1.97478E-01
 -1     11377 5.14644E+00 7.23975E-01 5.37882E-01 1.74618E+00-1.60765E-02-1.37802E-03
 -1     11378 3.34681E-01-1.37040E+00-1.86806E-02-1.76534E-01 2.77537E-04-4.54474E-02
 -1     11379 3.11616E-01-1.36133E+00-4.76427E-02-2.53543E-01-6.11412E-03-7.01379E-02
 -1     11380 8.32781E+00 5.34923E+00 3.14549E+00 4.27617E+00 4.27669E-01 7.69782E-02
 -1     11381 8.52370E+00 4.76701E+00 2.59246E+00 3.92187E+00 1.26990E-02-5.62747E-02
 -1     11382 6.08893E+00 1.05698E+01 3.83009E+00-1.74004E+00 2.96828E-02 9.34236E-03
 -1     11383 8.96783E+00 8.98822E+00 3.76116E+00-1.26914E+00 4.70225E-02 1.01275E-01
 -1     11384 1.76209E+00 4.68799E+00 3.37655E-01 1.34047E+00 2.26362E-01 2.78354E-01
 -1     11385 3.91880E+00 5.93020E-02-6.93695E-01 6.48245E-01-1.38436E-02 2.86989E-01
 -1     11386 4.37158E+00 2.87603E-01-5.00806E-01 7.67065E-01-1.66677E-03 2.69079E-01
 -1     11387 3.72636E+00 1.00811E-01-7.26818E-01 7.29269E-01-5.36050E-02 3.40664E-01
 -1     11388 1.95587E+00 2.74410E+00 2.18656E-01-8.96129E-01 1.66524E-01-1.09106E-01
 -1     11389 5.55926E+00 9.10065E+00 3.06620E+00-1.42365E+00 1.01488E-01 2.31618E-02
 -1     11390 5.97604E+00 8.67868E+00 3.13486E+00-1.64630E+00 1.85953E-01-4.21248E-02
 -1     11391 6.74426E+00 1.22136E+00 1.15382E+00 1.99355E+00-9.63486E-02 5.88402E-02
 -1     11392 8.64239E+00 2.28615E+00 1.99409E+00 4.48577E+00 8.39556E-02 7.12180E-02
 -1     11393 9.51023E+00 3.43767E+00 2.21108E+00 3.34984E+00-5.25218E-01 4.01415E-01
 -1     11394 7.42642E+00 6.82244E+00 3.67557E+00 4.08287E+00 1.21577E-01 1.12719E-01
 -1     11395 1.00794E+01 7.56550E+00 4.10690E+00 5.18096E+00 1.20260E-01 3.85665E-01
 -1     11396 5.24623E+00 8.83538E-01 5.15513E-01 1.64916E+00 2.37683E-01 2.38818E-01
 -1     11397 6.27056E+00 1.10143E+00 8.39108E-01 2.11721E+00-2.84075E-02 1.50916E-01
 -1     11398 8.92761E+00 3.22097E+00 2.33466E+00 4.87225E+00-8.96154E-03-2.25280E-01
 -1     11399 5.11145E+00 1.36381E+00 5.17859E-01 2.24710E+00-9.69854E-04 2.50455E-01
 -1     11400 3.91483E+00 1.37455E-01-2.88694E-01 6.29037E-01-1.44036E-05 1.89455E-01
 -1     11401 4.83301E+00 1.39908E+01 3.89536E+00 5.27323E-01 7.39808E-02 1.92306E-01
 -1     11402 5.37705E+00 1.39884E+01 3.68560E+00-3.81530E-01 4.11923E-01 1.90269E-01
 -1     11403 5.05533E+00 3.84539E+00 1.37490E+00-3.99226E-01 8.63181E-03-2.94220E-02
 -1     11404 4.94594E+00 3.76588E+00 1.34256E+00-3.81114E-01 1.07552E-02-3.03882E-02
 -1     11405 5.27459E+00 4.10427E+00 1.52974E+00-4.09482E-01 2.05347E-02-2.04442E-02
 -1     11406 1.71158E+00 2.47388E+00 4.10444E-02 1.39529E+00 1.63348E-01 3.09308E-01
 -1     11407 6.88239E+00 8.19812E+00 3.12200E+00-1.67792E+00-8.10368E-03 1.09136E-01
 -1     11408-4.91287E-01 4.89959E-01-3.19796E-02-4.82437E-01 1.59168E-02 7.38075E-03
 -1     11409 8.20529E+00 2.10897E+00 1.64787E+00 3.16544E+00-1.09269E-01 5.45423E-01
 -1     11410 9.29819E+00 3.34914E+00 2.20100E+00 2.71929E+00 1.48905E-01 2.47453E-01
 -1     11411 1.55019E+00 4.13482E-02-4.44277E-01 1.02482E-01 3.67110E-03 6.43379E-02
 -1     11412 5.45395E+00 9.64909E+00 3.33724E+00-1.38231E+00-1.47112E-02-2.78414E-02
 -1     11413 5.37080E+00 4.26742E+00 1.69809E+00-4.77160E-01 1.39897E-02-9.55094E-03
 -1     11414 7.25528E+00 6.63295E-01 1.15754E+00 1.98973E+00-2.32308E-01-1.05214E-01
 -1     11415 1.94591E+00 1.56603E-01-2.36905E-01 4.67848E-01-3.75800E-03 3.46857E-02
 -1     11416 2.11466E+00 5.85210E-01-7.28501E-02 9.06196E-01 1.79206E-02 3.04168E-02
 -1     11417 9.25717E+00 1.42532E+01 5.44831E+00-2.66931E+00 1.49650E-01 1.71157E-01
 -1     11418 5.49344E+00 7.82369E-01-1.61586E-01 1.78370E+00-4.91863E-02 2.46322E-01
 -1     11419 1.65868E+00 9.52743E-02-2.39703E-01 2.43123E-01-6.02029E-02 3.41205E-01
 -1     11420 1.19316E+01 1.40725E+01 6.73906E+00-1.85808E+00 1.08760E-01 2.00149E-02
 -1     11421 4.43351E+00 5.70242E-01 3.46418E-01 1.14376E+00 1.16694E-02 7.88762E-02
 -1     11422 4.47914E+00 7.40654E-01 3.94696E-01 1.21271E+00 3.11172E-03-2.25841E-03
 -1     11423 6.08906E+00 1.60896E+01 5.49976E+00 1.86235E-01-2.81453E-02-3.01674E-02
 -1     11424 8.40466E+00 1.36767E+01 5.46674E+00-2.06158E+00-6.41370E-03 2.76628E-02
 -1     11425 2.07953E+00 5.02195E+00 9.56397E-01 1.62212E+00-3.97866E-04 8.14828E-02
 -1     11426 1.07613E+00 3.31731E+00 3.23025E-01 5.05998E-01 9.85466E-02 5.56193E-02
 -1     11427 1.04403E+00 3.37590E+00 2.98059E-01-2.11311E-01 1.06491E-01 1.56989E-02
 -1     11428 5.23420E+00 4.54259E+00 1.07002E-01-5.37055E-01 1.34476E-01-4.39990E-01
 -1     11429 9.32444E+00 8.94345E+00 4.26754E+00-1.23428E+00 3.22144E-02 2.06174E-02
 -1     11430 3.47009E-02-2.64572E+00-5.03393E-02-4.41971E-02-1.13850E-02-1.99618E-02
 -1     11431 1.78367E-02-2.47545E+00-3.77109E-02-1.48422E-01-3.09317E-02-1.29192E-02
 -1     11432 9.57972E-02-2.09519E+00-8.21220E-03-1.21333E-01-1.19171E-02-2.06543E-02
 -1     11433 2.01868E-01-1.65294E+00-3.77288E-02-2.40623E-01-1.50949E-02-6.19511E-02
 -1     11434 1.25594E-01-2.01236E+00-5.75937E-02-2.94506E-01-2.45998E-02-4.03432E-02
 -1     11435 7.87790E+00 1.78893E+01 6.06663E+00-1.03519E+00-1.55483E-01 1.05201E-01
 -1     11436 9.53142E-01 9.18036E-03-2.35819E-01 1.55140E-01-9.90323E-03 5.20566E-02
 -1     11437 9.09882E-01-1.89172E-02-1.67037E-01 1.64559E-01-8.91647E-03 2.03086E-02
 -1     11438 1.31591E+01 2.41133E+01 9.49639E+00-1.42851E+00-4.98893E-02 1.27091E-01
 -1     11439 7.97813E+00 1.94940E+01 6.59453E+00-7.80657E-01 1.27253E-02 1.74403E-01
 -1     11440 7.40979E+00 2.80271E+00 1.11222E+00 4.24587E+00-1.54420E-02 3.08558E-01
 -1     11441 6.74989E+00 1.31358E+00 1.18718E+00 3.07699E+00-5.14108E-03-9.79570E-03
 -1     11442 3.34310E+00 2.29443E+00 5.79219E-01-4.97109E-01-1.77639E-03-5.54793E-02
 -1     11443 5.61610E+00 1.17473E+01 3.66419E+00 5.11226E+00 5.60480E-02 1.84629E-01
 -1     11444 4.00216E+00 3.45666E-01 1.63395E-01 1.02625E+00-5.92990E-02-7.01868E-03
 -1     11445 4.37731E+00 7.11340E-01 4.19966E-01 1.51693E+00 1.31572E-02-3.27502E-02
 -1     11446 5.52815E+00 5.86002E+00 2.16929E+00 3.82914E+00-3.39294E-02 1.11840E-01
 -1     11447 5.95675E+00 6.45021E+00 2.44075E+00 4.33001E+00-4.59323E-03 8.15589E-02
 -1     11448 2.54515E+00 6.37546E+00 1.28259E+00-2.06558E-01 1.02623E-01 8.15103E-02
 -1     11449 1.05827E+01 3.06460E+01 1.02027E+01-1.73602E-01 8.89331E-01-2.01012E-01
 -1     11450 5.64588E+00 1.83932E+01 5.32780E+00-2.96299E-01 1.80275E-01-2.95776E-01
 -1     11451 9.06918E+00 5.45418E+00 3.09552E+00 4.34407E+00 1.98233E-01 2.08674E-02
 -1     11452 2.52899E+00 1.41018E+00 5.73140E-02-2.76751E-01 5.32122E-02-2.65410E-01
 -1     11453 5.58177E+00 1.13372E+01 4.00129E+00 4.91395E+00-5.48174E-02 6.88741E-02
 -1     11454 5.40699E+00 7.07910E+00 2.61786E+00 4.07050E+00 1.22546E-01 8.60420E-03
 -1     11455 2.31945E+00 1.46936E-01-6.73791E-01 2.90933E-01 2.78668E-03 4.35008E-01
 -1     11456 2.11600E+00 4.95978E-02-6.89038E-01 2.52237E-01-1.46977E-02 5.02893E-01
 -1     11457 2.17742E+00 5.42806E-02-6.94374E-01 2.85763E-01-7.06661E-03 5.03355E-01
 -1     11458 2.39615E+00 1.43034E-01-7.11700E-01 3.11686E-01-5.07546E-03 4.76016E-01
 -1     11459 4.34002E+00 3.15084E+00 6.80428E-01 2.75582E+00 1.20314E-01 3.23400E-01
 -1     11460 5.40995E+00 1.61506E+01 4.39057E+00 4.83854E+00 1.55514E-01 1.45283E-01
 -1     11461 2.46776E+00 1.73408E+00 2.41859E-01 1.55849E+00 3.16379E-02 1.04388E-01
 -1     11462 2.16947E+00 1.00674E+00 4.82846E-02-2.92928E-01 3.49179E-02-2.18017E-01
 -1     11463 1.73552E+00 7.74971E-01 8.61370E-03-5.07944E-01 6.16337E-02-1.90128E-01
 -1     11464 2.66947E+00 1.17786E-01-6.32554E-01 3.68650E-01 8.94062E-02 4.93759E-01
 -1     11465 1.09888E+01 2.29869E+01 9.05842E+00 7.95574E-01 1.02718E-01 2.13822E-01
 -1     11466 1.77206E+01 3.50289E+01 1.48883E+01 9.06717E+00-2.58308E-01 4.49349E-01
 -1     11467 1.27574E+01 2.29297E+01 9.36521E+00 1.17153E+00 2.27012E-01 6.11753E-01
 -1     11468 4.97168E+00 4.29388E+00 1.51632E+00-8.04389E-01 2.11513E-02 1.05045E-02
 -1     11469 2.45324E-01 1.49891E+00-1.94265E-02 4.06674E-01 2.84666E-02 1.36608E-02
 -1     11470 1.97497E-01 1.59177E+00-2.83458E-02 3.45341E-01 7.95465E-02 3.99486E-02
 -1     11471 6.03948E-01 1.51788E+00-1.48984E-03 7.17092E-01 2.67483E-02 2.72148E-02
 -1     11472 5.77610E-01 1.64876E+00-3.63555E-03 6.60672E-01 5.87298E-02 5.57158E-02
 -1     11473 5.70842E+00 4.56475E+00 1.87669E+00-5.08702E-01 1.95774E-03 5.88945E-03
 -1     11474 9.11658E-01 4.70013E-02-8.16878E-02 2.77928E-01 1.18488E-02 5.62832E-03
 -1     11475 1.04063E+00-6.05713E-02-6.63687E-02 1.55928E-01-1.73418E-03 2.00947E-02
 -1     11476 3.33538E+00 4.07841E+00 1.77517E-01-9.83526E-01 2.81719E-01-2.45124E-01
 -1     11477 3.39949E+00 2.93030E+00 6.91586E-02-7.82359E-01 1.76671E-01-2.81432E-01
 -1     11478 1.46621E+00 1.98824E-02-4.46237E-01 1.14029E-01 5.96109E-03 2.06251E-01
 -1     11479 1.44106E+00 1.62729E+00-1.69580E-02 1.44623E+00 8.05353E-02 1.66739E-01
 -1     11480 1.09354E+00 2.29358E+00 1.21332E-02 1.36218E+00 1.06668E-01 1.60096E-01
 -1     11481 6.62683E-01 2.33790E+00 7.38797E-03 1.04132E+00 1.17830E-01 9.71982E-02
 -1     11482 1.00324E+00 1.86639E+00-6.40544E-03 1.18648E+00 8.98891E-02 1.24964E-01
 -1     11483 3.40139E-02 3.03767E-01 3.65035E-03 7.81914E-01-1.17521E-02 1.92708E-03
 -1     11484 5.76302E+00 1.61580E+01 4.10090E+00 1.43582E+00 5.81339E-01 5.13810E-02
 -1     11485 7.43447E+00 1.81549E-01 9.46820E-01 2.28935E+00 1.46570E-01 2.43701E-01
 -1     11486 5.72348E+00 3.18524E+00 9.04612E-01 3.36657E+00 1.46330E-02 3.78632E-01
 -1     11487 4.92110E+00 2.89437E+00 5.72579E-01 2.92443E+00 1.27690E-01 4.37827E-01
 -1     11488 6.52740E+00 2.06699E+01 6.95979E+00 1.78753E+00 7.47849E-01-3.00127E-01
 -1     11489 1.00257E+01 3.97174E+00 2.85368E+00 4.49729E+00-6.16130E-01 3.81014E-01
 -1     11490 1.36475E+01 2.84546E+01 1.12867E+01-2.91248E+00 4.10916E-01 5.00543E-01
 -1     11491 1.43110E+01 1.98015E+01 8.54729E+00-3.24769E+00-6.74010E-03 9.24927E-02
 -1     11492 6.56990E+00 1.78670E+01 5.97174E+00 3.30692E+00-9.92476E-01 2.81455E-01
 -1     11493 3.25447E+00 2.75213E-01-3.78105E-01 7.82278E-01-1.62994E-02 4.61233E-01
 -1     11494 3.55685E-01 1.89613E+00 1.50459E-02 4.10694E-01 1.16544E-01 5.60392E-02
 -1     11495 4.33121E-01 1.55379E+00 2.14220E-03 5.83125E-01 7.72129E-02 6.40647E-02
 -1     11496 9.16432E-02 1.42309E+00-2.79483E-02 3.10894E-01 9.08342E-02 4.48761E-02
 -1     11497 4.74130E+00 1.34551E+01 4.04244E+00 1.80625E+00-1.32576E-02 9.55056E-02
 -1     11498 5.91328E+00 1.51613E+01 4.99100E+00 2.25140E+00-2.39088E-01 1.50180E-01
 -1     11499 5.19462E+00 1.40092E+01 4.51212E+00-2.29642E-03 1.98805E-01 8.88019E-02
 -1     11500 2.35994E+00 6.88199E+00 1.41456E+00 5.49415E-01 1.11512E-01 9.41012E-02
 -1     11501 4.23773E+00 1.62794E+01 4.55573E+00 2.58514E+00-2.51664E-01 2.03429E-01
 -1     11502 4.04192E+00 2.84187E+00 8.90934E-01-3.83943E-01 9.56368E-03-4.54730E-02
 -1     11503 4.97359E+00 4.42932E+00 1.51156E+00-8.94997E-01 2.71108E-02-8.94825E-03
 -1     11504 6.70493E+00 1.93730E+01 5.57883E+00-1.44758E+00 1.27215E-01 1.76508E-01
 -1     11505 6.08549E+00 9.33764E+00 3.79350E+00 5.52404E+00 1.15251E+00 2.86369E-01
 -1     11506 7.38649E+00 1.27092E+01 4.78940E+00 5.79853E+00 8.11056E-02 2.55474E-01
 -1     11507 2.23445E+00 1.83521E-01-3.94107E-01 3.89268E-01-7.79622E-02 6.38372E-01
 -1     11508 5.24622E+00 1.58883E+01 5.22071E+00 2.45551E+00-5.37123E-01 4.97975E-01
 -1     11509 1.60936E-01 3.63640E-01-2.04466E-02 7.33148E-01-1.83607E-02 1.21821E-02
 -1     11510 2.61262E-01 4.43377E-01-6.17655E-03 7.40299E-01 2.26074E-03 1.71537E-02
 -1     11511 2.01104E+00 1.53417E+00 6.94371E-03-7.80133E-01 7.02597E-02-1.35759E-01
 -1     11512 1.18979E+01 1.60881E+01 6.68558E+00-1.93383E+00-1.36859E-02 3.08622E-01
 -1     11513 3.99973E+00 3.92229E+00 6.96210E-01-9.87242E-01 1.27271E-01-1.19262E-01
 -1     11514 1.03564E+01 9.19476E+00 4.24571E+00 6.82813E+00-2.32393E-01-2.53885E-01
 -1     11515 7.46755E+00 1.23924E+01 4.76650E+00-1.85054E+00 6.72576E-02 4.52925E-02
 -1     11516 2.23599E+00 1.31875E-01-3.88253E-01 2.64298E-01 6.03501E-03 1.23663E-01
 -1     11517-2.52580E-02-9.12098E-01-9.48024E-03-5.79290E-01-2.22027E-02-7.75638E-03
 -1     11518 3.38229E+00 1.02404E+01 1.55399E+00 2.71966E+00 3.39525E-01 5.25147E-01
 -1     11519 5.32362E+00 1.24902E+01 2.55709E+00-3.00308E-01 1.74032E-01 3.03652E-01
 -1     11520 3.65111E+00 1.24201E+01 1.99169E+00 2.27232E+00 9.32487E-02 4.97435E-01
 -1     11521 2.95178E+00 3.69328E+00 6.78969E-01-9.89076E-01 1.09604E-01-6.20293E-02
 -1     11522 1.37451E+01 1.61872E+01 6.31646E+00-2.34659E+00 1.74529E-01 3.99742E-01
 -1     11523 2.98497E+00 6.80741E+00 3.07604E-01-9.54282E-01 4.72244E-01-8.35027E-02
 -1     11524 1.69209E+00 6.03559E+00 9.37557E-02 1.34258E+00 4.27431E-01 3.53559E-01
 -1     11525 2.13419E+00 6.27304E+00 1.58702E-01-2.12847E-01 5.08302E-01 3.78015E-02
 -1     11526 1.82135E+00 6.03003E+00 1.60932E-01 2.75428E-01 4.18302E-01 1.54028E-01
 -1     11527 4.95973E+00 6.96206E+00 1.76302E+00-1.34406E+00 1.30001E-01 7.11937E-02
 -1     11528 5.16769E+00 8.66991E+00 2.35720E+00-1.13585E+00 1.13281E-01 1.31071E-01
 -1     11529 5.37685E+00 1.63118E+01 3.97161E+00 2.20097E+00-2.29901E-01 6.32827E-01
 -1     11530 5.54231E-01 1.19898E+00-5.10504E-02 7.52359E-01 7.13234E-02 9.81161E-02
 -1     11531 1.10566E+01 1.09559E+01 5.08280E+00-1.33698E+00-3.09781E-02 1.69700E-01
 -1     11532 8.97317E+00 1.23633E+01 4.77184E+00-2.13853E+00 2.77104E-02 9.81523E-02
 -1     11533 1.02706E+01 9.81125E+00 4.41947E+00-1.18997E+00-1.38705E-02 1.11126E-01
 -1     11534 1.36941E+01 1.69642E+01 7.68317E+00-2.26747E+00-1.17250E-01-1.28398E-01
 -1     11535 1.79634E+00 3.99259E-01-1.33729E-01 6.72144E-01 1.83833E-02 2.05010E-01
 -1     11536 2.16666E+00 5.52804E-01-1.05657E-01 8.64714E-01 9.33253E-03 2.26371E-01
 -1     11537 4.39952E+00 3.29234E+00 1.06987E+00-4.41297E-01 2.38677E-02-4.17053E-02
 -1     11538 4.21437E+00 3.06866E+00 9.69746E-01-4.22761E-01 3.60194E-02-3.94980E-02
 -1     11539 4.42570E+00 3.33894E+00 1.10033E+00-4.47926E-01 4.66437E-03-3.78674E-02
 -1     11540 3.39705E-01 2.20415E+00 4.00280E-02-2.58094E-01 1.81142E-01-1.07549E-02
 -1     11541 1.45728E+00 5.10647E-02-3.87683E-01 1.52665E-01-6.52880E-03 2.27088E-01
 -1     11542 7.44524E+00 1.22355E+01 4.33630E+00-1.59588E+00 4.12835E-02 1.05592E-01
 -1     11543 2.84586E+00 2.14538E-01-7.31616E-01 5.04146E-01-6.88995E-03 6.32809E-01
 -1     11544 2.83893E+00 1.48542E-01-2.56130E-01 4.19224E-01-1.10685E-02 8.91689E-03
 -1     11545 6.98669E+00 7.24185E+00 3.45545E+00 3.76586E+00 9.21265E-02 1.17325E-01
 -1     11546 8.75784E+00 6.46534E+00 3.19725E+00 4.43079E+00-1.98223E-01-5.77997E-04
 -1     11547 1.27874E+00 3.70521E+00 2.09748E-01-3.16995E-01 2.40674E-01 2.47958E-02
 -1     11548 7.18496E+00 2.06803E+01 6.62185E+00 1.33323E+00 4.57351E-02 2.21440E-01
 -1     11549 6.07778E+00 1.45849E+01 4.92657E+00 6.85836E+00-2.94296E-02 2.65597E-02
 -1     11550 2.67372E+00 6.19494E+00 1.52149E+00 1.68890E+00 4.56959E-02 2.15753E-02
 -1     11551 7.28427E+00 6.50548E+00 1.47814E+00-7.92813E-01 6.45281E-02-4.32396E-02
 -1     11552 4.34356E+00 7.72920E+00 1.45996E+00-1.18387E+00 1.91624E-01 1.19066E-01
 -1     11553 5.03632E+00 6.51639E+00 1.28354E+00-1.29575E+00 1.63341E-01 5.91438E-02
 -1     11554 1.55136E+00 2.74720E-01 2.02532E-01 1.89440E-01 6.11050E-03-4.45839E-02
 -1     11555 1.01833E+01 1.09915E+01 2.91802E+00-1.44008E+00 7.16542E-02 2.48505E-01
 -1     11556 7.62450E+00 1.29491E+01 2.72634E+00-2.22248E+00 3.27893E-01 1.30265E-01
 -1     11557 5.06566E+00 6.95400E+00 2.05532E+00-1.36010E+00 1.03537E-01 5.39499E-02
 -1     11558 4.98799E+00 6.40100E+00 1.82534E+00-1.21235E+00 9.11100E-02 5.47285E-02
 -1     11559 1.96787E-01 1.65986E+00-1.84526E-02-5.95939E-01 1.01763E-01-1.80935E-02
 -1     11560 2.96167E-01 2.11008E+00 1.19316E-02-4.70678E-01 1.19911E-01-1.56150E-02
 -1     11561 2.19672E+00 6.94724E-02-4.26284E-01 2.19573E-01 1.06080E-03 7.36929E-02
 -1     11562 9.97889E+00 7.45854E+00 3.66828E+00 5.30892E+00 1.73731E-02 9.97099E-02
 -1     11563 9.08813E+00 7.70653E+00 4.05111E+00 4.28799E+00 2.23366E-01 3.87376E-01
 -1     11564 1.02743E+01 6.91763E+00 3.91444E+00 4.65469E+00-7.12352E-02 4.03939E-01
 -1     11565 4.55739E+00 1.39664E+01 3.61887E+00 1.50973E+00 5.23191E-02 2.35939E-01
 -1     11566 4.95776E+00 1.03043E+01 2.72802E+00 4.06393E+00 1.21964E-01 3.02591E-01
 -1     11567 5.20662E+00 1.20194E+01 3.33859E+00 4.84006E+00 6.06301E-02 2.64044E-01
 -1     11568 4.40876E+00 1.43067E+01 3.79095E+00 3.06029E+00 1.81206E-01 3.60662E-01
 -1     11569 8.44750E+00 2.94943E+00 8.46519E-01 2.97808E+00 3.79474E-02 2.60457E-01
 -1     11570 7.27120E+00 1.46039E+00 1.81233E-01 2.87759E+00 1.76010E-01 3.76094E-01
 -1     11571 6.99701E+00 1.85336E+00 1.07867E-01 2.79987E+00-1.72794E-02 6.28815E-01
 -1     11572 4.51210E+00 3.45920E+00 1.07934E+00-4.91917E-01 3.75118E-02-4.58454E-02
 -1     11573 3.51918E+00 3.89346E+00 1.09776E+00-9.95652E-01-9.51560E-03 5.06399E-03
 -1     11574 3.90900E+00 1.57508E+00 3.92176E-01 1.87358E+00 7.17383E-02 1.43722E-01
 -1     11575 1.21442E+01 1.45465E+01 5.62971E+00-1.74311E+00 1.02754E-01 4.09341E-01
 -1     11576 9.06906E+00 1.58427E+01 6.36651E+00-2.09422E+00-9.45208E-02 1.63579E-01
 -1     11577 1.45699E+00 2.31638E+00 1.89417E-01 1.18912E+00 6.76082E-02 1.01050E-01
 -1     11578 7.10673E-01 5.27404E-01-2.24205E-02 7.62418E-01-1.72817E-03 5.34203E-02
 -1     11579-8.58954E-01-6.83197E-01-2.01707E-01-1.34271E-01 3.20222E-03-4.64740E-02
 -1     11580-8.02362E-01-2.05449E-01-1.65544E-01 1.85516E-01 5.83318E-02-3.76038E-02
 -1     11581 5.72241E+00 4.62616E+00 1.80820E+00-4.52034E-01 1.07180E-02-7.28891E-03
 -1     11582 5.56032E+00 4.43430E+00 1.71837E+00-4.35342E-01 7.01983E-03 4.33613E-03
 -1     11583 4.35360E+00 3.23114E+00 1.00908E+00-4.45625E-01 2.73844E-02-5.18059E-02
 -1     11584 4.87218E+00 8.26411E-01-3.14377E-01 1.28872E+00-1.22774E-02 4.61425E-01
 -1     11585 5.72495E+00 1.23420E+00-9.05046E-02 1.93675E+00 5.67667E-02 4.40983E-01
 -1     11586 7.01319E-01-2.15084E-02-2.15588E-01 2.52103E-01-8.61978E-03-3.40193E-04
 -1     11587 1.01433E+00-5.07437E-02-1.19631E-01 2.11069E-01-1.54613E-03 8.02554E-03
 -1     11588 6.75384E+00 5.86317E+00 1.56047E+00-6.06808E-01 5.97161E-02-3.53623E-02
 -1     11589-1.07695E-01 5.77412E-01 4.12030E-02 8.15521E-01-5.09580E-02-2.35553E-03
 -1     11590 9.61983E+00 2.47988E+00 1.30736E+00 3.45602E+00 1.14173E-01 2.44623E-01
 -1     11591 2.60606E+00 5.33526E+00 1.23572E+00 1.95212E+00 7.34311E-02 4.50353E-02
 -1     11592 2.21627E+00 4.41233E+00 9.05140E-01 1.70797E+00 1.01978E-02 4.75832E-02
 -1     11593 1.80329E+00 2.25555E+00 1.31930E-02-9.55308E-01 1.43789E-01-1.47115E-01
 -1     11594 1.67278E+00 1.71265E+00 9.61569E-03-8.64783E-01 7.79778E-02-1.19837E-01
 -1     11595 3.33534E+00 1.53513E-01-4.22864E-01 5.09216E-01 2.52337E-02 2.35325E-01
 -1     11596 6.51920E+00 2.89076E+00 4.27560E-01 3.86877E+00 1.46592E-02 7.48712E-01
 -1     11597 7.72944E+00 8.28925E+00 6.16543E-01-1.21974E+00 3.59758E-01-3.38497E-01
 -1     11598 3.56375E+00 2.61082E+00 6.26810E-02-4.22563E-01 7.63844E-02-3.39328E-01
 -1     11599 3.26127E+00 2.34411E+00 4.43015E-02-3.89078E-01 6.86451E-02-3.16453E-01
 -1     11600 3.64146E+00 2.68366E+00 8.93233E-02-4.05440E-01 8.13033E-02-3.32764E-01
 -1     11601 4.56227E+00 3.31126E+00 1.21528E+00-2.74172E-01 3.53146E-03 5.79352E-03
 -1     11602 4.88267E+00 3.64248E+00 1.40892E+00-3.05346E-01-5.21264E-03 2.44251E-03
 -1     11603 4.55409E+00 3.75423E+00 1.34619E+00-7.39641E-01 1.03375E-02-4.78092E-03
 -1     11604 4.78699E+00 3.72434E+00 1.39848E+00-4.94827E-01 9.71256E-03-8.22692E-03
 -1     11605 2.90140E+00 2.41974E-01-2.93475E-01 4.45516E-01 1.21023E-03 1.35992E-01
 -1     11606 5.42336E+00 5.54837E+00 1.94984E+00-1.14840E+00 5.82701E-02-1.13928E-02
 -1     11607 6.36832E+00 5.51028E+00 2.19746E+00-6.52644E-01 2.55374E-02 1.48596E-02
 -1     11608 6.04221E+00 5.09927E+00 2.00952E+00-6.19990E-01 1.68553E-02 1.91358E-03
 -1     11609 6.19990E+00 6.26570E+00 2.36890E+00-1.31452E+00 1.70072E-02 5.28007E-02
 -1     11610 3.38447E+00 8.08549E-01 1.53481E-01 1.31418E+00 2.23088E-03 8.47933E-02
 -1     11611 8.35059E+00 7.93544E+00 3.41176E+00-1.13568E+00 2.30427E-02 8.56154E-02
 -1     11612 3.45505E+00 2.27964E+00 7.40437E-03-2.99524E-01 9.37908E-03-1.61032E-01
 -1     11613 3.62901E+00 2.50356E+00 8.21136E-03-3.40641E-01 1.59041E-02-1.80627E-01
 -1     11614 3.84394E+00 3.09771E+00 5.34118E-02-5.24997E-01 1.00756E-01-3.32912E-01
 -1     11615 3.42502E+00 2.89208E+00 3.74249E-02-7.82422E-01 1.05981E-01-2.16358E-01
 -1     11616 3.56393E+00 2.78203E+00 3.06972E-02-4.57650E-01 9.75029E-02-3.00231E-01
 -1     11617 1.27358E+01 2.18229E+01 8.79990E+00-1.70955E+00 1.78800E-01 2.16340E-02
 -1     11618 2.18543E+00 1.15575E-01-4.13126E-01 2.49344E-01-8.83773E-03 8.60670E-02
 -1     11619 7.72742E+00 1.20387E+01 2.78377E+00-2.18424E+00 2.61100E-01 2.61938E-01
 -1     11620 5.81300E+00 8.34536E+00 2.56643E+00 4.76269E+00 1.08931E-01 2.19397E-01
 -1     11621 4.90884E+00 1.55062E+01 4.55024E+00 3.21192E+00 3.98964E-02 1.23479E-01
 -1     11622 3.98377E+00 1.11140E+01 2.84163E+00 3.76662E+00-3.30349E-03 2.23350E-01
 -1     11623 2.67595E+00 2.04164E+00 4.05671E-01-7.53724E-01 5.90283E-04-1.98219E-02
 -1     11624 2.04174E+00 1.72517E+00 2.21749E-01-8.63654E-01 1.98750E-02-2.09886E-02
 -1     11625 5.26890E+00 1.73273E+01 5.09220E+00 1.28264E-01-7.43557E-02 2.89304E-01
 -1     11626 3.82816E+00 1.04101E+01 3.13242E+00 2.27903E+00 9.14831E-02-6.83324E-03
 -1     11627 4.19647E+00 1.11237E+01 3.37993E+00 3.08955E+00-9.56016E-02 1.09239E-02
 -1     11628 2.08317E+00 4.99696E+00 8.27005E-01 1.35178E+00 1.20535E-01 1.31146E-01
 -1     11629 9.01182E+00 7.97375E+00 3.93635E+00-8.25178E-01 4.93771E-02-4.90964E-02
 -1     11630 6.37492E+00 4.46491E-01 1.02113E+00 1.74390E+00 8.10555E-02-7.11901E-03
 -1     11631 7.00639E+00 9.37043E+00 3.73086E+00-1.78685E+00 3.21665E-03-3.17321E-02
 -1     11632 7.49828E+00 8.66004E+00 3.66885E+00-1.74648E+00-3.76754E-03 4.84669E-03
 -1     11633 6.83524E+00 7.78607E+00 3.22365E+00-1.46894E+00-1.14678E-02-1.13232E-03
 -1     11634 8.42973E-01 4.08142E-01 1.28087E-01 1.18358E+00-9.40872E-04-9.61965E-03
 -1     11635 2.54934E-01 7.00433E-01 2.20772E-02 1.16424E+00-5.96659E-02-8.39325E-02
 -1     11636-8.39179E-04 9.06396E-02-1.61081E-02 5.85422E-01 3.51578E-03-6.25257E-02
 -1     11637 8.02548E-02 3.86913E-01-3.10645E-02 8.56430E-01-4.39156E-02-4.59976E-02
 -1     11638 1.12915E+00 2.95003E+00 2.36797E-01 9.84412E-01 6.97166E-02 7.28301E-02
 -1     11639 1.14145E+00 3.50132E+00 3.89836E-01 7.35828E-01 6.23255E-02 3.92312E-02
 -1     11640 1.09918E+00 3.68202E+00 4.21189E-01 2.10200E-01 9.56852E-02 2.85831E-02
 -1     11641 7.52872E+00 1.64397E+01 5.72755E+00-2.14056E+00 5.68083E-02 1.43678E-01
 -1     11642 5.30008E+00 1.30315E+00 6.76809E-01 1.59591E+00 2.72485E-02 1.50111E-01
 -1     11643 4.18616E+00 5.19379E-01 1.35678E-01 8.41445E-01 1.74035E-02 7.82019E-02
 -1     11644 2.13561E+00 4.03915E-02-6.71028E-01 2.56495E-01-1.05337E-02 5.04235E-01
 -1     11645 8.98747E+00 6.41005E+00 2.63525E+00 4.42594E+00-1.47178E-01 2.07734E-01
 -1     11646 7.85924E+00 5.04860E+00 2.71958E+00 5.29838E+00-5.89173E-02-1.56128E-01
 -1     11647 1.11119E-01 3.63284E-01-2.80921E-05 7.28697E-01-3.78011E-03 4.16808E-03
 -1     11648 6.88209E+00 2.31713E+00 7.67355E-01 3.72519E+00 7.35953E-02 3.38635E-01
 -1     11649 1.16513E+00 2.68096E+00 2.02114E-02-8.24931E-01 1.83701E-01-7.27003E-02
 -1     11650-1.51318E-02-9.11017E-01-1.33011E-02-5.28974E-01-1.76131E-02-3.36446E-03
 -1     11651 2.37539E+00 1.05192E-01-6.59320E-01 2.90933E-01 2.10379E-02 4.10450E-01
 -1     11652 7.65272E+00 7.54432E-01 1.18798E+00 2.36234E+00-3.52724E-02 1.89525E-01
 -1     11653 6.71729E+00 1.44115E+00 5.75476E-01 2.86129E+00 1.15548E-01 4.22452E-01
 -1     11654 6.22207E+00 1.20399E+01 4.14923E+00-1.05337E+00 6.38362E-02 5.85761E-02
 -1     11655 1.75249E+00 3.43435E-02-4.87758E-01 2.15107E-01-3.04660E-02 5.29664E-01
 -1     11656 2.46720E+00 3.15660E+00 6.13833E-01-9.87390E-01 3.51601E-02-5.06457E-03
 -1     11657 2.61147E+00 2.86715E+00 5.63271E-01-8.97061E-01 2.18685E-02-9.56166E-03
 -1     11658 3.07639E+00 3.44482E+00 7.99194E-01-9.02003E-01 5.41402E-02-2.04585E-02
 -1     11659 1.62920E+00 2.81895E+00 3.11698E-01 1.32380E+00 6.04195E-02 1.01113E-01
 -1     11660 2.15411E+00 2.76004E+00 4.21360E-01 1.72526E+00 3.50775E-02 1.00774E-01
 -1     11661 1.93612E+00 2.99975E+00 4.20623E-01 1.59606E+00 2.39042E-02 8.58312E-02
 -1     11662 1.09342E+01 1.20339E+01 3.51230E+00-2.04012E+00 2.26388E-01 3.76887E-01
 -1     11663 1.64292E+00 1.47786E+00 7.73232E-02 1.20593E+00 2.13732E-02 3.83208E-02
 -1     11664 1.78579E+00 1.94810E+00 1.78852E-01 1.38590E+00 7.32711E-03 2.46170E-02
 -1     11665 2.18166E+00 1.83508E+00 2.27525E-01 1.46365E+00 7.88036E-03 2.85253E-02
 -1     11666 2.07436E+00 2.93799E+00 4.86256E-01 1.70554E+00 2.62738E-02 3.28432E-02
 -1     11667 1.92749E+00 1.71598E+00 1.56640E-01 1.36704E+00 2.24550E-02 6.04520E-02
 -1     11668 2.88131E+00 3.67033E+00 1.99142E-01 2.38790E+00 1.76418E-01 5.31996E-01
 -1     11669 3.24209E+00 2.05381E+00 5.33970E-01-3.53979E-01 9.70592E-03-3.04855E-02
 -1     11670 6.69848E+00 1.20125E+01 4.13104E+00-1.93019E+00 1.17172E-01 9.19454E-02
 -1     11671 8.92481E+00 4.47769E-02 1.42711E+00 4.23033E+00 1.95976E+00 2.49028E-01
 -1     11672 1.22459E+01 1.51761E+01 6.18076E+00 8.19486E+00 3.02282E-01-6.78575E-02
 -1     11673 8.39131E+00 7.77390E+00 3.52597E+00-8.80202E-01-3.86442E-02 6.63764E-02
 -1     11674 7.23290E+00 9.52371E+00 3.69487E+00-1.87674E+00 6.41329E-02 5.31883E-02
 -1     11675 1.29601E+01 1.70775E+01 5.08929E+00-3.25489E+00-3.67434E-01 5.75541E-01
 -1     11676 1.17715E+01 1.58084E+01 6.44064E+00-1.83304E+00 3.19289E-02 2.09961E-01
 -1     11677 5.18573E+00 3.96009E+00 1.57102E+00-4.37296E-01 2.18621E-02-4.12741E-03
 -1     11678 5.44182E+00 4.26298E+00 1.73754E+00-4.53057E-01 1.09242E-02-2.44187E-03
 -1     11679 5.28986E+00 4.10821E+00 1.64000E+00-4.35424E-01 1.22890E-02-9.89532E-03
 -1     11680 1.19129E+01 1.24871E+01 5.72906E+00-1.66180E+00-6.20897E-02 1.31080E-01
 -1     11681 5.24908E+00 1.20735E+00 2.76852E-01 2.26383E+00 5.76071E-02 2.92138E-01
 -1     11682 6.28866E+00 1.24717E+01 4.14300E+00 5.68012E+00 1.20568E-01 1.87601E-01
 -1     11683 5.56438E+00 1.26305E+01 3.99475E+00 3.18325E+00 1.56453E-01 1.96538E-01
 -1     11684 7.57051E+00 7.72885E+00 3.10353E+00 7.30232E+00 1.63599E-01 8.47683E-02
 -1     11685 6.25626E+00 1.68236E+01 5.39584E+00 2.87607E+00 6.55308E-02 8.38153E-02
 -1     11686 5.48866E+00 1.91928E+01 5.89355E+00 6.35585E+00 4.12711E-01-1.47514E-01
 -1     11687 2.52217E+00 2.25466E-01-1.65320E-01 5.94787E-01 3.13443E-03 2.62681E-02
 -1     11688 3.83213E+00 3.07880E+00 6.15210E-02-4.77040E-01 1.07106E-01-3.46627E-01
 -1     11689 3.94312E+00 3.15310E+00 9.65849E-02-4.40635E-01 1.07449E-01-3.60600E-01
 -1     11690 1.21526E+01 1.75165E+01 7.82435E+00-2.98980E+00-1.51922E-01 1.52704E-01
 -1     11691-9.10661E-01 1.56458E-01-9.14204E-03 4.83987E-02 8.95734E-03-2.82359E-05
 -1     11692 6.64182E+00 1.53801E+00 1.13072E+00 3.14782E+00-2.49744E-02 2.54994E-01
 -1     11693 5.84667E+00 1.54965E+01 5.06511E+00-4.31137E-01-1.03311E-02 4.63246E-02
 -1     11694 4.55867E+00 1.20527E+01 3.73623E+00 1.17137E-01 8.19492E-03 1.22752E-01
 -1     11695 3.01543E+00 2.42475E+00 4.71624E-01 2.13036E+00 2.49816E-02 1.51691E-01
 -1     11696 2.27355E+00 3.79278E+00 6.40158E-01 1.79168E+00 6.78095E-02 1.30136E-01
 -1     11697 2.78209E+00 3.06209E+00 6.07522E-01 2.13684E+00-1.87079E-02 9.71954E-02
 -1     11698 9.82272E+00 9.25310E+00 4.54040E+00-1.36425E+00 2.65411E-02 3.03072E-03
 -1     11699 1.32207E+01 1.43317E+01 6.48794E+00-1.89084E+00 1.36589E-02 2.12578E-01
 -1     11700 1.35516E+01 1.61229E+01 7.22731E+00-2.56681E+00-3.77914E-02 1.86004E-01
 -1     11701 9.92450E+00 2.94848E+01 9.72126E+00 8.01885E+00-8.03781E-01-6.75041E-02
 -1     11702 1.39987E+01 2.63794E+01 1.02023E+01 1.02778E+01 6.22219E-01 4.72015E-01
 -1     11703 5.55307E+00 1.61762E+01 4.62468E+00 4.52370E+00-2.07468E-01 4.66390E-01
 -1     11704 7.85563E+00 6.90336E+00 3.25378E+00-7.03039E-01-1.79190E-02-1.78156E-02
 -1     11705 1.88081E+00 6.09367E+00 2.41022E-01 1.57823E+00 3.86623E-01 4.50701E-01
 -1     11706 3.13977E+00 1.60130E-01-1.81227E-01 3.85426E-01-4.31793E-02 4.11506E-02
 -1     11707 5.04472E+00 7.91405E-01 6.12120E-01 1.72517E+00-6.55187E-03 4.58280E-02
 -1     11708 6.44068E+00 9.75629E+00 3.65711E+00-1.49418E+00 7.48677E-02 3.34819E-02
 -1     11709 3.14183E+00 1.97608E-01-1.41824E-01 2.79732E-01-2.71084E-02 9.02723E-02
 -1     11710 2.36356E+00 2.48123E+00 4.27234E-01-8.33077E-01 2.66911E-02-2.57877E-02
 -1     11711 2.13556E+00 2.45749E+00 3.73247E-01-9.01772E-01 2.68045E-02-6.09849E-03
 -1     11712 4.97902E+00 8.01748E+00 2.66886E+00-1.00525E+00-1.50211E-02 1.26303E-02
 -1     11713 1.92741E+00 6.85335E-03-6.39564E-01 1.99524E-01-3.65286E-02 5.50512E-01
 -1     11714 1.72823E+00 3.83238E-02-6.02327E-01 1.40649E-01-2.56477E-02 4.98443E-01
 -1     11715 1.41869E+00 4.19499E-02-3.73282E-01 1.50163E-01-3.38914E-03 2.01405E-01
 -1     11716 4.20250E+00 3.44090E+00 1.05305E+00-7.39720E-01 2.71993E-02-3.86774E-02
 -1     11717 9.93301E+00 9.89089E+00 4.57900E+00-1.32928E+00 4.73662E-02 7.21748E-02
 -1     11718 1.18848E+01 2.22706E+01 8.25844E+00-3.26180E+00 4.13520E-01 2.19951E-01
 -1     11719 3.69204E+00 2.20740E+01 6.07696E+00 1.69652E+00 3.05740E-01 4.01189E-01
 -1     11720 5.90221E+00 1.38261E+01 4.58916E+00 1.15483E+00 1.47894E-02 1.20128E-01
 -1     11721 6.36864E+00 1.20928E+00 6.31667E-01 2.26254E+00-1.82430E-02 1.98485E-01
 -1     11722 8.64243E+00 1.97076E+00 1.58380E+00 2.85735E+00 4.06473E-02-3.47687E-02
 -1     11723 7.97123E+00 1.06447E+00 1.48142E+00 2.89703E+00 1.97048E-02 2.77898E-01
 -1     11724 4.10615E+00 1.03396E+00-1.64919E-01 1.68860E+00-2.38074E-02 6.71996E-01
 -1     11725 1.09583E+00 3.33350E+00 2.34951E-01 8.36595E-01 1.33866E-01 1.24380E-01
 -1     11726 7.91173E+00 8.74618E-01 1.57192E+00 2.53568E+00 2.86075E-01-6.54449E-02
 -1     11727 1.01042E+01 3.00702E+00 3.10277E+00 5.88397E+00-1.31347E-01 9.74832E-02
 -1     11728 8.51057E+00 9.27188E+00 4.21720E+00 6.97183E+00-2.32245E-01 9.24161E-04
 -1     11729 5.33611E+00 1.28879E+01 1.31970E+00-9.65020E-01 6.60246E-01 3.06684E-01
 -1     11730 1.54914E+00 4.73320E+00 3.39690E-01 7.80736E-01 2.06893E-01 1.89414E-01
 -1     11731 2.04125E+00 5.91173E+00 6.75888E-01 1.06156E+00 2.05546E-01 2.61852E-01
 -1     11732 1.72163E+00 5.01934E+00 3.84655E-01 6.09807E-01 2.54607E-01 1.92574E-01
 -1     11733 2.28302E+00 6.25492E+00 7.58841E-01 7.91747E-01 2.57727E-01 2.19849E-01
 -1     11734 1.97227E+00 5.92361E+00 6.49836E-01 2.35933E-01 2.37287E-01 1.36979E-01
 -1     11735 4.86010E+00 7.61936E-01-2.70025E-01 1.25995E+00 4.48097E-02 4.29872E-01
 -1     11736 1.91267E+00 2.88245E-02-5.91375E-01 2.10666E-01-4.49116E-02 5.75394E-01
 -1     11737 5.89419E+00 4.82497E+00 2.03232E+00-5.48864E-01 2.18600E-04 3.44293E-03
 -1     11738 6.12895E+00 5.10322E+00 2.19297E+00-5.76072E-01 1.53835E-02-5.50683E-03
 -1     11739 2.85881E+00 6.90318E-01-1.05401E-01 1.12685E+00 4.81363E-02 2.74209E-01
 -1     11740 2.62870E+00 1.53609E-01-2.72891E-01 6.40861E-01-1.43521E-02 2.23816E-01
 -1     11741 2.54801E+00 9.65915E-01-2.07948E-02 1.15304E+00 8.47652E-02 2.83179E-01
 -1     11742 3.47700E-04 2.52437E-01-3.05948E-03 7.30816E-01-5.87274E-03-8.76172E-05
 -1     11743 1.13479E+01 3.24167E+01 1.14211E+01 4.05302E+00 4.81934E-01 2.23531E-01
 -1     11744 6.38796E-02-2.12289E+00-2.33027E-02-3.08240E-01-3.41072E-02-1.10841E-02
 -1     11745 2.84656E+00 2.60147E+00 9.17839E-02 2.05717E+00 1.21790E-01 5.04867E-01
 -1     11746 3.48579E+00 1.49777E+00-6.27403E-02 1.94902E+00 4.84325E-02 5.60419E-01
 -1     11747 4.73536E+00 3.54570E+00 1.20251E+00-3.74955E-01 2.15050E-02-3.49816E-02
 -1     11748 5.84131E+00 4.75272E+00 2.00796E+00-5.36353E-01 1.59369E-02 7.13258E-04
 -1     11749 7.27767E+00 1.30322E+01 4.61015E+00-1.96444E+00-7.29721E-02 1.62473E-01
 -1     11750 5.62972E+00 5.62391E+00 1.10839E+00-1.21581E+00 1.47337E-01-2.96475E-02
 -1     11751 2.69658E+00 2.95818E+00 2.91381E-01-8.99266E-01 1.52813E-01-1.50994E-01
 -1     11752 7.00617E+00 1.22860E+01 4.60634E+00 5.51953E+00 8.24567E-01 1.20765E-01
 -1     11753 1.59228E+00 3.73389E+00 4.52522E-01-5.26364E-01 1.34766E-01-1.05266E-02
 -1     11754 3.30474E+00 8.60828E+00 6.12775E-01-6.46845E-01 6.48652E-01 8.42844E-02
 -1     11755 6.02633E+00 1.56920E+01 5.45194E+00-1.12673E+00-1.77335E-01 9.22483E-02
 -1     11756 9.92383E+00 1.36103E+01 5.87242E+00-1.77625E+00 7.93703E-02-8.57010E-02
 -1     11757 1.09814E+01 1.11920E+01 5.51438E+00-1.70728E+00 1.01986E-01-1.54222E-02
 -1     11758 8.89108E+00 1.38572E+01 5.60367E+00-2.12166E+00 9.48040E-03-8.71685E-02
 -1     11759 1.50830E+00 2.90565E-02-4.36163E-01 1.04642E-01 2.55586E-03 5.17417E-02
 -1     11760 7.94620E+00 1.93317E+00-4.26164E-01 4.03767E+00-1.51451E-01 1.01892E+00
 -1     11761 6.45257E+00 8.28571E+00 1.30452E+00 5.11354E+00 3.77482E-01 9.01585E-01
 -1     11762 8.02972E+00 2.43571E+00 1.97635E-01 4.08916E+00-5.88800E-02 9.72741E-01
 -1     11763 2.62864E-01 1.79753E+00-1.07946E-03 2.49161E-01 4.16732E-02 2.30017E-02
 -1     11764 2.96896E-02 1.41173E+00-2.98410E-02 1.69976E-01 2.17808E-02 8.78743E-03
 -1     11765 2.58434E+00 8.62070E+00 3.52936E-01 3.06925E+00 4.87505E-01 4.95454E-01
 -1     11766 3.72338E+00 5.17890E+00 2.17763E-02 4.01868E+00 2.83023E-01 7.27702E-01
 -1     11767 2.51216E+00 6.22922E+00 1.36302E-01 2.82706E+00 2.80900E-01 5.52847E-01
 -1     11768 1.76371E+00 4.48277E-02-6.43003E-01 1.35138E-01-1.42157E-02 4.28468E-01
 -1     11769 1.62517E+00 1.83876E-02-6.20663E-01 1.10698E-01-1.18839E-02 4.16303E-01
 -1     11770 9.46777E+00 3.66251E+00 2.54939E+00 4.44036E+00 1.11884E-01-1.18741E-01
 -1     11771 6.23354E+00 5.33404E+00 2.09453E+00-6.11229E-01 2.80854E-02 1.20122E-02
 -1     11772 6.77283E+00 5.98490E+00 2.44596E+00-7.22831E-01 1.98173E-02 2.39848E-02
 -1     11773 8.03932E+00 7.04772E+00 3.20371E+00 4.52629E+00-1.38626E-02 4.03727E-01
 -1     11774 4.91949E+00 1.01475E+01 3.24355E+00-6.82149E-01 3.26676E-02 5.98248E-02
 -1     11775 6.05186E+00 5.07887E+00 2.15777E+00-5.95048E-01 2.97677E-02 7.90549E-04
 -1     11776 7.21811E+00 6.20918E+00 2.88276E+00 4.59792E+00 3.24164E-01 2.58752E-01
 -1     11777 3.82231E+00 1.21202E+00-3.07452E-01 2.17318E+00-8.31589E-02 7.99217E-01
 -1     11778 6.20819E+00 5.49522E+00 1.79853E+00-7.18293E-01 3.56837E-02 9.32264E-03
 -1     11779 5.89541E+00 5.11539E+00 1.56126E+00-6.51315E-01 4.19895E-02 3.26714E-03
 -1     11780 9.71753E+00 5.79365E+00 3.08935E+00 4.48941E+00 1.09741E-01 1.83810E-01
 -1     11781 7.83953E+00 6.69239E+00 2.95301E+00 4.81066E+00-3.14676E-01 1.49713E-01
 -1     11782 4.06213E+00 5.68690E-01 4.64801E-02 7.99779E-01 1.78336E-02 1.45693E-01
 -1     11783 1.12217E-01-2.08317E+00-1.03692E-01-1.07320E-01 7.26841E-03-1.68137E-02
 -1     11784 2.45172E-01-1.57430E+00-6.26543E-02-2.37611E-01 2.16517E-03-4.38233E-02
 -1     11785 4.39644E+00 1.01222E+01 3.12057E+00-3.43540E-01-2.64560E-02 6.64339E-02
 -1     11786 2.99959E+00 1.50472E-01-3.18193E-01 3.92962E-01 9.02645E-03 1.77742E-01
 -1     11787 4.14895E+00 9.03058E-01 2.48768E-01 1.59307E+00-2.44942E-02 1.51868E-01
 -1     11788 3.80335E+00 2.95037E-01 1.78221E-02 9.60170E-01 1.20269E-02 1.44702E-01
 -1     11789 7.73929E+00 1.42164E+00 1.23664E+00 2.44298E+00-6.51129E-02 3.99379E-01
 -1     11790 7.25392E+00 8.62969E-01 1.02441E+00 2.86785E+00-1.07284E-01 3.54548E-01
 -1     11791 8.22658E+00 4.09881E+00 1.09034E+00 5.01359E+00 9.55991E-02 5.17604E-01
 -1     11792 6.05491E+00 1.67303E+01 5.91432E+00-5.71347E-01-5.13781E-02-8.00849E-02
 -1     11793 2.13836E+00 7.20554E-02-2.01774E-01 4.02618E-01-7.11482E-02 4.47158E-01
 -1     11794 2.21176E+00 9.37355E-02-3.76996E-01 4.21596E-01-9.34950E-02 6.01283E-01
 -1     11795 2.06948E+00 2.33689E-02-4.55057E-01 1.89069E-01 1.23818E-02 4.70762E-02
 -1     11796 1.29094E+01 1.40082E+01 6.37184E+00-1.86197E+00-7.77058E-04 1.89353E-01
 -1     11797 2.58388E+00 3.21895E-01-5.24553E-01 4.59189E-01-5.06722E-02 6.54737E-01
 -1     11798 8.50272E+00 1.67242E+01 5.04055E+00-2.33850E+00 1.98555E-01 1.80776E-01
 -1     11799 5.42107E+00 4.38817E+00 1.32622E+00-5.62189E-01 3.90187E-02-4.51412E-02
 -1     11800 5.29969E+00 4.26446E+00 1.23214E+00-5.52148E-01 3.04532E-02-4.39130E-02
 -1     11801 9.36211E+00 7.14278E+00 3.73605E+00 4.98700E+00 3.92052E-02-2.44825E-01
 -1     11802 7.71069E+00 7.00856E+00 3.07746E+00 3.97243E+00-2.12449E-01-1.59300E-01
 -1     11803 2.22613E+00 4.63889E+00 7.98867E-01 1.88630E+00 7.68803E-02 1.47833E-01
 -1     11804 2.67854E+00 7.34911E-01-8.91675E-02 1.10499E+00 1.00583E-02 3.66393E-01
 -1     11805 2.48868E+00 8.18908E-02-3.35658E-01 2.35043E-01-1.39558E-02 2.74199E-02
 -1     11806 3.27489E+00 2.31303E-01-2.58735E-01 3.96408E-01 7.25198E-03 1.01475E-01
 -1     11807 1.48220E+01 1.46191E+01 6.32017E+00 1.11919E+01 1.64435E+00 7.56694E-01
 -1     11808 1.40062E+01 1.59624E+01 6.25257E+00 9.34217E+00-2.23425E-01 3.36934E-01
 -1     11809 7.00416E+00 3.90211E+00 5.69735E-01 2.65478E+00 2.95364E-01 5.44902E-01
 -1     11810 2.40417E+00 1.23917E+00 8.73667E-02-2.94918E-01 3.88224E-02-2.29996E-01
 -1     11811 5.29319E+00 1.31457E+01 2.57546E+00-2.74861E-02 2.45452E-01 3.71036E-01
 -1     11812 3.56390E+00 1.36545E+01 7.08225E-01 3.38294E+00 1.42791E+00 6.33858E-01
 -1     11813 1.46679E+00-1.34506E-02-2.13959E-02 1.24217E-01-1.99617E-02 5.72826E-02
 -1     11814 1.88979E+00 7.79702E-02-4.55396E-02 4.15690E-01-5.72246E-02 1.16787E-01
 -1     11815-2.16954E-01 6.25224E-01 6.13883E-02-2.39781E-01 1.70413E-02 1.09218E-02
 -1     11816-7.75524E-01-2.30102E-01-3.33328E-01 1.76824E-01 3.80600E-02-1.98651E-02
 -1     11817-4.27697E-01 5.18831E-01-1.83841E-02 5.53232E-02 2.93111E-02-3.08203E-02
 -1     11818-3.94311E-01 4.57669E-01-3.37663E-02 3.04245E-01 5.98275E-03-2.67475E-02
 -1     11819 1.10286E+01 1.08373E+01 4.97860E+00-1.36712E+00-4.24303E-02 1.25404E-01
 -1     11820 6.98237E+00 1.12702E+01 3.85298E+00 5.64245E+00-1.13547E-02 9.93223E-02
 -1     11821 7.09532E-01 1.22256E-01-1.57552E-02-8.03276E-01 3.15625E-02-8.30774E-02
 -1     11822 5.34099E+00 1.37090E+00 9.89896E-01 2.11183E+00-2.02797E-02 1.13928E-01
 -1     11823 1.19123E+01 1.12821E+01 5.71152E+00-1.07079E+00-6.10562E-02 1.73249E-02
 -1     11824 1.13804E+01 1.04624E+01 5.40542E+00-1.00549E+00-5.31900E-02-2.37588E-03
 -1     11825 9.69611E+00 1.34608E+01 5.91505E+00-2.28731E+00 1.00389E-01-3.44672E-02
 -1     11826 6.37878E+00 1.66686E+01 5.56645E+00-1.05788E+00-1.87272E-02 5.51918E-02
 -1     11827 4.10907E+00 1.29765E+01 4.08725E+00 5.12357E+00 2.71054E-01-1.38131E-01
 -1     11828 8.52769E-01 5.36589E+00 2.63829E-02 8.18467E-01 2.89182E-01 1.05154E-01
 -1     11829 5.75009E+00 5.67466E+00 1.74008E+00 4.88218E+00 5.09580E-02 3.53206E-01
 -1     11830 4.82019E+00 1.32964E+01 4.18578E+00 4.12891E-01 6.66407E-02 1.26186E-01
 -1     11831 1.23388E+01 1.31768E+01 5.68270E+00-2.06838E+00 9.09930E-02 2.41421E-01
 -1     11832 3.75185E+00 1.07757E+01 3.18733E+00 1.93243E+00 2.44434E-01-2.83769E-02
 -1     11833 7.57471E+00 2.01138E+01 6.37784E+00-1.78425E+00 2.52579E-01 3.16739E-01
 -1     11834 7.59420E+00 6.50304E+00 2.96900E+00-5.53705E-01 3.47668E-03 5.87661E-02
 -1     11835 7.27722E+00 6.12215E+00 2.77355E+00-5.29786E-01-1.47834E-02 3.84365E-02
 -1     11836 5.74472E+00 1.44060E+01 4.19936E+00 2.19043E-01-5.31380E-02 2.97631E-01
 -1     11837 5.98784E+00 1.01435E+01 3.65307E+00-1.49155E+00 7.92068E-02 4.96167E-03
 -1     11838 6.44694E+00 9.29225E+00 3.49091E+00-1.56598E+00-3.07825E-02 7.87293E-02
 -1     11839 5.92085E+00 2.83394E+00 1.16567E-01 3.76348E+00 5.39754E-02 9.74477E-01
 -1     11840 2.53275E+00 1.40868E+00 7.23354E-02-2.88604E-01 4.88909E-02-2.62200E-01
 -1     11841 2.12648E+00 1.36684E+00 8.12464E-03-6.08284E-01 1.00181E-01-2.32687E-01
 -1     11842 4.38648E+00 6.95938E+00 1.89241E+00-1.11629E+00 8.27533E-02 5.44750E-02
 -1     11843 5.57434E+00 5.74812E+00 2.18095E+00 4.09855E+00 2.90815E-02 6.59295E-02
 -1     11844 2.50642E+00 3.09677E+00 4.86187E-01 1.97113E+00 1.03990E-01 2.04228E-01
 -1     11845 1.54303E+01 1.33988E+01 5.51980E+00 1.22615E+01-1.84629E+00-5.56587E-01
 -1     11846 8.13487E+00 4.03531E+00 8.35308E-01 3.59265E+00 1.34508E-01 7.95345E-01
 -1     11847 5.45065E+00 1.43605E+01 4.71933E+00 5.00726E+00-7.41623E-02-1.03653E-01
 -1     11848 5.77024E+00 1.67884E+01 5.62186E+00 1.21889E+00 2.30146E-01 3.94796E-02
 -1     11849 7.19043E+00 1.70306E+01 6.18032E+00 3.27893E+00-3.81751E-03 1.78439E-02
 -1     11850 5.88697E+00 1.81164E+01 6.05617E+00 2.79045E+00 3.22999E-01-1.45649E-01
 -1     11851 1.86098E+00 5.29741E+00-5.37073E-04-8.50965E-01 3.13069E-01-8.33004E-02
 -1     11852 2.86911E+00 5.56523E+00 3.03240E-02-1.03797E+00 4.46525E-01-1.19511E-01
 -1     11853 1.58183E+00 5.37312E+00 1.10843E-01-2.53917E-01 2.98961E-01-6.10353E-02
 -1     11854 7.59364E+00 6.52396E+00 3.03270E+00-6.90086E-01 2.57335E-02 3.56452E-02
 -1     11855 7.00107E+00 7.52563E+00 3.18269E+00-1.42660E+00 3.50752E-02-1.06152E-02
 -1     11856 7.78672E+00 6.73691E+00 3.15936E+00-6.62081E-01 2.06857E-02 2.10381E-02
 -1     11857 6.81923E+00 1.71296E+01 5.82197E+00-7.75914E-01-1.44571E-01 3.97760E-01
 -1     11858 2.63015E+00 6.32536E+00 9.73389E-01-2.55049E-01 2.24666E-01 1.15866E-01
 -1     11859 1.97585E+00 9.94490E-02-2.84822E-01 3.41247E-01 6.10641E-03 2.37539E-01
 -1     11860 5.01823E+00 1.08928E+00 6.17767E-01 1.29388E+00-2.97665E-02 2.77932E-02
 -1     11861 2.08852E+00 1.38656E-01-5.49406E-01 2.78609E-01-4.31936E-03 4.11482E-01
 -1     11862 4.90393E+00 1.18018E+00 1.86622E-01 1.93936E+00-5.17594E-03 3.72708E-01
 -1     11863 4.85892E+00 7.15799E+00 9.44050E-01 3.85984E+00 1.15920E-01 7.01143E-01
 -1     11864 4.68423E+00 6.90546E+00 9.15854E-01 3.92322E+00 2.05444E-01 6.19948E-01
 -1     11865 3.38236E+00 6.65678E+00 6.08505E-01 3.00305E+00 2.85854E-01 6.86120E-01
 -1     11866 4.51166E+00 3.71144E+00 3.37151E-01 3.36402E+00 1.34617E-01 6.73560E-01
 -1     11867 4.68787E+00 3.75620E+00 2.97731E-01 3.43552E+00 1.06673E-01 7.12267E-01
 -1     11868 5.70283E+00 5.11005E+00 2.07984E+00-8.78248E-01-6.05878E-03 1.52479E-02
 -1     11869 4.41173E-01 5.09312E-01 1.37904E-01 3.19903E-01-3.85290E-02 2.32140E-02
 -1     11870 1.22846E+01 1.74246E+01 7.71026E+00-2.76111E+00 2.32606E-01-8.94949E-02
 -1     11871 9.80819E+00 1.95407E+01 7.80166E+00 2.04868E+00 5.87413E-02-9.38823E-02
 -1     11872 1.16959E+01 2.28320E+01 8.84174E+00 1.05565E+00 2.40137E-01 8.63148E-02
 -1     11873 5.90402E+00 1.90409E+01 6.07591E+00 1.97129E+00 3.68461E-01 1.30143E-01
 -1     11874 4.34453E+00 3.71297E+00 3.02332E-02-5.49722E-01 1.04301E-01-3.67951E-01
 -1     11875 4.10206E+00 3.34306E+00 3.09239E-02-5.11349E-01 9.58408E-02-3.07702E-01
 -1     11876 2.29882E-02 4.98494E-01 9.59352E-02-3.18206E-01 2.80060E-02-2.76951E-02
 -1     11877 7.91318E+00 7.43437E+00 2.04223E+00-9.56367E-01 3.22645E-02 5.27128E-02
 -1     11878 2.16961E+00 1.37855E-01-6.53657E-01 2.39505E-01-3.36497E-02 5.93446E-01
 -1     11879 2.15370E+00 9.65176E-02-6.91669E-01 2.14127E-01-1.74721E-02 5.64116E-01
 -1     11880 3.74035E+00 3.55294E+00 1.39592E-01-9.12064E-01 2.17057E-01-3.13412E-01
 -1     11881 5.34877E+00 8.87411E+00 1.83289E+00 4.09889E+00 9.30779E-02 5.03503E-01
 -1     11882 5.76641E+00 8.49874E+00 1.67427E+00 5.11275E+00 1.90561E-01 6.34586E-01
 -1     11883 4.55269E+00 1.49994E+01 3.05428E+00 2.90618E+00-1.49145E-01 5.84202E-01
 -1     11884 6.08891E+00 1.07292E+01 2.38798E+00 4.53997E+00 8.65776E-01 2.92539E-01
 -1     11885 6.31802E+00 2.85334E+00 4.36623E-01 4.95738E+00-1.25267E-03 6.61799E-01
 -1     11886-7.33774E-02-1.16810E-01-6.57970E-02-1.51014E-01-2.16127E-02 1.43858E-03
 -1     11887 3.60677E-01 2.21557E-01 5.74711E-02 7.91462E-02-1.91549E-02 1.02463E-02
 -1     11888 1.04173E+01 1.08182E+01 5.16367E+00-1.53049E+00 1.25687E-01-2.75094E-02
 -1     11889 4.10253E+00 3.59054E+00 1.06255E+00-8.86639E-01 2.45662E-02-1.29740E-02
 -1     11890 6.67916E+00 2.07228E+01 6.84275E+00 1.74425E+00 2.20081E-01-1.12890E-01
 -1     11891 9.49785E+00 1.61917E+00 1.99797E+00 4.12571E+00 9.79288E-01-4.47656E-01
 -1     11892 5.61311E+00 5.01161E-01 4.58080E-01 1.59284E+00-7.60793E-03 5.43289E-02
 -1     11893 2.28968E-01 1.82040E+00 1.94272E-03 6.05990E-02 1.12800E-01 2.14347E-02
 -1     11894 3.15221E+00 2.57927E+00 1.27538E-03-7.22176E-01 9.97931E-02-1.93143E-01
 -1     11895 2.99226E+00 2.21284E+00 2.70708E-02-6.64399E-01 8.04887E-02-2.12970E-01
 -1     11896 9.00901E+00 4.60004E+00 2.56780E+00 4.07862E+00-2.54973E-01 3.92603E-02
 -1     11897 1.21977E+01 2.47088E+01 1.03828E+01-1.89399E+00-2.16349E+00 5.73204E-01
 -1     11898 7.02166E+00 1.95969E+01 6.80711E+00 2.98969E+00 1.43224E-01-1.78870E-01
 -1     11899 2.06369E+00 5.58694E+00 1.16451E+00 4.57683E-01 2.60692E-02 2.57565E-02
 -1     11900 2.40764E+00 6.41454E+00 1.49814E+00-6.54885E-02 1.23229E-02 3.70557E-02
 -1     11901 2.38387E+00 6.48928E+00 1.51610E+00-6.06087E-02 2.87823E-02 2.43204E-02
 -1     11902 7.10165E+00 7.52093E+00 3.06396E+00 5.58131E+00-4.47412E-02 2.05162E-04
 -1     11903 4.92888E+00 1.10148E+01 3.56636E+00 4.74602E+00 6.39504E-02 1.16569E-01
 -1     11904 5.14652E+00 1.04235E+01 3.25908E+00 5.30104E+00 1.03190E-01 4.00210E-02
 -1     11905 6.87480E+00 1.35919E+01 4.83000E+00 7.05904E+00 4.89026E-02 1.23761E-01
 -1     11906 6.62504E+00 1.27318E+01 3.72309E+00-1.35727E+00 7.82504E-02 2.49673E-01
 -1     11907 9.95285E-01 2.92001E+00 2.37915E-01-4.46511E-01 3.53737E-02 4.57129E-03
 -1     11908 6.35970E-01 2.37230E+00 1.06679E-01-4.47124E-01 2.52706E-02 3.63341E-03
 -1     11909 3.55575E-01 2.14099E+00 3.81405E-02-2.05723E-01 3.60962E-02-5.50862E-03
 -1     11910 3.17577E+00 7.74177E-01-3.63411E-02 1.71050E+00-1.01812E-01 2.96150E-01
 -1     11911-8.54944E-01-8.14744E-01-4.83541E-01-1.81754E-01-8.15806E-03-2.89077E-03
 -1     11912 4.21894E+00 3.31343E+00 2.08839E-01-4.35990E-01 9.24616E-02-3.34886E-01
 -1     11913 8.58347E+00 7.69356E+00 3.24568E+00 5.14564E+00-3.08667E-01 7.58051E-01
 -1     11914 4.36946E+00 1.44882E+01 4.17596E+00 3.65532E+00 1.81747E-01 1.44723E-01
 -1     11915 2.31586E+00 6.52685E+00 1.26963E+00 1.02287E+00 6.88557E-02 1.37947E-01
 -1     11916 7.72273E+00 1.40043E+01 4.48734E+00 6.50088E+00 1.11241E-01 4.23541E-01
 -1     11917 9.27410E+00 1.85439E+00 1.33207E+00 4.57870E+00 1.91935E-01 5.74078E-01
 -1     11918 7.02986E+00 1.68586E+01 5.47919E+00-6.66966E-01-2.74034E-02 2.00823E-01
 -1     11919 6.65345E+00 1.47619E+01 4.84157E+00-1.14684E+00-1.09966E-02 2.25909E-01
 -1     11920 8.28240E+00 1.35804E+01 4.96589E+00-2.16067E+00 8.48990E-02 2.10626E-01
 -1     11921 1.76503E+00 3.20076E+00 4.10290E-01 1.51972E+00 6.72133E-02 1.13548E-01
 -1     11922 7.72788E+00 7.19539E+00 6.62159E-01-1.00874E+00 1.98433E-01-3.30727E-01
 -1     11923 7.52536E+00 1.17067E+01 4.42327E+00 7.12462E+00 2.92676E-01 2.50585E-01
 -1     11924 1.44181E+00 4.60558E+00 3.60308E-01 6.69110E-01 2.62473E-01 1.67375E-01
 -1     11925 1.06090E+01 8.45877E+00 4.11829E+00 7.42251E+00-3.40598E-01 5.85230E-01
 -1     11926 1.71705E+00 6.44791E-02-4.35283E-01 1.97948E-01 6.76411E-03 1.55076E-01
 -1     11927 7.35929E+00 6.21607E+00 2.81070E+00-5.55131E-01-4.89937E-03 3.98530E-02
 -1     11928 4.11515E+00 6.31240E-01-1.72041E-01 9.29870E-01 4.20427E-02 2.31280E-01
 -1     11929 4.65027E+00 1.12494E+01 5.26122E-01-1.33533E+00 6.70329E-01 6.41965E-02
 -1     11930 8.31374E+00 1.06910E+01 2.08935E+00-1.48177E+00 3.27039E-01 9.36700E-02
 -1     11931 5.63454E+00 8.64315E+00 8.54050E-01-1.39863E+00 4.48052E-01-3.02720E-02
 -1     11932 1.55218E+00 1.13782E+00 1.21855E-02 1.06756E+00 8.81616E-03 2.64692E-02
 -1     11933 2.22947E+00 5.11954E+00 5.41315E-01-3.69236E-01 2.33328E-01 6.65676E-02
 -1     11934 2.27960E+00 1.08725E-01-2.86630E-01 4.55778E-01-3.17058E-04 1.71169E-01
 -1     11935-5.34192E-01 4.90039E-01-1.03378E-02-5.27624E-01 1.71275E-02-8.07326E-03
 -1     11936 2.68491E+00 3.12043E+00 4.49178E-01-9.65244E-01 1.35920E-01-9.31441E-02
 -1     11937 2.95983E+00 3.29314E+00 4.89732E-01-9.55060E-01 1.40931E-01-1.01612E-01
 -1     11938 2.57114E+00 2.60745E+00 2.88497E-01-8.54054E-01 1.29796E-01-1.31456E-01
 -1     11939 4.42472E+00 5.75263E-01 3.66537E-01 1.08339E+00-9.97791E-05-1.55141E-02
 -1     11940 1.84136E-01 1.77773E+00 6.17992E-03-1.16397E-01 3.72022E-02-3.07757E-03
 -1     11941 1.22137E-01 1.63430E+00-9.80897E-03-1.37293E-02 6.24616E-02 1.03859E-02
 -1     11942 3.63803E-01 2.04822E+00 3.47249E-02 3.61095E-02 8.79327E-02 1.81508E-02
 -1     11943 1.42196E+00 2.87203E+00 3.18292E-01-7.63580E-01 3.14286E-02-1.66282E-02
 -1     11944 4.79943E+00 3.98830E+00 5.90113E-02-4.86992E-01 9.49269E-02-3.94715E-01
 -1     11945 4.81734E+00 4.07191E+00 2.64520E-02-5.20016E-01 1.09108E-01-3.50149E-01
 -1     11946 5.37397E+00 1.05042E+01 3.35171E+00 4.52676E+00-1.85344E-01 9.14101E-02
 -1     11947 4.43800E+00 1.67812E+01 3.13398E+00 5.51199E-03 2.38109E-01 8.47077E-02
 -1     11948 5.12468E+00 1.07403E+01 1.84373E+00 3.50586E+00 1.40921E-01 6.46780E-01
 -1     11949 1.22788E+01 1.32308E+01 5.70916E+00-1.72359E+00 2.67244E-01 1.32575E-01
 -1     11950 7.50174E+00 2.25061E+00-5.61489E-02 2.78471E+00-1.58397E-02 9.11378E-01
 -1     11951 1.12577E+01 2.07979E+01 7.90286E+00 2.26508E+00-3.55401E-01-3.11263E-01
 -1     11952 4.65142E+00 1.27165E+01 4.07581E+00 8.12744E-01 6.47658E-02 2.35254E-02
 -1     11953 6.02275E+00 1.62080E+01 5.51908E+00 2.28259E-01-2.96507E-02 9.86887E-02
 -1     11954 2.69170E+00 1.28457E-01-3.88463E-01 3.40565E-01 8.74500E-03 1.73622E-01
 -1     11955 6.62942E+00 1.94942E+00 5.41021E-01 3.54395E+00 8.55767E-02 4.97783E-01
 -1     11956 6.08933E+00 5.42382E+00 1.14290E+00-7.77764E-01 5.06722E-02-7.33950E-02
 -1     11957 7.30883E+00 6.58506E+00 2.93242E+00-7.63495E-01-1.35733E-03 1.84115E-02
 -1     11958 7.41059E+00 6.50899E+00 2.97321E+00-6.36293E-01 1.78645E-02-7.96605E-04
 -1     11959 8.09976E+00 7.08300E+00 3.34245E+00-7.68129E-01 3.05164E-02-1.72784E-02
 -1     11960 1.01864E+01 1.00840E+01 4.92327E+00-1.22900E+00-2.06495E-02 1.79721E-02
 -1     11961 8.37388E+00 1.18142E+01 4.81484E+00-1.95965E+00 7.48995E-02 5.25470E-02
 -1     11962 7.23248E+00 7.68558E+00 3.29984E+00-1.47671E+00 1.09100E-02 4.55846E-02
 -1     11963 4.15534E+00 4.32402E-01 6.85988E-02 1.19400E+00 3.21372E-02 2.26043E-01
 -1     11964 2.94902E+00 1.70723E+00 6.52353E-03-2.77096E-01 1.03085E-02-1.17203E-01
 -1     11965 3.18185E+00 2.06373E+00 1.30778E-02-2.82719E-01 1.68309E-02-1.98836E-01
 -1     11966 7.90843E-01-2.50881E-02 6.36440E-02 5.30270E-01-1.38322E-02 1.99275E-03
 -1     11967 2.99429E-01 1.48184E-01-1.54012E-02 3.08471E-01-2.10190E-02-4.12396E-02
 -1     11968-3.09396E-01 1.60501E-01-1.59158E-01 8.28168E-02-8.42975E-03-1.43142E-02
 -1     11969 1.08274E+00 3.22490E-01 2.69603E-01 4.73728E-01 1.73558E-02-3.01823E-02
 -1     11970 1.78167E-01 8.41056E-02-7.40084E-02 3.63787E-01-6.65080E-03-7.97028E-03
 -1     11971 8.50658E+00 2.99198E+00 2.18763E+00 4.61293E+00 2.24239E-01 3.97918E-01
 -1     11972 6.44240E+00 6.27610E+00 2.58195E+00-1.09466E+00 2.06260E-02 8.46419E-02
 -1     11973 5.39579E+00 7.13872E+00 2.40033E+00-1.24905E+00 4.31744E-02 4.15377E-02
 -1     11974 6.72754E+00 1.03987E+00 1.16851E+00 2.28671E+00 1.94560E-01 5.91820E-02
 -1     11975 5.85993E+00 1.01391E+00 8.20081E-01 1.75888E+00 9.72742E-03 3.65778E-02
 -1     11976 5.52185E+00 1.04292E+01 3.27568E+00 4.69716E+00-4.84957E-02 1.23556E-01
 -1     11977 4.96768E+00 1.61056E+01 4.68134E+00 3.07622E+00 1.44269E-01 2.38536E-01
 -1     11978 4.74774E+00 5.91363E+00-1.03723E+00 3.24136E+00 1.76745E-01 1.79363E+00
 -1     11979 6.75273E+00 6.50825E+00-6.11770E-01 4.05020E+00 1.42766E-01 1.44886E+00
 -1     11980 5.75465E+00 4.35086E+00-2.55164E-01 3.31874E+00-3.41183E-02 1.51200E+00
 -1     11981 8.53037E+00 1.08383E+01 4.92961E+00 6.92591E+00 5.22384E-02-4.17833E-01
 -1     11982 1.88605E+00 1.54086E-02-5.01690E-01 9.79927E-02 1.71728E-03 4.32835E-03
 -1     11983 1.87333E+00 1.37719E-02-5.10860E-01 8.58324E-02 5.21823E-03 4.06521E-03
 -1     11984 2.86593E+00 4.17452E-02-2.09668E-01 4.41383E-01-2.52918E-03 2.13838E-02
 -1     11985 2.28704E+00 3.32920E-03-4.08916E-01 2.21902E-01-2.11429E-03-4.11138E-03
 -1     11986 1.57457E+00-2.86749E-03-3.41449E-02 1.37720E-01-1.54444E-02 8.47989E-02
 -1     11987 1.55295E+00-1.06402E-02-1.49138E-02 1.31758E-01-1.69807E-02 6.39949E-02
 -1     11988 2.05657E+00 6.99786E-02-4.11399E-02 4.52830E-01-5.75487E-02 1.26878E-01
 -1     11989 1.65614E+00 5.69898E-02-6.73529E-02 2.41883E-01-5.64923E-02 2.22856E-01
 -1     11990 8.06873E+00 1.16756E+01 4.49082E+00-2.10784E+00 1.39952E-01 7.39445E-03
 -1     11991 9.51727E+00 1.59726E+01 6.18043E+00-2.34879E+00-1.39610E-01 7.34217E-02
 -1     11992 1.20727E+01 1.23282E+01 5.89346E+00-1.47611E+00 1.37330E-01 8.08701E-02
 -1     11993 1.08162E+01 3.08935E+00 2.73996E+00 5.45305E+00 1.00221E-01 1.21209E-01
 -1     11994 7.42177E+00 1.70930E+00 8.32397E-01 2.63952E+00-4.52999E-02 4.24458E-01
 -1     11995 1.01461E+01 2.12257E+00 1.42068E+00 4.72551E+00 6.20453E-01 9.97647E-02
 -1     11996 1.47026E+01 3.05991E+01 1.25854E+01 9.76166E+00-2.44868E-01 4.93764E-02
 -1     11997 4.79323E+00 1.78323E+01 5.31803E+00 8.01344E+00-9.51420E-02 3.90822E-03
 -1     11998 5.16300E+00 4.02661E+00 1.57857E+00-4.20710E-01 4.08298E-03-2.31386E-03
 -1     11999 2.32885E+00 1.18518E+00 6.54186E-02-3.05220E-01 4.02872E-02-2.37718E-01
 -1     12000 2.28574E+00 1.36041E+00 5.34131E-02-5.49520E-01 8.33376E-02-2.27762E-01
 -1     12001 2.81937E+00 1.26991E-01-2.33123E-01 3.08918E-01-2.57394E-02 1.03136E-03
 -1     12002 6.24412E+00 1.61374E+01 5.27550E+00-6.64358E-01 1.92167E-02 1.30259E-01
 -1     12003 6.53642E+00 1.16064E+01 4.48881E+00 5.59963E+00-5.54409E-01 1.34057E-01
 -1     12004 2.42088E+00 8.86077E-01-7.97226E-02 1.10334E+00 2.63425E-02 3.58460E-01
 -1     12005 2.46209E+00 7.63419E-02-3.33106E-01 2.79434E-01-1.10185E-02 1.14534E-02
 -1     12006 2.53793E+00 1.11040E-01-3.08436E-01 2.86665E-01-9.82787E-03 1.28698E-02
 -1     12007 5.45459E+00 4.41908E+00 1.79161E+00-4.88860E-01 4.87171E-03 1.27436E-02
 -1     12008 5.78602E+00 4.85647E+00 2.01884E+00-5.54476E-01 5.93422E-03 5.48339E-03
 -1     12009 5.66939E+00 4.62568E+00 1.90863E+00-5.09287E-01-1.06760E-02 1.93687E-03
 -1     12010 7.23658E+00 3.11618E+00 1.84961E+00 1.76021E+00-6.23189E-01 1.50626E-01
 -1     12011 3.15850E+00 2.14094E-01-9.33398E-02 1.08515E+00-1.49599E-01 2.92482E-01
 -1     12012 4.77766E+00 4.00969E+00 1.23023E+00 3.12685E+00 5.75550E-02 1.88850E-01
 -1     12013 8.26659E+00 1.38925E+01 3.74163E+00-2.24382E+00 1.20607E-01 3.37790E-01
 -1     12014 5.25747E+00 1.24427E+01 3.72651E+00 4.64499E+00-7.07949E-02 1.84686E-01
 -1     12015 5.97115E+00 1.31843E+01 3.95646E+00 4.77398E+00-3.91834E-02 1.46446E-01
 -1     12016 8.02714E+00 2.74558E+01 9.50638E+00 7.33833E+00-6.56674E-01-4.43927E-01
 -1     12017 2.06594E+00 1.44287E+00 1.12990E-01 1.34800E+00 5.14577E-02 1.00981E-01
 -1     12018 3.45670E+00 2.30381E-01-3.89399E-01 5.91190E-01 1.85164E-02 2.36074E-01
 -1     12019 6.38456E+00 1.82115E+01 5.55317E+00 2.40810E+00 7.98662E-02 2.03229E-01
 -1     12020 6.48624E+00 1.71709E+01 5.09738E+00 1.00230E-01 9.25195E-02 3.03478E-01
 -1     12021 5.31659E+00 1.27065E+01 3.51304E+00 4.43350E+00-6.06658E-03 2.65503E-01
 -1     12022 5.66137E+00 1.89070E+01 5.45972E+00 4.16443E+00 3.76107E-02 3.32523E-01
 -1     12023 4.68224E+00 9.55694E+00 1.84294E+00 4.48382E+00 1.50614E-01 5.65088E-01
 -1     12024 4.87097E+00 1.37666E+01 3.05154E+00 3.91402E+00-3.29249E-02 3.10639E-01
 -1     12025 5.81970E+00 1.51846E+01 4.63847E+00-2.21592E-01-2.95818E-03 2.16248E-01
 -1     12026-6.90786E-01 3.92435E-01-1.79445E-02-2.83856E-01 1.22573E-02 7.32851E-03
 -1     12027 5.86375E+00 4.75774E+00 1.91573E+00-5.01391E-01 3.11294E-02 1.14165E-02
 -1     12028 6.12378E+00 4.99813E+00 2.05201E+00-5.28682E-01 1.71148E-02 1.76437E-02
 -1     12029 6.05193E+00 5.40141E+00 2.17652E+00-9.51082E-01 6.82052E-04 5.97050E-02
 -1     12030 4.24150E+00 1.45076E+00 5.76587E-01 2.38737E+00 6.30073E-02 3.02487E-02
 -1     12031 4.69454E+00 1.57029E+00 8.02211E-01 2.68060E+00-3.29917E-02 6.55784E-02
 -1     12032 2.51840E-01-1.62673E+00-2.69390E-03-1.70879E-01-4.26270E-03-3.01828E-02
 -1     12033 9.32101E+00 2.10444E+01 2.86715E+00 7.10425E+00 1.01214E+00 1.07907E+00
 -1     12034 4.67212E+00 1.31165E+01-1.83939E+00 2.78049E+00 1.76817E+00 5.55169E-01
 -1     12035 6.37549E+00 1.52469E+01 2.54879E-01 2.21084E+00 2.07775E-01 6.11641E-01
 -1     12036 1.24212E+01 3.15915E+01 1.22277E+01 2.43560E+00 2.33864E-01 1.78407E-02
 -1     12037 5.11929E+00 3.98091E+00 1.01059E+00-4.29042E-01 1.86689E-02-7.91523E-02
 -1     12038 8.60041E+00 1.41815E+01 4.89862E+00 6.76414E+00 7.97275E-02 2.17019E-01
 -1     12039 8.63717E+00 1.05693E+01 4.29493E+00 4.74387E+00 3.40547E-01-4.28888E-03
 -1     12040 6.76207E+00 1.56760E+01 3.70834E+00-1.01458E+00 2.06453E-01 4.43934E-01
 -1     12041 2.25374E+00 5.47894E+00 1.20408E+00 1.49296E+00 1.36098E-02 4.21331E-04
 -1     12042 1.79624E+00 4.84574E+00 8.46523E-01 9.28450E-01 9.34144E-02 7.43629E-02
 -1     12043 1.24125E+01 1.39850E+01 6.25472E+00-1.99054E+00-6.63302E-02 1.11058E-01
 -1     12044 5.06861E+00 1.11754E+01 3.85357E+00 3.63516E+00-1.25833E-01 1.12694E-01
 -1     12045 5.27655E+00 4.13156E+00 1.45278E+00-4.41220E-01 2.20404E-02-2.78909E-02
 -1     12046 4.92078E+00 1.23197E+01 4.08659E+00 6.22164E+00 1.95944E-01 1.12567E-01
 -1     12047 8.94247E+00 8.55340E+00 4.03555E+00-9.12746E-01-2.12348E-02 3.94323E-02
 -1     12048 8.58070E+00 8.01442E+00 3.79037E+00-8.25858E-01-9.05482E-03 2.88999E-02
 -1     12049 7.91581E+00 9.09533E+00 3.91184E+00-1.82459E+00 4.71549E-02-1.99728E-02
 -1     12050 1.06436E+00-2.71545E-01 1.53864E-03-2.02367E-01 8.92688E-04-6.35169E-02
 -1     12051 1.25215E+00-4.11158E-02-1.24973E-03-2.14034E-01 7.83531E-03-9.60250E-02
 -1     12052 1.06801E+01 1.08594E+01 5.04130E+00-1.66579E+00 8.27234E-02-2.61186E-02
 -1     12053 1.06130E+00 1.47216E-02-2.71126E-01 1.40802E-01-3.00621E-03 4.62324E-02
 -1     12054 1.15907E+00 5.53422E-03-2.14831E-01 2.30792E-01-2.69192E-03 3.16243E-02
 -1     12055 1.00403E+00-2.41654E-03-3.35310E-01 7.51575E-02 2.25927E-03 2.08220E-02
 -1     12056 1.10784E+00 1.11312E-02-3.44023E-01 8.99756E-02 1.50501E-03 4.59163E-02
 -1     12057 1.22819E+00 2.09373E-04-2.76260E-01 1.81678E-01-1.52140E-04 3.26515E-02
 -1     12058 2.45934E+00 2.68626E-01-1.63631E-01 6.49365E-01 8.28939E-03 1.80834E-02
 -1     12059 2.12160E+00 1.26122E-01-2.86684E-01 3.81662E-01 4.38398E-03 3.03476E-02
 -1     12060 6.98590E+00 1.10384E+01 2.02127E+00 5.17401E+00 1.64940E-01 9.65870E-01
 -1     12061 8.07280E-01 1.56612E+00 1.04836E-02 8.49388E-01 1.93966E-02 2.72387E-02
 -1     12062 1.22143E+01 1.82441E+01 7.31675E+00-1.60356E+00 1.35888E-01 1.29990E-01
 -1     12063 2.33043E+00 6.94662E+00 8.59227E-01 2.90338E-01 1.97843E-01 2.39168E-01
 -1     12064 5.88404E+00 1.41397E+01 4.82679E+00 1.51573E+00 2.16731E-01 1.61080E-02
 -1     12065 4.69098E+00 1.39535E+01 4.31998E+00 3.72702E+00-1.62686E-02-2.06925E-01
 -1     12066 1.47489E+00 2.59264E-04-5.05163E-01 5.68123E-02-4.14213E-04 1.03692E-02
 -1     12067 1.22006E+01 1.43203E+01 5.31313E+00-1.94138E+00 1.36915E-01 4.10814E-01
 -1     12068 8.07743E+00 2.19402E+00 1.49786E+00 2.61183E+00-2.02782E-01 6.24609E-02
 -1     12069 4.81767E+00 1.39777E+01 2.47859E+00 3.08504E+00 4.29804E-01 8.31049E-01
 -1     12070 2.99439E+00 1.19174E+01 1.50787E+00 2.16048E+00 4.82488E-01 5.44347E-01
 -1     12071 3.95776E+00 1.13359E+01 1.56889E+00 3.39963E+00 3.15306E-01 8.10974E-01
 -1     12072 5.82542E+00 1.04974E+01 2.13876E+00 4.75733E+00 1.18799E-01 7.41462E-01
 -1     12073 5.91821E+00 1.57102E+01 5.15173E+00 1.83271E+00-4.03337E-01 1.21374E-01
 -1     12074 5.81677E+00 1.16864E+01 3.91203E+00-9.41148E-01 5.12590E-03 7.76035E-02
 -1     12075 5.67968E+00 6.36953E+00 1.23125E+00-1.33168E+00 1.61352E-01-3.60930E-02
 -1     12076 5.36841E+00 1.36598E+01 4.41853E+00 1.32865E+00-8.91525E-02 1.23760E-01
 -1     12077 6.23331E+00 1.28799E+00 1.06362E+00 1.57393E+00 9.52139E-03 6.69366E-02
 -1     12078 6.92198E+00 1.41794E+01 5.10324E+00-1.84524E+00 3.32360E-02-7.55292E-02
 -1     12079 1.21603E+01 1.33836E+01 5.98138E+00-1.80389E+00 7.11243E-02 1.97031E-01
 -1     12080 5.31648E+00 1.09022E+00 7.12597E-01 1.47546E+00 2.68906E-02 7.03061E-02
 -1     12081 2.02349E+00 4.71782E+00 5.25768E-01 1.38219E+00 1.93753E-01 2.35754E-01
 -1     12082 3.54509E+00 4.72562E-01-5.46671E-01 7.01374E-01-1.88110E-02 3.39388E-01
 -1     12083 5.18153E+00 1.09616E+01 3.60989E+00-9.69806E-01 8.05274E-03 5.91247E-02
 -1     12084 6.15464E+00 1.11940E+01 3.98776E+00-1.45346E+00-1.00926E-01 1.30735E-01
 -1     12085 7.33451E+00 1.11692E+01 4.27633E+00-1.74695E+00 5.58248E-02-6.55764E-02
 -1     12086 8.43590E+00 1.09826E+01 4.61165E+00-1.99360E+00-5.42474E-02 6.02589E-02
 -1     12087 2.81759E+00 2.29300E-01-1.33136E-01 6.09878E-01 9.42002E-03 4.81553E-02
 -1     12088 1.34343E+00 3.42068E-02 1.80928E-03-2.23176E-01 3.91625E-03-7.28971E-02
 -1     12089 1.46658E+00 2.71604E-01-7.87738E-03-2.42875E-01 2.47043E-02-1.41722E-01
 -1     12090 1.31372E+00 1.72263E-01-1.14262E-02-4.68148E-01 2.10061E-02-8.55655E-02
 -1     12091 4.23702E+00 6.62060E+00 9.84881E-02-1.55509E+00 4.02721E-01-1.96742E-01
 -1     12092 3.98384E+00 4.90234E+00 2.77888E-02-1.27894E+00 1.86908E-01-2.64724E-01
 -1     12093 1.75340E+00 3.65750E+00 5.65898E-01-7.05365E-01 5.49676E-02-1.40955E-02
 -1     12094 2.04931E+00 4.34057E+00 7.88223E-01-6.89979E-01 4.07438E-02-7.34393E-03
 -1     12095 4.07636E+00 1.23328E+01 3.68497E+00 1.77645E+00-9.60245E-02 1.02371E-01
 -1     12096 4.56346E+00 1.28651E+01 3.98884E+00 2.59727E+00-1.89792E-02-1.01007E-01
 -1     12097 5.78010E+00 1.11919E+01 3.94869E+00 4.05958E+00-4.06240E-02 9.52611E-02
 -1     12098 8.51150E+00 2.95863E+00 2.22900E+00 4.79188E+00-7.93816E-02-9.96182E-02
 -1     12099 1.10538E+01 2.03023E+01 7.40678E+00-1.85803E+00 2.24963E-02-5.65912E-02
 -1     12100 1.65874E+01 2.94247E+01 1.20633E+01-4.08525E+00-3.59703E-01-1.71081E-01
 -1     12101 3.98582E-02-2.53846E+00-1.38647E-01-1.17295E-01-1.74675E-02-6.57294E-03
 -1     12102 4.35473E-02-2.61788E+00-1.34207E-01-3.89749E-02-1.98723E-02-1.79658E-02
 -1     12103 1.35774E-01-2.02689E+00-1.00012E-01-2.78175E-01-1.86308E-02-3.33568E-02
 -1     12104 5.99270E+00 7.68021E+00 4.85376E-01-1.62154E+00 5.15546E-01-2.32937E-01
 -1     12105 8.24567E+00 9.68475E+00 4.13860E+00-1.73564E+00-1.62205E-02 1.31375E-01
 -1     12106 3.37342E+00 2.12224E+00 5.86999E-01-2.68165E-01 3.37040E-03-1.35895E-02
 -1     12107 2.14264E+00 2.99884E+00 4.95146E-01 1.77343E+00-3.59009E-03 1.61536E-02
 -1     12108 2.12539E+00 2.07918E+00 2.87641E-01 1.53921E+00 8.10174E-03 2.05166E-02
 -1     12109 4.05295E+00 2.83957E+00 8.85881E-01-4.01977E-01 1.88836E-02-5.68634E-02
 -1     12110 4.04059E+00 6.80322E+00 6.69964E-01-1.01479E+00 3.26180E-01-1.62520E-04
 -1     12111 4.07660E+00 1.61473E+01 5.15798E+00 5.45379E+00-2.59191E-01 1.68484E-01
 -1     12112 3.10998E-01-2.26661E-01-4.44700E-02 4.35109E-01 4.31418E-02-3.28824E-02
 -1     12113 6.69755E-01-2.66384E-01-1.85934E-02 2.90586E-01 2.48030E-02-9.20823E-03
 -1     12114 4.88773E+00 1.54174E+01 4.47377E+00 1.69418E+00 1.39201E-01 1.13079E-01
 -1     12115 5.46777E+00 4.28362E+00 1.74212E+00-4.57416E-01 9.24360E-03-9.27925E-03
 -1     12116 1.07826E+01 1.06742E+01 4.98800E+00-1.50285E+00 4.75902E-02 1.03396E-01
 -1     12117 8.80732E-01 1.88341E+00 1.31659E-02 1.11552E+00 8.92256E-02 1.30633E-01
 -1     12118 2.00844E+00 5.98685E+00 1.27964E+00 5.00435E-01-3.05147E-03 1.47392E-02
 -1     12119 1.75426E+00 5.22536E+00 1.00299E+00 3.40156E-01 2.03211E-02 6.06890E-03
 -1     12120 6.34391E+00 6.89528E+00 3.45366E+00 4.00154E+00-5.27238E-01-1.18553E-01
 -1     12121 6.79470E+00 1.28657E+01 3.67420E+00 5.13819E+00 9.76283E-02 3.86860E-01
 -1     12122 9.89598E+00 4.78992E+00 2.35046E+00 6.46848E+00 1.17791E-01 3.30855E-01
 -1     12123 2.28061E+00 4.62526E+00 6.02512E-01 1.89538E+00 1.26539E-01 2.64857E-01
 -1     12124 2.32139E+00 5.28997E+00 6.69439E-01 1.52948E+00 1.59248E-01 2.60963E-01
 -1     12125 8.66259E+00 7.68254E+00 3.72200E+00-7.82322E-01-2.13964E-02 7.86568E-03
 -1     12126 8.71299E+00 7.78534E+00 3.80367E+00-7.65610E-01-3.53948E-03-2.47662E-02
 -1     12127 8.07638E+00 7.18661E+00 3.41151E+00-6.97087E-01 8.01648E-03-4.68057E-03
 -1     12128 9.31188E-01-3.38811E-01-7.89529E-03-2.80231E-01 1.47650E-02-1.12126E-01
 -1     12129 9.15604E+00 1.65193E+01 5.48811E+00-2.35084E+00-2.99821E-02 3.00280E-01
 -1     12130 5.89097E+00 8.74033E+00 3.05521E+00-1.58451E+00 3.06378E-02 5.58368E-02
 -1     12131 1.34675E+00 1.36079E+00 6.20582E-02-8.68609E-01 2.02612E-02-2.94960E-02
 -1     12132 1.81301E+00 2.30581E+00 2.44203E-01 1.48153E+00 4.32319E-02 8.72970E-02
 -1     12133 1.35113E+00 2.63557E+00 2.41382E-01 1.15783E+00 5.14377E-02 6.36356E-02
 -1     12134 5.11713E+00 4.46610E+00 6.98705E-02-5.68324E-01 1.19850E-01-3.99132E-01
 -1     12135 9.50022E-02-2.28483E+00-4.76512E-02-7.30898E-02-2.14869E-02-4.16654E-02
 -1     12136 1.35227E+01 1.51939E+01 6.54507E+00-2.59438E+00-1.18018E-01 1.76696E-01
 -1     12137 8.01407E+00 1.73229E+01 5.74207E+00-1.69656E+00-1.22724E-01 1.96850E-01
 -1     12138 5.82773E+00 9.39582E+00 3.22438E+00-1.52498E+00-2.90830E-02 1.12777E-01
 -1     12139 5.11103E+00 1.17575E+01 3.65761E+00 5.18458E+00-8.41253E-02 1.20291E-02
 -1     12140 2.50077E+00 8.03639E-02-5.25567E-01 2.69939E-01 6.64877E-03 1.89914E-01
 -1     12141 5.30219E+00 3.23687E+00 4.28321E-02 3.65050E+00-3.74101E-02 9.56173E-01
 -1     12142 4.17908E+00-8.63219E-02-2.65115E-01 1.43452E+00-1.97949E-01 6.59550E-01
 -1     12143 5.00420E+00 3.72385E+00-2.63356E-01 3.95221E+00-4.93703E-02 7.32063E-01
 -1     12144 5.99101E+00 9.48622E+00 6.23299E-01 5.60121E+00 4.90129E-01 1.50462E+00
 -1     12145 6.92593E+00 1.42825E+00-2.67630E-01 3.08572E+00-1.42364E-02 4.15037E-01
 -1     12146 6.50612E+00 1.87811E+01 6.34065E+00-3.36452E-01 9.98670E-02-1.18947E-01
 -1     12147 5.72065E+00 2.82352E+00 5.26193E-02 3.61933E+00 3.75309E-02 9.53338E-01
 -1     12148 4.95728E+00 7.13962E-01 2.04014E-01 1.68523E+00 6.75040E-02 2.64872E-01
 -1     12149 1.34095E+00 2.89111E-03-4.05284E-02 1.14610E-01-1.32470E-02 7.07202E-02
 -1     12150 1.47889E+00 3.01892E-02-2.39087E-02 2.79259E-01-3.70622E-02 6.57700E-02
 -1     12151 3.26553E-01 1.48788E-01-1.80686E-02 3.92839E-01-2.65475E-02-3.41826E-02
 -1     12152 6.10941E+00 9.85974E-01 9.64048E-01 2.53202E+00-7.32310E-04 1.65826E-01
 -1     12153-7.21813E-01 3.75048E-01-7.37928E-03-1.23824E-01 1.43357E-02 8.06885E-03
 -1     12154-7.26509E-01 3.91470E-01-1.60157E-03-3.23843E-01 1.59923E-02 5.52313E-03
 -1     12155 4.16966E+00 6.28302E-01 3.24064E-01 1.09900E+00 1.12765E-02 4.88251E-02
 -1     12156 6.54650E+00 1.10296E+01 4.17376E+00 6.19213E+00 1.05063E+00 3.17392E-01
 -1     12157 3.03279E+00 1.05799E+01 6.97484E-01 2.92245E+00 3.16811E-01 4.32127E-01
 -1     12158 2.84287E+00 1.13823E+01 5.48097E-01 2.23682E+00 5.47175E-01 7.00027E-01
 -1     12159 4.93421E+00 7.91956E+00 5.36635E-01 3.75025E+00 3.74781E-01 8.39094E-01
 -1     12160 2.38962E+00 2.26549E-02-4.58695E-01 2.58028E-01 1.24451E-02 7.98904E-02
 -1     12161 5.04349E+00 1.26028E+01 1.83786E+00-1.52015E+00 3.91376E-01 1.83551E-01
 -1     12162 6.04841E+00 1.18791E+01 1.59937E+00-1.94705E+00 5.34184E-01 1.38076E-01
 -1     12163 7.58736E+00 1.38630E+01 2.54762E+00-2.37671E+00 3.30735E-01 2.46835E-01
 -1     12164 5.61779E+00 1.04664E+01 3.17573E+00 4.94209E+00 9.06517E-02 1.93875E-01
 -1     12165 2.88903E+00 7.64332E+00 1.55556E+00 9.41322E-02 1.02179E-01 1.26748E-01
 -1     12166-1.25148E-01 4.69774E-02-1.10508E-01-7.73083E-02-1.94973E-02-3.03056E-02
 -1     12167 1.17488E+00 7.21461E-01 4.14728E-01 5.54576E-01 1.81266E-02 3.42002E-02
 -1     12168 3.38069E+00 5.74310E+00 4.94750E-02-1.31213E+00 3.59862E-01-2.15360E-01
 -1     12169-4.02629E-01 8.32810E-01-4.59060E-03-3.84595E-02 3.75611E-02 7.34265E-03
 -1     12170-2.71036E-01 9.71511E-01-3.66218E-03 1.54865E-01 3.31231E-02 1.52030E-02
 -1     12171 5.10941E+00 3.92451E+00 1.43156E+00-3.92799E-01 1.99881E-02-7.42492E-03
 -1     12172 2.04557E+00 5.94927E+00 1.26622E+00 1.00834E+00 3.08792E-02 2.60121E-02
 -1     12173 8.21947E-01-5.86002E-02-3.03411E-02 1.26004E-01 2.75230E-03 1.37496E-02
 -1     12174 8.10673E-01-1.44085E-02-3.96640E-02 1.72914E-01-1.54326E-02-1.16586E-02
 -1     12175 4.57714E+00 7.95088E+00 2.28068E+00-8.56935E-01 8.33631E-02 6.86906E-02
 -1     12176 4.24810E+00 1.39985E+00 4.17668E-01 1.79079E+00 2.47045E-02 1.45107E-01
 -1     12177 1.41662E+01 1.17819E+01 6.41392E+00 9.23412E+00-1.03580E+00-7.09118E-01
 -1     12178 1.13586E+01 3.04224E+01 1.08750E+01 3.67015E-01 6.53579E-01-9.76660E-02
 -1     12179 1.17775E+01 1.40660E+01 6.15889E+00-1.65500E+00 8.86813E-02 7.49107E-02
 -1     12180-3.90151E-01 4.63136E-01-2.56764E-02 3.13812E-01 4.00191E-02-1.85485E-03
 -1     12181 5.29719E+00 1.69798E+01 5.20711E+00-1.35128E-01-7.63273E-02 2.49796E-01
 -1     12182 1.38307E+00 3.52087E+00 4.57917E-01-4.98996E-01 1.90916E-02 6.77106E-04
 -1     12183 2.61629E+00 5.41323E-02-2.45102E-01 3.74523E-01 1.38933E-02 3.54169E-02
 -1     12184 5.80284E+00 8.66211E+00 3.22302E+00 5.70227E+00-2.43689E-02 5.17021E-02
 -1     12185 5.20918E+00 9.77161E+00 3.44242E+00 5.15366E+00 1.12881E-01 3.07092E-02
 -1     12186 4.65228E+00 1.06169E+01 3.42212E+00 4.44190E+00-1.21857E-01-1.04723E-02
 -1     12187 5.67673E+00 1.48084E+01 4.93500E+00 2.36021E+00-1.73428E-01-6.65730E-02
 -1     12188 4.77675E+00 1.38023E+01 4.39768E+00 1.79405E+00-2.66088E-02-1.05497E-01
 -1     12189 5.80502E+00 1.30734E+01 4.66832E+00 3.17578E+00 2.19813E-01-1.98257E-01
 -1     12190 5.56177E+00 1.23229E+01 4.19240E+00-8.66940E-01 1.82867E-01 1.86537E-02
 -1     12191 1.58901E+01 2.22741E+01 9.00589E+00 1.17658E+01-9.01122E-03 4.18473E-01
 -1     12192 5.05913E+00 1.22807E+01 3.06703E+00 3.58702E+00 1.19268E-02 3.80649E-01
 -1     12193 2.09491E+00 8.38333E-02-4.85331E-01 2.35923E-01 1.43295E-02 1.88946E-01
 -1     12194 1.33051E+01 1.72826E+01 6.20104E+00-2.87065E+00 2.89338E-02 7.39445E-01
 -1     12195 6.80253E-01-7.72612E-01 6.16615E-04-1.96752E-01 2.06478E-03-4.84383E-02
 -1     12196 8.63091E-01-5.11422E-01-2.48008E-03-2.10856E-01 2.07039E-03-5.36043E-02
 -1     12197 8.65115E-01-3.32391E-01-8.92490E-03-4.91720E-01 1.62880E-02-6.79102E-02
 -1     12198 7.39284E+00 1.25654E+01 4.37881E+00 5.85181E+00 7.28800E-01 4.54694E-01
 -1     12199 1.82846E+00 5.64616E-02-5.24958E-01 1.84056E-01 1.03242E-03 2.72549E-01
 -1     12200 2.10738E+00 8.09841E-02-5.09961E-01 2.58599E-01-6.82234E-03 2.44830E-01
 -1     12201 5.11044E+00 4.64762E-01 4.33139E-01 1.19647E+00-3.58635E-02 8.28289E-02
 -1     12202 6.73309E+00 4.77125E+00 2.19623E+00 4.50204E+00 1.01647E-01 1.22976E-01
 -1     12203 4.37538E+00 9.51001E-01 4.45925E-01 1.73821E+00 4.74695E-02 6.71466E-02
 -1     12204 4.95039E+00 4.27485E+00 1.59963E+00-8.32768E-01-4.59686E-03-1.35344E-02
 -1     12205 4.89230E+00 6.63060E-01 5.65034E-01 1.68398E+00-2.68670E-02 3.24393E-02
 -1     12206 5.69962E+00 2.11822E+01 6.61382E+00 1.79702E+00 9.74108E-02 3.08054E-01
 -1     12207 6.05811E+00 2.04273E+01 6.73547E+00 5.07261E+00-3.97202E-01 5.12218E-01
 -1     12208 1.55546E+00 4.41957E+00 7.22503E-01-7.58206E-02 1.92728E-02 9.17455E-04
 -1     12209 4.55977E+00 9.07495E+00 2.50468E+00-7.90398E-01 7.83325E-02 1.03368E-01
 -1     12210 3.70767E+00 1.13469E+00 2.82888E-01 1.62168E+00 4.32951E-02 1.28497E-01
 -1     12211 3.68942E+00 1.15625E+00 2.96065E-01 1.58889E+00 3.62283E-02 1.11332E-01
 -1     12212 1.70492E+00 2.55542E-02-5.83679E-01 9.56491E-02-3.90240E-03 2.47670E-01
 -1     12213 2.57521E+00 1.31064E+00 7.21692E-02 1.39698E+00 5.07488E-02 1.99464E-01
 -1     12214 3.34635E+00 2.15712E+01 6.07578E+00 4.83200E+00 2.49868E-02-7.54169E-02
 -1     12215 1.13842E+00-9.55188E-02-3.13017E-03-2.96061E-01 2.37151E-02-1.45239E-01
 -1     12216 7.41556E+00 1.05054E+01 3.56128E+00 6.40328E+00-3.34385E-01 2.18772E-02
 -1     12217 6.28022E+00 1.13901E+01 3.99463E+00 6.21429E+00-6.94346E-02 6.52860E-02
 -1     12218 5.99945E+00 1.66848E+01 5.55182E+00 2.49604E+00-1.36471E-01 1.12807E-01
 -1     12219 2.93509E+00 1.81550E+00-2.26513E-03-3.15053E-01 1.78318E-02-1.75932E-01
 -1     12220 7.10315E+00 1.08635E+01 3.89505E+00 5.90058E+00-1.71706E-01 2.31046E-01
 -1     12221 1.95911E+00 5.52587E+00 1.09860E+00 6.11321E-04 4.96882E-02 5.07315E-02
 -1     12222 1.66767E+00 3.98495E-02-4.61970E-01 1.65412E-01 2.97980E-03 3.28031E-01
 -1     12223 1.53427E+00 6.54230E-02-4.12179E-01 1.42828E-01-5.54199E-03 3.13150E-01
 -1     12224 1.12864E+01 1.08559E+01 5.42516E+00-1.46276E+00 1.73082E-02-2.27587E-02
 -1     12225 7.19429E+00 9.51186E+00 1.90755E+00-1.89053E+00 1.39443E-01 1.96411E-01
 -1     12226 6.90021E-01-4.29223E-02 2.18869E-02 5.14266E-01-1.17221E-02-6.10400E-02
 -1     12227 9.56896E-01-9.08742E-02 4.39629E-02 3.28767E-01 1.90586E-02-1.00322E-02
 -1     12228 7.98695E-01-4.29068E-02-2.75475E-01 1.08687E-01-5.92046E-03 1.66090E-02
 -1     12229 1.37439E+00 5.39301E-03-4.27793E-01 9.84653E-02-1.70517E-03 5.24782E-02
 -1     12230 5.50189E+00 4.38809E+00 1.62313E+00-4.53604E-01 1.88727E-02-9.68618E-03
 -1     12231 5.30519E+00 4.12801E+00 1.48931E+00-4.36984E-01 2.02195E-02-2.88011E-02
 -1     12232 1.67716E+00 5.22983E+00 9.83019E-02-1.00074E-01 3.78625E-01 7.25969E-02
 -1     12233 1.07055E+01 3.68373E+00 3.32247E+00 4.64540E+00 5.91889E-01 1.16724E-01
 -1     12234 5.91295E+00 4.97340E+00 1.96838E+00-6.04287E-01 4.22770E-03 3.72023E-03
 -1     12235 5.82939E+00 4.71858E+00 1.81766E+00-5.20005E-01 7.50857E-03 9.49004E-03
 -1     12236 5.71116E+00 4.57303E+00 1.71111E+00-4.75185E-01 1.31636E-02-2.85807E-03
 -1     12237 6.00244E+00 1.88250E+00 1.23850E+00 2.86267E+00 4.85229E-02-8.30810E-02
 -1     12238 6.41902E+00 1.97880E+00 1.49240E+00 2.83890E+00-1.61832E-01-1.66605E-01
 -1     12239 8.08264E+00 1.01748E+01 4.41397E+00 7.49085E+00-1.10093E-01-2.37655E-01
 -1     12240 3.75954E+00 3.65856E-01-2.71479E-01 7.81590E-01-2.96965E-02 2.49830E-01
 -1     12241 1.96263E+00 1.86705E+00 5.38038E-02-8.16396E-01 1.49664E-01-2.09669E-01
 -1     12242 4.22210E-01 1.37674E-01 7.06463E-02 1.30123E-01-1.27194E-02 4.04540E-02
 -1     12243-1.22449E-01-1.06042E-01-8.49642E-02-1.53988E-01-1.24912E-02-1.01848E-02
 -1     12244 7.22144E-01 4.06856E-01 1.95641E-01 2.45321E-01-1.85502E-02 2.34537E-02
 -1     12245-1.09759E-01-9.15915E-03-9.26435E-02-1.86164E-01-4.19349E-03-1.66201E-03
 -1     12246 9.12399E-01 1.24496E+00 2.50298E-02-8.93034E-01 4.64332E-02-3.47751E-02
 -1     12247 9.23198E+00 9.28272E+00 4.43661E+00-1.14387E+00-3.26678E-03-1.67058E-02
 -1     12248 7.41988E-02-2.18532E+00-1.07097E-01-2.50369E-01-1.96009E-02-1.16770E-02
 -1     12249 5.52623E-02-1.90008E+00-6.68111E-02-2.99592E-01-4.13172E-02-3.52523E-03
 -1     12250 2.55919E-01-1.24221E+00-5.64710E-02-4.97889E-01 6.25622E-03-2.50063E-02
 -1     12251 1.08028E-01-1.21933E-01-5.57477E-02-1.48848E-01-9.32227E-03-3.26111E-03
 -1     12252 3.09272E+00 5.62903E-02-1.24866E-01 6.04095E-01-2.65130E-03 3.20456E-02
 -1     12253 3.62707E+00 9.67112E-01 2.87470E-01 1.36010E+00 4.21764E-03 5.55641E-02
 -1     12254 3.55794E+00 1.88352E-01 2.33378E-02 7.23829E-01-2.59742E-03 2.32914E-02
 -1     12255 4.62803E+00 1.50185E+01 4.15996E+00 1.86333E+00 1.41113E-01 1.49777E-01
 -1     12256 5.71342E+00 1.69281E+01 5.07933E+00 6.60466E-01 9.49943E-03 1.98441E-01
 -1     12257 1.18312E+00 1.02552E+00 2.20628E-02-8.70633E-01 2.64528E-02-3.22014E-02
 -1     12258 8.09279E+00 1.88621E+01 6.88419E+00 3.36298E+00-5.25717E-01 1.33747E-01
 -1     12259 1.32046E+01 2.66194E+01 1.13783E+01 9.28792E+00-2.53826E-01 1.78327E-01
 -1     12260 9.26288E+00 2.01014E+01 7.67117E+00 2.76737E+00 1.46782E+00-1.25953E-01
 -1     12261 6.81460E+00 1.23214E+01 3.96522E+00-1.37635E+00 7.30188E-03 1.70862E-01
 -1     12262 7.93032E+00 1.48559E+01 5.04653E+00-1.73760E+00 5.23889E-02 1.49153E-01
 -1     12263 2.61932E+00 1.15001E+00-3.52317E-02 1.43660E+00 7.30443E-02 3.75069E-01
 -1     12264 9.14231E+00 9.16893E+00 2.30249E+00-1.10910E+00 1.34483E-01 7.43440E-02
 -1     12265 1.00784E+01 1.08712E+01 3.01594E+00-1.44854E+00 1.17913E-01 1.64847E-01
 -1     12266 1.06968E+01 1.13534E+01 3.53243E+00-1.60584E+00 7.81699E-02 2.33170E-01
 -1     12267 2.02424E+00 1.96646E-01-4.31408E-02 6.88770E-01-7.25660E-02 1.64118E-01
 -1     12268 2.06899E+00 1.46620E-01-5.48250E-02 6.74396E-01-5.39328E-02 1.47125E-01
 -1     12269-1.39501E+00 7.75592E-02-3.53395E-02-4.35108E-02-1.08465E-03 9.94648E-03
 -1     12270-1.33577E+00 7.93504E-02-1.67274E-02 6.11896E-02 1.46690E-02 9.33837E-03
 -1     12271-1.32934E+00 6.92690E-02-2.70635E-02 8.14589E-02 1.05607E-02-6.28478E-05
 -1     12272 9.01882E-01 3.06669E+00 4.52110E-02-4.33514E-01 2.92214E-01-3.76635E-02
 -1     12273 4.77622E+00 4.09853E+00 1.34942E+00-7.59928E-01 3.12821E-02-1.61511E-02
 -1     12274 1.95287E+00 2.91509E+00 4.39564E-01-9.56687E-01 2.53588E-02-3.60506E-03
 -1     12275-9.02928E-01 9.84062E-02-3.91220E-03 1.86132E-01 1.35692E-02-5.01366E-03
 -1     12276-1.29741E+00 6.74053E-02 3.13840E-03 8.41195E-02 8.31566E-03-1.95384E-03
 -1     12277-9.32126E-01 1.06167E-01-1.97879E-02 1.73762E-01 7.85018E-03 2.49713E-03
 -1     12278 3.77036E+00 2.36102E-01-1.06617E-01 5.31390E-01-9.52331E-03 7.59024E-02
 -1     12279 3.56588E+00 9.70510E+00 2.76675E+00 2.38048E+00 7.87980E-02 1.71419E-02
 -1     12280 2.92865E+00 6.74600E+00 1.72342E+00 2.44379E+00 2.17070E-03 3.74707E-02
 -1     12281 2.12099E+00 3.41263E-01-1.62964E-01 6.77083E-01 1.37380E-02 2.18171E-01
 -1     12282 2.47727E+00 3.45492E-01-2.06367E-01 8.02304E-01 1.51829E-02 2.52925E-01
 -1     12283 7.56866E+00 2.10777E+01 7.01295E+00-6.29109E-01 1.56666E-02 4.72536E-02
 -1     12284 5.47919E+00 8.20833E+00 2.93536E+00 4.58229E+00-2.43751E-02 5.33179E-02
 -1     12285 1.49586E+01 1.80851E+01 8.49717E+00-2.96888E+00 3.73453E-02 4.61286E-02
 -1     12286 1.41494E+01 1.61350E+01 7.68056E+00-2.31494E+00 1.54245E-02-2.00431E-02
 -1     12287 5.01727E+00 1.32199E+01 4.22447E+00 1.36653E+00 5.41899E-02 1.06866E-01
 -1     12288 5.16891E+00 1.33003E+01 4.41738E+00 1.96809E+00-2.74080E-02 2.25053E-02
 -1     12289 6.06353E+00 1.48137E+01 5.19732E+00 1.91706E+00-2.39201E-01 1.66480E-01
 -1     12290 2.12008E+00 7.05181E-02-6.43863E-01 2.63258E-01 4.71989E-04 4.47381E-01
 -1     12291 1.79889E+00 4.89613E-02-3.39977E-01 2.19049E-01 5.70955E-03 3.61267E-02
 -1     12292-1.37723E+00 7.49169E-02-8.68637E-03-5.58947E-02 1.05459E-02 1.07618E-02
 -1     12293 2.88669E+00 5.69573E-02-4.33387E-01 3.57041E-01 1.52196E-02 1.80258E-01
 -1     12294 3.92439E+00 2.22980E-01-4.05350E-02 9.13715E-01 2.02192E-02 1.55995E-01
 -1     12295 3.88245E+00 2.78962E+00-1.26236E-02-3.57565E-01 1.55527E-02-1.99619E-01
 -1     12296 3.62625E+00 3.10043E+00-4.19959E-03-8.17812E-01 1.11730E-01-2.00401E-01
 -1     12297 1.10203E+00 1.17013E-02-1.61319E-01 3.08820E-01-2.49410E-03 3.08501E-02
 -1     12298 1.02785E+00-4.32188E-03-9.31668E-02 2.47893E-01-5.25794E-03 9.85113E-03
 -1     12299 7.20841E+00 1.65279E+01 5.33356E+00-3.58160E-01 7.46387E-02 1.59783E-01
 -1     12300 6.94833E+00 1.42584E+01 4.73796E+00-1.27839E+00 5.68335E-02 2.60456E-01
 -1     12301 4.36457E+00 1.15316E+01 3.59116E+00 9.77409E-02 1.61600E-01-1.36482E-02
 -1     12302 7.92259E+00 1.78984E+01 6.56350E+00-1.78720E+00-1.66300E-01 1.32177E-01
 -1     12303 1.17175E+01 1.14741E+01 5.70760E+00-1.57383E+00 8.15143E-02-7.41914E-02
 -1     12304 4.92813E+00 3.87182E+00 1.48516E+00-5.19135E-01 1.28385E-02-1.34228E-02
 -1     12305 4.86409E+00 6.54410E-01 5.23925E-01 1.56607E+00-6.37175E-02 3.86185E-02
 -1     12306 2.81754E+00-5.51251E-02-2.90647E-01 2.70629E-01-1.87508E-02-3.75903E-02
 -1     12307 3.71384E+00 3.12278E-01 1.00018E-01 7.50935E-01-4.24809E-03-2.15499E-02
 -1     12308 7.53011E-01 1.32061E+00-1.37160E-02 8.27272E-01 6.18234E-02 9.72568E-02
 -1     12309 8.40469E-01 1.78100E+00 3.76607E-02 8.46218E-01 6.14558E-02 7.74438E-02
 -1     12310 2.17630E+00 3.38976E+00 9.17431E-02 2.05500E+00 1.93068E-01 4.17705E-01
 -1     12311 6.78365E+00 6.31586E+00 5.71703E-01 3.93799E+00 1.74465E-01 1.86125E+00
 -1     12312 7.53739E+00 1.92910E+01 6.21703E+00-1.26782E+00-3.44340E-02 1.54371E-01
 -1     12313 4.29022E+00-6.35933E-01-2.36796E-01 1.61024E+00 1.68386E-02 9.54994E-01
 -1     12314 6.36290E+00 5.67818E+00-4.57802E-02 5.81057E+00-5.55964E-01 8.73894E-01
 -1     12315 4.84003E+00 9.48986E+00 2.44996E+00-1.03460E+00 1.07699E-01 1.43629E-01
 -1     12316 1.13310E+01 1.28441E+01 4.46351E+00-1.79520E+00 2.37814E-02 2.34988E-01
 -1     12317 1.23412E+01 1.47139E+01 5.26790E+00-2.35181E+00 8.43129E-03 2.34463E-01
 -1     12318 1.18772E+01 1.24252E+01 5.76518E+00-1.57545E+00 3.73973E-02 6.50646E-02
 -1     12319 1.13911E+01 1.16266E+01 5.38424E+00-1.28049E+00 4.06709E-03 1.10414E-01
 -1     12320 1.28934E+01 1.35677E+01 6.53122E+00-1.94248E+00-2.25195E-02 1.30550E-01
 -1     12321 5.71467E+00 1.43196E+01 4.65187E+00 1.13346E+00-6.78582E-02 1.16705E-01
 -1     12322 9.73009E+00 9.20535E+00 4.49697E+00-1.30196E+00-8.08100E-03-4.30460E-03
 -1     12323 2.73797E+00 6.98721E+00 1.49071E+00 3.62257E-01 7.74366E-02 1.13840E-01
 -1     12324 5.61669E+00 1.54433E+01 4.92827E+00 2.41048E+00 5.97338E-02 4.32670E-02
 -1     12325 5.26451E+00 1.54562E+01 4.94833E+00 3.12570E+00 1.83818E-01 1.19228E-01
 -1     12326 6.43656E+00 8.45597E+00 3.30439E+00-1.39335E+00-7.67918E-03-7.15033E-03
 -1     12327 7.84954E+00 1.28421E+01 4.73093E+00 6.01315E+00 4.07091E-01 8.87403E-02
 -1     12328 1.05530E+01 7.45071E+00 4.00859E+00 7.30907E+00-2.69066E-01-3.09940E-01
 -1     12329 5.79174E+00 1.67535E+01 5.43927E+00 3.37789E+00 1.68616E-01 1.44662E-01
 -1     12330 1.46209E+00 3.24251E+00 4.12017E-01 1.13686E+00 2.88949E-02 2.88560E-02
 -1     12331 1.03303E+00 3.30221E+00 3.23998E-01 6.48171E-01 1.49225E-02 1.22167E-02
 -1     12332 7.81644E+00 1.36093E+01 3.69548E+00-2.00674E+00 1.12851E-01 2.84357E-01
 -1     12333 1.14203E+00 3.64503E+00 4.32829E-01 6.63634E-01 1.57486E-02 2.07265E-02
 -1     12334 5.39370E+00 1.08008E+00 8.36201E-01 1.91874E+00 9.71844E-02 3.28444E-02
 -1     12335 3.01326E+00 2.35080E-01-4.78122E-01 4.82412E-01 8.93618E-03 2.43933E-01
 -1     12336 5.46774E+00 1.37999E+01 4.59436E+00 3.45205E+00-3.50153E-01 2.17472E-01
 -1     12337 1.03034E+01 1.01810E+01 4.69468E+00-1.32775E+00 3.03464E-02 4.42265E-02
 -1     12338 5.16418E+00 1.20484E+01 4.00194E+00-4.31782E-01 1.33710E-02-4.22448E-02
 -1     12339 2.20468E-01 6.89543E-01 4.91300E-02 1.15603E+00-7.22324E-02-1.16009E-02
 -1     12340 2.14850E-01 1.71710E-01 3.53770E-03 8.84633E-01-7.38425E-03-5.15198E-02
 -1     12341 2.28966E+00 2.73793E-01-1.69866E-01 6.81651E-01 8.28251E-03 2.61757E-02
 -1     12342 2.31864E+00 8.95037E+00 1.37602E-01 1.94549E-01 5.74860E-01 1.73587E-01
 -1     12343 3.90417E+00 8.69040E+00 2.00656E-01-1.51884E+00 5.99732E-01-1.98053E-01
 -1     12344 3.97802E+00 1.92130E-01-6.29129E-01 8.51649E-01-3.57104E-02 2.95463E-01
 -1     12345 1.33151E+01 2.87760E+01 1.18630E+01-1.94340E+00-1.23584E-01-1.13280E-01
 -1     12346 5.08127E+00 7.76261E+00 2.26062E+00-1.39293E+00 8.70970E-02 8.53950E-02
 -1     12347 4.41508E+00 7.44809E+00 1.93080E+00-1.28263E+00 1.47246E-01 8.24772E-02
 -1     12348 3.70203E+00 8.02790E+00 1.92847E+00-4.14106E-01 1.01183E-01 8.63467E-02
 -1     12349 4.12957E+00 2.13482E+01 6.16182E+00 4.78147E+00-3.15862E-02 3.61477E-02
 -1     12350 2.11400E+00 3.13037E+00 4.58234E-01 1.71908E+00 7.19939E-02 1.30786E-01
 -1     12351 6.14463E+00 1.48344E+01 5.05173E+00-6.71570E-01 6.60139E-02 9.31373E-02
 -1     12352 4.22063E+00 3.45482E+00 1.39096E-01-5.18925E-01 1.19322E-01-3.71526E-01
 -1     12353 4.12986E+00 3.41381E+00 8.86372E-02-5.41247E-01 1.18357E-01-3.67952E-01
 -1     12354 3.66269E+00 3.65546E+00 9.26713E-03-9.51023E-01 2.12194E-01-3.24231E-01
 -1     12355 1.59836E+00 4.76751E+00-1.06220E-02 1.93403E+00 2.48820E-01 2.51009E-01
 -1     12356 1.11913E+00 4.16969E+00-4.60497E-04 1.53454E+00 1.95259E-01 1.18040E-01
 -1     12357 2.42683E+00 1.44978E-01-4.81819E-01 3.61155E-01 5.93432E-03 2.12898E-01
 -1     12358 8.63422E+00 2.06717E+01 7.46297E+00 7.32252E-01-1.16592E-01 1.63880E-01
 -1     12359 1.61414E+00 4.67977E+00 7.24848E-02-4.05224E-01 3.45303E-01-2.24511E-02
 -1     12360 1.31563E+01 1.39111E+01 6.26979E+00-1.96014E+00-2.14724E-02 1.72297E-01
 -1     12361 1.96470E+00 2.42626E+00 2.62046E-01 1.56291E+00 1.18166E-01 1.76985E-01
 -1     12362 6.72510E+00 2.02972E+00 1.52738E-01 2.39884E+00 7.15671E-02 8.75517E-01
 -1     12363 1.74923E+00 1.75603E-02-5.08971E-01 9.09211E-02-2.01871E-03-2.24748E-03
 -1     12364 2.00291E+00 5.55607E-02-4.43687E-01 1.81254E-01 7.65543E-03 2.18663E-02
 -1     12365 6.03818E+00 7.42875E+00 2.57447E+00 4.88455E+00 1.61650E-01 1.72916E-01
 -1     12366 7.70368E+00 9.29385E+00 3.93694E+00 7.04534E+00 2.11680E-02 1.77138E-01
 -1     12367 6.47699E+00 2.04995E+01 6.68898E+00 2.28435E+00-1.97400E-01 1.14114E-01
 -1     12368 6.19405E+00 1.31560E+01 4.58444E+00 3.41873E+00-1.21369E-02 3.68509E-02
 -1     12369 6.82728E+00 1.78551E+01 6.00605E+00 6.46869E-02 2.50494E-02 4.65022E-02
 -1     12370 7.85576E+00 3.98037E+00 1.29515E+00 4.88312E+00 1.45735E-02 3.71911E-01
 -1     12371 5.93630E+00 1.08087E+01 3.61243E+00 5.03263E+00-7.36126E-02 7.94609E-02
 -1     12372 5.81849E+00 1.10656E+01 3.59287E+00 5.08006E+00-3.45633E-02 1.08031E-01
 -1     12373 6.00528E+00 1.46453E+01 4.73331E+00 5.59233E+00-1.42129E-01-8.95810E-02
 -1     12374 1.82844E+00 5.06683E+00 9.76121E-01 3.05487E-01 2.19351E-03 2.63068E-02
 -1     12375 8.17475E+00 8.82680E+00 2.51257E+00 6.97254E+00-3.22603E-01 6.69300E-01
 -1     12376 2.31268E+00 2.09286E+00 3.07970E-01 1.58064E+00 2.45524E-02 6.16050E-02
 -1     12377 3.17836E+00 1.11771E+01 5.84630E-01 1.43875E+00 7.48578E-01 5.34379E-01
 -1     12378 2.65103E+00 1.00954E+01 2.66913E-01-7.99663E-01 6.75442E-01 9.67368E-03
 -1     12379 4.86080E+00 8.43329E+00 2.41347E+00-1.21494E+00 1.79433E-02 1.47329E-01
 -1     12380 4.78226E+00 1.62696E+00 5.79805E-01 2.43106E+00-6.59956E-02 2.31512E-01
 -1     12381 7.21150E+00 2.09321E+00 1.71748E+00 4.20900E+00-6.02265E-03 5.64233E-01
 -1     12382 9.18117E-01 2.50902E+00 1.83794E-02 1.17853E+00 1.25776E-01 1.26148E-01
 -1     12383 7.30474E+00 1.24293E+01 3.07119E+00 6.10353E+00 8.21112E-02 7.12399E-01
 -1     12384 7.92622E+00 1.22510E+01 4.62898E+00-2.07931E+00 2.93735E-02 1.98089E-01
 -1     12385 6.14720E+00 1.42973E+01 3.26969E+00-5.60666E-01 1.66199E-01 3.55035E-01
 -1     12386 3.88506E+00 1.32874E+01 3.96252E+00 3.17128E+00 2.39833E-01-1.39780E-01
 -1     12387 5.94662E+00 1.51819E+01 5.30762E+00 1.11166E+00 2.44527E-01 1.19322E-01
 -1     12388 5.85925E+00 1.66082E+00-2.14067E-01 2.03197E+00 1.85712E-02 7.16778E-01
 -1     12389 2.96609E+00 8.74414E+00 6.65893E-01 2.83438E+00 4.16751E-01 5.93676E-01
 -1     12390 4.80966E+00 1.23467E+01 1.73466E+00 8.38856E-01 4.48690E-01 5.00137E-01
 -1     12391 4.77832E+00 1.73313E+01 5.17814E+00 4.58338E+00 1.25327E-01-1.48746E-01
 -1     12392 7.98786E+00 2.07083E+01 7.37217E+00-4.17069E-02-7.25102E-02 2.18785E-01
 -1     12393 4.03542E+00 6.72420E+00 6.64828E-01 3.46444E+00 3.22631E-01 7.85711E-01
 -1     12394 1.85746E+00 2.85513E+00 4.09346E-01 1.56177E+00 2.38676E-03 1.65374E-02
 -1     12395 1.45501E+00 7.38458E-01 2.47163E-02-7.30505E-01 1.37483E-02-4.57833E-02
 -1     12396 1.57254E+00 1.15298E+00 7.62793E-02-8.19416E-01 2.34090E-02-3.04649E-02
 -1     12397-1.38553E+00 8.15274E-02-2.33658E-02-1.10927E-01 1.42668E-02 2.01591E-02
 -1     12398 9.17892E+00 9.16923E+00 4.33086E+00-1.16649E+00-2.14834E-02 3.88650E-04
 -1     12399 1.00233E+01 1.00376E+01 4.83648E+00-1.35355E+00-1.43522E-02 2.11354E-02
 -1     12400 3.12959E+00 2.80365E-01-3.68144E-01 7.49437E-01-1.84454E-02 5.26467E-01
 -1     12401 5.10351E+00 1.12874E+01 3.57542E+00 4.68045E+00 1.65274E-02 1.75259E-01
 -1     12402 6.75195E+00 7.51594E+00 2.99707E+00 4.89448E+00 5.87349E-02 5.37817E-02
 -1     12403 7.77071E+00 1.36187E+01 4.57112E+00-1.78276E+00 1.02624E-01 1.11616E-01
 -1     12404 1.85646E+00 2.20314E+00 1.82662E-02-9.01683E-01 2.03636E-01-2.04155E-01
 -1     12405 9.40369E+00 9.01530E+00 4.34000E+00-1.00869E+00 1.35832E-02 5.10264E-02
 -1     12406 6.86213E+00 9.56649E-01 1.07888E+00 2.98928E+00 1.81418E-02 2.47432E-01
 -1     12407 2.03169E+00 3.07072E+00 2.02494E-01-9.63737E-01 2.02460E-01-1.16901E-01
 -1     12408 2.12839E+00 3.46740E+00 1.78559E-01-8.97733E-01 2.56495E-01-1.12156E-01
 -1     12409 1.63334E+00 3.55824E+00 1.83514E-01-5.97003E-01 2.76713E-01-3.96570E-02
 -1     12410 1.71385E+00 1.79430E+00 1.66382E-02 1.34213E+00 1.14138E-01 2.96952E-01
 -1     12411 2.96969E+00 1.29564E+01 7.73729E-01 5.15737E+00 2.51336E-01 1.17834E+00
 -1     12412 2.52411E+00 8.62296E-02-7.12525E-01 2.83798E-01-1.49195E-02 5.81347E-01
 -1     12413 3.45794E+00 7.25271E-01-2.59328E-01 1.32609E+00-2.09505E-02 5.87850E-01
 -1     12414 3.63815E+00 1.05127E+01 3.04621E+00 7.32654E-01 9.50190E-02 1.45685E-02
 -1     12415 1.06382E+01 1.13436E+01 2.58432E+00-1.60618E+00 1.24376E-01 1.71768E-01
 -1     12416-9.37218E-01 1.87136E-01-3.76657E-03-1.73115E-01 1.44390E-02 9.97442E-03
 -1     12417 7.59160E+00 2.53939E+00 1.14085E+00 3.03417E+00-1.28839E-01 1.96013E-01
 -1     12418-1.97724E-01 5.84258E-01 6.44396E-02-2.26436E-01-1.74598E-02-5.70340E-02
 -1     12419 1.19201E+00 1.97007E+00 7.10189E-03-9.54330E-01 1.31144E-01-1.03843E-01
 -1     12420 2.12196E+00 4.36006E-02-4.25514E-01 1.94377E-01 1.18955E-02 1.87967E-02
 -1     12421 2.33334E+00 8.11455E-02-3.68256E-01 2.46368E-01 2.34171E-02 1.56064E-02
 -1     12422 3.02283E+00 1.11225E-01-3.77599E-01 6.36031E-01 2.67239E-02 4.27806E-01
 -1     12423 8.74560E+00 1.18319E+01 4.98168E+00-2.02567E+00-3.98496E-02 2.91937E-02
 -1     12424 5.09962E+00 1.46413E+01 4.54086E+00 3.70553E+00-4.97612E-03 9.80226E-02
 -1     12425 5.65136E+00 1.56693E+01 5.04850E+00-4.49800E-01 2.96723E-02 8.32731E-02
 -1     12426 1.03645E+01 1.01932E+01 4.70795E+00-1.26804E+00 8.59391E-03 1.02574E-01
 -1     12427 9.56943E+00 9.26951E+00 4.43808E+00-1.02325E+00 5.57919E-03 8.20258E-02
 -1     12428 9.99431E+00 7.53911E+00 4.36257E+00 5.17493E+00 2.20333E-01 1.07131E-01
 -1     12429 7.17026E+00 6.50083E+00 2.92881E+00-7.84161E-01 5.13030E-03 1.90148E-02
 -1     12430 2.11783E+00 2.68231E+00 1.90202E-01-9.32236E-01 1.77173E-01-1.32457E-01
 -1     12431 2.15284E+00 3.38600E+00 3.82066E-01-9.36987E-01 1.88225E-01-7.89253E-02
 -1     12432 8.16650E+00 3.96174E+00 2.33954E+00 3.78433E+00-1.47281E-01 1.51791E-01
 -1     12433 2.87320E+00 1.79189E-01-3.43867E-01 4.21098E-01 2.02282E-02 1.87461E-01
 -1     12434 3.21000E+00 5.11835E-02-3.05097E-01 4.37495E-01 1.93465E-02 1.79699E-01
 -1     12435 3.92785E+00 2.79799E-01 9.67571E-04 9.82276E-01-1.50540E-02 1.92795E-01
 -1     12436 3.14600E+00 1.70377E-01-2.99574E-01 5.01984E-01-1.08914E-02 7.46222E-02
 -1     12437 7.57146E+00 2.07953E+00 1.28670E-01 2.68909E+00 5.02738E-03 5.25643E-01
 -1     12438 6.75403E+00 1.52440E+01 5.36593E+00-1.22171E+00-1.74371E-01 4.47078E-02
 -1     12439 5.40673E+00 1.38668E+00 9.35608E-01 2.13791E+00-3.49703E-02-1.26846E-02
 -1     12440 4.72416E+00 3.82047E+00 1.17107E-02-5.06063E-01 1.04187E-02-2.06727E-01
 -1     12441 5.09575E+00 4.16304E+00-8.39746E-03-5.85480E-01 2.03831E-02-2.30393E-01
 -1     12442 4.55455E+00 4.13170E+00 1.41620E-02-9.92319E-01 1.11810E-01-2.64397E-01
 -1     12443 4.59910E+00 1.34706E+01 4.35579E+00 9.24744E-01 1.97929E-02 4.36851E-02
 -1     12444 2.99267E+00 8.81071E+00 2.06823E+00 4.11887E-01 8.28350E-02 1.15568E-01
 -1     12445 2.97641E+00 7.40947E+00 1.63998E+00-3.33882E-01 8.37205E-02 1.19298E-01
 -1     12446 9.14034E+00 8.75936E+00 4.22277E+00-1.13844E+00 6.83650E-02-5.87382E-02
 -1     12447 2.08858E+00 8.18637E-01 2.20335E-03-2.69188E-01 7.35951E-03-9.19477E-02
 -1     12448 2.24628E+00 1.19168E+00 1.37479E-02-3.38810E-01 4.44758E-02-1.96415E-01
 -1     12449 1.29523E+00 2.67181E+00 3.35751E-02-7.99418E-01 2.39672E-01-1.10506E-01
 -1     12450 6.17826E+00 1.53774E+01 3.91659E+00 4.84569E+00 4.50323E-02 3.78309E-01
 -1     12451 9.46638E+00 8.49085E+00 4.21355E+00-6.85430E-01-2.68008E-02-2.56154E-02
 -1     12452 8.90665E+00 7.91749E+00 3.87292E+00-6.09276E-01 8.20072E-03-9.01054E-03
 -1     12453 8.09219E+00 7.91598E+00 3.61577E+00-1.30787E+00-2.36110E-02 6.27641E-02
 -1     12454 9.52561E+00 9.12600E+00 4.38663E+00-1.09438E+00 3.53587E-02 2.40927E-02
 -1     12455 2.17527E+00 1.12871E+00-3.31389E-02 1.30939E+00 7.62102E-02 3.13903E-01
 -1     12456 2.07616E+00 5.91556E-01-1.16504E-01 8.38861E-01 7.28715E-03 3.01804E-01
 -1     12457 1.02478E+00-2.86345E-02-1.98470E-01 2.31216E-01-6.02284E-04 3.18720E-02
 -1     12458 1.03995E+01 2.03553E+01 3.99128E+00 8.59357E+00 8.48171E-01 1.19535E+00
 -1     12459 5.39380E+00 1.51961E+01 4.74404E+00 2.09069E+00-5.65291E-02-1.26726E-02
 -1     12460 4.86181E+00 1.36021E+01 4.04928E+00 4.15720E+00 2.42834E-01 1.97620E-01
 -1     12461 3.14008E+00 1.76981E-01-1.55507E-01 9.05296E-01-1.06474E-01 3.66258E-01
 -1     12462 4.79000E+00 1.66588E+00-7.62589E-02 2.99838E+00-3.68693E-02 6.86422E-01
 -1     12463-1.97949E-01 4.44882E-01-4.87425E-02 7.35773E-01-9.50633E-02-3.37240E-02
 -1     12464 1.80292E+00 5.22122E+00 1.01144E+00 9.28682E-01 2.91348E-02 7.85922E-03
 -1     12465 4.77005E+00 3.74683E+00 1.21086E+00-5.27375E-01 3.18635E-02-4.01135E-02
 -1     12466 4.77608E+00 3.74181E+00 1.23261E+00-5.33727E-01 2.27109E-02-3.47350E-02
 -1     12467 6.97081E+00 1.77510E+01 5.83889E+00-9.71502E-02 1.46179E-01 2.33734E-02
 -1     12468 7.19159E-01-4.20470E-02 3.54982E-02 5.39583E-01 9.79893E-03 6.00594E-03
 -1     12469 8.08542E+00 1.50703E+01 5.40161E+00-1.92479E+00 1.39516E-01 1.56421E-01
 -1     12470 3.58556E+00 2.14233E+00 5.41527E-01 2.18220E+00 8.96887E-02 2.05003E-01
 -1     12471 2.59356E+00 1.07237E-01-4.95675E-01 2.89937E-01 6.08701E-03 1.94920E-01
 -1     12472 4.58192E+00 1.52558E+01 4.12988E+00 2.19192E+00 8.06959E-02 1.95280E-01
 -1     12473 9.14827E+00 1.12498E+01 4.59804E+00-2.09061E+00 5.61984E-02 1.95782E-01
 -1     12474 1.12534E+01 1.12737E+01 5.24801E+00-1.37245E+00-4.60945E-03 1.47824E-01
 -1     12475 3.39668E+00 5.13347E+00 8.79639E-02-1.29738E+00 2.83315E-01-2.25655E-01
 -1     12476 3.78412E+00 4.36273E+00 2.16961E-02-1.23118E+00 1.33919E-01-2.65432E-01
 -1     12477 2.45833E+00 3.87089E+00 5.19721E-01-9.64096E-01 1.50602E-01-5.25552E-02
 -1     12478 3.71532E+00 4.33674E-01-5.36938E-01 8.11054E-01 7.23783E-04 3.39246E-01
 -1     12479 5.72991E+00 7.16702E-01 1.73206E-01 2.03608E+00 5.94249E-02 3.65633E-01
 -1     12480 1.11217E+01 3.99400E+00 2.68786E+00 5.01650E+00-1.52116E-01-4.12343E-01
 -1     12481 1.90018E+00 3.17837E+00 3.80688E-01 1.47194E+00 1.03719E-01 1.68379E-01
 -1     12482 1.99260E+00 3.98639E+00 7.26851E-01 1.53637E+00 5.45333E-03 5.03827E-03
 -1     12483 2.14960E+00 2.65147E-02-4.20586E-01 2.09757E-01 9.13460E-03 3.67890E-02
 -1     12484 1.58218E+00 3.86001E-02-4.84092E-01 1.15847E-01 8.42655E-03 1.68071E-01
 -1     12485 4.28397E+00 1.40345E+01 2.87364E+00 1.38766E+00 1.72971E-01 4.27188E-01
 -1     12486 1.43385E+00 3.19996E+00-5.15537E-03 1.99874E+00 1.64438E-01 2.21491E-01
 -1     12487 4.13583E+00 6.70206E+00 5.28704E-01 3.83097E+00 2.03543E-01 7.58290E-01
 -1     12488 5.21380E+00 7.06902E+00 8.18683E-01 4.33007E+00 5.61925E-02 7.64277E-01
 -1     12489 3.62258E+00 7.71529E+00 1.86240E+00-5.84943E-01 1.12533E-01 8.33516E-02
 -1     12490 8.55285E-01-1.08018E-01-5.44095E-03-6.67103E-01 2.21754E-02-7.01255E-02
 -1     12491 7.16571E-01-3.88705E-02-1.51605E-01 1.81453E-01-1.93061E-02 2.63875E-03
 -1     12492 6.11168E-01-6.15551E-02-1.61836E-01 1.78724E-01-2.39748E-02-1.95101E-02
 -1     12493 8.71187E-01 3.12882E+00 2.68841E-02-6.14641E-01 2.07054E-01-5.36224E-02
 -1     12494 7.35004E-01 3.53297E+00 1.35255E-02-3.32490E-01 2.07199E-01 3.92464E-03
 -1     12495 2.45278E+00 5.80437E+00 1.95784E-01-7.08135E-01 4.18981E-01-4.72980E-02
 -1     12496 4.14492E+00 3.15799E+00-1.09435E-03-3.94754E-01 1.25220E-02-2.28117E-01
 -1     12497 3.86248E+00 3.49918E+00 2.85523E-02-8.89010E-01 1.14447E-01-2.33611E-01
 -1     12498 1.74017E+00 3.36752E+00 5.02711E-01-7.56401E-01 2.54279E-02-7.71262E-03
 -1     12499 2.35412E+00 1.00882E-01-2.16086E-01 4.55760E-01-1.08786E-01 6.06287E-01
 -1     12500 4.70065E+00-1.10307E-01-1.77323E-01 8.42316E-01-4.03538E-02 9.07596E-02
 -1     12501 3.92616E+00 2.63912E-01-2.46067E-01 6.26071E-01 2.11586E-02 1.95177E-01
 -1     12502 1.68312E+00 5.10929E+00 1.98510E-02-1.16748E-01 4.12388E-01 2.04453E-02
 -1     12503 3.23863E-01-5.84573E-01-1.12866E-02 3.07722E-01-6.52441E-02 7.96349E-02
 -1     12504 5.90779E+00 1.39169E+01 4.78161E+00 1.33236E+00 4.03569E-03-3.56525E-02
 -1     12505 5.47004E-01 3.03236E+00-1.44290E-02-2.50645E-01 1.93682E-01-1.89150E-02
 -1     12506 7.73745E+00 7.08777E+00 3.12600E+00-8.02969E-01-3.37069E-02 2.73056E-02
 -1     12507 7.24851E+00 1.04481E+01 4.16558E+00 5.64371E+00-2.16367E-01-1.22199E-01
 -1     12508 4.10187E+00 1.23002E+01 3.76056E+00 6.62989E-01 1.34221E-01-2.17766E-02
 -1     12509 4.48875E+00 1.29877E+01 4.08289E+00 9.30410E-01-1.44350E-01 2.01612E-02
 -1     12510 1.73990E+00 4.83720E-02-5.80164E-01 1.04520E-01 5.23642E-03 2.24442E-01
 -1     12511 2.51521E+00 1.59911E-01-3.20181E-01 4.84658E-01 1.08151E-03 2.39552E-01
 -1     12512 1.81379E+00 3.17226E-02-5.62871E-01 1.11010E-01 1.00012E-02 2.11759E-01
 -1     12513 1.17081E+00 1.42685E-01-1.08724E-02-5.19918E-01 3.67739E-02-1.38530E-01
 -1     12514 1.76521E+00 3.38217E+00 2.71421E-01-7.79302E-01 1.91523E-01-5.63396E-02
 -1     12515 7.29946E+00 1.25157E+01 4.86063E+00 6.38496E+00 8.00191E-02 5.39828E-02
 -1     12516 2.85708E+00 1.16134E-01-4.03026E-01 4.11812E-01-2.25517E-03 1.15128E-01
 -1     12517 7.70962E+00 1.54659E+00 6.39323E-01 2.99733E+00-5.68706E-03 4.17951E-01
 -1     12518 1.35267E+01 1.34719E+01 6.80341E+00 9.13874E+00-3.88771E-02-7.84710E-02
 -1     12519 9.00020E+00 8.68197E+00 4.13827E+00-9.18021E-01-9.01508E-04 4.37858E-02
 -1     12520 8.79620E-01 2.46889E-01 6.53088E-02 5.68078E-01-2.59906E-02-4.80245E-02
 -1     12521 6.71081E-01-1.09819E-02-6.95331E-04 5.12034E-01-1.19152E-02-3.56520E-02
 -1     12522 1.43632E+01 2.71346E+01 1.06745E+01 1.02384E+01-1.95299E-01-3.94281E-02
 -1     12523 4.51960E+00 3.31403E-01 3.36524E-02 1.38546E+00-9.74177E-03 2.42910E-01
 -1     12524 7.08115E+00 5.99309E+00 2.75855E+00-4.58918E-01 1.46879E-02 1.61749E-02
 -1     12525 1.70458E+00 4.56073E-02-4.77904E-01 1.48060E-01 3.99297E-03 2.05835E-01
 -1     12526 1.72575E+00 6.02120E-02-4.67584E-01 1.58903E-01-2.46740E-03 1.80852E-01
 -1     12527-1.38666E+00 1.93299E-02-1.39049E-02 9.40780E-02 7.71958E-03-6.75627E-03
 -1     12528 5.68998E+00 2.86626E+00 1.42578E+00 3.23059E+00-8.10061E-02-2.35036E-02
 -1     12529 5.26756E+00 5.84087E+00 2.22125E+00 3.92265E+00-5.07309E-02 1.88102E-02
 -1     12530 5.28975E+00 1.77249E+00 1.02199E+00 2.66809E+00 6.19770E-03-7.29888E-03
 -1     12531 9.98942E+00 1.53573E+00 1.84719E+00 4.71357E+00 6.55042E-01-2.88794E-01
 -1     12532 1.02681E+01 1.13131E+01 4.83076E+00 7.85295E+00-1.43217E-01-3.44097E-02
 -1     12533 1.04165E+01 4.15942E+00 2.65846E+00 5.69329E+00-5.51661E-01-1.28745E-02
 -1     12534 6.97972E+00 1.47867E+01 4.85184E+00 6.39804E+00 1.08206E-01 3.05662E-01
 -1     12535 5.37307E+00 1.63874E+01 4.98830E+00 4.98212E+00-1.97453E-01 3.01899E-01
 -1     12536 4.20494E+00 1.05672E+00 4.78354E-01 1.71154E+00 1.27998E-02 9.50196E-02
 -1     12537 8.86868E-01-1.37119E-02-3.04963E-01 8.69963E-02-3.72582E-03 2.32726E-02
 -1     12538 2.33494E+00 1.72014E-03-7.67621E-02 3.79426E-01-7.50046E-02 1.41227E-01
 -1     12539 2.68431E+00-4.49039E-02-1.44584E-01 4.41271E-01-1.25337E-01 2.72755E-01
 -1     12540 3.46859E+00 6.00112E-02-1.22791E-01 9.94212E-01-1.75027E-01 3.68155E-01
 -1     12541 3.24611E+00 2.06090E+00 1.32339E-02-3.13172E-01 1.16138E-02-1.58685E-01
 -1     12542 2.13642E+00 1.04181E-01-4.13103E-01 2.51666E-01 8.79485E-03 4.05112E-02
 -1     12543 2.11853E+00 7.41988E-02-4.25820E-01 2.18157E-01-4.19228E-03 2.58896E-02
 -1     12544 5.15110E+00 3.94147E+00 1.56707E+00-3.26998E-01 7.67499E-03 9.00768E-03
 -1     12545 4.95246E+00 4.14617E+00 1.56061E+00-7.53123E-01-2.76030E-03-1.20543E-02
 -1     12546 1.54945E+01 2.29919E+01 1.01493E+01-2.97884E+00 3.77389E-01-2.41490E-01
 -1     12547 1.50498E+01 1.89568E+01 9.07422E+00-2.28522E+00-1.46338E-01-1.02388E-01
 -1     12548 1.62847E+01 2.53369E+01 1.09847E+01-3.96432E+00 1.08287E+00 4.67921E-01
 -1     12549-1.42463E+00 2.51229E-02-3.95844E-02 8.29025E-02 2.48491E-03-8.62159E-03
 -1     12550-6.75914E-01 7.23803E-02 2.33932E-03 2.54390E-01 1.09116E-02-2.44518E-02
 -1     12551-2.42493E-01 8.31086E-02 6.49684E-03 4.41712E-01 1.67011E-02-2.21523E-02
 -1     12552-2.51411E-01 1.13001E-01 2.55590E-02 4.15665E-01 5.89533E-03-1.76585E-02
 -1     12553-6.80072E-01 8.04888E-02-1.03861E-02 2.41254E-01 1.50612E-02-1.25767E-02
 -1     12554 5.54390E+00 1.15192E+01 3.86199E+00-9.47666E-01 5.66301E-02 1.59769E-01
 -1     12555 6.61618E+00 5.69734E+00 2.42207E+00-5.77755E-01 1.03149E-02 3.74510E-02
 -1     12556 7.17909E+00 6.37491E+00 2.81390E+00-6.77150E-01 1.65219E-02 3.50291E-02
 -1     12557 7.71274E+00 2.16925E+00 1.64063E+00 2.60735E+00-8.92715E-02-1.35849E-01
 -1     12558 5.65866E+00 9.86716E-01 5.23236E-01 1.75727E+00-1.19997E-01 1.18214E-01
 -1     12559 2.14969E+00 3.90009E+00 5.11253E-01-8.46360E-01 1.45840E-01-2.52963E-02
 -1     12560 6.94427E+00 8.83463E+00 2.51967E+00 5.40515E+00 6.71602E-02 4.97049E-01
 -1     12561 5.15430E+00 2.68807E+00 1.21958E+00 3.35672E+00 5.57199E-02 1.05036E-01
 -1     12562 9.79811E+00 1.63479E+01 6.31596E-01-2.79260E+00 6.13453E-01 1.87813E-01
 -1     12563 8.87087E+00 1.60541E+01-3.92012E-01-3.01743E+00 2.26904E-01-6.70762E-01
 -1     12564 8.28903E+00 1.19251E+01-5.03494E-03-1.77665E+00 5.88504E-01-6.27280E-01
 -1     12565 1.62098E+00 2.44071E+00 7.83657E-02 1.40409E+00 1.69412E-01 2.95804E-01
 -1     12566 3.97703E+00 1.32535E+01 2.38834E+00 3.22482E+00 2.09236E-01 5.16829E-01
 -1     12567 7.69743E+00 6.64302E+00 3.13564E+00-5.01674E-01 1.23219E-02 8.70650E-03
 -1     12568 7.46473E+00 7.06594E+00 3.18873E+00-1.18123E+00-8.99431E-03 1.94449E-02
 -1     12569 5.92483E+00 1.71172E+01 4.77626E+00 1.36799E-01 1.84885E-01 2.89878E-01
 -1     12570 1.31284E+00 3.85256E+00 5.26670E-01 8.19212E-01 1.85198E-02 1.33838E-02
 -1     12571 8.26591E+00 8.18756E+00 2.24345E+00 5.52937E+00-1.42809E-01-1.78610E-02
 -1     12572 4.03873E+00 1.25600E+01 3.68726E+00 4.26064E+00 2.18131E-01 2.37914E-01
 -1     12573 5.99382E+00 1.54805E+01 5.04788E+00-8.82543E-03-3.75381E-02 1.31657E-01
 -1     12574 4.72531E+00 1.19591E+01 3.78355E+00-2.02183E-01-5.99616E-02 5.25223E-02
 -1     12575 5.54315E+00 4.35110E+00 1.23514E+00-4.62301E-01 4.15468E-02-5.86582E-02
 -1     12576 5.24266E+00 4.07142E+00 1.10069E+00-4.34496E-01 4.40176E-02-9.26246E-02
 -1     12577 2.75632E+00 3.37794E+00 5.13923E-01-9.42942E-01 1.37113E-01-7.56388E-02
 -1     12578 1.05822E+00-8.34748E-02-3.39336E-03-4.99866E-01 1.99830E-02-8.34933E-02
 -1     12579 4.41913E+00 7.65784E+00 2.10582E+00-1.09926E+00 8.24820E-02 7.08764E-02
 -1     12580 6.66624E+00 1.37126E+01 4.85763E+00-1.87471E+00 2.26597E-01 5.96942E-03
 -1     12581 2.01635E+00 6.22415E-02-4.76167E-01 2.27211E-01 1.32568E-02 1.82050E-01
 -1     12582 2.02805E+00 4.32201E+00 6.62802E-01 1.59295E+00 1.02957E-01 1.62968E-01
 -1     12583 1.90717E+00 3.11310E+00 3.32113E-01 1.49125E+00 1.05128E-01 1.77848E-01
 -1     12584 3.72104E+00 2.54835E-01-3.35550E-01 6.39265E-01 2.15780E-02 1.81338E-01
 -1     12585 6.25250E+00-5.82124E-01 6.27567E-01 1.48910E+00-2.56307E-01-3.22502E-01
 -1     12586 9.71931E+00 7.20209E+00 4.26331E+00 7.07952E+00 6.23275E-01 2.18150E-01
 -1     12587 7.75035E+00 4.85553E+00 2.73287E+00 5.01476E+00 3.84056E-02 1.25598E-01
 -1     12588 1.31721E+00 2.61117E+00-2.21557E-02 1.71720E+00 1.24294E-01 2.18930E-01
 -1     12589 1.47550E+00 4.35216E+00 6.93700E-01 5.21566E-01 1.35930E-02 9.32348E-03
 -1     12590 1.73097E+00 5.11699E+00 9.71556E-01 7.33196E-01-2.14105E-03 2.18432E-02
 -1     12591 5.10196E+00 1.46560E+01 4.34200E+00 3.84284E+00 5.18779E-02 1.19581E-01
 -1     12592 1.44826E+00 9.72120E-03-4.88267E-01 6.21575E-02 4.30228E-03 1.84673E-02
 -1     12593 1.98286E+00 1.19360E+00 7.05522E-02 1.22429E+00 1.28835E-02 2.79709E-02
 -1     12594 7.66442E+00 9.20460E+00 3.72852E+00 6.20283E+00-9.62231E-02 1.51672E-01
 -1     12595 1.25775E+00 3.47725E-02-4.09166E-02 1.42776E-01-2.98795E-02 1.21559E-01
 -1     12596 1.25603E+01 1.34831E+01 6.19150E+00-1.54575E+00-8.69638E-02 1.90585E-01
 -1     12597 1.52873E+00 4.31722E+00 6.95465E-01 9.57909E-01 1.36598E-02 2.58662E-03
 -1     12598 1.71483E+00 4.96236E+00 9.21467E-01 6.82999E-01 3.44202E-03 5.63218E-03
 -1     12599 7.12044E+00 1.56071E+01 5.31975E+00-4.19919E-01 3.12629E-02 1.22317E-01
 -1     12600 1.05228E+01 1.03778E+01 5.07470E+00-1.03597E+00-5.56182E-02 5.41319E-02
 -1     12601 2.53579E+00 7.64802E-02-5.21242E-01 3.38999E-01-9.10447E-03 1.80911E-01
 -1     12602 2.43584E+00 7.81332E-02-5.19115E-01 2.96322E-01 1.41743E-02 2.06720E-01
 -1     12603 4.04943E-01 6.04065E-01 1.75499E-01 1.22601E+00-3.27912E-02 6.59770E-03
 -1     12604 5.84790E-01 7.07229E-01 2.82411E-01 1.29494E+00 7.56136E-03 1.74603E-02
 -1     12605 2.50928E+00 4.37160E-02-5.00589E-01 2.97365E-01 7.18498E-03 1.81280E-01
 -1     12606 7.76489E+00 2.10474E+00 9.49769E-01 2.99694E+00-1.45400E-01 1.86611E-02
 -1     12607 5.84017E+00 8.91404E-01 1.56375E-01 1.44125E+00-3.23780E-03 3.15974E-01
 -1     12608 7.42385E+00 2.36407E+00 1.16963E+00 3.86573E+00 6.82222E-02 6.40479E-01
 -1     12609 5.60493E+00 5.62916E-01 1.55813E-02 1.11180E+00 1.56756E-02 3.99784E-01
 -1     12610 4.78963E+00 1.45097E+01 4.53829E+00 4.28963E+00 1.22649E-01 5.48090E-02
 -1     12611 2.93337E+00 1.85329E-01-2.63914E-01 2.75302E-01-2.35776E-04 6.62658E-02
 -1     12612 3.89665E+00 4.21885E+00 1.70384E-01-1.06949E+00 2.40201E-01-2.57882E-01
 -1     12613 5.87108E+00 1.32889E+01 2.97066E+00-3.86184E-01 1.51495E-01 3.57584E-01
 -1     12614 1.27923E+00 2.18028E-03-2.15750E-02 1.00785E-01-9.46722E-03 4.39834E-02
 -1     12615 1.23306E+00-8.06517E-03-1.30079E-02 9.83828E-02-4.63528E-03 2.68859E-02
 -1     12616 6.03414E+00 1.18919E+01 2.76080E+00 3.11691E+00 7.89303E-01 1.42790E-01
 -1     12617 4.11670E+00 1.42630E+00 2.75656E-01 1.94304E+00 2.25063E-02 2.65564E-01
 -1     12618 4.40640E+00 2.26629E+00 5.55037E-01 2.33336E+00 2.57708E-02 2.26705E-01
 -1     12619 8.02076E+00 7.01033E+00 3.34447E+00-6.74070E-01-4.85357E-03 1.31011E-02
 -1     12620 7.81930E+00 1.64231E+00 1.33041E+00 2.66233E+00-9.65746E-02 1.73526E-01
 -1     12621 9.46548E+00 4.69823E+00 2.69353E+00 5.50117E+00-1.22206E-01 2.67976E-01
 -1     12622 4.99204E+00 7.16251E+00 1.08130E+00-1.29110E+00 2.48702E-01-9.66501E-03
 -1     12623 1.31209E+00 1.99856E+00-1.31718E-02 1.18294E+00 1.21031E-01 2.42340E-01
 -1     12624 7.01767E+00 1.49112E+01 4.72838E+00-1.18737E+00 8.57712E-02 2.31147E-01
 -1     12625 6.48567E+00 1.35857E+01 4.70625E+00 6.33851E+00-2.04582E-01 1.83805E-01
 -1     12626 2.45091E+00 6.97315E+00 9.75804E-01 1.69896E-01 2.15966E-01 1.76192E-01
 -1     12627 5.91582E+00 4.69666E+00 2.02260E+00-3.59500E-01 2.86121E-03-1.07582E-02
 -1     12628 5.36566E+00 4.61681E+00 1.82729E+00-8.25447E-01 1.53453E-03 6.01337E-03
 -1     12629 3.36221E+00 3.63104E+00 8.17490E-03-1.09878E+00 1.51892E-01-2.11685E-01
 -1     12630 3.12460E+00 3.27819E+00 6.13080E-03-9.90196E-01 1.47820E-01-2.15415E-01
 -1     12631 2.64627E+00 4.16213E+00 7.56545E-02-1.08244E+00 2.35030E-01-1.43009E-01
 -1     12632 3.11435E+00 4.55129E+00 5.51874E-02-1.03929E+00 3.34646E-01-2.25292E-01
 -1     12633 7.92614E+00 2.00307E+00 1.01126E+00 2.50093E+00-1.27068E-02 3.06417E-01
 -1     12634 3.62740E+00 1.87434E+00-1.47533E-01 2.07807E+00 5.36604E-02 7.09973E-01
 -1     12635 1.61847E+00 9.75057E-03-7.09795E-02 1.54333E-01-2.19199E-02 1.31887E-01
 -1     12636 6.50036E+00 7.28843E+00 2.87340E+00-1.43217E+00-8.54239E-03 9.10489E-02
 -1     12637 4.34316E+00 3.72820E+00 1.12717E+00-8.08679E-01 4.14864E-02-3.03835E-02
 -1     12638 2.16821E+00 9.83358E-02-6.42214E-01 2.93667E-01 5.96438E-03 4.12548E-01
 -1     12639 2.57968E+00 9.62930E-02-4.42685E-01 5.27799E-01-1.97605E-02 4.17835E-01
 -1     12640 2.39734E+00 7.69594E-02-6.82483E-01 2.33895E-01-6.50072E-03 6.14785E-01
 -1     12641 2.27420E+00 1.92778E+00 9.20666E-02-7.65724E-01 1.29165E-01-2.11543E-01
 -1     12642-1.64311E-01 1.14534E-01-8.51139E-02 4.58617E-01 3.77029E-02-5.23128E-03
 -1     12643 3.78110E-01 3.49746E-01 7.01400E-02 4.68911E-01 4.05178E-02 3.87431E-02
 -1     12644 5.26675E-01 4.37174E-01 1.71959E-01 4.82906E-01 1.31262E-03 1.41940E-02
 -1     12645 9.27116E+00 5.99114E+00 2.77102E+00 6.71479E+00-6.96615E-02 4.29786E-01
 -1     12646 4.85139E+00 1.40601E+01 4.32087E+00 4.47185E+00-1.69038E-02 7.15701E-02
 -1     12647 6.78817E+00 7.90373E+00 2.96199E+00 5.46137E+00-1.65094E-01 1.75829E-01
 -1     12648 1.48606E+00 8.27031E-04-4.78366E-01 1.06794E-01 3.21910E-03 1.60387E-01
 -1     12649 5.80629E+00 1.08516E+01 3.77196E+00 4.95611E+00 6.02282E-02 8.66766E-02
 -1     12650 2.26423E+00 1.02837E+00 1.07741E-02-2.66202E-01-4.31771E-04-9.72793E-02
 -1     12651 5.27823E+00 2.15311E+00 1.01652E+00 2.72146E+00-7.26412E-03 7.37298E-02
 -1     12652 5.01503E+00 1.29189E+01 3.41906E+00-2.81569E-01 9.08605E-02 2.09549E-01
 -1     12653 6.57176E+00 1.73326E+00 1.23281E+00 2.23066E+00-1.50272E-01-4.47286E-02
 -1     12654 4.27076E+00 1.46408E+01 3.62320E+00 3.10554E+00 2.08722E-02 3.30260E-01
 -1     12655 5.26175E+00 1.25039E+00-8.14123E-01 1.58925E+00 6.99057E-03 9.48520E-01
 -1     12656 3.72243E+00 6.15339E-01-2.06454E-01 7.78754E-01 7.11587E-02 2.54765E-01
 -1     12657 1.54364E+00 4.86311E+00 4.09578E-01 1.88851E-01 2.80057E-01 1.11869E-01
 -1     12658 1.76827E+00 5.50563E+00 4.89415E-01 3.13665E-01 2.90630E-01 1.48692E-01
 -1     12659 1.70510E+00 5.00985E+00 4.10556E-01-5.46706E-02 2.95882E-01 1.03443E-01
 -1     12660 1.02205E+01 9.18914E+00 4.60347E+00-8.35285E-01 8.81200E-03-2.03664E-02
 -1     12661 8.41424E+00 9.42409E+00 4.14691E+00-1.70467E+00-7.03458E-03 3.24281E-02
 -1     12662 5.41087E+00 1.22626E+01 4.10636E+00 5.31922E-01 8.04374E-02 1.04608E-01
 -1     12663 8.55903E+00 3.33030E+00 1.10694E+00 3.70273E+00 3.09493E-01 5.63600E-01
 -1     12664 1.43688E+01 2.37321E+01 9.55192E+00 1.21307E+01 3.24296E-01 1.81536E-01
 -1     12665 3.12130E+00 1.85016E+00 4.68147E-01-2.43083E-01 4.59011E-03-1.17226E-02
 -1     12666 1.43599E+01 2.40516E+01 1.03838E+01 1.17223E+01-1.81011E-01-1.95253E-01
 -1     12667 6.19691E+00 1.84097E+01 4.52727E+00-5.12187E-01-1.90896E-02 5.33375E-01
 -1     12668 5.21466E+00 1.52865E+01 4.46336E+00 4.93283E+00 2.92885E-02 4.87956E-02
 -1     12669 4.96159E+00 1.53390E+01 4.38653E+00 3.64494E+00 2.56097E-01 2.84685E-01
 -1     12670-8.79790E-01 1.85021E-02-1.54065E-02 2.15373E-01 1.21731E-02-2.74550E-02
 -1     12671 4.68209E+00 5.55909E-01-3.18894E-01 8.73486E-01 7.46034E-02 3.98596E-01
 -1     12672 1.61091E+00 2.43881E-02-3.36977E-01 2.09772E-01-3.81236E-03 3.58414E-02
 -1     12673 1.39220E+01 1.71762E+01 8.10951E+00-3.26739E+00 1.49941E-01-1.98039E-02
 -1     12674 2.82124E+00 7.38421E+00 1.49285E+00-6.15030E-02 1.40092E-01 1.19814E-01
 -1     12675 6.66586E+00 1.16562E+00 1.17759E+00 3.46469E+00-7.97311E-02 1.10425E-01
 -1     12676 9.15005E+00 8.53842E+00 4.03895E+00-1.02390E+00 4.87783E-02 7.42863E-02
 -1     12677 3.65369E+00 5.70717E-02-2.33114E-02 5.80596E-01-9.53919E-03-5.33301E-02
 -1     12678 6.82202E+00 1.79428E+00 1.44201E+00 2.91197E+00 8.98202E-04-1.58278E-02
 -1     12679 5.76391E+00 1.66839E+01 5.73851E+00 2.20528E+00 1.17203E+00-7.97393E-01
 -1     12680 6.38967E+00 1.33437E+01 4.59808E+00 4.94075E+00 9.91092E-02 1.97735E-01
 -1     12681 9.98959E+00 2.86866E+00 2.94654E+00 4.73942E+00 1.95638E-02-4.22234E-02
 -1     12682 1.06852E+01 3.81353E+00 2.98148E+00 5.82318E+00 5.80014E-02-1.45172E-01
 -1     12683 1.24632E+00 8.51122E-02 1.43814E-01-1.20593E-03 5.52624E-03-1.83298E-02
 -1     12684 5.58898E+00 4.38943E+00 1.82959E+00-3.24788E-01 7.99846E-03 3.37046E-03
 -1     12685 2.60756E+00 5.94476E-02-3.21984E-01 2.39346E-01 7.31830E-03-1.10018E-02
 -1     12686 3.50149E+00 1.30784E-01-1.32591E-02 6.24481E-01 2.54530E-02-2.26884E-03
 -1     12687 8.21968E+00 7.94448E+00 1.49464E+00-1.28681E+00 1.51428E-01-3.76300E-02
 -1     12688 2.44065E+00 1.21703E-01-3.19582E-01 4.35670E-01 2.22326E-02 2.03364E-01
 -1     12689 1.68966E+00 1.85310E-02-5.58462E-01 1.04812E-01 1.38170E-03 2.07775E-01
 -1     12690 6.85089E+00 1.45674E+01 4.69737E+00-9.32086E-01-3.11446E-02 1.61912E-01
 -1     12691 6.31194E+00 1.53424E+01 5.10754E+00 1.08715E+00 1.00107E-01 1.17843E-01
 -1     12692 9.08934E+00 4.65504E+00 2.52940E+00 5.13158E+00 4.02553E-01-3.37709E-02
 -1     12693 5.04461E+00 1.17585E+01 2.73617E+00 4.94994E+00 2.70325E-01 4.11303E-01
 -1     12694 4.64616E+00 1.48253E+01 3.39856E+00 3.60471E+00 1.61028E-02 3.69140E-01
 -1     12695 6.09243E+00 8.41096E+00 2.05705E+00 5.49408E+00 2.07639E-01 5.00097E-01
 -1     12696 8.05437E+00 1.70804E+01 5.74774E+00-1.52703E+00 4.21280E-03 2.25768E-01
 -1     12697 4.11774E+00 6.86907E-01 3.20235E-01 1.19607E+00-2.28764E-02 2.51153E-02
 -1     12698 4.67657E+00 1.34974E+00 6.89225E-01 1.92916E+00-3.30924E-02 7.00276E-02
 -1     12699 6.10097E+00 1.20640E+00 9.53185E-01 1.65999E+00-8.78116E-02 1.85184E-01
 -1     12700 6.29556E+00 4.31624E+00 2.02350E+00 4.49964E+00-1.45368E-01-3.11759E-01
 -1     12701-3.38010E-01 7.79962E-01-5.74916E-03 1.48594E-01 2.90800E-02 1.22599E-02
 -1     12702-8.82463E-01 4.13479E-02-2.43696E-02 1.94862E-01 5.31786E-03-1.52384E-02
 -1     12703 1.52557E+00 3.13100E+00 6.14346E-02-7.83608E-01 2.94750E-01-9.22485E-02
 -1     12704 2.80491E+00-7.70057E-02-3.08690E-01 1.44423E-01-1.94499E-02-2.98377E-03
 -1     12705 1.39118E+00 1.77481E-02-3.19575E-01 1.71647E-01 5.46630E-03 3.24655E-02
 -1     12706 2.56544E+00 1.23300E-01-3.13841E-01 2.44127E-01 9.87057E-03 4.07499E-03
 -1     12707 3.05183E-01 9.41256E-02-3.33062E-02 3.50715E-01-6.24302E-02-7.77699E-04
 -1     12708 9.03268E+00 1.47306E+00 1.72536E+00 4.68864E+00 2.09749E-01-2.54409E-02
 -1     12709 9.05053E+00 3.01564E+00 2.76388E+00 3.97832E+00 2.93758E-01-1.50138E-02
 -1     12710 6.87111E+00 7.10210E+00 2.35995E+00 5.68613E+00 1.26078E-01 2.67283E-01
 -1     12711 5.57723E+00 1.02947E+01 2.99950E+00 4.31265E+00 1.23074E-01 3.05141E-01
 -1     12712 6.17161E+00 1.24993E+01 3.76576E+00 5.39664E+00-1.37120E-01 2.86219E-01
 -1     12713 1.75637E+00 3.72879E+00 6.08016E-01 1.29910E+00 1.23500E-02 1.70825E-02
 -1     12714-1.30717E+00 8.47303E-02-3.42238E-02-1.27423E-01 1.31727E-02 1.07270E-02
 -1     12715 1.48164E+01 1.77422E+01 8.26184E+00-2.97444E+00 9.66080E-02-5.27545E-02
 -1     12716-1.28577E+00 8.61725E-02-5.45639E-03-1.44463E-01 6.23639E-03 1.83764E-02
 -1     12717 3.90551E+00 1.35100E+01 4.18098E+00 2.79865E+00-2.83195E-01-1.81066E-01
 -1     12718 6.51076E+00 1.14530E+01 4.28806E+00 4.85963E+00 1.44545E-01 1.59438E-01
 -1     12719 5.31486E+00 1.52510E+01 3.41057E+00-1.54863E-01 2.00533E-01 4.51123E-01
 -1     12720 7.28000E+00 2.42499E+01 6.38033E+00 3.06966E+00-1.12805E+00 7.68057E-01
 -1     12721 1.02918E+01 1.59622E+01 6.05542E+00-2.56831E+00 7.47807E-02 7.41864E-02
 -1     12722 5.89950E+00 1.56207E+01 3.86737E+00-3.95965E-01 1.59261E-01 3.08980E-01
 -1     12723 1.70914E+00 4.50790E-02-6.32613E-01 1.20491E-01-1.24687E-02 4.62621E-01
 -1     12724 8.35631E-01 8.47890E-01 3.70833E-01 6.15104E-01-2.68911E-02-1.04585E-02
 -1     12725 1.72906E-01-8.62821E-02-4.73567E-02 9.13098E-02-1.17494E-02 1.58014E-02
 -1     12726 5.54240E+00 1.48131E+01 4.85915E+00 5.48643E+00-1.29290E-01 3.24095E-01
 -1     12727 1.85513E+00 4.70206E+00 4.73311E-02-1.04198E+00 2.56150E-01-9.24696E-02
 -1     12728 8.19069E+00 7.23256E+00 3.44069E+00-7.21547E-01 1.92765E-02-3.65118E-03
 -1     12729 1.19834E+00 3.80718E+00 4.89293E-01 4.06196E-01-2.47708E-03 1.04281E-02
 -1     12730 2.52197E+00 2.38173E+00 1.61735E-01-8.55566E-01 1.61871E-01-1.86077E-01
 -1     12731 1.88567E+00 3.97077E+00 6.93318E-01 1.40234E+00 2.57277E-02 2.45359E-02
 -1     12732 3.62635E+00 5.63045E-01-1.17567E-01 1.68168E+00-1.86307E-01 4.80458E-01
 -1     12733 5.19357E+00 1.60542E+01 4.02398E+00 1.54519E+00-8.46467E-02 2.76623E-01
 -1     12734 6.90793E+00 1.46442E+01 5.04404E+00-1.33119E+00 1.30801E-01 2.08985E-02
 -1     12735 5.11343E+00 1.50949E+01 4.52845E+00 5.61659E+00 7.81847E-01-3.00146E-01
 -1     12736 4.22508E+00 3.17965E+00 1.50039E-02-4.51262E-01 1.98922E-02-1.88490E-01
 -1     12737 4.40277E+00 3.81319E+00 5.52532E-02-5.96241E-01 1.27654E-01-3.31484E-01
 -1     12738 1.11358E+00-3.37413E-02 1.85104E-02 2.43042E-01-4.04363E-02-3.54014E-02
 -1     12739 1.35127E+01 1.54430E+01 7.00935E+00-1.87150E+00 1.26374E-01 1.96850E-01
 -1     12740 6.90015E-01 6.91956E-01 1.68124E-01 5.91963E-01 8.26389E-02 7.06904E-02
 -1     12741 1.84280E-01 3.53329E-01 5.54178E-02 6.81549E-01 1.08396E-01 3.62865E-02
 -1     12742 7.08951E-01 4.33335E+00 3.48560E-02 2.03423E-01 2.46901E-01 6.48315E-02
 -1     12743 6.93720E-01 4.68458E+00-9.31963E-03 5.88377E-01 2.29229E-01 8.51914E-02
 -1     12744 7.81384E+00 1.68788E+01 4.80227E+00-2.13856E+00 1.31804E-02 4.14735E-01
 -1     12745 2.07387E+00 1.55891E+00 6.53220E-02 1.31475E+00 6.21510E-02 1.91852E-01
 -1     12746 2.33992E+00 2.15875E+00 2.44538E-01 1.75452E+00 6.74409E-02 1.79434E-01
 -1     12747 2.15173E+00 9.92770E-02-3.93722E-01 2.14946E-01 3.43421E-03 3.32150E-02
 -1     12748 1.21767E+01 1.88594E+01 7.73495E+00-1.76222E+00-2.47274E-01 6.20328E-01
 -1     12749 1.37855E+01 1.55154E+01 7.21766E+00-2.26063E+00-3.25131E-02 6.25011E-02
 -1     12750 1.31186E+01 1.35795E+01 6.58560E+00-1.96169E+00 1.97838E-01-1.88690E-01
 -1     12751 8.55004E+00 1.76901E+01 6.15763E+00-1.76413E+00-7.93153E-02 2.37539E-01
 -1     12752 5.24178E+00 1.52305E+01 3.80760E+00 7.13300E-01 4.55542E-02 4.66313E-01
 -1     12753 5.37476E+00 1.51381E+01 4.88578E+00 4.28546E+00-2.56571E-02 9.42090E-02
 -1     12754 5.62013E+00 1.79644E+01 5.47855E+00 2.69097E+00 8.64394E-02 3.77338E-02
 -1     12755 4.28722E+00 4.24541E+00 1.30995E+00-9.32006E-01 3.58941E-02-2.03090E-02
 -1     12756 5.24259E+00 1.48682E+01 4.33304E+00 5.40021E+00 9.45048E-02 2.28950E-01
 -1     12757 4.34869E+00-9.17389E-02-2.95647E-01 1.56309E+00 2.60579E-01 8.86245E-01
 -1     12758 5.36614E+00 1.58547E+01 5.06893E+00 1.50014E+00 5.17226E-02 2.05500E-01
 -1     12759 3.42199E+00 4.09536E+00 3.87074E-02-1.18316E+00 1.65504E-01-2.48691E-01
 -1     12760 1.16601E+01 1.20418E+01 5.59206E+00-1.55779E+00 3.97489E-03 7.78906E-02
 -1     12761 1.15877E+00-1.46390E-01 6.28030E-02 2.28956E-01 1.02013E-02 1.12419E-02
 -1     12762 1.47386E-01-4.30191E-01-8.16351E-02 5.77491E-01 5.19838E-02-6.91291E-02
 -1     12763 1.19608E+00 1.34116E-02-3.91183E-01 8.78783E-02 1.01604E-03 5.03893E-02
 -1     12764 5.92941E+00 7.06194E+00 2.52964E+00 4.86978E+00 2.11714E-02 1.84397E-01
 -1     12765 5.36500E+00 1.63049E+01 4.95434E+00 2.63988E+00 1.95818E-01 3.72465E-02
 -1     12766 6.84690E+00 1.68669E+01 5.64443E+00 7.16199E-01 1.99105E-01 8.63923E-02
 -1     12767 7.41519E+00 1.40203E+01 4.95017E+00 7.89121E+00-4.81673E-02 4.40937E-01
 -1     12768 4.10049E+00 4.04178E-01 2.49053E-01 1.06159E+00 1.23957E-02 2.50065E-02
 -1     12769 2.63520E+00 1.10284E-01-4.46528E-01 5.40311E-01-2.20403E-02 4.84435E-01
 -1     12770 7.77969E+00 1.42357E+01 3.93306E+00-2.07857E+00 1.56346E-02 3.66667E-01
 -1     12771 5.87988E+00 1.18752E+01 4.09237E+00 5.00869E+00 1.81902E-01 1.59679E-01
 -1     12772 2.32254E-01-4.16444E-01-1.99205E-01 4.83195E-01 2.30713E-02-2.67881E-02
 -1     12773 1.61094E+01 2.95102E+01 1.28092E+01 1.10924E+01-9.23476E-01 3.93014E-01
 -1     12774 1.20136E+00 4.67606E+00 3.54817E-02-3.23740E-01 2.56548E-01-4.30598E-02
 -1     12775 3.05002E-02-1.98055E+00-1.47126E-02-3.66799E-01-3.17711E-02-1.12014E-02
 -1     12776-6.90640E-02 2.57634E-01-2.90224E-02 4.81847E-01 5.00174E-02-4.52484E-03
 -1     12777 2.14308E-01 2.55958E-02-1.45727E-02 3.66889E-01 1.69879E-02-2.32258E-02
 -1     12778 4.63323E+00 8.18867E+00 7.99038E-01 4.14421E+00 2.22420E-01 9.53479E-01
 -1     12779 2.24669E+00 8.19345E-04-4.26179E-01 1.84079E-01 2.35568E-04-1.42797E-02
 -1     12780 2.37720E+00 5.79825E-02-3.77750E-01 1.87614E-01 1.31410E-02-2.77057E-03
 -1     12781 4.11804E+00 3.69389E+00-2.47678E-02-8.71549E-01 9.42736E-02-2.33580E-01
 -1     12782 7.36525E-01 3.44499E+00 2.09517E-02-2.46101E-01 2.20480E-01-1.04404E-02
 -1     12783 6.59171E+00 1.24007E+01 4.51247E+00-1.61392E+00-8.78807E-03-1.11453E-02
 -1     12784 4.64114E+00 6.45588E-01 2.75758E-01 1.04392E+00-3.24762E-02 1.08414E-01
 -1     12785 4.71960E+00 5.68848E-01 4.30663E-01 1.09864E+00 4.99873E-02 1.73581E-01
 -1     12786 2.47354E-01 2.31274E-02-4.41986E-02 3.68672E-01-2.03297E-02 5.12568E-02
 -1     12787 9.09571E+00 9.91491E+00 4.23765E+00 7.13927E+00 2.71411E-01 2.88038E-01
 -1     12788 2.34444E+00 2.55102E-01-2.70388E-01 6.30577E-01 2.71849E-02 2.40659E-01
 -1     12789 5.17238E+00 1.55457E+01 5.01687E+00 1.31564E+00 1.64226E-01 4.93027E-02
 -1     12790 4.69656E+00 1.33360E+01 2.18535E+00 8.50659E-02 4.34328E-01 3.64554E-01
 -1     12791 5.43196E+00 1.41262E+01 4.42093E+00 3.64219E-01 7.80347E-02 9.35867E-02
 -1     12792 8.17003E+00 7.08142E+00 3.40834E+00-5.51512E-01 1.01787E-02-1.40910E-02
 -1     12793 2.65859E+00 1.23099E-01-4.22866E-01 3.52417E-01 6.64345E-03 1.93702E-01
 -1     12794 2.59195E+00 1.31850E+01 4.54715E-01 3.13607E+00 2.46772E-01 1.06735E+00
 -1     12795 5.12702E+00 1.63589E+01 4.97046E+00 2.31282E+00 1.57482E-01 1.81248E-01
 -1     12796 4.38280E+00 1.25507E+01 3.68894E+00 3.19621E+00 1.13166E-01 6.38561E-02
 -1     12797 1.88132E-01-1.01749E-01-6.50288E-02 1.72781E-01-2.19182E-02 1.18625E-02
 -1     12798 1.13369E+00-1.15765E-01 1.06111E-01 2.14717E-01 1.79327E-03-1.30554E-03
 -1     12799-3.46988E-01-6.06534E-01-4.13157E-01 5.25359E-01-2.20621E-02 2.82636E-02
 -1     12800 8.32654E-01-1.06560E-01 4.62134E-02 4.02006E-01-4.71691E-02-2.34943E-02
 -1     12801 5.56961E+00 1.15027E+00 1.98382E-01 2.04132E+00 1.40683E-02 1.41440E-01
 -1     12802 2.22095E+00 6.35642E-02-3.99138E-02 3.99574E-01-5.52166E-02 2.13442E-01
 -1     12803 1.74207E+00 5.84471E-02-6.32342E-01 1.44965E-01-2.03712E-02 4.83809E-01
 -1     12804 4.40177E+00 1.27536E+01 1.46657E+00-1.13902E-01 4.49210E-01 5.00823E-01
 -1     12805 5.79684E+00 1.36597E+01 2.17976E+00 5.64699E-01 5.46036E-01 6.29428E-01
 -1     12806 7.90104E+00 7.23368E+00 2.72880E+00 5.90841E+00 1.54719E-01 3.68465E-01
 -1     12807 7.04040E+00 9.44347E+00 3.76540E+00 5.48381E+00-1.22000E-01 4.28701E-02
 -1     12808 6.58029E+00-2.65258E-02 8.12014E-01 1.39451E+00-5.08438E-01 2.59582E-02
 -1     12809 8.78272E+00 2.48899E+00 2.56019E+00 3.47197E+00-5.49204E-01 5.58296E-02
 -1     12810 3.90005E-02-2.60270E+00-9.42843E-02-5.56558E-02-3.18316E-02-1.95177E-02
 -1     12811 1.32068E+00 1.10549E-02-4.58872E-01 5.85422E-02-4.14184E-04 1.61007E-02
 -1     12812 3.61969E+00 1.51523E-01-1.22065E-01 7.94171E-01-1.56782E-03 2.03154E-01
 -1     12813 8.25942E-01-1.60274E-01 2.19088E-02 3.95000E-01 7.44806E-02 3.02875E-02
 -1     12814 8.91194E+00 1.08453E+01 4.74466E+00-1.96611E+00-1.10501E-01 7.16321E-02
 -1     12815 7.36453E+00 1.89123E+00 1.33797E+00 2.48129E+00-1.11540E-01-1.53795E-02
 -1     12816 1.13255E+01 1.22541E+01 4.34609E+00-1.86224E+00 1.15052E-01 1.51262E-01
 -1     12817 4.11910E+00 2.86107E-01-4.67372E-01 8.89622E-01-8.74723E-03 3.74362E-01
 -1     12818 4.73980E+00 3.90511E-01-3.97462E-01 8.29616E-01-7.99775E-03 3.08240E-01
 -1     12819 6.48988E+00 4.04125E-01 3.14979E-01 2.10335E+00-7.01090E-02 3.40140E-01
 -1     12820 7.03472E-01 2.67327E+00-1.32033E-02-6.34965E-01 1.86833E-01-4.40322E-02
 -1     12821 4.31631E+00 6.41643E-01 3.98419E-01 1.50090E+00-4.96466E-03 6.74877E-04
 -1     12822 1.28181E+00 9.02790E+00-1.31110E-01 1.13624E+00 6.04351E-01 1.60834E-01
 -1     12823 3.36524E+00 5.06273E+00 2.25671E-01-1.10572E+00 3.61287E-01-1.76549E-01
 -1     12824 5.58896E+00-3.84360E-01-1.60610E-01 8.43484E-01-9.69926E-03 3.05462E-01
 -1     12825 8.14462E+00 2.63568E+00 1.36088E+00 4.10734E+00-1.35123E-01-1.37947E-01
 -1     12826 5.66398E+00 5.12428E-01-5.21031E-02 1.28818E+00 2.35799E-01 3.55061E-01
 -1     12827 5.81193E-01-1.62324E-01-2.55148E-02 5.39967E-01-9.87462E-03-3.11894E-02
 -1     12828 6.84434E+00 1.58667E+01 5.29830E+00 5.95460E+00 4.34347E-02 1.20526E-01
 -1     12829 7.18209E+00 7.15985E+00 3.17245E+00 5.66114E+00-1.51267E-02 6.96124E-02
 -1     12830-7.60700E-02-7.87187E-02 4.73166E-02-8.01014E-02-1.65714E-03 5.37578E-03
 -1     12831 4.56219E+00 9.13393E+00-1.50812E+00 2.92467E+00 1.05241E+00 1.00001E+00
 -1     12832 1.04207E+01 1.41679E+01 6.49504E+00 4.56583E+00-5.12619E-01 3.86373E-01
 -1     12833 6.43945E+00 3.61398E+00 1.16111E+00 3.66330E+00-2.10101E-02 3.70176E-01
 -1     12834 4.99911E+00 1.63701E+01 4.66502E+00 3.07311E+00-8.39005E-03 2.30213E-01
 -1     12835 6.91887E+00 1.97041E+01 6.49159E+00-1.17845E+00 1.41377E-01 2.04011E-01
 -1     12836 1.24425E+01 1.57882E+01 7.60900E+00-2.11649E+00 1.16252E-01 2.35644E-02
 -1     12837 1.51570E+00 2.37178E-01 1.07874E-03-2.30766E-01 1.79292E-04-7.51347E-02
 -1     12838 5.69871E+00 6.39985E-01 3.38367E-02 1.12804E+00-6.59617E-02 1.71842E-01
 -1     12839 8.09235E+00 2.09825E+00 1.18449E+00 3.72066E+00 1.10606E-01 6.14498E-01
 -1     12840 7.82081E+00 1.01785E+01 4.31068E+00 5.67284E+00-4.78532E-02 5.63147E-02
 -1     12841 2.65397E+00 4.23752E+00 1.46735E-02-1.15006E+00 1.77656E-01-1.91839E-01
 -1     12842 1.34722E+01 1.27082E+01 6.66352E+00-1.71694E+00 1.69866E-01-1.44505E-01
 -1     12843 6.54960E+00 1.54776E+01 4.19642E+00-3.08345E-01 3.19548E-01 2.36968E-01
 -1     12844 5.54664E+00 7.29923E-01 7.04339E-01 1.44464E+00-3.62955E-02 1.37494E-01
 -1     12845 5.18855E+00 1.40001E+01 3.18673E+00 3.92997E+00 3.33089E-01 5.69183E-01
 -1     12846 1.33700E-01 4.32657E-01 8.48796E-02 6.32274E-01 3.36513E-02-1.96548E-02
 -1     12847 1.23198E+00 6.90493E-03-4.30934E-01 5.81459E-02 6.61902E-04 2.27002E-02
 -1     12848 4.55366E+00 4.10306E+00 1.20085E+00 3.26197E+00-5.22557E-03 1.30171E-01
 -1     12849 3.26222E+00 1.36008E+01 5.46643E-01-5.57399E-01 1.09415E+00 1.25208E-01
 -1     12850 4.90294E+00 1.20001E+01 1.12236E+00-4.58860E-01 5.56455E-01 4.22257E-01
 -1     12851 1.24650E+00 5.00151E+00 1.04124E-02-9.15717E-02 2.55888E-01 3.77840E-02
 -1     12852 4.49199E+00 3.50416E+00 7.96683E-03-4.59939E-01 1.69910E-02-1.90782E-01
 -1     12853-7.09909E-02 2.86165E-01-2.00328E-02 4.54261E-01 2.26130E-02 8.49643E-03
 -1     12854 6.16502E+00 9.16010E+00 3.44618E+00 4.89386E+00-1.88682E-01-3.91276E-02
 -1     12855 4.34695E+00 1.28079E+00 5.79278E-01 1.92757E+00-2.50558E-02-3.17768E-02
 -1     12856 1.24533E+01 3.25686E+01 6.08492E+00-1.01350E+00-7.37549E-02 1.71113E+00
 -1     12857 6.27619E+00 3.51343E+00 1.10921E+00 3.62222E+00-2.81699E-02 2.27519E-01
 -1     12858 6.40225E+00 1.15972E+01 4.04501E+00 6.75518E+00 2.63586E-01 1.01279E-01
 -1     12859 8.41518E-01-2.63588E-02-4.44808E-02 2.52789E-01-2.69241E-02-3.83728E-02
 -1     12860 2.35833E+00 9.95266E+00 2.27976E-01 2.97833E+00 6.05696E-01 4.74073E-01
 -1     12861 6.03958E+00 1.21013E+01 2.74795E+00-1.62544E+00 1.18809E-01 2.75631E-01
 -1     12862 6.16117E+00 1.13117E+01 4.16497E+00 5.04486E+00 2.44813E-01 1.09098E-01
 -1     12863 1.93221E+01 4.48074E+01 1.88361E+01-1.05441E+00 1.33942E+00-1.60609E+00
 -1     12864 1.16703E+00 8.98180E-03-3.70917E-01 8.85819E-02 1.17998E-03 2.58772E-02
 -1     12865 4.52728E+00 4.85265E+00-2.79095E-01 4.49120E+00 3.64899E-01 1.17910E+00
 -1     12866 1.12548E+01 9.71087E+00 4.28020E+00 8.55719E+00 1.03546E+00 4.91811E-01
 -1     12867 5.84396E+00 1.59500E+01 4.04757E+00-3.60056E-01 1.58285E-01 3.40806E-01
 -1     12868 3.78060E+00 1.07989E+01 6.85734E-01 3.72446E+00 6.59554E-01 9.29993E-01
 -1     12869 7.63919E+00 1.62929E+01 5.40178E+00-1.58367E+00 1.02235E-01 1.43161E-01
 -1     12870 7.31162E+00 7.93999E+00-1.01990E+00 6.27253E+00-3.61779E-01 1.76798E+00
 -1     12871 2.22876E+00-6.28989E-02-1.24990E-01 3.54328E-01-6.17310E-02 2.47046E-01
 -1     12872 5.63778E+00 5.01444E+00 2.05810E+00 4.29010E+00 3.62983E-02 1.60068E-02
 -1     12873 3.52776E+00 1.20899E+00-1.18747E-01 1.64660E+00 4.38497E-04 6.11530E-01
 -1     12874 5.27957E+00 2.11453E+01 6.92787E+00 4.72288E+00-5.09079E-01 2.17489E-01
 -1     12875 8.48949E+00 1.94263E+01 7.43239E+00-1.63040E+00-1.30517E-01-9.29377E-02
 -1     12876 1.01951E+00 1.45221E+01-4.25621E-01 3.62498E+00 1.34267E+00 3.43496E-01
 -1     12877 7.51742E+00 5.46202E+00 1.68304E+00 5.14901E+00-1.98672E-01 2.33612E-01
 -1     12878 4.86003E+00 1.17775E+01 3.91188E+00 5.25712E+00 1.51166E-01-8.25992E-02
 -1     12879 3.43159E+00 8.43350E+00-3.24704E-01 5.27647E+00 4.16899E-02 8.44337E-01
 -1     12880 6.54256E+00-4.20123E-01-1.65730E+00 4.37832E+00-8.78454E-01 1.33095E+00
 -1     12881 1.00470E+01-8.64395E-02 2.12606E+00 5.25811E+00 8.98575E-01 1.28480E-01
 -1     12882 1.45098E+01 1.15755E+01 7.13716E+00 9.37939E+00 1.98951E-01 5.04331E-01
 -1     12883 3.39798E-02 1.44264E+00-2.44242E-02-9.65391E-02 3.01923E-02 4.38882E-03
 -1     12884 1.40906E+00 4.06589E-01-9.39318E-02 6.89596E-01 7.25338E-04 4.22639E-02
 -1     12885 2.87880E-01 7.80071E-01-6.39534E-02 6.07485E-01 8.18977E-03 2.19439E-02
 -1     12886-3.42479E-01 6.29249E-01-1.13316E-02 2.84734E-01 2.25571E-02 1.06501E-02
 -1     12887 4.18183E+00 1.20164E+01 3.40773E+00 3.82447E+00 5.65495E-02 1.35699E-01
 -1     12888 6.32155E-01 3.23279E+00 3.37139E-03 1.29440E-01 1.78521E-01 6.65670E-03
 -1     12889 4.46100E+00 3.53706E-01-5.07426E-02 1.01172E+00 6.05276E-02 3.01706E-01
 -1     12890 3.15300E+00 2.48048E+00 6.24945E-01 2.00615E+00 3.32025E-02 4.82845E-02
 -1     12891 1.77763E+00 7.74781E-01 8.47002E-03-4.31606E-01 4.73816E-02-2.03619E-01
 -1     12892 9.39171E+00 9.59883E+00 3.97308E+00-1.28671E+00 8.59040E-03 1.44370E-01
 -1     12893 1.16704E+01 1.22403E+01 5.66129E+00-1.77798E+00 7.25183E-02 9.18852E-02
 -1     12894 4.00592E+00 5.48395E+00 1.74560E+00 2.90343E+00 5.05783E-02 2.41159E-02
 -1     12895 4.08071E+00 7.03820E+00 2.01826E+00-9.91806E-01 1.77908E-02 5.39870E-02
 -1     12896 3.36509E+00 2.38902E+00 5.14732E-02-4.26742E-01 7.20298E-02-2.92188E-01
 -1     12897 2.58185E+00 4.52214E+00 4.72228E-02-1.12684E+00 2.34657E-01-1.41632E-01
 -1     12898 2.43097E+00 6.56470E+00 1.04146E+00 1.74478E+00 1.62695E-01 2.84589E-01
 -1     12899 4.38484E+00 1.67341E-01 2.40112E-01 7.45766E-01 1.42429E-01 1.03033E-01
 -1     12900 7.62765E+00 3.61206E+00 1.93575E+00 3.30221E+00 3.76516E-02 1.91297E-01
 -1     12901 4.03512E+00 8.21990E+00 3.02579E-01 3.17551E+00 3.78924E-01 9.03828E-01
 -3
    1PSTEP                         3           1           1          
  100CL  101 1.000000000       12899                     0    1           1
 -4  ERROR       1    1
 -5  STR(%)      1    1    0    0
 -1         1 7.93781E+00
 -1         2 2.28264E+01
 -1         3 2.11857E+01
 -1         4 2.11857E+01
 -1         5 2.52427E+01
 -1         6 2.84132E+01
 -1         7 2.99611E+01
 -1         9 1.89669E+01
 -1        10 1.98626E+01
 -1        11 2.26441E+01
 -1        12 2.88775E+01
 -1        13 7.77837E+00
 -1        14 2.26383E+01
 -1        15 1.90044E+01
 -1        16 1.90044E+01
 -1        17 2.42307E+01
 -1        18 2.98142E+01
 -1        19 2.92710E+01
 -1        20 2.27846E+01
 -1        22 2.65961E+01
 -1        23 2.58177E+01
 -1        24 1.96357E+01
 -1        25 9.19489E+00
 -1        26 9.63734E+00
 -1        27 6.44904E+00
 -1        28 4.51711E+00
 -1        29 3.47239E+00
 -1        30 2.88095E+00
 -1        31 2.48866E+00
 -1        32 2.27533E+00
 -1        33 2.22115E+00
 -1        34 2.22115E+00
 -1        35 2.44604E+00
 -1        36 2.74068E+00
 -1        37 2.98883E+00
 -1        38 1.07550E+01
 -1        39 1.13273E+01
 -1        40 8.56635E+00
 -1        41 9.41611E+00
 -1        42 8.04319E+00
 -1        43 5.48307E+00
 -1        44 3.99475E+00
 -1        45 3.17667E+00
 -1        46 2.68481E+00
 -1        47 2.38199E+00
 -1        48 2.24824E+00
 -1        49 2.22115E+00
 -1        50 2.33360E+00
 -1        51 2.59336E+00
 -1        52 2.86475E+00
 -1        53 6.87190E+00
 -1        54 1.10411E+01
 -1        55 1.70768E+01
 -1        56 2.28264E+01
 -1        57 2.44049E+01
 -1        58 1.90294E+01
 -1        59 1.62149E+01
 -1        60 1.29326E+01
 -1        61 9.96850E+00
 -1        62 8.09939E+00
 -1        63 6.98233E+00
 -1        64 6.12508E+00
 -1        65 1.53796E+01
 -1        66 2.28264E+01
 -1        67 2.36157E+01
 -1        68 2.17172E+01
 -1        69 1.76222E+01
 -1        70 1.45737E+01
 -1        71 1.14505E+01
 -1        72 9.03395E+00
 -1        73 7.54086E+00
 -1        74 6.55370E+00
 -1        75 1.07523E+01
 -1        76 1.82826E+01
 -1        77 2.11857E+01
 -1        78 1.87768E+01
 -1        79 2.67817E+01
 -1        80 2.70987E+01
 -1        81 1.99813E+01
 -1        82 2.27793E+01
 -1        83 2.69402E+01
 -1        84 2.61707E+01
 -1        85 2.91118E+01
 -1        86 2.54929E+01
 -1        87 2.28532E+01
 -1        88 2.71773E+01
 -1        89 2.73024E+01
 -1        90 2.41730E+01
 -1        91 2.56332E+01
 -1        92 2.56713E+01
 -1        93 2.56713E+01
 -1        94 1.30828E+01
 -1        95 8.14205E+00
 -1        96 1.01455E+01
 -1        97 8.99069E+00
 -1        98 1.31138E+01
 -1        99 2.98275E+01
 -1       100 2.70422E+01
 -1       101 2.56713E+01
 -1       102 1.93770E+01
 -1       103 1.06124E+01
 -1       104 9.14378E+00
 -1       105 9.56810E+00
 -1       106 1.10523E+01
 -1       107 2.14707E+01
 -1       108 2.98943E+01
 -1       109 2.99611E+01
 -1       110 1.55366E+01
 -1       111 8.93910E+00
 -1       112 2.99611E+01
 -1       113 2.27489E+01
 -1       114 1.22379E+01
 -1       115 8.43845E+00
 -1       116 1.22208E+01
 -1       117 1.55939E+01
 -1       118 1.60417E+01
 -1       119 1.98626E+01
 -1       120 1.98626E+01
 -1       121 2.12533E+01
 -1       122 2.52826E+01
 -1       123 2.39634E+01
 -1       124 2.70800E+01
 -1       125 1.74411E+01
 -1       126 2.31593E+01
 -1       127 1.82040E+01
 -1       128 7.97725E+00
 -1       129 7.99622E+00
 -1       130 5.88889E+00
 -1       131 3.81626E+00
 -1       132 3.57149E+00
 -1       133 2.30995E+00
 -1       134 2.11409E+00
 -1       135 2.44252E+00
 -1       136 2.02439E+00
 -1       137 3.02642E+00
 -1       138 2.41822E+00
 -1       139 2.95371E+00
 -1       140 4.37176E+00
 -1       141 1.34655E+01
 -1       142 1.34655E+01
 -1       143 7.87781E+00
 -1       144 7.98674E+00
 -1       145 6.94256E+00
 -1       146 4.85258E+00
 -1       147 3.69388E+00
 -1       148 2.94072E+00
 -1       149 2.21202E+00
 -1       150 2.27831E+00
 -1       151 2.23346E+00
 -1       152 2.52540E+00
 -1       153 2.72232E+00
 -1       154 2.68596E+00
 -1       155 3.66274E+00
 -1       156 8.91862E+00
 -1       157 1.34655E+01
 -1       158 1.80519E+01
 -1       159 2.26561E+01
 -1       160 2.58418E+01
 -1       161 1.98691E+01
 -1       162 1.64761E+01
 -1       163 1.34685E+01
 -1       164 1.16996E+01
 -1       165 9.16056E+00
 -1       166 8.26357E+00
 -1       167 6.52489E+00
 -1       168 1.51860E+01
 -1       169 2.26472E+01
 -1       170 2.42490E+01
 -1       171 2.28554E+01
 -1       172 1.81726E+01
 -1       173 1.49723E+01
 -1       174 1.25840E+01
 -1       175 1.04301E+01
 -1       176 8.71207E+00
 -1       177 7.39423E+00
 -1       178 1.08555E+01
 -1       179 1.70952E+01
 -1       180 1.90044E+01
 -1       181 1.73623E+01
 -1       182 2.65961E+01
 -1       183 2.94027E+01
 -1       184 1.81834E+01
 -1       185 2.19792E+01
 -1       186 2.79994E+01
 -1       187 2.68167E+01
 -1       188 2.89576E+01
 -1       189 2.40622E+01
 -1       190 2.26216E+01
 -1       191 2.65941E+01
 -1       192 2.65099E+01
 -1       193 2.33419E+01
 -1       194 2.62179E+01
 -1       195 2.71186E+01
 -1       196 2.71186E+01
 -1       197 1.33549E+01
 -1       198 8.42247E+00
 -1       199 9.97996E+00
 -1       200 9.73819E+00
 -1       201 1.20226E+01
 -1       202 2.92050E+01
 -1       203 2.84664E+01
 -1       204 2.71186E+01
 -1       205 2.02367E+01
 -1       206 1.08887E+01
 -1       207 9.20121E+00
 -1       208 9.85908E+00
 -1       209 1.08804E+01
 -1       210 2.06138E+01
 -1       211 2.92380E+01
 -1       212 2.92710E+01
 -1       213 1.48096E+01
 -1       214 9.09519E+00
 -1       215 2.92710E+01
 -1       216 2.20403E+01
 -1       217 1.19524E+01
 -1       218 8.43678E+00
 -1       219 1.89754E+01
 -1       220 2.08800E+01
 -1       221 2.27858E+01
 -1       222 2.60948E+01
 -1       223 2.63455E+01
 -1       224 2.59562E+01
 -1       225 1.96357E+01
 -1       226 2.27267E+01
 -1       227 1.96357E+01
 -1       228 1.30820E+01
 -1       229 1.63589E+01
 -1       230 1.79333E+01
 -1       231 9.12716E+00
 -1       232 8.53249E+00
 -1       233 8.45277E+00
 -1       234 2.23576E+01
 -1       235 2.41289E+01
 -1       236 1.90412E+01
 -1       237 2.43869E+01
 -1       238 2.38952E+01
 -1       239 1.92321E+01
 -1       240 1.81859E+01
 -1       241 2.13802E+01
 -1       242 2.17252E+01
 -1       243 2.27222E+01
 -1       244 2.33598E+01
 -1       245 1.94427E+01
 -1       246 2.23911E+01
 -1       247 2.25207E+01
 -1       248 2.44500E+01
 -1       249 2.14534E+01
 -1       250 1.86726E+01
 -1       251 2.17821E+01
 -1       252 2.18029E+01
 -1       253 2.06601E+01
 -1       254 2.04875E+01
 -1       255 1.99641E+01
 -1       256 2.40523E+01
 -1       257 2.39731E+01
 -1       258 2.07674E+01
 -1       259 1.97869E+01
 -1       260 2.18676E+01
 -1       261 2.21214E+01
 -1       262 2.05909E+01
 -1       263 2.16825E+01
 -1       264 2.09635E+01
 -1       265 2.46181E+01
 -1       266 2.24730E+01
 -1       267 2.23011E+01
 -1       268 1.77337E+01
 -1       269 1.77193E+01
 -1       270 2.00706E+01
 -1       271 2.03391E+01
 -1       272 2.50593E+01
 -1       273 2.57186E+01
 -1       274 2.29517E+01
 -1       275 2.23007E+01
 -1       276 2.21960E+01
 -1       277 2.09815E+01
 -1       278 1.98616E+01
 -1       279 2.00801E+01
 -1       280 2.02373E+01
 -1       281 2.47213E+01
 -1       282 2.35050E+01
 -1       283 2.66174E+01
 -1       284 2.41587E+01
 -1       285 2.64307E+01
 -1       286 2.32621E+01
 -1       287 2.44897E+01
 -1       288 2.33721E+01
 -1       289 2.64829E+01
 -1       290 2.34598E+01
 -1       291 2.33384E+01
 -1       292 2.26020E+01
 -1       293 2.38675E+01
 -1       294 2.60931E+01
 -1       295 2.41318E+01
 -1       296 2.12923E+01
 -1       297 2.42550E+01
 -1       298 2.33251E+01
 -1       299 2.41588E+01
 -1       300 2.21250E+01
 -1       301 2.45016E+01
 -1       302 2.38522E+01
 -1       303 2.34110E+01
 -1       304 2.17549E+01
 -1       305 2.52042E+01
 -1       306 2.48848E+01
 -1       307 2.28006E+01
 -1       308 2.23200E+01
 -1       309 2.24141E+01
 -1       310 2.09838E+01
 -1       311 2.09838E+01
 -1       312 1.63655E+01
 -1       313 2.02658E+01
 -1       314 2.14467E+01
 -1       315 2.16605E+01
 -1       316 1.82562E+01
 -1       317 2.38158E+01
 -1       318 2.60722E+01
 -1       319 2.45221E+01
 -1       320 2.27840E+01
 -1       321 2.31855E+01
 -1       322 2.14412E+01
 -1       323 2.23512E+01
 -1       324 2.10448E+01
 -1       325 2.17744E+01
 -1       326 1.93085E+01
 -1       327 1.83961E+01
 -1       328 2.10393E+01
 -1       329 2.18906E+01
 -1       330 2.41984E+01
 -1       331 2.26039E+01
 -1       332 2.16780E+01
 -1       333 2.25920E+01
 -1       334 2.32432E+01
 -1       335 2.15850E+01
 -1       336 2.17140E+01
 -1       337 2.41410E+01
 -1       338 2.15637E+01
 -1       339 1.87090E+01
 -1       340 1.97830E+01
 -1       341 2.15527E+01
 -1       342 2.22237E+01
 -1       343 2.30410E+01
 -1       344 2.14013E+01
 -1       345 2.09169E+01
 -1       346 2.24559E+01
 -1       347 2.34853E+01
 -1       348 2.29517E+01
 -1       349 2.00630E+01
 -1       350 2.02273E+01
 -1       351 2.17925E+01
 -1       352 2.12315E+01
 -1       353 2.05738E+01
 -1       354 2.02258E+01
 -1       355 2.20082E+01
 -1       356 2.40127E+01
 -1       357 2.23702E+01
 -1       358 2.02771E+01
 -1       359 2.08273E+01
 -1       360 2.19945E+01
 -1       361 2.13562E+01
 -1       362 2.11367E+01
 -1       363 2.13230E+01
 -1       364 2.27908E+01
 -1       365 2.35456E+01
 -1       366 2.23871E+01
 -1       367 2.00174E+01
 -1       368 1.77265E+01
 -1       369 1.88949E+01
 -1       370 2.02048E+01
 -1       371 2.26992E+01
 -1       372 2.53890E+01
 -1       373 2.43352E+01
 -1       374 2.26262E+01
 -1       375 2.22484E+01
 -1       376 2.15888E+01
 -1       377 2.04215E+01
 -1       378 1.99708E+01
 -1       379 2.01587E+01
 -1       380 2.24793E+01
 -1       381 2.41132E+01
 -1       382 2.50612E+01
 -1       383 2.53880E+01
 -1       384 2.52947E+01
 -1       385 2.48464E+01
 -1       386 2.38759E+01
 -1       387 2.39309E+01
 -1       388 2.49275E+01
 -1       389 2.49713E+01
 -1       390 2.33991E+01
 -1       391 2.29702E+01
 -1       392 2.32348E+01
 -1       393 2.49803E+01
 -1       394 2.51125E+01
 -1       395 2.27120E+01
 -1       396 2.27736E+01
 -1       397 2.37900E+01
 -1       398 2.37420E+01
 -1       399 2.31419E+01
 -1       400 2.33133E+01
 -1       401 2.41769E+01
 -1       402 2.36316E+01
 -1       403 2.25830E+01
 -1       404 2.34795E+01
 -1       405 2.50445E+01
 -1       406 2.38427E+01
 -1       407 2.25603E+01
 -1       408 2.23671E+01
 -1       409 2.16989E+01
 -1       410 2.09838E+01
 -1       411 1.86746E+01
 -1       412 1.83157E+01
 -1       413 2.08563E+01
 -1       414 2.15536E+01
 -1       415 1.99584E+01
 -1       416 2.10360E+01
 -1       417 2.49440E+01
 -1       418 2.52971E+01
 -1       419 2.36531E+01
 -1       420 2.29848E+01
 -1       421 2.23133E+01
 -1       422 2.18962E+01
 -1       423 2.16980E+01
 -1       424 2.14096E+01
 -1       425 2.05414E+01
 -1       426 1.88523E+01
 -1       427 1.97177E+01
 -1       428 2.14649E+01
 -1       429 2.30445E+01
 -1       430 2.34012E+01
 -1       431 2.21409E+01
 -1       432 2.21581E+01
 -1       433 1.71530E+01
 -1       434 1.91694E+01
 -1       435 1.80787E+01
 -1       436 2.23269E+01
 -1       437 2.17563E+01
 -1       438 2.06656E+01
 -1       439 2.18537E+01
 -1       440 2.35482E+01
 -1       441 2.30422E+01
 -1       442 2.98142E+01
 -1       443 2.91137E+01
 -1       444 2.98142E+01
 -1       445 2.91950E+01
 -1       446 2.95780E+01
 -1       447 2.92330E+01
 -1       448 2.54929E+01
 -1       449 2.22299E+01
 -1       450 2.41388E+01
 -1       451 2.88775E+01
 -1       452 2.88775E+01
 -1       453 2.77368E+01
 -1       454 2.58177E+01
 -1       455 2.42309E+01
 -1       456 2.58177E+01
 -1       457 2.71977E+01
 -1       458 2.35301E+01
 -1       459 2.34167E+01
 -1       460 4.49404E+00
 -1       461 3.32509E+00
 -1       462 4.85968E+00
 -1       463 1.08165E+01
 -1       464 1.62149E+01
 -1       465 2.28264E+01
 -1       466 8.07549E+00
 -1       467 6.48411E+00
 -1       468 4.16920E+00
 -1       469 8.99069E+00
 -1       470 2.44049E+01
 -1       471 1.26285E+01
 -1       472 1.81048E+01
 -1       473 2.26441E+01
 -1       474 1.00114E+01
 -1       475 6.03607E+00
 -1       476 1.04596E+01
 -1       477 1.31138E+01
 -1       478 7.81151E+00
 -1       479 7.19502E+00
 -1       480 6.15357E+00
 -1       481 5.49354E+00
 -1       482 6.98460E+00
 -1       483 6.59271E+00
 -1       484 6.35245E+00
 -1       485 6.02477E+00
 -1       486 6.16449E+00
 -1       487 5.57117E+00
 -1       488 7.40357E+00
 -1       489 6.43455E+00
 -1       490 9.90414E+00
 -1       491 7.13771E+00
 -1       492 6.47335E+00
 -1       493 6.26180E+00
 -1       494 7.66619E+00
 -1       495 9.51058E+00
 -1       496 7.52018E+00
 -1       497 6.80971E+00
 -1       498 7.26565E+00
 -1       499 1.14940E+01
 -1       500 1.61404E+01
 -1       501 6.19389E+00
 -1       502 6.66980E+00
 -1       503 7.24081E+00
 -1       504 6.77896E+00
 -1       505 4.54268E+00
 -1       506 5.58496E+00
 -1       507 1.13735E+01
 -1       508 6.26943E+00
 -1       509 9.28714E+00
 -1       510 1.07707E+01
 -1       511 7.68592E+00
 -1       512 7.07026E+00
 -1       513 2.48638E+01
 -1       514 4.19757E+00
 -1       515 1.10075E+01
 -1       516 1.01109E+01
 -1       517 2.88342E+01
 -1       518 6.15688E+00
 -1       519 3.31922E+00
 -1       520 2.70204E+01
 -1       521 9.87691E+00
 -1       522 7.99565E+00
 -1       523 5.35294E+00
 -1       524 9.36599E+00
 -1       525 1.55366E+01
 -1       526 9.51873E+00
 -1       527 7.33164E+00
 -1       528 6.01509E+00
 -1       529 4.26019E+00
 -1       530 5.28192E+00
 -1       531 9.58231E+00
 -1       532 1.46811E+01
 -1       533 1.14940E+01
 -1       534 1.01429E+01
 -1       535 2.58155E+00
 -1       536 4.43061E+00
 -1       537 3.36423E+00
 -1       538 4.86600E+00
 -1       539 3.24873E+00
 -1       540 1.08918E+01
 -1       541 3.85115E+00
 -1       542 5.94012E+00
 -1       543 8.95684E+00
 -1       544 1.34809E+01
 -1       545 5.03175E+00
 -1       546 2.04884E+01
 -1       547 1.01455E+01
 -1       548 8.71509E+00
 -1       549 5.06716E+00
 -1       550 3.88833E+00
 -1       551 9.16118E+00
 -1       552 2.88342E+01
 -1       553 3.76961E+00
 -1       554 4.01909E+00
 -1       555 7.66619E+00
 -1       556 1.05536E+01
 -1       557 7.26565E+00
 -1       558 2.75587E+01
 -1       559 7.19115E+00
 -1       560 6.51386E+00
 -1       561 5.01983E+00
 -1       562 1.05198E+01
 -1       563 2.99611E+01
 -1       564 1.46350E+01
 -1       565 2.64837E+01
 -1       566 5.11955E+00
 -1       567 4.06477E+00
 -1       568 4.39050E+00
 -1       569 2.11857E+01
 -1       570 2.92381E+01
 -1       571 2.76923E+01
 -1       572 2.91118E+01
 -1       573 8.37045E+00
 -1       574 6.06327E+00
 -1       575 2.63736E+01
 -1       576 2.56713E+01
 -1       577 2.54929E+01
 -1       578 4.10869E+00
 -1       579 4.26019E+00
 -1       580 3.81222E+00
 -1       581 8.80985E+00
 -1       582 1.20449E+01
 -1       583 4.86600E+00
 -1       584 4.16909E+00
 -1       585 4.40909E+00
 -1       586 5.08258E+00
 -1       587 1.94662E+01
 -1       588 2.88775E+01
 -1       589 1.01384E+01
 -1       590 4.75531E+00
 -1       591 9.87423E+00
 -1       592 9.24569E+00
 -1       593 9.74633E+00
 -1       594 2.28264E+01
 -1       595 1.70768E+01
 -1       596 2.28264E+01
 -1       597 2.11857E+01
 -1       598 2.11857E+01
 -1       599 1.86630E+01
 -1       600 1.57600E+01
 -1       601 1.86630E+01
 -1       602 2.38055E+01
 -1       603 2.50100E+01
 -1       604 2.41502E+01
 -1       605 2.03259E+01
 -1       606 2.03259E+01
 -1       607 2.64675E+01
 -1       608 2.73955E+01
 -1       609 2.84021E+01
 -1       610 2.73934E+01
 -1       611 2.46134E+01
 -1       612 2.60224E+01
 -1       613 2.99611E+01
 -1       614 2.98943E+01
 -1       615 2.99611E+01
 -1       616 2.22299E+01
 -1       617 2.40394E+01
 -1       618 2.73024E+01
 -1       619 2.54929E+01
 -1       620 2.22299E+01
 -1       621 1.88569E+01
 -1       622 2.32765E+01
 -1       623 1.96206E+01
 -1       624 2.34415E+01
 -1       625 2.23632E+01
 -1       626 2.23632E+01
 -1       627 2.27669E+01
 -1       628 2.52676E+01
 -1       629 2.63458E+01
 -1       630 1.89837E+01
 -1       631 2.03745E+01
 -1       632 2.45639E+01
 -1       633 2.58832E+01
 -1       634 2.03745E+01
 -1       635 2.26441E+01
 -1       636 2.45639E+01
 -1       637 2.78296E+01
 -1       638 2.80099E+01
 -1       639 2.90578E+01
 -1       640 2.88775E+01
 -1       641 2.78296E+01
 -1       642 2.70800E+01
 -1       643 2.33396E+01
 -1       644 1.05656E+01
 -1       645 1.03444E+01
 -1       646 1.10238E+01
 -1       647 8.97150E+00
 -1       648 1.05656E+01
 -1       649 1.14940E+01
 -1       650 5.50061E+00
 -1       651 6.46658E+00
 -1       652 8.98903E+00
 -1       653 4.16919E+00
 -1       654 4.69155E+00
 -1       655 5.67506E+00
 -1       656 3.87032E+00
 -1       657 4.16604E+00
 -1       658 4.86284E+00
 -1       659 2.90394E+00
 -1       660 3.10009E+00
 -1       661 4.08945E+00
 -1       662 3.08183E+00
 -1       663 3.18850E+00
 -1       664 3.60378E+00
 -1       665 2.77312E+00
 -1       666 2.80021E+00
 -1       667 3.60671E+00
 -1       668 2.40135E+00
 -1       669 2.40135E+00
 -1       670 2.95332E+00
 -1       671 3.30762E+00
 -1       672 3.19517E+00
 -1       673 3.37537E+00
 -1       674 2.99470E+00
 -1       675 2.84739E+00
 -1       676 3.70897E+00
 -1       677 3.74144E+00
 -1       678 3.61736E+00
 -1       679 3.87139E+00
 -1       680 8.97305E+00
 -1       681 5.08999E+00
 -1       682 5.84259E+00
 -1       683 1.67907E+01
 -1       684 1.50088E+01
 -1       685 2.44049E+01
 -1       686 2.36157E+01
 -1       687 2.36157E+01
 -1       688 1.97589E+01
 -1       689 2.24467E+01
 -1       690 2.24467E+01
 -1       691 1.62149E+01
 -1       692 1.76222E+01
 -1       693 1.83517E+01
 -1       694 1.32068E+01
 -1       695 1.48479E+01
 -1       696 1.48479E+01
 -1       697 1.06710E+01
 -1       698 1.21530E+01
 -1       699 1.24272E+01
 -1       700 9.45797E+00
 -1       701 1.03925E+01
 -1       702 1.10950E+01
 -1       703 8.17416E+00
 -1       704 8.73269E+00
 -1       705 1.00913E+01
 -1       706 6.82263E+00
 -1       707 7.25125E+00
 -1       708 8.44308E+00
 -1       709 1.17275E+01
 -1       710 7.10029E+00
 -1       711 7.79784E+00
 -1       712 1.21080E+01
 -1       713 2.38272E+01
 -1       714 2.88559E+01
 -1       715 2.81684E+01
 -1       716 2.84652E+01
 -1       717 2.91118E+01
 -1       718 2.84021E+01
 -1       719 2.52059E+01
 -1       720 2.65258E+01
 -1       721 2.65258E+01
 -1       722 2.69661E+01
 -1       723 2.56713E+01
 -1       724 2.56713E+01
 -1       725 2.63458E+01
 -1       726 2.66970E+01
 -1       727 1.89733E+01
 -1       728 2.52676E+01
 -1       729 1.13885E+01
 -1       730 1.38589E+01
 -1       731 1.38819E+01
 -1       732 1.97725E+01
 -1       733 1.46580E+01
 -1       734 1.01455E+01
 -1       735 9.14378E+00
 -1       736 1.23902E+01
 -1       737 8.99069E+00
 -1       738 9.56810E+00
 -1       739 9.56810E+00
 -1       740 1.13481E+01
 -1       741 9.28650E+00
 -1       742 9.28650E+00
 -1       743 2.14707E+01
 -1       744 1.31138E+01
 -1       745 1.13481E+01
 -1       746 2.15375E+01
 -1       747 1.55366E+01
 -1       748 2.27489E+01
 -1       749 2.27489E+01
 -1       750 9.69936E+00
 -1       751 1.29981E+01
 -1       752 1.29981E+01
 -1       753 9.53874E+00
 -1       754 1.02990E+01
 -1       755 1.03460E+01
 -1       756 1.98898E+01
 -1       757 2.72896E+01
 -1       758 2.14843E+01
 -1       759 2.70584E+01
 -1       760 2.88342E+01
 -1       761 2.70584E+01
 -1       762 2.76590E+01
 -1       763 2.25667E+01
 -1       764 7.18548E+00
 -1       765 8.53403E+00
 -1       766 6.97084E+00
 -1       767 4.27940E+00
 -1       768 3.65675E+00
 -1       769 3.50608E+00
 -1       770 3.87785E+00
 -1       771 3.89742E+00
 -1       772 3.34466E+00
 -1       773 3.62628E+00
 -1       774 3.66916E+00
 -1       775 4.43939E+00
 -1       776 4.86284E+00
 -1       777 4.86600E+00
 -1       778 4.44254E+00
 -1       779 8.54299E+00
 -1       780 8.82145E+00
 -1       781 7.96805E+00
 -1       782 5.69449E+00
 -1       783 7.24277E+00
 -1       784 1.35534E+01
 -1       785 1.21864E+01
 -1       786 1.56901E+01
 -1       787 1.85167E+01
 -1       788 1.77275E+01
 -1       789 1.12527E+01
 -1       790 1.63517E+01
 -1       791 7.06938E+00
 -1       792 6.79172E+00
 -1       793 1.02655E+01
 -1       794 6.23300E+00
 -1       795 7.00781E+00
 -1       796 5.16531E+00
 -1       797 6.00170E+00
 -1       798 6.87488E+00
 -1       799 9.37980E+00
 -1       800 4.94887E+00
 -1       801 5.75793E+00
 -1       802 6.14870E+00
 -1       803 3.96940E+00
 -1       804 3.17558E+00
 -1       805 3.54994E+00
 -1       806 4.01017E+00
 -1       807 3.81038E+00
 -1       808 9.25471E+00
 -1       809 9.55052E+00
 -1       810 1.00193E+01
 -1       811 9.75527E+00
 -1       812 8.97376E+00
 -1       813 9.55117E+00
 -1       814 9.73834E+00
 -1       815 1.65585E+01
 -1       816 1.03121E+01
 -1       817 8.93628E+00
 -1       818 1.17602E+01
 -1       819 9.44375E+00
 -1       820 1.40581E+01
 -1       821 1.63278E+01
 -1       822 1.50748E+01
 -1       823 1.10281E+01
 -1       824 1.63929E+01
 -1       825 1.33630E+01
 -1       826 8.02372E+00
 -1       827 1.43401E+01
 -1       828 8.52179E+00
 -1       829 1.68258E+01
 -1       830 1.87456E+01
 -1       831 8.91144E+00
 -1       832 6.92379E+00
 -1       833 9.76097E+00
 -1       834 8.66104E+00
 -1       835 1.07777E+01
 -1       836 7.50327E+00
 -1       837 6.61555E+00
 -1       838 6.67430E+00
 -1       839 6.09482E+00
 -1       840 8.58054E+00
 -1       841 9.63474E+00
 -1       842 1.21732E+01
 -1       843 1.03013E+01
 -1       844 9.47637E+00
 -1       845 1.01406E+01
 -1       846 9.63536E+00
 -1       847 7.86960E+00
 -1       848 8.64147E+00
 -1       849 5.16299E+00
 -1       850 1.43252E+01
 -1       851 9.85285E+00
 -1       852 8.48635E+00
 -1       853 8.17810E+00
 -1       854 9.23371E+00
 -1       855 8.38417E+00
 -1       856 9.05901E+00
 -1       857 6.34428E+00
 -1       858 5.82356E+00
 -1       859 7.08981E+00
 -1       860 6.23907E+00
 -1       861 8.07289E+00
 -1       862 5.98345E+00
 -1       863 6.31346E+00
 -1       864 6.36758E+00
 -1       865 6.20769E+00
 -1       866 8.63466E+00
 -1       867 6.78865E+00
 -1       868 6.04313E+00
 -1       869 6.70121E+00
 -1       870 6.15162E+00
 -1       871 6.64153E+00
 -1       872 6.66852E+00
 -1       873 6.47258E+00
 -1       874 7.06115E+00
 -1       875 6.74508E+00
 -1       876 8.14945E+00
 -1       877 6.18861E+00
 -1       878 6.30874E+00
 -1       879 5.79797E+00
 -1       880 6.08194E+00
 -1       881 6.04251E+00
 -1       882 6.55329E+00
 -1       883 6.66179E+00
 -1       884 6.25847E+00
 -1       885 6.09463E+00
 -1       886 7.36145E+00
 -1       887 7.26747E+00
 -1       888 7.75408E+00
 -1       889 6.78403E+00
 -1       890 6.71417E+00
 -1       891 5.55368E+00
 -1       892 5.32687E+00
 -1       893 7.09126E+00
 -1       894 6.40186E+00
 -1       895 5.93077E+00
 -1       896 6.29952E+00
 -1       897 6.91906E+00
 -1       898 8.03432E+00
 -1       899 8.16935E+00
 -1       900 9.13729E+00
 -1       901 5.31916E+00
 -1       902 5.79051E+00
 -1       903 4.99013E+00
 -1       904 4.73812E+00
 -1       905 4.74584E+00
 -1       906 6.85010E+00
 -1       907 7.33461E+00
 -1       908 6.01048E+00
 -1       909 6.07944E+00
 -1       910 6.49426E+00
 -1       911 6.18196E+00
 -1       912 5.17013E+00
 -1       913 8.78516E+00
 -1       914 7.05037E+00
 -1       915 7.66619E+00
 -1       916 7.05037E+00
 -1       917 7.46592E+00
 -1       918 8.03051E+00
 -1       919 6.91153E+00
 -1       920 9.71144E+00
 -1       921 7.83781E+00
 -1       922 8.94459E+00
 -1       923 8.32822E+00
 -1       924 8.82878E+00
 -1       925 9.84052E+00
 -1       926 6.20674E+00
 -1       927 6.10096E+00
 -1       928 6.50180E+00
 -1       929 6.33362E+00
 -1       930 6.06700E+00
 -1       931 8.18636E+00
 -1       932 1.05592E+01
 -1       933 5.32615E+00
 -1       934 7.25071E+00
 -1       935 5.91764E+00
 -1       936 8.23802E+00
 -1       937 8.23802E+00
 -1       938 6.48947E+00
 -1       939 9.82804E+00
 -1       940 1.20728E+01
 -1       941 1.33399E+01
 -1       942 7.38049E+00
 -1       943 8.30340E+00
 -1       944 6.65204E+00
 -1       945 6.73976E+00
 -1       946 6.43185E+00
 -1       947 6.59183E+00
 -1       948 8.70427E+00
 -1       949 8.90454E+00
 -1       950 8.70427E+00
 -1       951 7.26565E+00
 -1       952 6.14870E+00
 -1       953 4.89353E+00
 -1       954 1.08184E+01
 -1       955 1.08184E+01
 -1       956 1.08162E+01
 -1       957 1.27881E+01
 -1       958 6.95531E+00
 -1       959 6.71735E+00
 -1       960 6.12858E+00
 -1       961 7.69245E+00
 -1       962 7.97795E+00
 -1       963 6.87003E+00
 -1       964 7.89268E+00
 -1       965 5.86848E+00
 -1       966 6.06871E+00
 -1       967 6.18018E+00
 -1       968 6.91732E+00
 -1       969 4.89126E+00
 -1       970 5.48826E+00
 -1       971 4.60870E+00
 -1       972 5.89939E+00
 -1       973 5.05120E+00
 -1       974 4.40143E+00
 -1       975 4.91230E+00
 -1       976 4.77106E+00
 -1       977 4.26019E+00
 -1       978 4.40143E+00
 -1       979 4.78125E+00
 -1       980 5.15087E+00
 -1       981 4.81263E+00
 -1       982 4.33464E+00
 -1       983 4.47588E+00
 -1       984 4.80202E+00
 -1       985 4.10833E+00
 -1       986 5.30835E+00
 -1       987 4.94887E+00
 -1       988 5.22548E+00
 -1       989 7.77828E+00
 -1       990 1.03303E+01
 -1       991 1.13840E+01
 -1       992 8.52007E+00
 -1       993 1.00289E+01
 -1       994 7.49226E+00
 -1       995 9.74290E+00
 -1       996 9.22831E+00
 -1       997 8.48653E+00
 -1       998 9.28888E+00
 -1       999 1.00895E+01
 -1      1000 8.92048E+00
 -1      1001 7.37809E+00
 -1      1002 5.66522E+00
 -1      1003 5.97306E+00
 -1      1004 7.50878E+00
 -1      1005 5.97306E+00
 -1      1006 5.79592E+00
 -1      1007 9.11174E+00
 -1      1008 5.73967E+00
 -1      1009 4.06389E+00
 -1      1010 4.15313E+00
 -1      1011 4.00490E+00
 -1      1012 4.41603E+00
 -1      1013 3.96046E+00
 -1      1014 1.94726E+01
 -1      1015 1.99209E+01
 -1      1016 1.47885E+01
 -1      1017 2.41502E+01
 -1      1018 1.56483E+01
 -1      1019 3.99851E+00
 -1      1020 3.71396E+00
 -1      1021 6.67429E+00
 -1      1022 7.61493E+00
 -1      1023 4.70885E+00
 -1      1024 7.66365E+00
 -1      1025 6.34229E+00
 -1      1026 6.67337E+00
 -1      1027 5.68401E+00
 -1      1028 4.93312E+00
 -1      1029 4.60204E+00
 -1      1030 3.95796E+00
 -1      1031 5.13764E+00
 -1      1032 5.64850E+00
 -1      1033 4.85626E+00
 -1      1034 5.22285E+00
 -1      1035 4.10011E+00
 -1      1036 4.89235E+00
 -1      1037 4.54707E+00
 -1      1038 4.12142E+00
 -1      1039 3.58823E+00
 -1      1040 3.73646E+00
 -1      1041 1.23925E+01
 -1      1042 1.74526E+01
 -1      1043 1.77441E+01
 -1      1044 1.24900E+01
 -1      1045 1.37452E+01
 -1      1046 1.50335E+01
 -1      1047 1.44126E+01
 -1      1048 1.45963E+01
 -1      1049 1.31028E+01
 -1      1050 1.13499E+01
 -1      1051 1.50177E+01
 -1      1052 1.17566E+01
 -1      1053 1.65739E+01
 -1      1054 1.82626E+01
 -1      1055 1.73961E+01
 -1      1056 1.72244E+01
 -1      1057 3.50697E+00
 -1      1058 4.73938E+00
 -1      1059 1.37172E+01
 -1      1060 1.40735E+01
 -1      1061 1.30011E+01
 -1      1062 1.52622E+01
 -1      1063 1.74493E+01
 -1      1064 1.97290E+01
 -1      1065 1.72240E+01
 -1      1066 3.32509E+00
 -1      1067 4.95368E+00
 -1      1068 4.16920E+00
 -1      1069 1.60394E+01
 -1      1070 1.74436E+01
 -1      1071 3.05572E+00
 -1      1072 4.62194E+00
 -1      1073 5.65526E+00
 -1      1074 3.96096E+00
 -1      1075 1.82173E+01
 -1      1076 1.57816E+01
 -1      1077 1.57798E+01
 -1      1078 1.09189E+01
 -1      1079 1.48982E+01
 -1      1080 1.46966E+01
 -1      1081 1.24117E+01
 -1      1082 1.53922E+01
 -1      1083 1.40145E+01
 -1      1084 1.31381E+01
 -1      1085 2.02220E+01
 -1      1086 2.10860E+01
 -1      1087 1.16813E+01
 -1      1088 9.91075E+00
 -1      1089 7.06953E+00
 -1      1090 9.63734E+00
 -1      1091 1.07550E+01
 -1      1092 1.34655E+01
 -1      1093 2.80611E+00
 -1      1094 3.88215E+00
 -1      1095 5.19898E+00
 -1      1096 5.19898E+00
 -1      1097 4.37288E+00
 -1      1098 3.96100E+00
 -1      1099 3.42377E+00
 -1      1100 3.77763E+00
 -1      1101 4.70863E+00
 -1      1102 4.28871E+00
 -1      1103 4.28871E+00
 -1      1104 3.10426E+00
 -1      1105 3.70039E+00
 -1      1106 4.14644E+00
 -1      1107 2.77715E+00
 -1      1108 2.57680E+00
 -1      1109 3.70039E+00
 -1      1110 4.24984E+00
 -1      1111 3.52905E+00
 -1      1112 3.60951E+00
 -1      1113 3.62283E+00
 -1      1114 3.62283E+00
 -1      1115 4.34105E+00
 -1      1116 3.63699E+00
 -1      1117 3.37341E+00
 -1      1118 3.62283E+00
 -1      1119 3.50786E+00
 -1      1120 3.98541E+00
 -1      1121 4.48371E+00
 -1      1122 4.25050E+00
 -1      1123 4.61948E+00
 -1      1124 4.61948E+00
 -1      1125 5.19898E+00
 -1      1126 4.18795E+00
 -1      1127 6.46692E+00
 -1      1128 3.86906E+00
 -1      1129 3.86906E+00
 -1      1130 4.81572E+00
 -1      1131 5.19456E+00
 -1      1132 6.64269E+00
 -1      1133 3.13125E+00
 -1      1134 3.04077E+00
 -1      1135 3.65888E+00
 -1      1136 3.98541E+00
 -1      1137 4.58845E+00
 -1      1138 4.56517E+00
 -1      1139 4.92836E+00
 -1      1140 4.14797E+00
 -1      1141 5.95672E+00
 -1      1142 4.73421E+00
 -1      1143 3.61381E+00
 -1      1144 3.11596E+00
 -1      1145 3.14139E+00
 -1      1146 3.53951E+00
 -1      1147 3.70905E+00
 -1      1148 3.70905E+00
 -1      1149 3.86191E+00
 -1      1150 2.47688E+00
 -1      1151 3.60553E+00
 -1      1152 3.51033E+00
 -1      1153 4.61716E+00
 -1      1154 4.78861E+00
 -1      1155 3.70657E+00
 -1      1156 6.46692E+00
 -1      1157 4.37326E+00
 -1      1158 3.66230E+00
 -1      1159 3.90672E+00
 -1      1160 3.90672E+00
 -1      1161 3.90672E+00
 -1      1162 4.73640E+00
 -1      1163 5.99868E+00
 -1      1164 4.39221E+00
 -1      1165 4.65322E+00
 -1      1166 5.56981E+00
 -1      1167 4.86262E+00
 -1      1168 4.65070E+00
 -1      1169 3.80213E+00
 -1      1170 5.15325E+00
 -1      1171 5.91910E+00
 -1      1172 4.30222E+00
 -1      1173 7.71794E+00
 -1      1174 3.69033E+00
 -1      1175 5.06574E+00
 -1      1176 3.29171E+00
 -1      1177 5.90816E+00
 -1      1178 5.06574E+00
 -1      1179 6.64269E+00
 -1      1180 4.59894E+00
 -1      1181 7.25572E+00
 -1      1182 5.99868E+00
 -1      1183 5.77706E+00
 -1      1184 6.83168E+00
 -1      1185 6.85710E+00
 -1      1186 5.94408E+00
 -1      1187 3.13694E+00
 -1      1188 3.23927E+00
 -1      1189 5.81717E+00
 -1      1190 5.03722E+00
 -1      1191 5.90847E+00
 -1      1192 7.76972E+00
 -1      1193 7.03015E+00
 -1      1194 7.74842E+00
 -1      1195 7.76972E+00
 -1      1196 5.76477E+00
 -1      1197 7.58599E+00
 -1      1198 4.46312E+00
 -1      1199 5.07009E+00
 -1      1200 6.85608E+00
 -1      1201 5.98572E+00
 -1      1202 5.98572E+00
 -1      1203 5.72768E+00
 -1      1204 6.58953E+00
 -1      1205 5.66500E+00
 -1      1206 6.58953E+00
 -1      1207 7.19031E+00
 -1      1208 5.69682E+00
 -1      1209 6.85710E+00
 -1      1210 5.81717E+00
 -1      1211 4.93717E+00
 -1      1212 6.36508E+00
 -1      1213 2.98602E+00
 -1      1214 3.09663E+00
 -1      1215 8.48977E+00
 -1      1216 5.46121E+00
 -1      1217 4.58845E+00
 -1      1218 7.78119E+00
 -1      1219 1.57621E+01
 -1      1220 1.73902E+01
 -1      1221 5.21735E+00
 -1      1222 8.27996E+00
 -1      1223 6.02322E+00
 -1      1224 5.59851E+00
 -1      1225 6.33659E+00
 -1      1226 3.48738E+00
 -1      1227 3.60611E+00
 -1      1228 3.32888E+00
 -1      1229 5.06703E+00
 -1      1230 8.99153E+00
 -1      1231 1.00094E+01
 -1      1232 8.74711E+00
 -1      1233 6.33659E+00
 -1      1234 7.96400E+00
 -1      1235 5.99868E+00
 -1      1236 4.94124E+00
 -1      1237 3.37606E+00
 -1      1238 4.74179E+00
 -1      1239 4.15623E+00
 -1      1240 6.06966E+00
 -1      1241 3.64102E+00
 -1      1242 5.76350E+00
 -1      1243 8.99153E+00
 -1      1244 4.78660E+00
 -1      1245 9.75040E+00
 -1      1246 7.81485E+00
 -1      1247 5.89784E+00
 -1      1248 1.16775E+01
 -1      1249 5.73237E+00
 -1      1250 4.72268E+00
 -1      1251 7.25572E+00
 -1      1252 5.85116E+00
 -1      1253 8.22672E+00
 -1      1254 4.79897E+00
 -1      1255 3.79853E+00
 -1      1256 7.76012E+00
 -1      1257 8.51433E+00
 -1      1258 8.67901E+00
 -1      1259 5.63140E+00
 -1      1260 7.19087E+00
 -1      1261 8.83967E+00
 -1      1262 5.81717E+00
 -1      1263 2.63374E+00
 -1      1264 4.81572E+00
 -1      1265 6.08735E+00
 -1      1266 4.41210E+00
 -1      1267 6.36508E+00
 -1      1268 3.01451E+00
 -1      1269 5.03362E+00
 -1      1270 5.69682E+00
 -1      1271 6.83648E+00
 -1      1272 4.74074E+00
 -1      1273 3.23780E+00
 -1      1274 4.41883E+00
 -1      1275 4.32030E+00
 -1      1276 7.26763E+00
 -1      1277 6.95980E+00
 -1      1278 3.71487E+00
 -1      1279 5.05836E+00
 -1      1280 3.71068E+00
 -1      1281 7.58599E+00
 -1      1282 6.83063E+00
 -1      1283 6.85608E+00
 -1      1284 7.58599E+00
 -1      1285 7.06953E+00
 -1      1286 6.98045E+00
 -1      1287 6.58953E+00
 -1      1288 9.28169E+00
 -1      1289 9.55805E+00
 -1      1290 6.45705E+00
 -1      1291 4.78660E+00
 -1      1292 6.45705E+00
 -1      1293 9.58642E+00
 -1      1294 9.58642E+00
 -1      1295 5.21987E+00
 -1      1296 5.46121E+00
 -1      1297 3.98611E+00
 -1      1298 9.67651E+00
 -1      1299 9.46412E+00
 -1      1300 2.36837E+00
 -1      1301 4.92836E+00
 -1      1302 8.25517E+00
 -1      1303 3.13409E+00
 -1      1304 3.77477E+00
 -1      1305 4.27071E+00
 -1      1306 8.60407E+00
 -1      1307 8.60407E+00
 -1      1308 5.50719E+00
 -1      1309 6.85710E+00
 -1      1310 6.40520E+00
 -1      1311 1.15638E+01
 -1      1312 8.20454E+00
 -1      1313 9.05079E+00
 -1      1314 4.09922E+00
 -1      1315 8.74711E+00
 -1      1316 8.69123E+00
 -1      1317 7.96400E+00
 -1      1318 9.23271E+00
 -1      1319 1.48134E+01
 -1      1320 1.48134E+01
 -1      1321 1.26465E+01
 -1      1322 1.02684E+01
 -1      1323 4.02842E+00
 -1      1324 3.32509E+00
 -1      1325 4.95368E+00
 -1      1326 5.72408E+00
 -1      1327 8.27996E+00
 -1      1328 3.42151E+00
 -1      1329 8.32203E+00
 -1      1330 8.14949E+00
 -1      1331 7.78396E+00
 -1      1332 5.03722E+00
 -1      1333 8.56671E+00
 -1      1334 1.03282E+01
 -1      1335 2.87053E+00
 -1      1336 7.65995E+00
 -1      1337 8.48977E+00
 -1      1338 2.10525E+00
 -1      1339 1.30379E+01
 -1      1340 9.12847E+00
 -1      1341 9.12847E+00
 -1      1342 6.50735E+00
 -1      1343 6.21084E+00
 -1      1344 8.99153E+00
 -1      1345 4.08952E+00
 -1      1346 3.81626E+00
 -1      1347 4.55398E+00
 -1      1348 8.22672E+00
 -1      1349 3.70135E+00
 -1      1350 3.18508E+00
 -1      1351 9.03994E+00
 -1      1352 1.13534E+01
 -1      1353 6.92309E+00
 -1      1354 8.30733E+00
 -1      1355 4.61948E+00
 -1      1356 9.58642E+00
 -1      1357 9.45416E+00
 -1      1358 1.13598E+01
 -1      1359 8.52600E+00
 -1      1360 4.95895E+00
 -1      1361 4.94748E+00
 -1      1362 3.50237E+00
 -1      1363 9.21053E+00
 -1      1364 1.08934E+01
 -1      1365 1.50335E+01
 -1      1366 3.52187E+00
 -1      1367 3.79853E+00
 -1      1368 8.66892E+00
 -1      1369 1.80405E+01
 -1      1370 1.85235E+01
 -1      1371 3.29171E+00
 -1      1372 3.29171E+00
 -1      1373 4.98078E+00
 -1      1374 3.82167E+00
 -1      1375 1.74436E+01
 -1      1376 1.74084E+01
 -1      1377 8.56671E+00
 -1      1378 1.60394E+01
 -1      1379 1.42250E+01
 -1      1380 1.34069E+01
 -1      1381 9.40586E+00
 -1      1382 1.82626E+01
 -1      1383 8.70246E+00
 -1      1384 1.37172E+01
 -1      1385 1.09419E+01
 -1      1386 1.42409E+01
 -1      1387 1.22204E+01
 -1      1388 7.58218E+00
 -1      1389 1.65760E+01
 -1      1390 1.70657E+01
 -1      1391 1.09189E+01
 -1      1392 1.60594E+01
 -1      1393 1.03282E+01
 -1      1394 1.91360E+01
 -1      1395 9.60649E+00
 -1      1396 1.46966E+01
 -1      1397 1.13499E+01
 -1      1398 1.13499E+01
 -1      1399 1.73234E+01
 -1      1400 1.04528E+01
 -1      1401 9.25039E+00
 -1      1402 1.73234E+01
 -1      1403 1.17863E+01
 -1      1404 1.03829E+01
 -1      1405 1.74387E+01
 -1      1406 1.74493E+01
 -1      1407 1.73222E+01
 -1      1408 1.65429E+01
 -1      1409 1.67750E+01
 -1      1410 8.18442E+00
 -1      1411 1.27202E+01
 -1      1412 1.73222E+01
 -1      1413 1.97290E+01
 -1      1414 9.32701E+00
 -1      1415 1.74360E+01
 -1      1416 1.77441E+01
 -1      1417 1.16775E+01
 -1      1418 1.57621E+01
 -1      1419 1.72240E+01
 -1      1420 1.55752E+01
 -1      1421 1.73961E+01
 -1      1422 2.02220E+01
 -1      1423 1.72244E+01
 -1      1424 1.86342E+01
 -1      1425 1.73902E+01
 -1      1426 9.05563E+00
 -1      1427 8.14115E+00
 -1      1428 8.46500E+00
 -1      1429 8.60680E+00
 -1      1430 4.73938E+00
 -1      1431 4.14644E+00
 -1      1432 8.26200E+00
 -1      1433 3.64102E+00
 -1      1434 3.21534E+00
 -1      1435 9.62505E+00
 -1      1436 8.65182E+00
 -1      1437 8.67901E+00
 -1      1438 7.27825E+00
 -1      1439 4.31368E+00
 -1      1440 6.06966E+00
 -1      1441 3.82128E+00
 -1      1442 3.14139E+00
 -1      1443 8.88409E+00
 -1      1444 5.68625E+00
 -1      1445 7.72688E+00
 -1      1446 1.04752E+01
 -1      1447 4.72268E+00
 -1      1448 4.62453E+00
 -1      1449 3.39042E+00
 -1      1450 2.61790E+00
 -1      1451 1.52392E+01
 -1      1452 7.03015E+00
 -1      1453 1.05536E+01
 -1      1454 2.64830E+00
 -1      1455 7.56553E+00
 -1      1456 8.88863E+00
 -1      1457 2.61790E+00
 -1      1458 5.21987E+00
 -1      1459 8.67901E+00
 -1      1460 1.48134E+01
 -1      1461 4.78861E+00
 -1      1462 5.03722E+00
 -1      1463 4.32030E+00
 -1      1464 4.75652E+00
 -1      1465 3.24772E+00
 -1      1466 4.06535E+00
 -1      1467 9.05079E+00
 -1      1468 1.14111E+01
 -1      1469 3.01451E+00
 -1      1470 3.50627E+00
 -1      1471 5.07009E+00
 -1      1472 2.78208E+00
 -1      1473 4.79897E+00
 -1      1474 3.42040E+00
 -1      1475 7.92285E+00
 -1      1476 6.69563E+00
 -1      1477 1.01045E+01
 -1      1478 4.16920E+00
 -1      1479 5.63140E+00
 -1      1480 1.03422E+01
 -1      1481 6.64269E+00
 -1      1482 3.74673E+00
 -1      1483 8.30498E+00
 -1      1484 6.21875E+00
 -1      1485 5.19752E+00
 -1      1486 2.32493E+00
 -1      1487 4.35524E+00
 -1      1488 1.57816E+01
 -1      1489 3.20183E+00
 -1      1490 1.11605E+01
 -1      1491 6.50735E+00
 -1      1492 8.05216E+00
 -1      1493 8.04766E+00
 -1      1494 5.90434E+00
 -1      1495 4.63339E+00
 -1      1496 3.34973E+00
 -1      1497 3.53951E+00
 -1      1498 8.60407E+00
 -1      1499 7.59503E+00
 -1      1500 3.18508E+00
 -1      1501 8.78909E+00
 -1      1502 7.62896E+00
 -1      1503 1.13598E+01
 -1      1504 9.28169E+00
 -1      1505 1.52392E+01
 -1      1506 7.92230E+00
 -1      1507 2.10860E+01
 -1      1508 8.66892E+00
 -1      1509 1.04752E+01
 -1      1510 9.25039E+00
 -1      1511 4.18234E+00
 -1      1512 1.06379E+01
 -1      1513 8.46500E+00
 -1      1514 9.07903E+00
 -1      1515 7.30042E+00
 -1      1516 7.14189E+00
 -1      1517 8.52600E+00
 -1      1518 8.29674E+00
 -1      1519 8.14901E+00
 -1      1520 9.28169E+00
 -1      1521 1.24577E+01
 -1      1522 3.42151E+00
 -1      1523 3.65140E+00
 -1      1524 1.52256E+01
 -1      1525 5.72408E+00
 -1      1526 3.98611E+00
 -1      1527 5.85116E+00
 -1      1528 3.75024E+00
 -1      1529 5.58198E+00
 -1      1530 3.11596E+00
 -1      1531 3.54863E+00
 -1      1532 7.56815E+00
 -1      1533 1.08934E+01
 -1      1534 1.52256E+01
 -1      1535 7.25572E+00
 -1      1536 4.73421E+00
 -1      1537 8.22672E+00
 -1      1538 6.84954E+00
 -1      1539 8.27996E+00
 -1      1540 4.60678E+00
 -1      1541 6.55190E+00
 -1      1542 3.36316E+00
 -1      1543 7.88559E+00
 -1      1544 9.67651E+00
 -1      1545 9.67651E+00
 -1      1546 2.77308E+00
 -1      1547 3.14139E+00
 -1      1548 3.95265E+00
 -1      1549 6.36508E+00
 -1      1550 1.01876E+01
 -1      1551 4.08239E+00
 -1      1552 8.60839E+00
 -1      1553 2.10525E+00
 -1      1554 7.09249E+00
 -1      1555 4.28724E+00
 -1      1556 3.70657E+00
 -1      1557 7.70952E+00
 -1      1558 7.38364E+00
 -1      1559 8.95765E+00
 -1      1560 5.68625E+00
 -1      1561 5.05836E+00
 -1      1562 8.56671E+00
 -1      1563 1.01876E+01
 -1      1564 1.80405E+01
 -1      1565 1.85235E+01
 -1      1566 6.98045E+00
 -1      1567 3.65888E+00
 -1      1568 4.25050E+00
 -1      1569 1.52622E+01
 -1      1570 4.78292E+00
 -1      1571 2.51805E+00
 -1      1572 7.74246E+00
 -1      1573 8.30498E+00
 -1      1574 3.33228E+00
 -1      1575 8.05216E+00
 -1      1576 7.54627E+00
 -1      1577 2.98602E+00
 -1      1578 7.61310E+00
 -1      1579 3.09726E+00
 -1      1580 7.06535E+00
 -1      1581 1.13534E+01
 -1      1582 4.62194E+00
 -1      1583 8.48977E+00
 -1      1584 6.96058E+00
 -1      1585 5.85116E+00
 -1      1586 2.06499E+00
 -1      1587 6.85608E+00
 -1      1588 4.13283E+00
 -1      1589 1.30379E+01
 -1      1590 3.57824E+00
 -1      1591 8.83967E+00
 -1      1592 9.87423E+00
 -1      1593 9.24569E+00
 -1      1594 9.84037E+00
 -1      1595 2.04334E+01
 -1      1596 1.46839E+01
 -1      1597 2.01990E+01
 -1      1598 8.94144E+00
 -1      1599 9.04088E+00
 -1      1600 9.61584E+00
 -1      1601 1.59945E+01
 -1      1602 2.05809E+01
 -1      1603 2.01008E+01
 -1      1604 9.63734E+00
 -1      1605 9.41611E+00
 -1      1606 1.00955E+01
 -1      1607 7.09575E+00
 -1      1608 8.68990E+00
 -1      1609 1.22254E+01
 -1      1610 1.22254E+01
 -1      1611 1.12779E+01
 -1      1612 5.08618E+00
 -1      1613 6.05215E+00
 -1      1614 6.69886E+00
 -1      1615 3.78581E+00
 -1      1616 4.30817E+00
 -1      1617 4.87724E+00
 -1      1618 3.19396E+00
 -1      1619 3.48968E+00
 -1      1620 3.80310E+00
 -1      1621 2.64739E+00
 -1      1622 2.84353E+00
 -1      1623 3.15654E+00
 -1      1624 2.84842E+00
 -1      1625 2.95509E+00
 -1      1626 2.95509E+00
 -1      1627 3.11381E+00
 -1      1628 3.42151E+00
 -1      1629 2.77312E+00
 -1      1630 2.80021E+00
 -1      1631 3.37330E+00
 -1      1632 2.65921E+00
 -1      1633 2.65921E+00
 -1      1634 2.77312E+00
 -1      1635 3.32509E+00
 -1      1636 3.21118E+00
 -1      1637 3.30762E+00
 -1      1638 3.19517E+00
 -1      1639 3.63323E+00
 -1      1640 2.93738E+00
 -1      1641 2.79007E+00
 -1      1642 3.30762E+00
 -1      1643 4.16920E+00
 -1      1644 3.65164E+00
 -1      1645 3.47489E+00
 -1      1646 3.35082E+00
 -1      1647 3.54752E+00
 -1      1648 9.66084E+00
 -1      1649 5.77777E+00
 -1      1650 5.77777E+00
 -1      1651 6.26384E+00
 -1      1652 8.56671E+00
 -1      1653 1.10411E+01
 -1      1654 1.07550E+01
 -1      1655 9.66084E+00
 -1      1656 1.43977E+01
 -1      1657 1.03119E+01
 -1      1658 1.03214E+01
 -1      1659 1.13755E+01
 -1      1660 8.95349E+00
 -1      1661 7.89982E+00
 -1      1662 1.12786E+01
 -1      1663 4.85258E+00
 -1      1664 3.81626E+00
 -1      1665 7.99021E+00
 -1      1666 5.97927E+00
 -1      1667 4.94296E+00
 -1      1668 3.43599E+00
 -1      1669 3.31360E+00
 -1      1670 3.43599E+00
 -1      1671 3.45189E+00
 -1      1672 2.82112E+00
 -1      1673 3.54207E+00
 -1      1674 3.79996E+00
 -1      1675 3.68035E+00
 -1      1676 3.52467E+00
 -1      1677 3.42674E+00
 -1      1678 4.03583E+00
 -1      1679 3.05010E+00
 -1      1680 3.21432E+00
 -1      1681 4.36274E+00
 -1      1682 3.49825E+00
 -1      1683 3.28919E+00
 -1      1684 4.27005E+00
 -1      1685 3.21432E+00
 -1      1686 3.98611E+00
 -1      1687 3.48904E+00
 -1      1688 3.99005E+00
 -1      1689 4.75383E+00
 -1      1690 3.82418E+00
 -1      1691 3.52008E+00
 -1      1692 4.95368E+00
 -1      1693 3.99005E+00
 -1      1694 4.78781E+00
 -1      1695 3.52008E+00
 -1      1696 3.78783E+00
 -1      1697 4.62194E+00
 -1      1698 3.56803E+00
 -1      1699 4.27705E+00
 -1      1700 4.40214E+00
 -1      1701 5.72065E+00
 -1      1702 1.02675E+01
 -1      1703 5.62594E+00
 -1      1704 1.34655E+01
 -1      1705 1.34655E+01
 -1      1706 1.02675E+01
 -1      1707 1.59945E+01
 -1      1708 1.04110E+01
 -1      1709 9.69778E+00
 -1      1710 1.01865E+01
 -1      1711 2.10847E+01
 -1      1712 2.01990E+01
 -1      1713 1.80405E+01
 -1      1714 1.53612E+01
 -1      1715 1.79051E+01
 -1      1716 1.48609E+01
 -1      1717 2.08976E+01
 -1      1718 1.82248E+01
 -1      1719 1.45449E+01
 -1      1720 2.06694E+01
 -1      1721 2.09152E+01
 -1      1722 1.74260E+01
 -1      1723 1.83378E+01
 -1      1724 2.06694E+01
 -1      1725 1.74436E+01
 -1      1726 1.62054E+01
 -1      1727 1.67285E+01
 -1      1728 1.58343E+01
 -1      1729 1.77269E+01
 -1      1730 1.61297E+01
 -1      1731 1.41493E+01
 -1      1732 1.75661E+01
 -1      1733 1.73936E+01
 -1      1734 1.37402E+01
 -1      1735 2.04698E+01
 -1      1736 1.99713E+01
 -1      1737 1.58121E+01
 -1      1738 2.08112E+01
 -1      1739 2.04924E+01
 -1      1740 1.82400E+01
 -1      1741 1.88527E+01
 -1      1742 2.08112E+01
 -1      1743 1.82626E+01
 -1      1744 1.66665E+01
 -1      1745 1.51923E+01
 -1      1746 1.46023E+01
 -1      1747 1.91502E+01
 -1      1748 1.90854E+01
 -1      1749 1.33609E+01
 -1      1750 2.05130E+01
 -1      1751 1.95483E+01
 -1      1752 1.61779E+01
 -1      1753 1.90136E+01
 -1      1754 2.05119E+01
 -1      1755 1.65749E+01
 -1      1756 1.54465E+01
 -1      1757 1.68369E+01
 -1      1758 1.43972E+01
 -1      1759 1.82394E+01
 -1      1760 1.66846E+01
 -1      1761 1.34585E+01
 -1      1762 1.82497E+01
 -1      1763 1.82394E+01
 -1      1764 1.46966E+01
 -1      1765 1.68815E+01
 -1      1766 1.74528E+01
 -1      1767 1.38997E+01
 -1      1768 1.50470E+01
 -1      1769 1.51333E+01
 -1      1770 1.13547E+01
 -1      1771 1.61879E+01
 -1      1772 1.64496E+01
 -1      1773 1.10091E+01
 -1      1774 1.96458E+01
 -1      1775 1.76017E+01
 -1      1776 1.38255E+01
 -1      1777 1.96062E+01
 -1      1778 1.96458E+01
 -1      1779 1.52392E+01
 -1      1780 1.75900E+01
 -1      1781 1.91928E+01
 -1      1782 1.48259E+01
 -1      1783 1.50646E+01
 -1      1784 1.55548E+01
 -1      1785 1.23774E+01
 -1      1786 1.85649E+01
 -1      1787 1.75245E+01
 -1      1788 1.28022E+01
 -1      1789 1.86918E+01
 -1      1790 1.85649E+01
 -1      1791 1.52622E+01
 -1      1792 1.65243E+01
 -1      1793 1.72896E+01
 -1      1794 1.38599E+01
 -1      1795 1.83580E+01
 -1      1796 1.78122E+01
 -1      1797 1.37456E+01
 -1      1798 1.79985E+01
 -1      1799 1.83580E+01
 -1      1800 1.50335E+01
 -1      1801 1.75005E+01
 -1      1802 1.56732E+01
 -1      1803 1.27082E+01
 -1      1804 1.99612E+01
 -1      1805 2.10337E+01
 -1      1806 1.39161E+01
 -1      1807 1.98752E+01
 -1      1808 1.99612E+01
 -1      1809 1.74493E+01
 -1      1810 1.75862E+01
 -1      1811 1.98699E+01
 -1      1812 1.74440E+01
 -1      1813 1.38643E+01
 -1      1814 1.38716E+01
 -1      1815 1.37240E+01
 -1      1816 1.83068E+01
 -1      1817 1.71311E+01
 -1      1818 1.32762E+01
 -1      1819 1.70421E+01
 -1      1820 1.69079E+01
 -1      1821 1.51441E+01
 -1      1822 2.09172E+01
 -1      1823 1.85570E+01
 -1      1824 1.52601E+01
 -1      1825 2.14713E+01
 -1      1826 2.11416E+01
 -1      1827 1.69995E+01
 -1      1828 2.00879E+01
 -1      1829 2.14713E+01
 -1      1830 1.72240E+01
 -1      1831 1.58139E+01
 -1      1832 1.61394E+01
 -1      1833 1.32755E+01
 -1      1834 1.69367E+01
 -1      1835 1.69891E+01
 -1      1836 1.05022E+01
 -1      1837 1.63295E+01
 -1      1838 1.69367E+01
 -1      1839 1.16775E+01
 -1      1840 1.86571E+01
 -1      1841 1.92171E+01
 -1      1842 1.45650E+01
 -1      1843 1.79211E+01
 -1      1844 1.78119E+01
 -1      1845 1.66074E+01
 -1      1846 1.79997E+01
 -1      1847 1.79211E+01
 -1      1848 1.57621E+01
 -1      1849 2.09728E+01
 -1      1850 1.87309E+01
 -1      1851 1.64933E+01
 -1      1852 2.03647E+01
 -1      1853 2.09728E+01
 -1      1854 1.72244E+01
 -1      1855 2.20038E+01
 -1      1856 2.04476E+01
 -1      1857 1.73073E+01
 -1      1858 2.07744E+01
 -1      1859 2.20038E+01
 -1      1860 1.73902E+01
 -1      1861 2.25324E+01
 -1      1862 2.13964E+01
 -1      1863 1.80122E+01
 -1      1864 1.78273E+01
 -1      1865 1.94116E+01
 -1      1866 1.55133E+01
 -1      1867 2.23558E+01
 -1      1868 2.17420E+01
 -1      1869 1.63073E+01
 -1      1870 2.17970E+01
 -1      1871 2.23558E+01
 -1      1872 2.02220E+01
 -1      1873 2.19395E+01
 -1      1874 2.03841E+01
 -1      1875 1.88091E+01
 -1      1876 2.04280E+01
 -1      1877 2.19395E+01
 -1      1878 1.73961E+01
 -1      1879 1.94568E+01
 -1      1880 1.95175E+01
 -1      1881 1.64857E+01
 -1      1882 1.78700E+01
 -1      1883 1.82383E+01
 -1      1884 1.43567E+01
 -1      1885 2.08058E+01
 -1      1886 2.01731E+01
 -1      1887 1.54411E+01
 -1      1888 2.19186E+01
 -1      1889 2.08058E+01
 -1      1890 1.77441E+01
 -1      1891 2.07839E+01
 -1      1892 2.17646E+01
 -1      1893 1.75901E+01
 -1      1894 1.76534E+01
 -1      1895 1.90732E+01
 -1      1896 1.57253E+01
 -1      1897 2.19920E+01
 -1      1898 2.05107E+01
 -1      1899 1.68718E+01
 -1      1900 2.15271E+01
 -1      1901 2.19920E+01
 -1      1902 1.97290E+01
 -1      1903 2.07405E+01
 -1      1904 2.03237E+01
 -1      1905 1.85256E+01
 -1      1906 1.97236E+01
 -1      1907 2.07405E+01
 -1      1908 1.73222E+01
 -1      1909 1.84958E+01
 -1      1910 1.73075E+01
 -1      1911 1.49061E+01
 -1      1912 1.82862E+01
 -1      1913 1.86109E+01
 -1      1914 1.26051E+01
 -1      1915 1.75987E+01
 -1      1916 1.78193E+01
 -1      1917 1.22532E+01
 -1      1918 1.73780E+01
 -1      1919 1.82061E+01
 -1      1920 1.23937E+01
 -1      1921 2.02149E+01
 -1      1922 1.84902E+01
 -1      1923 1.41134E+01
 -1      1924 2.00552E+01
 -1      1925 2.02149E+01
 -1      1926 1.52256E+01
 -1      1927 1.86984E+01
 -1      1928 1.97405E+01
 -1      1929 1.49109E+01
 -1      1930 1.98217E+01
 -1      1931 2.00620E+01
 -1      1932 1.59599E+01
 -1      1933 1.98688E+01
 -1      1934 1.98217E+01
 -1      1935 1.73234E+01
 -1      1936 1.81880E+01
 -1      1937 1.89032E+01
 -1      1938 1.63578E+01
 -1      1939 1.61668E+01
 -1      1940 1.61668E+01
 -1      1941 1.33710E+01
 -1      1942 1.38577E+01
 -1      1943 1.61668E+01
 -1      1944 1.13499E+01
 -1      1945 1.53593E+01
 -1      1946 1.34091E+01
 -1      1947 1.09013E+01
 -1      1948 2.02913E+01
 -1      1949 1.97009E+01
 -1      1950 1.47944E+01
 -1      1951 1.82794E+01
 -1      1952 1.81724E+01
 -1      1953 1.70171E+01
 -1      1954 1.71578E+01
 -1      1955 1.88600E+01
 -1      1956 1.54788E+01
 -1      1957 1.94168E+01
 -1      1958 1.66370E+01
 -1      1959 1.55386E+01
 -1      1960 1.84955E+01
 -1      1961 1.73673E+01
 -1      1962 1.29683E+01
 -1      1963 1.77205E+01
 -1      1964 1.84955E+01
 -1      1965 1.09189E+01
 -1      1966 1.99249E+01
 -1      1967 2.07939E+01
 -1      1968 1.39923E+01
 -1      1969 1.74711E+01
 -1      1970 1.72703E+01
 -1      1971 1.44112E+01
 -1      1972 1.78410E+01
 -1      1973 1.87132E+01
 -1      1974 1.29988E+01
 -1      1975 1.90664E+01
 -1      1976 1.86114E+01
 -1      1977 1.50112E+01
 -1      1978 1.84132E+01
 -1      1979 1.90664E+01
 -1      1980 1.57816E+01
 -1      1981 1.77458E+01
 -1      1982 1.73810E+01
 -1      1983 1.47494E+01
 -1      1984 1.65128E+01
 -1      1985 1.77458E+01
 -1      1986 1.37172E+01
 -1      1987 1.39010E+01
 -1      1988 1.43572E+01
 -1      1989 1.15615E+01
 -1      1990 1.85394E+01
 -1      1991 1.72178E+01
 -1      1992 1.27226E+01
 -1      1993 1.89650E+01
 -1      1994 1.85394E+01
 -1      1995 1.60394E+01
 -1      1996 2.26422E+01
 -1      1997 2.14883E+01
 -1      1998 1.85627E+01
 -1      1999 2.18449E+01
 -1      2000 2.26422E+01
 -1      2001 2.10860E+01
 -1      2002 2.01008E+01
 -1      2003 2.05637E+01
 -1      2004 1.98047E+01
 -1      2005 1.85235E+01
 -1      2006 1.42646E+01
 -1      2007 1.03499E+01
 -1      2008 8.22817E+00
 -1      2009 1.02708E+01
 -1      2010 1.33916E+01
 -1      2011 1.32541E+01
 -1      2012 1.03665E+01
 -1      2013 1.23599E+01
 -1      2014 1.32051E+01
 -1      2015 9.00664E+00
 -1      2016 1.23571E+01
 -1      2017 1.25112E+01
 -1      2018 1.24430E+01
 -1      2019 1.24430E+01
 -1      2020 7.21007E+00
 -1      2021 9.79123E+00
 -1      2022 1.22074E+01
 -1      2023 1.07546E+01
 -1      2024 1.06395E+01
 -1      2025 7.94079E+00
 -1      2026 1.14121E+01
 -1      2027 1.28110E+01
 -1      2028 1.25185E+01
 -1      2029 1.10036E+01
 -1      2030 8.67052E+00
 -1      2031 1.22958E+01
 -1      2032 1.22958E+01
 -1      2033 1.19611E+01
 -1      2034 9.22334E+00
 -1      2035 9.63578E+00
 -1      2036 9.96433E+00
 -1      2037 1.19995E+01
 -1      2038 1.04731E+01
 -1      2039 1.28862E+01
 -1      2040 1.32995E+01
 -1      2041 1.28942E+01
 -1      2042 1.15306E+01
 -1      2043 1.07514E+01
 -1      2044 1.38171E+01
 -1      2045 1.41318E+01
 -1      2046 9.04813E+00
 -1      2047 1.07963E+01
 -1      2048 9.48247E+00
 -1      2049 1.17890E+01
 -1      2050 1.25859E+01
 -1      2051 1.13499E+01
 -1      2052 1.13499E+01
 -1      2053 1.12552E+01
 -1      2054 1.12552E+01
 -1      2055 1.08066E+01
 -1      2056 1.00846E+01
 -1      2057 1.21341E+01
 -1      2058 1.21341E+01
 -1      2059 1.26549E+01
 -1      2060 9.25039E+00
 -1      2061 1.05452E+01
 -1      2062 9.30309E+00
 -1      2063 1.02178E+01
 -1      2064 1.28724E+01
 -1      2065 7.76427E+00
 -1      2066 1.12040E+01
 -1      2067 1.33807E+01
 -1      2068 1.33807E+01
 -1      2069 1.33818E+01
 -1      2070 1.01876E+01
 -1      2071 1.32447E+01
 -1      2072 1.32447E+01
 -1      2073 1.32447E+01
 -1      2074 8.22672E+00
 -1      2075 9.58432E+00
 -1      2076 1.16021E+01
 -1      2077 1.25126E+01
 -1      2078 1.24956E+01
 -1      2079 1.24956E+01
 -1      2080 7.61200E+00
 -1      2081 1.27522E+01
 -1      2082 1.27522E+01
 -1      2083 1.27647E+01
 -1      2084 8.29247E+00
 -1      2085 1.28476E+01
 -1      2086 3.34413E+00
 -1      2087 3.69456E+00
 -1      2088 4.54057E+00
 -1      2089 4.35298E+00
 -1      2090 4.64910E+00
 -1      2091 4.19020E+00
 -1      2092 4.19020E+00
 -1      2093 4.73938E+00
 -1      2094 4.36274E+00
 -1      2095 3.48665E+00
 -1      2096 9.54118E+00
 -1      2097 1.16968E+01
 -1      2098 1.06651E+01
 -1      2099 1.06651E+01
 -1      2100 8.64481E+00
 -1      2101 1.16379E+01
 -1      2102 1.15622E+01
 -1      2103 1.15622E+01
 -1      2104 9.05079E+00
 -1      2105 1.12289E+01
 -1      2106 1.30195E+01
 -1      2107 1.23009E+01
 -1      2108 1.22825E+01
 -1      2109 1.14875E+01
 -1      2110 1.22061E+01
 -1      2111 1.41318E+01
 -1      2112 1.15987E+01
 -1      2113 1.30778E+01
 -1      2114 1.00520E+01
 -1      2115 1.22364E+01
 -1      2116 1.22364E+01
 -1      2117 1.16756E+01
 -1      2118 1.30778E+01
 -1      2119 1.08934E+01
 -1      2120 1.32204E+01
 -1      2121 1.32204E+01
 -1      2122 1.25087E+01
 -1      2123 8.27984E+00
 -1      2124 1.25034E+01
 -1      2125 1.26872E+01
 -1      2126 1.38906E+01
 -1      2127 1.38906E+01
 -1      2128 1.38906E+01
 -1      2129 8.05216E+00
 -1      2130 9.22774E+00
 -1      2131 1.31762E+01
 -1      2132 8.86763E+00
 -1      2133 1.29154E+01
 -1      2134 1.29154E+01
 -1      2135 3.25509E+00
 -1      2136 3.25509E+00
 -1      2137 3.26346E+00
 -1      2138 3.31167E+00
 -1      2139 3.19345E+00
 -1      2140 4.62046E+00
 -1      2141 4.62046E+00
 -1      2142 4.15211E+00
 -1      2143 4.35196E+00
 -1      2144 4.01874E+00
 -1      2145 3.75946E+00
 -1      2146 3.75946E+00
 -1      2147 3.22349E+00
 -1      2148 9.76890E+00
 -1      2149 1.21119E+01
 -1      2150 1.36964E+01
 -1      2151 1.62197E+01
 -1      2152 1.21119E+01
 -1      2153 1.28652E+01
 -1      2154 1.28828E+01
 -1      2155 1.27456E+01
 -1      2156 8.18485E+00
 -1      2157 1.27456E+01
 -1      2158 4.04348E+00
 -1      2159 3.66321E+00
 -1      2160 3.88849E+00
 -1      2161 3.28099E+00
 -1      2162 3.76735E+00
 -1      2163 4.61436E+00
 -1      2164 4.39456E+00
 -1      2165 4.37738E+00
 -1      2166 4.36980E+00
 -1      2167 4.37738E+00
 -1      2168 4.09437E+00
 -1      2169 4.87239E+00
 -1      2170 6.11533E+00
 -1      2171 6.89820E+00
 -1      2172 7.94180E+00
 -1      2173 3.80618E+00
 -1      2174 3.39275E+00
 -1      2175 6.10906E+00
 -1      2176 1.30698E+01
 -1      2177 1.06646E+01
 -1      2178 1.34826E+01
 -1      2179 1.34599E+01
 -1      2180 8.31238E+00
 -1      2181 1.17542E+01
 -1      2182 7.69342E+00
 -1      2183 1.17208E+01
 -1      2184 1.17208E+01
 -1      2185 1.07220E+01
 -1      2186 1.23627E+01
 -1      2187 1.19646E+01
 -1      2188 8.03617E+00
 -1      2189 1.18513E+01
 -1      2190 9.43239E+00
 -1      2191 1.28724E+01
 -1      2192 9.79895E+00
 -1      2193 9.79390E+00
 -1      2194 9.79390E+00
 -1      2195 8.67396E+00
 -1      2196 1.26132E+01
 -1      2197 1.03282E+01
 -1      2198 1.26132E+01
 -1      2199 1.47321E+01
 -1      2200 1.31938E+01
 -1      2201 1.11394E+01
 -1      2202 9.90129E+00
 -1      2203 1.25859E+01
 -1      2204 9.02867E+00
 -1      2205 1.25859E+01
 -1      2206 1.32995E+01
 -1      2207 1.18858E+01
 -1      2208 9.21259E+00
 -1      2209 9.73851E+00
 -1      2210 8.33592E+00
 -1      2211 1.09939E+01
 -1      2212 1.30150E+01
 -1      2213 1.20220E+01
 -1      2214 1.29876E+01
 -1      2215 9.64484E+00
 -1      2216 1.36473E+01
 -1      2217 1.07900E+01
 -1      2218 1.09501E+01
 -1      2219 1.26608E+01
 -1      2220 7.72556E+00
 -1      2221 1.22199E+01
 -1      2222 9.91686E+00
 -1      2223 1.03835E+01
 -1      2224 7.16229E+00
 -1      2225 1.42646E+01
 -1      2226 1.38841E+01
 -1      2227 7.92680E+00
 -1      2228 1.24712E+01
 -1      2229 1.62197E+01
 -1      2230 1.62197E+01
 -1      2231 1.13534E+01
 -1      2232 1.49385E+01
 -1      2233 1.00017E+01
 -1      2234 8.44437E+00
 -1      2235 1.01240E+01
 -1      2236 1.33036E+01
 -1      2237 1.11358E+01
 -1      2238 9.76790E+00
 -1      2239 7.84735E+00
 -1      2240 8.15112E+00
 -1      2241 1.13491E+01
 -1      2242 6.64414E+00
 -1      2243 6.64414E+00
 -1      2244 7.06953E+00
 -1      2245 5.62594E+00
 -1      2246 7.72573E+00
 -1      2247 1.48134E+01
 -1      2248 1.22254E+01
 -1      2249 1.25409E+01
 -1      2250 9.95286E+00
 -1      2251 9.66084E+00
 -1      2252 8.56671E+00
 -1      2253 1.43977E+01
 -1      2254 1.02930E+01
 -1      2255 1.24094E+01
 -1      2256 1.59945E+01
 -1      2257 3.44425E+00
 -1      2258 3.98227E+00
 -1      2259 3.75195E+00
 -1      2260 4.54057E+00
 -1      2261 5.19898E+00
 -1      2262 4.12751E+00
 -1      2263 4.78593E+00
 -1      2264 3.69226E+00
 -1      2265 3.93762E+00
 -1      2266 3.79238E+00
 -1      2267 5.19898E+00
 -1      2268 5.19898E+00
 -1      2269 4.64425E+00
 -1      2270 4.64425E+00
 -1      2271 4.16694E+00
 -1      2272 4.57999E+00
 -1      2273 4.47089E+00
 -1      2274 5.08988E+00
 -1      2275 5.08988E+00
 -1      2276 3.89832E+00
 -1      2277 3.69238E+00
 -1      2278 3.97556E+00
 -1      2279 3.50100E+00
 -1      2280 3.18645E+00
 -1      2281 3.62170E+00
 -1      2282 3.22438E+00
 -1      2283 3.60070E+00
 -1      2284 3.86931E+00
 -1      2285 4.24313E+00
 -1      2286 4.33482E+00
 -1      2287 4.84471E+00
 -1      2288 3.56932E+00
 -1      2289 3.74625E+00
 -1      2290 2.89607E+00
 -1      2291 3.04162E+00
 -1      2292 2.97330E+00
 -1      2293 4.03317E+00
 -1      2294 4.49867E+00
 -1      2295 4.03317E+00
 -1      2296 4.28871E+00
 -1      2297 4.00179E+00
 -1      2298 3.46850E+00
 -1      2299 3.67847E+00
 -1      2300 4.26515E+00
 -1      2301 4.40122E+00
 -1      2302 3.23498E+00
 -1      2303 3.69648E+00
 -1      2304 3.69648E+00
 -1      2305 3.40232E+00
 -1      2306 3.99455E+00
 -1      2307 3.17434E+00
 -1      2308 3.53293E+00
 -1      2309 2.94070E+00
 -1      2310 3.43275E+00
 -1      2311 2.67698E+00
 -1      2312 3.14583E+00
 -1      2313 3.62535E+00
 -1      2314 3.92342E+00
 -1      2315 3.43951E+00
 -1      2316 3.96061E+00
 -1      2317 3.27596E+00
 -1      2318 3.92342E+00
 -1      2319 3.70039E+00
 -1      2320 3.53690E+00
 -1      2321 3.53690E+00
 -1      2322 3.01086E+00
 -1      2323 4.19814E+00
 -1      2324 3.97511E+00
 -1      2325 3.83775E+00
 -1      2326 3.88945E+00
 -1      2327 4.14644E+00
 -1      2328 3.83775E+00
 -1      2329 3.96061E+00
 -1      2330 3.45892E+00
 -1      2331 3.55910E+00
 -1      2332 4.02120E+00
 -1      2333 3.23925E+00
 -1      2334 2.64760E+00
 -1      2335 3.14641E+00
 -1      2336 3.10970E+00
 -1      2337 3.10689E+00
 -1      2338 3.98902E+00
 -1      2339 2.85909E+00
 -1      2340 3.38919E+00
 -1      2341 3.42813E+00
 -1      2342 2.85909E+00
 -1      2343 3.14139E+00
 -1      2344 3.88585E+00
 -1      2345 3.61113E+00
 -1      2346 3.37058E+00
 -1      2347 3.20709E+00
 -1      2348 3.28132E+00
 -1      2349 3.56928E+00
 -1      2350 3.92967E+00
 -1      2351 3.66010E+00
 -1      2352 3.98026E+00
 -1      2353 3.61627E+00
 -1      2354 3.57594E+00
 -1      2355 3.61617E+00
 -1      2356 3.27178E+00
 -1      2357 3.31867E+00
 -1      2358 3.58048E+00
 -1      2359 3.62283E+00
 -1      2360 3.61617E+00
 -1      2361 3.52162E+00
 -1      2362 3.51496E+00
 -1      2363 3.56554E+00
 -1      2364 3.62283E+00
 -1      2365 3.62283E+00
 -1      2366 3.93667E+00
 -1      2367 3.93667E+00
 -1      2368 3.63250E+00
 -1      2369 3.56535E+00
 -1      2370 3.56535E+00
 -1      2371 3.74664E+00
 -1      2372 3.80412E+00
 -1      2373 3.70291E+00
 -1      2374 3.91247E+00
 -1      2375 4.26450E+00
 -1      2376 5.32743E+00
 -1      2377 5.40398E+00
 -1      2378 5.08413E+00
 -1      2379 3.75303E+00
 -1      2380 4.02850E+00
 -1      2381 3.75303E+00
 -1      2382 3.86906E+00
 -1      2383 3.50522E+00
 -1      2384 3.34982E+00
 -1      2385 3.51614E+00
 -1      2386 3.65888E+00
 -1      2387 3.51614E+00
 -1      2388 3.15359E+00
 -1      2389 3.88540E+00
 -1      2390 3.82792E+00
 -1      2391 4.52473E+00
 -1      2392 4.21090E+00
 -1      2393 3.68478E+00
 -1      2394 3.94735E+00
 -1      2395 4.27285E+00
 -1      2396 3.99579E+00
 -1      2397 4.23456E+00
 -1      2398 3.93155E+00
 -1      2399 4.41948E+00
 -1      2400 4.25160E+00
 -1      2401 4.55160E+00
 -1      2402 4.30245E+00
 -1      2403 4.30245E+00
 -1      2404 3.98541E+00
 -1      2405 3.70291E+00
 -1      2406 4.55160E+00
 -1      2407 4.61948E+00
 -1      2408 4.52444E+00
 -1      2409 4.59233E+00
 -1      2410 4.40201E+00
 -1      2411 4.44274E+00
 -1      2412 4.33777E+00
 -1      2413 3.01451E+00
 -1      2414 3.63250E+00
 -1      2415 3.63250E+00
 -1      2416 4.25050E+00
 -1      2417 4.52473E+00
 -1      2418 4.61948E+00
 -1      2419 4.61948E+00
 -1      2420 4.60397E+00
 -1      2421 4.28693E+00
 -1      2422 4.60397E+00
 -1      2423 4.74677E+00
 -1      2424 4.77392E+00
 -1      2425 4.66028E+00
 -1      2426 4.50584E+00
 -1      2427 4.50584E+00
 -1      2428 4.99095E+00
 -1      2429 4.43622E+00
 -1      2430 5.30609E+00
 -1      2431 5.41519E+00
 -1      2432 5.20716E+00
 -1      2433 5.32743E+00
 -1      2434 6.46692E+00
 -1      2435 4.24680E+00
 -1      2436 4.40624E+00
 -1      2437 4.45531E+00
 -1      2438 5.59480E+00
 -1      2439 4.67361E+00
 -1      2440 5.42009E+00
 -1      2441 5.42009E+00
 -1      2442 4.01778E+00
 -1      2443 5.06461E+00
 -1      2444 3.68183E+00
 -1      2445 4.34239E+00
 -1      2446 4.34239E+00
 -1      2447 5.19277E+00
 -1      2448 4.71944E+00
 -1      2449 5.62803E+00
 -1      2450 4.77766E+00
 -1      2451 5.15539E+00
 -1      2452 4.53181E+00
 -1      2453 5.00514E+00
 -1      2454 3.50522E+00
 -1      2455 4.16797E+00
 -1      2456 3.14139E+00
 -1      2457 5.91863E+00
 -1      2458 5.72921E+00
 -1      2459 5.72921E+00
 -1      2460 4.81572E+00
 -1      2461 5.19277E+00
 -1      2462 4.16291E+00
 -1      2463 4.88697E+00
 -1      2464 3.90623E+00
 -1      2465 2.87458E+00
 -1      2466 2.87964E+00
 -1      2467 4.54399E+00
 -1      2468 6.29971E+00
 -1      2469 6.29971E+00
 -1      2470 6.64269E+00
 -1      2471 6.64269E+00
 -1      2472 6.64269E+00
 -1      2473 5.72921E+00
 -1      2474 3.93273E+00
 -1      2475 5.34547E+00
 -1      2476 3.37253E+00
 -1      2477 4.17401E+00
 -1      2478 3.11585E+00
 -1      2479 3.20842E+00
 -1      2480 3.51747E+00
 -1      2481 3.34089E+00
 -1      2482 3.50854E+00
 -1      2483 3.58144E+00
 -1      2484 4.05893E+00
 -1      2485 4.20034E+00
 -1      2486 4.44901E+00
 -1      2487 3.90755E+00
 -1      2488 3.90755E+00
 -1      2489 4.19529E+00
 -1      2490 3.89377E+00
 -1      2491 3.87739E+00
 -1      2492 3.96903E+00
 -1      2493 3.68653E+00
 -1      2494 4.58845E+00
 -1      2495 4.19529E+00
 -1      2496 3.95866E+00
 -1      2497 3.95866E+00
 -1      2498 3.97418E+00
 -1      2499 4.71390E+00
 -1      2500 4.89549E+00
 -1      2501 4.60794E+00
 -1      2502 4.75666E+00
 -1      2503 4.48550E+00
 -1      2504 4.79079E+00
 -1      2505 4.52271E+00
 -1      2506 3.85072E+00
 -1      2507 3.71315E+00
 -1      2508 4.89549E+00
 -1      2509 4.92836E+00
 -1      2510 3.85072E+00
 -1      2511 4.33777E+00
 -1      2512 4.23413E+00
 -1      2513 4.39068E+00
 -1      2514 4.47684E+00
 -1      2515 4.25163E+00
 -1      2516 4.45225E+00
 -1      2517 4.69495E+00
 -1      2518 4.52395E+00
 -1      2519 5.13520E+00
 -1      2520 5.27783E+00
 -1      2521 5.62082E+00
 -1      2522 4.45631E+00
 -1      2523 3.36488E+00
 -1      2524 3.92509E+00
 -1      2525 3.32773E+00
 -1      2526 4.13686E+00
 -1      2527 4.13686E+00
 -1      2528 4.73421E+00
 -1      2529 4.52395E+00
 -1      2530 3.36488E+00
 -1      2531 3.11596E+00
 -1      2532 2.61790E+00
 -1      2533 3.11585E+00
 -1      2534 2.86693E+00
 -1      2535 3.41250E+00
 -1      2536 3.62428E+00
 -1      2537 3.41250E+00
 -1      2538 3.70905E+00
 -1      2539 3.41250E+00
 -1      2540 3.14139E+00
 -1      2541 2.60319E+00
 -1      2542 2.60319E+00
 -1      2543 2.73316E+00
 -1      2544 2.47142E+00
 -1      2545 2.19496E+00
 -1      2546 4.46446E+00
 -1      2547 4.37969E+00
 -1      2548 4.37969E+00
 -1      2549 3.53951E+00
 -1      2550 4.13686E+00
 -1      2551 3.78548E+00
 -1      2552 3.78548E+00
 -1      2553 3.73372E+00
 -1      2554 3.65729E+00
 -1      2555 4.41270E+00
 -1      2556 3.09296E+00
 -1      2557 3.16939E+00
 -1      2558 3.42299E+00
 -1      2559 2.80691E+00
 -1      2560 3.12645E+00
 -1      2561 3.14908E+00
 -1      2562 3.84160E+00
 -1      2563 3.68612E+00
 -1      2564 3.55793E+00
 -1      2565 3.66581E+00
 -1      2566 3.18810E+00
 -1      2567 2.85807E+00
 -1      2568 3.36332E+00
 -1      2569 2.98213E+00
 -1      2570 3.65433E+00
 -1      2571 4.06375E+00
 -1      2572 4.11135E+00
 -1      2573 4.15374E+00
 -1      2574 3.64793E+00
 -1      2575 4.57577E+00
 -1      2576 4.53337E+00
 -1      2577 5.34054E+00
 -1      2578 4.14947E+00
 -1      2579 4.70289E+00
 -1      2580 3.60845E+00
 -1      2581 4.24759E+00
 -1      2582 3.76393E+00
 -1      2583 4.78861E+00
 -1      2584 4.70289E+00
 -1      2585 5.93644E+00
 -1      2586 5.47302E+00
 -1      2587 6.02217E+00
 -1      2588 4.22149E+00
 -1      2589 4.76251E+00
 -1      2590 5.36754E+00
 -1      2591 5.39365E+00
 -1      2592 5.99868E+00
 -1      2593 5.39365E+00
 -1      2594 5.39365E+00
 -1      2595 2.90591E+00
 -1      2596 3.42082E+00
 -1      2597 3.76393E+00
 -1      2598 3.70657E+00
 -1      2599 2.90591E+00
 -1      2600 5.38457E+00
 -1      2601 4.33774E+00
 -1      2602 7.09243E+00
 -1      2603 6.01008E+00
 -1      2604 6.22031E+00
 -1      2605 4.13999E+00
 -1      2606 3.78451E+00
 -1      2607 4.71581E+00
 -1      2608 4.48254E+00
 -1      2609 4.94210E+00
 -1      2610 4.97762E+00
 -1      2611 5.32017E+00
 -1      2612 3.90672E+00
 -1      2613 3.78451E+00
 -1      2614 3.72767E+00
 -1      2615 3.60546E+00
 -1      2616 3.62499E+00
 -1      2617 3.90672E+00
 -1      2618 3.90672E+00
 -1      2619 4.52998E+00
 -1      2620 4.52998E+00
 -1      2621 5.10581E+00
 -1      2622 3.44637E+00
 -1      2623 3.44637E+00
 -1      2624 3.04132E+00
 -1      2625 3.50167E+00
 -1      2626 3.32263E+00
 -1      2627 5.53618E+00
 -1      2628 4.91291E+00
 -1      2629 5.49459E+00
 -1      2630 4.48840E+00
 -1      2631 4.02805E+00
 -1      2632 4.90107E+00
 -1      2633 5.53221E+00
 -1      2634 4.01405E+00
 -1      2635 4.17873E+00
 -1      2636 2.69848E+00
 -1      2637 5.48695E+00
 -1      2638 5.95342E+00
 -1      2639 5.95342E+00
 -1      2640 5.99868E+00
 -1      2641 5.99868E+00
 -1      2642 4.84522E+00
 -1      2643 4.71471E+00
 -1      2644 5.03722E+00
 -1      2645 4.71471E+00
 -1      2646 4.82835E+00
 -1      2647 5.28085E+00
 -1      2648 5.47284E+00
 -1      2649 6.21147E+00
 -1      2650 6.83909E+00
 -1      2651 4.80035E+00
 -1      2652 6.35860E+00
 -1      2653 3.86028E+00
 -1      2654 5.45154E+00
 -1      2655 5.82858E+00
 -1      2656 5.88680E+00
 -1      2657 5.62803E+00
 -1      2658 5.68625E+00
 -1      2659 5.74119E+00
 -1      2660 5.84715E+00
 -1      2661 6.38788E+00
 -1      2662 5.40335E+00
 -1      2663 5.43622E+00
 -1      2664 5.75390E+00
 -1      2665 6.84439E+00
 -1      2666 5.17376E+00
 -1      2667 6.27696E+00
 -1      2668 5.00856E+00
 -1      2669 4.19349E+00
 -1      2670 3.80033E+00
 -1      2671 3.79853E+00
 -1      2672 3.80033E+00
 -1      2673 3.87559E+00
 -1      2674 6.36962E+00
 -1      2675 6.75254E+00
 -1      2676 6.17178E+00
 -1      2677 7.38815E+00
 -1      2678 5.10581E+00
 -1      2679 6.12433E+00
 -1      2680 5.05836E+00
 -1      2681 6.02455E+00
 -1      2682 5.19111E+00
 -1      2683 4.76660E+00
 -1      2684 5.49459E+00
 -1      2685 5.07009E+00
 -1      2686 7.74957E+00
 -1      2687 6.04170E+00
 -1      2688 6.49927E+00
 -1      2689 4.75979E+00
 -1      2690 5.39967E+00
 -1      2691 7.99895E+00
 -1      2692 8.03057E+00
 -1      2693 6.87058E+00
 -1      2694 7.15159E+00
 -1      2695 5.37295E+00
 -1      2696 7.10815E+00
 -1      2697 5.32545E+00
 -1      2698 6.97549E+00
 -1      2699 4.57577E+00
 -1      2700 6.09005E+00
 -1      2701 7.72517E+00
 -1      2702 5.46121E+00
 -1      2703 3.29171E+00
 -1      2704 4.17873E+00
 -1      2705 5.06574E+00
 -1      2706 5.48695E+00
 -1      2707 4.17873E+00
 -1      2708 3.29171E+00
 -1      2709 3.29171E+00
 -1      2710 3.23839E+00
 -1      2711 3.23839E+00
 -1      2712 2.64516E+00
 -1      2713 5.42140E+00
 -1      2714 5.84261E+00
 -1      2715 5.87966E+00
 -1      2716 5.92492E+00
 -1      2717 5.81411E+00
 -1      2718 5.87966E+00
 -1      2719 5.85116E+00
 -1      2720 5.44146E+00
 -1      2721 5.79712E+00
 -1      2722 4.14054E+00
 -1      2723 4.51625E+00
 -1      2724 3.25352E+00
 -1      2725 6.79524E+00
 -1      2726 7.81711E+00
 -1      2727 8.86932E+00
 -1      2728 7.69490E+00
 -1      2729 7.69490E+00
 -1      2730 6.79524E+00
 -1      2731 8.99153E+00
 -1      2732 4.69277E+00
 -1      2733 6.88907E+00
 -1      2734 4.55014E+00
 -1      2735 7.25572E+00
 -1      2736 7.25572E+00
 -1      2737 7.25572E+00
 -1      2738 7.10815E+00
 -1      2739 5.85585E+00
 -1      2740 7.08940E+00
 -1      2741 7.08940E+00
 -1      2742 5.46996E+00
 -1      2743 5.46996E+00
 -1      2744 7.11270E+00
 -1      2745 6.58398E+00
 -1      2746 7.03894E+00
 -1      2747 5.81717E+00
 -1      2748 5.79712E+00
 -1      2749 5.79034E+00
 -1      2750 5.77028E+00
 -1      2751 5.80733E+00
 -1      2752 8.30375E+00
 -1      2753 8.29104E+00
 -1      2754 7.32327E+00
 -1      2755 6.87946E+00
 -1      2756 8.78263E+00
 -1      2757 6.27696E+00
 -1      2758 6.85710E+00
 -1      2759 6.85710E+00
 -1      2760 6.85710E+00
 -1      2761 8.30375E+00
 -1      2762 7.78749E+00
 -1      2763 6.85210E+00
 -1      2764 7.15601E+00
 -1      2765 6.24799E+00
 -1      2766 5.74013E+00
 -1      2767 3.26368E+00
 -1      2768 3.31484E+00
 -1      2769 2.87742E+00
 -1      2770 3.00416E+00
 -1      2771 3.42269E+00
 -1      2772 3.54675E+00
 -1      2773 3.05490E+00
 -1      2774 3.23832E+00
 -1      2775 3.13047E+00
 -1      2776 5.81717E+00
 -1      2777 5.81717E+00
 -1      2778 4.22546E+00
 -1      2779 4.22546E+00
 -1      2780 2.92454E+00
 -1      2781 5.47104E+00
 -1      2782 5.03542E+00
 -1      2783 5.03542E+00
 -1      2784 5.03722E+00
 -1      2785 5.03722E+00
 -1      2786 7.39993E+00
 -1      2787 6.46931E+00
 -1      2788 7.03015E+00
 -1      2789 6.46931E+00
 -1      2790 6.03188E+00
 -1      2791 7.75907E+00
 -1      2792 7.38929E+00
 -1      2793 7.76972E+00
 -1      2794 7.75907E+00
 -1      2795 6.35860E+00
 -1      2796 6.75660E+00
 -1      2797 6.39746E+00
 -1      2798 5.35097E+00
 -1      2799 5.98366E+00
 -1      2800 5.98366E+00
 -1      2801 8.14202E+00
 -1      2802 8.13138E+00
 -1      2803 7.50802E+00
 -1      2804 6.51620E+00
 -1      2805 7.89098E+00
 -1      2806 8.22436E+00
 -1      2807 8.59667E+00
 -1      2808 7.36476E+00
 -1      2809 7.81940E+00
 -1      2810 5.95364E+00
 -1      2811 6.06493E+00
 -1      2812 5.65112E+00
 -1      2813 7.72064E+00
 -1      2814 8.02079E+00
 -1      2815 8.47207E+00
 -1      2816 7.72064E+00
 -1      2817 9.67651E+00
 -1      2818 7.58599E+00
 -1      2819 6.02455E+00
 -1      2820 7.38815E+00
 -1      2821 7.58599E+00
 -1      2822 7.58599E+00
 -1      2823 5.65960E+00
 -1      2824 5.96308E+00
 -1      2825 5.64688E+00
 -1      2826 6.84335E+00
 -1      2827 7.20831E+00
 -1      2828 6.42090E+00
 -1      2829 5.52790E+00
 -1      2830 5.52638E+00
 -1      2831 5.06856E+00
 -1      2832 5.06856E+00
 -1      2833 6.42090E+00
 -1      2834 5.98572E+00
 -1      2835 6.85608E+00
 -1      2836 6.42090E+00
 -1      2837 6.84335E+00
 -1      2838 6.85608E+00
 -1      2839 6.85608E+00
 -1      2840 5.85670E+00
 -1      2841 5.85670E+00
 -1      2842 4.48770E+00
 -1      2843 4.61672E+00
 -1      2844 4.15738E+00
 -1      2845 6.28762E+00
 -1      2846 6.15860E+00
 -1      2847 6.48309E+00
 -1      2848 6.78499E+00
 -1      2849 6.91826E+00
 -1      2850 6.12726E+00
 -1      2851 5.69634E+00
 -1      2852 4.22354E+00
 -1      2853 4.25488E+00
 -1      2854 3.01490E+00
 -1      2855 6.58953E+00
 -1      2856 6.12726E+00
 -1      2857 6.58953E+00
 -1      2858 6.58953E+00
 -1      2859 7.55777E+00
 -1      2860 7.55777E+00
 -1      2861 7.75323E+00
 -1      2862 6.09402E+00
 -1      2863 5.63175E+00
 -1      2864 5.19874E+00
 -1      2865 5.23198E+00
 -1      2866 3.79052E+00
 -1      2867 6.46306E+00
 -1      2868 5.96755E+00
 -1      2869 7.71460E+00
 -1      2870 7.58813E+00
 -1      2871 7.71460E+00
 -1      2872 6.34875E+00
 -1      2873 6.54659E+00
 -1      2874 6.45719E+00
 -1      2875 5.61563E+00
 -1      2876 5.39122E+00
 -1      2877 5.69682E+00
 -1      2878 6.27696E+00
 -1      2879 5.00856E+00
 -1      2880 5.00856E+00
 -1      2881 4.32030E+00
 -1      2882 5.32788E+00
 -1      2883 5.90802E+00
 -1      2884 6.63115E+00
 -1      2885 6.63115E+00
 -1      2886 5.68207E+00
 -1      2887 7.43398E+00
 -1      2888 7.40715E+00
 -1      2889 6.32683E+00
 -1      2890 6.32683E+00
 -1      2891 7.94364E+00
 -1      2892 5.38859E+00
 -1      2893 4.67464E+00
 -1      2894 4.57642E+00
 -1      2895 4.83896E+00
 -1      2896 5.88545E+00
 -1      2897 6.36508E+00
 -1      2898 5.38859E+00
 -1      2899 6.36508E+00
 -1      2900 6.36508E+00
 -1      2901 8.02079E+00
 -1      2902 2.98602E+00
 -1      2903 3.04132E+00
 -1      2904 4.04230E+00
 -1      2905 3.00026E+00
 -1      2906 3.00026E+00
 -1      2907 3.33225E+00
 -1      2908 2.80734E+00
 -1      2909 3.62154E+00
 -1      2910 3.56623E+00
 -1      2911 3.03334E+00
 -1      2912 8.37247E+00
 -1      2913 6.85819E+00
 -1      2914 8.48977E+00
 -1      2915 8.37247E+00
 -1      2916 8.48977E+00
 -1      2917 8.48977E+00
 -1      2918 7.72517E+00
 -1      2919 5.32937E+00
 -1      2920 5.32937E+00
 -1      2921 8.85466E+00
 -1      2922 7.45769E+00
 -1      2923 7.32584E+00
 -1      2924 3.65750E+00
 -1      2925 4.28728E+00
 -1      2926 4.66391E+00
 -1      2927 4.26896E+00
 -1      2928 4.36274E+00
 -1      2929 8.19263E+00
 -1      2930 6.91071E+00
 -1      2931 8.27996E+00
 -1      2932 8.03057E+00
 -1      2933 8.04308E+00
 -1      2934 8.45452E+00
 -1      2935 1.24010E+01
 -1      2936 1.24010E+01
 -1      2937 1.20210E+01
 -1      2938 8.65995E+00
 -1      2939 1.27522E+01
 -1      2940 1.36191E+01
 -1      2941 1.29971E+01
 -1      2942 1.28476E+01
 -1      2943 1.28476E+01
 -1      2944 8.45452E+00
 -1      2945 8.60407E+00
 -1      2946 6.91071E+00
 -1      2947 7.16407E+00
 -1      2948 5.47072E+00
 -1      2949 5.65303E+00
 -1      2950 5.96053E+00
 -1      2951 7.08890E+00
 -1      2952 7.46889E+00
 -1      2953 8.65995E+00
 -1      2954 8.27996E+00
 -1      2955 8.27996E+00
 -1      2956 5.87779E+00
 -1      2957 5.81510E+00
 -1      2958 5.37295E+00
 -1      2959 5.22752E+00
 -1      2960 4.72268E+00
 -1      2961 6.33659E+00
 -1      2962 5.96755E+00
 -1      2963 5.54655E+00
 -1      2964 5.17751E+00
 -1      2965 4.77775E+00
 -1      2966 7.15029E+00
 -1      2967 7.15029E+00
 -1      2968 8.95020E+00
 -1      2969 9.76391E+00
 -1      2970 8.72403E+00
 -1      2971 7.47249E+00
 -1      2972 1.00861E+01
 -1      2973 3.42196E+00
 -1      2974 3.36259E+00
 -1      2975 2.67153E+00
 -1      2976 2.79631E+00
 -1      2977 2.90591E+00
 -1      2978 3.59698E+00
 -1      2979 4.01247E+00
 -1      2980 3.82832E+00
 -1      2981 3.55424E+00
 -1      2982 3.96060E+00
 -1      2983 3.53956E+00
 -1      2984 3.86818E+00
 -1      2985 4.18305E+00
 -1      2986 4.18305E+00
 -1      2987 4.39373E+00
 -1      2988 3.74911E+00
 -1      2989 4.65877E+00
 -1      2990 4.04077E+00
 -1      2991 8.86932E+00
 -1      2992 8.74711E+00
 -1      2993 8.99153E+00
 -1      2994 8.99153E+00
 -1      2995 8.27984E+00
 -1      2996 8.15763E+00
 -1      2997 1.30929E+01
 -1      2998 9.37825E+00
 -1      2999 9.15307E+00
 -1      3000 8.52192E+00
 -1      3001 1.24198E+01
 -1      3002 8.71917E+00
 -1      3003 8.71917E+00
 -1      3004 7.59929E+00
 -1      3005 7.62723E+00
 -1      3006 6.57502E+00
 -1      3007 6.93417E+00
 -1      3008 6.12046E+00
 -1      3009 5.48499E+00
 -1      3010 5.26886E+00
 -1      3011 9.76391E+00
 -1      3012 7.96400E+00
 -1      3013 7.67382E+00
 -1      3014 7.67382E+00
 -1      3015 5.43164E+00
 -1      3016 6.46147E+00
 -1      3017 6.17129E+00
 -1      3018 5.93216E+00
 -1      3019 6.46089E+00
 -1      3020 8.18811E+00
 -1      3021 6.54537E+00
 -1      3022 7.96673E+00
 -1      3023 6.36260E+00
 -1      3024 7.35352E+00
 -1      3025 3.44117E+00
 -1      3026 4.12403E+00
 -1      3027 3.50209E+00
 -1      3028 3.36961E+00
 -1      3029 3.43471E+00
 -1      3030 5.40573E+00
 -1      3031 5.11294E+00
 -1      3032 4.50625E+00
 -1      3033 5.17018E+00
 -1      3034 5.85053E+00
 -1      3035 4.89382E+00
 -1      3036 5.63140E+00
 -1      3037 4.89382E+00
 -1      3038 4.72653E+00
 -1      3039 3.98895E+00
 -1      3040 3.74027E+00
 -1      3041 6.63026E+00
 -1      3042 6.41113E+00
 -1      3043 6.06966E+00
 -1      3044 6.63026E+00
 -1      3045 5.17018E+00
 -1      3046 3.66020E+00
 -1      3047 3.71978E+00
 -1      3048 3.71978E+00
 -1      3049 3.64102E+00
 -1      3050 3.50209E+00
 -1      3051 7.40715E+00
 -1      3052 8.48654E+00
 -1      3053 6.84290E+00
 -1      3054 6.88673E+00
 -1      3055 5.80733E+00
 -1      3056 5.85116E+00
 -1      3057 7.17232E+00
 -1      3058 9.27479E+00
 -1      3059 8.94008E+00
 -1      3060 8.94008E+00
 -1      3061 5.62183E+00
 -1      3062 8.00755E+00
 -1      3063 4.78660E+00
 -1      3064 5.62183E+00
 -1      3065 4.55014E+00
 -1      3066 1.00393E+01
 -1      3067 9.07151E+00
 -1      3068 9.10347E+00
 -1      3069 1.05501E+01
 -1      3070 1.04555E+01
 -1      3071 1.07443E+01
 -1      3072 9.07151E+00
 -1      3073 9.04415E+00
 -1      3074 7.50703E+00
 -1      3075 7.58977E+00
 -1      3076 9.16866E+00
 -1      3077 7.47674E+00
 -1      3078 7.42775E+00
 -1      3079 8.99880E+00
 -1      3080 1.04796E+01
 -1      3081 9.30435E+00
 -1      3082 1.04796E+01
 -1      3083 1.04796E+01
 -1      3084 9.28169E+00
 -1      3085 5.20447E+00
 -1      3086 5.70931E+00
 -1      3087 7.43042E+00
 -1      3088 9.20508E+00
 -1      3089 7.40736E+00
 -1      3090 5.20447E+00
 -1      3091 4.67361E+00
 -1      3092 8.86544E+00
 -1      3093 1.04752E+01
 -1      3094 8.86544E+00
 -1      3095 9.48247E+00
 -1      3096 7.87274E+00
 -1      3097 8.86544E+00
 -1      3098 7.03894E+00
 -1      3099 8.22672E+00
 -1      3100 5.85116E+00
 -1      3101 7.03894E+00
 -1      3102 8.07478E+00
 -1      3103 8.22672E+00
 -1      3104 8.07478E+00
 -1      3105 4.27285E+00
 -1      3106 4.79897E+00
 -1      3107 3.79052E+00
 -1      3108 3.71978E+00
 -1      3109 8.50525E+00
 -1      3110 8.95965E+00
 -1      3111 8.21452E+00
 -1      3112 7.61041E+00
 -1      3113 9.78928E+00
 -1      3114 8.50525E+00
 -1      3115 8.67901E+00
 -1      3116 8.59667E+00
 -1      3117 8.08714E+00
 -1      3118 7.46379E+00
 -1      3119 7.68193E+00
 -1      3120 7.25474E+00
 -1      3121 7.81436E+00
 -1      3122 8.67396E+00
 -1      3123 8.67396E+00
 -1      3124 8.67901E+00
 -1      3125 8.67901E+00
 -1      3126 7.66601E+00
 -1      3127 6.88627E+00
 -1      3128 6.46203E+00
 -1      3129 5.20716E+00
 -1      3130 1.10021E+01
 -1      3131 1.14773E+01
 -1      3132 8.40796E+00
 -1      3133 1.22192E+01
 -1      3134 7.68931E+00
 -1      3135 8.81438E+00
 -1      3136 1.00097E+01
 -1      3137 1.01254E+01
 -1      3138 8.83967E+00
 -1      3139 1.01254E+01
 -1      3140 8.81438E+00
 -1      3141 3.14257E+00
 -1      3142 4.73429E+00
 -1      3143 7.01085E+00
 -1      3144 7.52051E+00
 -1      3145 5.92797E+00
 -1      3146 3.40147E+00
 -1      3147 2.88391E+00
 -1      3148 3.69227E+00
 -1      3149 5.66154E+00
 -1      3150 6.29735E+00
 -1      3151 7.48572E+00
 -1      3152 9.00628E+00
 -1      3153 7.60791E+00
 -1      3154 6.35910E+00
 -1      3155 6.14910E+00
 -1      3156 7.54746E+00
 -1      3157 6.71730E+00
 -1      3158 5.74082E+00
 -1      3159 4.50944E+00
 -1      3160 4.67376E+00
 -1      3161 5.83815E+00
 -1      3162 6.29191E+00
 -1      3163 7.03730E+00
 -1      3164 6.96413E+00
 -1      3165 7.03730E+00
 -1      3166 3.00026E+00
 -1      3167 4.66043E+00
 -1      3168 4.66223E+00
 -1      3169 5.54775E+00
 -1      3170 4.54948E+00
 -1      3171 4.17629E+00
 -1      3172 5.16510E+00
 -1      3173 5.80058E+00
 -1      3174 8.26328E+00
 -1      3175 7.57926E+00
 -1      3176 7.44207E+00
 -1      3177 8.54922E+00
 -1      3178 4.40304E+00
 -1      3179 4.43679E+00
 -1      3180 4.09909E+00
 -1      3181 3.81033E+00
 -1      3182 3.21982E+00
 -1      3183 3.21144E+00
 -1      3184 2.64516E+00
 -1      3185 3.92017E+00
 -1      3186 3.92017E+00
 -1      3187 4.25061E+00
 -1      3188 7.49726E+00
 -1      3189 8.70170E+00
 -1      3190 4.93792E+00
 -1      3191 5.94408E+00
 -1      3192 6.75585E+00
 -1      3193 2.21668E+00
 -1      3194 2.88993E+00
 -1      3195 5.32017E+00
 -1      3196 3.75461E+00
 -1      3197 3.83167E+00
 -1      3198 7.14081E+00
 -1      3199 6.76313E+00
 -1      3200 7.60747E+00
 -1      3201 7.60747E+00
 -1      3202 7.05444E+00
 -1      3203 7.06717E+00
 -1      3204 6.98626E+00
 -1      3205 6.91876E+00
 -1      3206 7.58192E+00
 -1      3207 7.37084E+00
 -1      3208 7.21080E+00
 -1      3209 7.21080E+00
 -1      3210 6.55111E+00
 -1      3211 7.59051E+00
 -1      3212 7.51631E+00
 -1      3213 8.28908E+00
 -1      3214 7.75323E+00
 -1      3215 6.98045E+00
 -1      3216 7.80885E+00
 -1      3217 7.51631E+00
 -1      3218 7.27299E+00
 -1      3219 6.91826E+00
 -1      3220 8.52600E+00
 -1      3221 7.55777E+00
 -1      3222 6.84101E+00
 -1      3223 7.80925E+00
 -1      3224 9.12847E+00
 -1      3225 9.20508E+00
 -1      3226 9.20508E+00
 -1      3227 9.28169E+00
 -1      3228 9.28169E+00
 -1      3229 9.16866E+00
 -1      3230 8.67524E+00
 -1      3231 1.02257E+01
 -1      3232 1.29635E+01
 -1      3233 5.62183E+00
 -1      3234 6.45705E+00
 -1      3235 8.02174E+00
 -1      3236 8.02174E+00
 -1      3237 1.02399E+01
 -1      3238 4.16305E+00
 -1      3239 4.99828E+00
 -1      3240 4.76041E+00
 -1      3241 8.02174E+00
 -1      3242 9.58642E+00
 -1      3243 5.83846E+00
 -1      3244 7.40314E+00
 -1      3245 4.37969E+00
 -1      3246 9.58642E+00
 -1      3247 9.58642E+00
 -1      3248 9.39847E+00
 -1      3249 9.39847E+00
 -1      3250 1.02399E+01
 -1      3251 5.20869E+00
 -1      3252 7.39197E+00
 -1      3253 9.52029E+00
 -1      3254 9.52029E+00
 -1      3255 5.21987E+00
 -1      3256 5.34054E+00
 -1      3257 7.66999E+00
 -1      3258 8.64481E+00
 -1      3259 9.67651E+00
 -1      3260 9.67651E+00
 -1      3261 9.43499E+00
 -1      3262 1.27518E+01
 -1      3263 8.82427E+00
 -1      3264 9.57032E+00
 -1      3265 7.27475E+00
 -1      3266 7.91460E+00
 -1      3267 9.57032E+00
 -1      3268 2.49313E+00
 -1      3269 2.87939E+00
 -1      3270 3.48433E+00
 -1      3271 2.47142E+00
 -1      3272 2.34665E+00
 -1      3273 7.77756E+00
 -1      3274 7.66026E+00
 -1      3275 9.80750E+00
 -1      3276 1.04070E+01
 -1      3277 8.60407E+00
 -1      3278 8.60407E+00
 -1      3279 8.30498E+00
 -1      3280 8.45452E+00
 -1      3281 8.45570E+00
 -1      3282 7.01571E+00
 -1      3283 7.16407E+00
 -1      3284 5.72408E+00
 -1      3285 8.37654E+00
 -1      3286 8.37654E+00
 -1      3287 6.90726E+00
 -1      3288 6.52673E+00
 -1      3289 7.57065E+00
 -1      3290 7.52851E+00
 -1      3291 7.75446E+00
 -1      3292 8.74748E+00
 -1      3293 1.09939E+01
 -1      3294 6.89442E+00
 -1      3295 8.46500E+00
 -1      3296 7.43510E+00
 -1      3297 7.43510E+00
 -1      3298 7.92432E+00
 -1      3299 8.55841E+00
 -1      3300 1.05009E+01
 -1      3301 8.38562E+00
 -1      3302 8.38562E+00
 -1      3303 8.56671E+00
 -1      3304 1.32472E+01
 -1      3305 8.49398E+00
 -1      3306 7.59929E+00
 -1      3307 6.50735E+00
 -1      3308 8.88513E+00
 -1      3309 7.79319E+00
 -1      3310 8.68788E+00
 -1      3311 1.30379E+01
 -1      3312 1.05009E+01
 -1      3313 8.21450E+00
 -1      3314 8.47111E+00
 -1      3315 9.53146E+00
 -1      3316 1.02930E+01
 -1      3317 1.48134E+01
 -1      3318 1.48134E+01
 -1      3319 1.14773E+01
 -1      3320 1.14574E+01
 -1      3321 1.37299E+01
 -1      3322 1.22192E+01
 -1      3323 3.69579E+00
 -1      3324 3.83472E+00
 -1      3325 3.25509E+00
 -1      3326 3.18508E+00
 -1      3327 3.30840E+00
 -1      3328 3.19449E+00
 -1      3329 4.50951E+00
 -1      3330 4.54326E+00
 -1      3331 5.39122E+00
 -1      3332 9.16853E+00
 -1      3333 8.98577E+00
 -1      3334 7.51984E+00
 -1      3335 7.41895E+00
 -1      3336 7.68307E+00
 -1      3337 8.98577E+00
 -1      3338 8.88488E+00
 -1      3339 1.03905E+01
 -1      3340 1.09504E+01
 -1      3341 2.64516E+00
 -1      3342 2.10525E+00
 -1      3343 1.41318E+01
 -1      3344 9.00628E+00
 -1      3345 8.74544E+00
 -1      3346 6.35910E+00
 -1      3347 7.40882E+00
 -1      3348 6.75563E+00
 -1      3349 7.95361E+00
 -1      3350 7.38467E+00
 -1      3351 7.23642E+00
 -1      3352 7.78121E+00
 -1      3353 9.68724E+00
 -1      3354 8.46459E+00
 -1      3355 7.27681E+00
 -1      3356 7.94697E+00
 -1      3357 1.04070E+01
 -1      3358 9.77639E+00
 -1      3359 1.13598E+01
 -1      3360 1.32995E+01
 -1      3361 8.28908E+00
 -1      3362 8.95965E+00
 -1      3363 8.66892E+00
 -1      3364 3.32072E+00
 -1      3365 3.32072E+00
 -1      3366 3.28253E+00
 -1      3367 1.28942E+01
 -1      3368 1.28942E+01
 -1      3369 1.03130E+01
 -1      3370 1.07799E+01
 -1      3371 1.29241E+01
 -1      3372 1.29241E+01
 -1      3373 1.22622E+01
 -1      3374 1.20377E+01
 -1      3375 4.02335E+00
 -1      3376 2.69151E+01
 -1      3377 2.70854E+01
 -1      3378 2.58434E+01
 -1      3379 2.56725E+01
 -1      3380 2.41318E+01
 -1      3381 2.71664E+01
 -1      3382 2.52211E+01
 -1      3383 2.18676E+01
 -1      3384 2.24143E+01
 -1      3385 2.60529E+01
 -1      3386 2.50329E+01
 -1      3387 2.31334E+01
 -1      3388 2.60722E+01
 -1      3389 2.60219E+01
 -1      3390 2.64307E+01
 -1      3391 2.35898E+01
 -1      3392 2.66517E+01
 -1      3393 2.10393E+01
 -1      3394 2.53670E+01
 -1      3395 1.97461E+01
 -1      3396 2.52042E+01
 -1      3397 2.71249E+01
 -1      3398 2.63520E+01
 -1      3399 2.32457E+01
 -1      3400 2.64024E+01
 -1      3401 7.22981E+00
 -1      3402 7.66464E+00
 -1      3403 1.04917E+01
 -1      3404 1.13612E+01
 -1      3405 1.47965E+01
 -1      3406 1.42401E+01
 -1      3407 2.63580E+01
 -1      3408 2.57864E+01
 -1      3409 2.62071E+01
 -1      3410 2.70899E+01
 -1      3411 2.34292E+01
 -1      3412 2.34280E+01
 -1      3413 2.30788E+01
 -1      3414 2.40523E+01
 -1      3415 2.23590E+01
 -1      3416 2.14196E+01
 -1      3417 2.68289E+01
 -1      3418 2.59031E+01
 -1      3419 1.03843E+01
 -1      3420 1.03624E+01
 -1      3421 1.12554E+01
 -1      3422 7.36026E+00
 -1      3423 9.22721E+00
 -1      3424 8.60909E+00
 -1      3425 8.60909E+00
 -1      3426 1.12748E+01
 -1      3427 7.68737E+00
 -1      3428 1.04005E+01
 -1      3429 1.24959E+01
 -1      3430 1.20288E+01
 -1      3431 1.39427E+01
 -1      3432 1.31569E+01
 -1      3433 1.51860E+01
 -1      3434 1.53739E+01
 -1      3435 1.45961E+01
 -1      3436 1.31569E+01
 -1      3437 1.31708E+01
 -1      3438 1.52644E+01
 -1      3439 1.43205E+01
 -1      3440 1.31787E+01
 -1      3441 1.51536E+01
 -1      3442 1.31787E+01
 -1      3443 1.31092E+01
 -1      3444 9.27428E+00
 -1      3445 1.51536E+01
 -1      3446 1.65942E+01
 -1      3447 1.29290E+01
 -1      3448 1.67127E+01
 -1      3449 1.62040E+01
 -1      3450 1.95407E+01
 -1      3451 1.83455E+01
 -1      3452 1.85951E+01
 -1      3453 1.71639E+01
 -1      3454 1.85951E+01
 -1      3455 1.53729E+01
 -1      3456 1.77306E+01
 -1      3457 1.52839E+01
 -1      3458 1.74498E+01
 -1      3459 1.52839E+01
 -1      3460 1.86154E+01
 -1      3461 1.51859E+01
 -1      3462 1.83149E+01
 -1      3463 1.58973E+01
 -1      3464 1.78133E+01
 -1      3465 1.36989E+01
 -1      3466 1.39454E+01
 -1      3467 2.02196E+01
 -1      3468 2.44348E+01
 -1      3469 2.02484E+01
 -1      3470 1.07377E+01
 -1      3471 9.69958E+00
 -1      3472 1.97157E+01
 -1      3473 2.02985E+01
 -1      3474 2.42550E+01
 -1      3475 2.07050E+01
 -1      3476 2.12916E+01
 -1      3477 2.25614E+01
 -1      3478 1.93913E+01
 -1      3479 1.60474E+01
 -1      3480 2.06209E+01
 -1      3481 2.33884E+01
 -1      3482 2.56541E+01
 -1      3483 1.86760E+01
 -1      3484 2.02467E+01
 -1      3485 1.86168E+01
 -1      3486 2.00706E+01
 -1      3487 2.19669E+01
 -1      3488 2.04263E+01
 -1      3489 1.65864E+01
 -1      3490 2.24959E+01
 -1      3491 1.65415E+01
 -1      3492 1.42699E+01
 -1      3493 1.91279E+01
 -1      3494 2.11972E+01
 -1      3495 2.11972E+01
 -1      3496 2.08521E+01
 -1      3497 2.15917E+01
 -1      3498 2.33884E+01
 -1      3499 1.66221E+01
 -1      3500 1.94650E+01
 -1      3501 2.08521E+01
 -1      3502 2.07564E+01
 -1      3503 2.63726E+01
 -1      3504 2.40443E+01
 -1      3505 2.39788E+01
 -1      3506 2.24125E+01
 -1      3507 2.61206E+01
 -1      3508 2.39788E+01
 -1      3509 2.23728E+01
 -1      3510 2.31359E+01
 -1      3511 1.16011E+01
 -1      3512 1.27147E+01
 -1      3513 9.85135E+00
 -1      3514 9.87340E+00
 -1      3515 1.18120E+01
 -1      3516 9.48883E+00
 -1      3517 2.33842E+01
 -1      3518 2.46931E+01
 -1      3519 1.84974E+01
 -1      3520 1.86650E+01
 -1      3521 1.65218E+01
 -1      3522 2.09361E+01
 -1      3523 1.72448E+01
 -1      3524 1.57397E+01
 -1      3525 1.86728E+01
 -1      3526 2.18047E+01
 -1      3527 1.93433E+01
 -1      3528 1.80785E+01
 -1      3529 1.93433E+01
 -1      3530 2.24685E+01
 -1      3531 2.08758E+01
 -1      3532 1.83709E+01
 -1      3533 2.08758E+01
 -1      3534 2.28829E+01
 -1      3535 2.58964E+01
 -1      3536 2.03164E+01
 -1      3537 2.51453E+01
 -1      3538 2.32302E+01
 -1      3539 1.99811E+01
 -1      3540 2.36857E+01
 -1      3541 1.94073E+01
 -1      3542 2.26306E+01
 -1      3543 1.91903E+01
 -1      3544 2.21750E+01
 -1      3545 2.41294E+01
 -1      3546 1.69583E+01
 -1      3547 2.02373E+01
 -1      3548 2.19669E+01
 -1      3549 2.40443E+01
 -1      3550 1.21954E+01
 -1      3551 2.20776E+01
 -1      3552 2.33842E+01
 -1      3553 1.82115E+01
 -1      3554 2.12093E+01
 -1      3555 2.23728E+01
 -1      3556 2.16126E+01
 -1      3557 2.49432E+01
 -1      3558 2.56369E+01
 -1      3559 2.49983E+01
 -1      3560 2.27633E+01
 -1      3561 1.56474E+01
 -1      3562 1.48084E+01
 -1      3563 9.25153E+00
 -1      3564 1.13541E+01
 -1      3565 1.15814E+01
 -1      3566 1.12554E+01
 -1      3567 2.64931E+01
 -1      3568 2.60219E+01
 -1      3569 2.58428E+01
 -1      3570 2.24125E+01
 -1      3571 2.57864E+01
 -1      3572 2.56541E+01
 -1      3573 2.45196E+01
 -1      3574 1.97157E+01
 -1      3575 2.21750E+01
 -1      3576 2.44860E+01
 -1      3577 1.57397E+01
 -1      3578 2.06456E+01
 -1      3579 2.35548E+01
 -1      3580 2.61206E+01
 -1      3581 1.18120E+01
 -1      3582 2.56369E+01
 -1      3583 1.17241E+01
 -1      3584 8.75764E+00
 -1      3585 2.60202E+01
 -1      3586 2.69349E+01
 -1      3587 2.69349E+01
 -1      3588 2.68464E+01
 -1      3589 2.34921E+01
 -1      3590 2.59031E+01
 -1      3591 2.50243E+01
 -1      3592 8.31818E+00
 -1      3593 2.68464E+01
 -1      3594 9.64025E+00
 -1      3595 2.68464E+01
 -1      3596 2.41289E+01
 -1      3597 2.63580E+01
 -1      3598 2.36868E+01
 -1      3599 2.41677E+01
 -1      3600 2.41677E+01
 -1      3601 2.51151E+01
 -1      3602 2.38005E+01
 -1      3603 2.53670E+01
 -1      3604 1.17524E+01
 -1      3605 2.53670E+01
 -1      3606 2.55203E+01
 -1      3607 2.66517E+01
 -1      3608 2.58964E+01
 -1      3609 2.54348E+01
 -1      3610 2.42986E+01
 -1      3611 2.70563E+01
 -1      3612 2.58829E+01
 -1      3613 2.58964E+01
 -1      3614 2.70563E+01
 -1      3615 2.48294E+01
 -1      3616 2.70899E+01
 -1      3617 2.70635E+01
 -1      3618 2.27096E+01
 -1      3619 2.48648E+01
 -1      3620 2.27835E+01
 -1      3621 2.40523E+01
 -1      3622 2.53714E+01
 -1      3623 2.34390E+01
 -1      3624 2.13169E+01
 -1      3625 2.21557E+01
 -1      3626 2.68281E+01
 -1      3627 2.02202E+01
 -1      3628 2.44288E+01
 -1      3629 2.45725E+01
 -1      3630 2.71870E+01
 -1      3631 1.94234E+01
 -1      3632 2.12456E+01
 -1      3633 2.45725E+01
 -1      3634 2.29125E+01
 -1      3635 2.61414E+01
 -1      3636 2.29125E+01
 -1      3637 2.62407E+01
 -1      3638 2.69151E+01
 -1      3639 2.24143E+01
 -1      3640 2.35548E+01
 -1      3641 2.39731E+01
 -1      3642 2.37763E+01
 -1      3643 2.42171E+01
 -1      3644 2.52042E+01
 -1      3645 2.48848E+01
 -1      3646 2.29626E+01
 -1      3647 2.39796E+01
 -1      3648 2.52374E+01
 -1      3649 2.71664E+01
 -1      3650 2.57485E+01
 -1      3651 2.20102E+01
 -1      3652 2.45946E+01
 -1      3653 2.60529E+01
 -1      3654 2.45555E+01
 -1      3655 2.49432E+01
 -1      3656 2.63520E+01
 -1      3657 2.58434E+01
 -1      3658 2.53714E+01
 -1      3659 2.51634E+01
 -1      3660 2.66174E+01
 -1      3661 2.00801E+01
 -1      3662 2.53492E+01
 -1      3663 2.71870E+01
 -1      3664 2.56369E+01
 -1      3665 2.54077E+01
 -1      3666 2.54533E+01
 -1      3667 2.28829E+01
 -1      3668 2.50593E+01
 -1      3669 2.56273E+01
 -1      3670 2.71249E+01
 -1      3671 2.64884E+01
 -1      3672 2.44663E+01
 -1      3673 2.62041E+01
 -1      3674 2.71870E+01
 -1      3675 2.64307E+01
 -1      3676 2.61414E+01
 -1      3677 2.14983E+01
 -1      3678 2.26427E+01
 -1      3679 2.38005E+01
 -1      3680 1.38176E+01
 -1      3681 1.61215E+01
 -1      3682 2.27052E+01
 -1      3683 2.32214E+01
 -1      3684 1.59378E+01
 -1      3685 2.62041E+01
 -1      3686 1.25400E+01
 -1      3687 8.59345E+00
 -1      3688 1.33039E+01
 -1      3689 1.64450E+01
 -1      3690 2.46931E+01
 -1      3691 2.16439E+01
 -1      3692 9.84219E+00
 -1      3693 9.17792E+00
 -1      3694 1.65454E+01
 -1      3695 2.51453E+01
 -1      3696 1.62040E+01
 -1      3697 1.32431E+01
 -1      3698 1.77777E+01
 -1      3699 1.78959E+01
 -1      3700 1.23136E+01
 -1      3701 2.42171E+01
 -1      3702 9.87340E+00
 -1      3703 2.71249E+01
 -1      3704 2.63520E+01
 -1      3705 1.36693E+01
 -1      3706 1.34342E+01
 -1      3707 1.19577E+01
 -1      3708 1.19577E+01
 -1      3709 1.39454E+01
 -1      3710 1.09423E+01
 -1      3711 2.36857E+01
 -1      3712 1.92449E+01
 -1      3713 2.13515E+01
 -1      3714 2.00452E+01
 -1      3715 1.65415E+01
 -1      3716 1.42699E+01
 -1      3717 2.56725E+01
 -1      3718 1.94073E+01
 -1      3719 1.24743E+01
 -1      3720 1.02744E+01
 -1      3721 1.35810E+01
 -1      3722 2.69349E+01
 -1      3723 2.68281E+01
 -1      3724 2.61206E+01
 -1      3725 1.69583E+01
 -1      3726 1.51860E+01
 -1      3727 2.69151E+01
 -1      3728 2.38158E+01
 -1      3729 6.55154E+00
 -1      3730 2.58434E+01
 -1      3731 1.31959E+01
 -1      3732 1.27147E+01
 -1      3733 1.49608E+01
 -1      3734 2.57816E+01
 -1      3735 2.45196E+01
 -1      3736 1.71530E+01
 -1      3737 2.13353E+01
 -1      3738 1.03843E+01
 -1      3739 1.13612E+01
 -1      3740 2.11579E+01
 -1      3741 2.63580E+01
 -1      3742 2.49432E+01
 -1      3743 2.25614E+01
 -1      3744 1.84974E+01
 -1      3745 1.63529E+01
 -1      3746 1.95313E+01
 -1      3747 2.66517E+01
 -1      3748 2.70514E+01
 -1      3749 1.24743E+01
 -1      3750 2.41545E+01
 -1      3751 2.23590E+01
 -1      3752 2.02484E+01
 -1      3753 2.41677E+01
 -1      3754 9.17792E+00
 -1      3755 2.56725E+01
 -1      3756 2.48294E+01
 -1      3757 2.27835E+01
 -1      3758 2.27096E+01
 -1      3759 2.60529E+01
 -1      3760 2.51453E+01
 -1      3761 2.42171E+01
 -1      3762 2.71664E+01
 -1      3763 2.37763E+01
 -1      3764 2.27096E+01
 -1      3765 2.57485E+01
 -1      3766 2.46931E+01
 -1      3767 2.25104E+01
 -1      3768 2.57485E+01
 -1      3769 2.68281E+01
 -1      3770 2.62041E+01
 -1      3771 2.32457E+01
 -1      3772 2.01050E+01
 -1      3773 2.58946E+01
 -1      3774 2.51442E+01
 -1      3775 2.60219E+01
 -1      3776 2.31260E+01
 -1      3777 1.60723E+01
 -1      3778 2.08564E+01
 -1      3779 2.59031E+01
 -1      3780 2.26383E+01
 -1      3781 2.28264E+01
 -1      3782 1.12554E+01
 -1      3783 2.54348E+01
 -1      3784 2.64884E+01
 -1      3785 1.65864E+01
 -1      3786 2.70899E+01
 -1      3787 1.81312E+01
 -1      3788 2.10077E+01
 -1      3789 1.50255E+01
 -1      3790 1.14934E+01
 -1      3791 1.12748E+01
 -1      3792 1.89932E+01
 -1      3793 2.70563E+01
 -1      3794 1.96547E+01
 -1      3795 1.81236E+01
 -1      3796 2.53714E+01
 -1      3797 1.74839E+01
 -1      3798 2.00938E+01
 -1      3799 1.34807E+01
 -1      3800 2.15917E+01
 -1      3801 2.28264E+01
 -1      3802 2.28264E+01
 -1      3803 2.25920E+01
 -1      3804 1.88655E+01
 -1      3805 1.59625E+01
 -1      3806 1.68492E+01
 -1      3807 2.26383E+01
 -1      3808 2.26472E+01
 -1      3809 2.21581E+01
 -1      3810 1.61695E+01
 -1      3811 1.80787E+01
 -1      3812 1.71530E+01
 -1      3813 2.47746E+01
 -1      3814 2.39853E+01
 -1      3815 2.39853E+01
 -1      3816 2.02245E+01
 -1      3817 2.29123E+01
 -1      3818 2.36613E+01
 -1      3819 2.51540E+01
 -1      3820 2.55236E+01
 -1      3821 1.78731E+01
 -1      3822 1.92803E+01
 -1      3823 2.04754E+01
 -1      3824 1.38646E+01
 -1      3825 1.55057E+01
 -1      3826 1.67308E+01
 -1      3827 1.74400E+01
 -1      3828 1.90981E+01
 -1      3829 1.16058E+01
 -1      3830 1.30878E+01
 -1      3831 1.40198E+01
 -1      3832 9.73032E+00
 -1      3833 1.06649E+01
 -1      3834 1.15866E+01
 -1      3835 1.08902E+01
 -1      3836 1.25275E+01
 -1      3837 9.17178E+00
 -1      3838 9.73032E+00
 -1      3839 1.13612E+01
 -1      3840 6.89486E+00
 -1      3841 7.32348E+00
 -1      3842 8.13686E+00
 -1      3843 7.79571E+00
 -1      3844 9.98516E+00
 -1      3845 1.19865E+01
 -1      3846 7.35927E+00
 -1      3847 8.12905E+00
 -1      3848 1.25694E+01
 -1      3849 2.42754E+01
 -1      3850 2.58682E+01
 -1      3851 2.42665E+01
 -1      3852 2.41004E+01
 -1      3853 2.11140E+01
 -1      3854 2.63441E+01
 -1      3855 2.46027E+01
 -1      3856 2.63705E+01
 -1      3857 1.91832E+01
 -1      3858 1.74868E+01
 -1      3859 2.04282E+01
 -1      3860 1.53581E+01
 -1      3861 1.38543E+01
 -1      3862 1.74868E+01
 -1      3863 1.63687E+01
 -1      3864 1.84974E+01
 -1      3865 1.28319E+01
 -1      3866 1.19475E+01
 -1      3867 1.32177E+01
 -1      3868 1.10956E+01
 -1      3869 9.82613E+00
 -1      3870 1.18286E+01
 -1      3871 1.12247E+01
 -1      3872 1.20765E+01
 -1      3873 9.77242E+00
 -1      3874 9.32393E+00
 -1      3875 1.04380E+01
 -1      3876 7.74669E+00
 -1      3877 6.87735E+00
 -1      3878 9.32393E+00
 -1      3879 8.80705E+00
 -1      3880 1.03843E+01
 -1      3881 6.53821E+00
 -1      3882 1.08688E+01
 -1      3883 6.89067E+00
 -1      3884 7.43486E+00
 -1      3885 1.17521E+01
 -1      3886 1.27356E+01
 -1      3887 2.41303E+01
 -1      3888 2.50160E+01
 -1      3889 2.43647E+01
 -1      3890 2.41289E+01
 -1      3891 2.15850E+01
 -1      3892 2.50160E+01
 -1      3893 2.26996E+01
 -1      3894 2.53724E+01
 -1      3895 2.52434E+01
 -1      3896 2.53724E+01
 -1      3897 2.51266E+01
 -1      3898 2.63580E+01
 -1      3899 2.40314E+01
 -1      3900 2.16999E+01
 -1      3901 2.52628E+01
 -1      3902 1.94891E+01
 -1      3903 1.89660E+01
 -1      3904 2.19569E+01
 -1      3905 2.16505E+01
 -1      3906 2.32476E+01
 -1      3907 2.24306E+01
 -1      3908 2.33736E+01
 -1      3909 2.35461E+01
 -1      3910 2.52410E+01
 -1      3911 2.35461E+01
 -1      3912 2.40446E+01
 -1      3913 2.53670E+01
 -1      3914 2.43093E+01
 -1      3915 2.46281E+01
 -1      3916 2.56317E+01
 -1      3917 2.46281E+01
 -1      3918 2.26696E+01
 -1      3919 2.58964E+01
 -1      3920 2.12881E+01
 -1      3921 2.27623E+01
 -1      3922 2.45149E+01
 -1      3923 2.36102E+01
 -1      3924 2.36750E+01
 -1      3925 2.39814E+01
 -1      3926 2.48053E+01
 -1      3927 2.57699E+01
 -1      3928 2.59596E+01
 -1      3929 2.57567E+01
 -1      3930 2.42584E+01
 -1      3931 2.70767E+01
 -1      3932 2.32431E+01
 -1      3933 2.18527E+01
 -1      3934 2.60482E+01
 -1      3935 2.06911E+01
 -1      3936 2.22459E+01
 -1      3937 2.38713E+01
 -1      3938 2.26057E+01
 -1      3939 2.26160E+01
 -1      3940 2.30694E+01
 -1      3941 2.33338E+01
 -1      3942 2.27625E+01
 -1      3943 2.41470E+01
 -1      3944 2.26273E+01
 -1      3945 2.25411E+01
 -1      3946 2.47297E+01
 -1      3947 2.32702E+01
 -1      3948 2.30085E+01
 -1      3949 2.53237E+01
 -1      3950 2.20082E+01
 -1      3951 2.40523E+01
 -1      3952 2.50526E+01
 -1      3953 2.40523E+01
 -1      3954 2.40127E+01
 -1      3955 2.40523E+01
 -1      3956 2.39731E+01
 -1      3957 2.23702E+01
 -1      3958 2.40127E+01
 -1      3959 2.28553E+01
 -1      3960 2.23651E+01
 -1      3961 2.44581E+01
 -1      3962 2.08273E+01
 -1      3963 2.18676E+01
 -1      3964 2.34054E+01
 -1      3965 2.29236E+01
 -1      3966 2.30505E+01
 -1      3967 2.29236E+01
 -1      3968 2.38792E+01
 -1      3969 2.31139E+01
 -1      3970 2.48082E+01
 -1      3971 2.19183E+01
 -1      3972 2.24641E+01
 -1      3973 2.44413E+01
 -1      3974 2.18463E+01
 -1      3975 2.14868E+01
 -1      3976 2.26280E+01
 -1      3977 2.31856E+01
 -1      3978 2.50129E+01
 -1      3979 2.37089E+01
 -1      3980 2.51453E+01
 -1      3981 2.40728E+01
 -1      3982 2.55401E+01
 -1      3983 2.35143E+01
 -1      3984 2.34283E+01
 -1      3985 2.51140E+01
 -1      3986 2.38772E+01
 -1      3987 2.15935E+01
 -1      3988 2.50044E+01
 -1      3989 2.20429E+01
 -1      3990 2.20356E+01
 -1      3991 2.59026E+01
 -1      3992 2.20356E+01
 -1      3993 2.32113E+01
 -1      3994 2.63520E+01
 -1      3995 2.00706E+01
 -1      3996 2.02048E+01
 -1      3997 2.32113E+01
 -1      3998 2.26992E+01
 -1      3999 2.50593E+01
 -1      4000 2.25649E+01
 -1      4001 2.54513E+01
 -1      4002 2.57810E+01
 -1      4003 2.54513E+01
 -1      4004 2.57810E+01
 -1      4005 2.43975E+01
 -1      4006 2.58434E+01
 -1      4007 2.43029E+01
 -1      4008 2.39774E+01
 -1      4009 2.57487E+01
 -1      4010 2.33835E+01
 -1      4011 2.33312E+01
 -1      4012 2.50602E+01
 -1      4013 2.28929E+01
 -1      4014 2.22856E+01
 -1      4015 2.40281E+01
 -1      4016 2.35928E+01
 -1      4017 2.30328E+01
 -1      4018 2.48969E+01
 -1      4019 2.21482E+01
 -1      4020 2.22574E+01
 -1      4021 2.53194E+01
 -1      4022 2.00801E+01
 -1      4023 2.01587E+01
 -1      4024 2.22574E+01
 -1      4025 2.36614E+01
 -1      4026 2.59033E+01
 -1      4027 2.35827E+01
 -1      4028 2.59541E+01
 -1      4029 2.53460E+01
 -1      4030 2.71362E+01
 -1      4031 2.53460E+01
 -1      4032 2.69022E+01
 -1      4033 2.71870E+01
 -1      4034 2.66174E+01
 -1      4035 2.53880E+01
 -1      4036 2.69022E+01
 -1      4037 2.52947E+01
 -1      4038 2.64307E+01
 -1      4039 2.65240E+01
 -1      4040 2.64307E+01
 -1      4041 2.48464E+01
 -1      4042 2.64307E+01
 -1      4043 2.50451E+01
 -1      4044 2.56589E+01
 -1      4045 2.66294E+01
 -1      4046 2.53155E+01
 -1      4047 2.47568E+01
 -1      4048 2.64848E+01
 -1      4049 2.51436E+01
 -1      4050 2.66990E+01
 -1      4051 2.65283E+01
 -1      4052 2.66990E+01
 -1      4053 2.51874E+01
 -1      4054 2.69151E+01
 -1      4055 2.49162E+01
 -1      4056 2.48555E+01
 -1      4057 2.66439E+01
 -1      4058 2.43549E+01
 -1      4059 2.39867E+01
 -1      4060 2.58720E+01
 -1      4061 2.45022E+01
 -1      4062 2.51350E+01
 -1      4063 2.58869E+01
 -1      4064 2.54012E+01
 -1      4065 2.65140E+01
 -1      4066 2.66687E+01
 -1      4067 2.65140E+01
 -1      4068 2.55334E+01
 -1      4069 2.69349E+01
 -1      4070 2.41318E+01
 -1      4071 2.27120E+01
 -1      4072 2.55334E+01
 -1      4073 2.38904E+01
 -1      4074 2.53717E+01
 -1      4075 2.53101E+01
 -1      4076 2.42550E+01
 -1      4077 2.37900E+01
 -1      4078 2.53717E+01
 -1      4079 2.52250E+01
 -1      4080 2.56419E+01
 -1      4081 2.56900E+01
 -1      4082 2.56419E+01
 -1      4083 2.46249E+01
 -1      4084 2.71249E+01
 -1      4085 2.39368E+01
 -1      4086 2.51251E+01
 -1      4087 2.64367E+01
 -1      4088 2.48695E+01
 -1      4089 2.45448E+01
 -1      4090 2.54930E+01
 -1      4091 2.55093E+01
 -1      4092 2.52887E+01
 -1      4093 2.62019E+01
 -1      4094 2.42872E+01
 -1      4095 2.34591E+01
 -1      4096 2.61649E+01
 -1      4097 2.34795E+01
 -1      4098 2.52042E+01
 -1      4099 2.51838E+01
 -1      4100 2.52042E+01
 -1      4101 2.50445E+01
 -1      4102 2.52042E+01
 -1      4103 2.48848E+01
 -1      4104 2.38427E+01
 -1      4105 2.50445E+01
 -1      4106 2.32884E+01
 -1      4107 2.30482E+01
 -1      4108 2.43306E+01
 -1      4109 2.37706E+01
 -1      4110 2.38176E+01
 -1      4111 2.44987E+01
 -1      4112 2.33156E+01
 -1      4113 2.26004E+01
 -1      4114 2.47191E+01
 -1      4115 2.22693E+01
 -1      4116 2.22693E+01
 -1      4117 2.38860E+01
 -1      4118 2.22059E+01
 -1      4119 1.98968E+01
 -1      4120 2.34914E+01
 -1      4121 1.93899E+01
 -1      4122 2.13401E+01
 -1      4123 2.29212E+01
 -1      4124 2.13401E+01
 -1      4125 2.19305E+01
 -1      4126 2.24143E+01
 -1      4127 2.21151E+01
 -1      4128 2.22220E+01
 -1      4129 2.25989E+01
 -1      4130 2.23697E+01
 -1      4131 2.06675E+01
 -1      4132 2.29312E+01
 -1      4133 2.10360E+01
 -1      4134 2.38158E+01
 -1      4135 2.34473E+01
 -1      4136 2.49440E+01
 -1      4137 2.60722E+01
 -1      4138 2.49440E+01
 -1      4139 2.65642E+01
 -1      4140 2.57892E+01
 -1      4141 2.65642E+01
 -1      4142 2.53646E+01
 -1      4143 2.44956E+01
 -1      4144 2.66317E+01
 -1      4145 2.35413E+01
 -1      4146 2.37420E+01
 -1      4147 2.52528E+01
 -1      4148 2.46037E+01
 -1      4149 2.37315E+01
 -1      4150 2.51602E+01
 -1      4151 2.34380E+01
 -1      4152 2.38930E+01
 -1      4153 2.57283E+01
 -1      4154 2.39358E+01
 -1      4155 2.32826E+01
 -1      4156 2.54776E+01
 -1      4157 2.38483E+01
 -1      4158 2.42131E+01
 -1      4159 2.60860E+01
 -1      4160 2.42131E+01
 -1      4161 2.29801E+01
 -1      4162 2.66517E+01
 -1      4163 2.03219E+01
 -1      4164 1.98657E+01
 -1      4165 2.39935E+01
 -1      4166 1.97177E+01
 -1      4167 2.10393E+01
 -1      4168 2.11873E+01
 -1      4169 2.23630E+01
 -1      4170 2.27887E+01
 -1      4171 2.23630E+01
 -1      4172 2.38385E+01
 -1      4173 2.49924E+01
 -1      4174 2.47366E+01
 -1      4175 2.55224E+01
 -1      4176 2.47251E+01
 -1      4177 2.63164E+01
 -1      4178 2.47164E+01
 -1      4179 2.42534E+01
 -1      4180 2.68376E+01
 -1      4181 2.47336E+01
 -1      4182 1.45427E+01
 -1      4183 1.48465E+01
 -1      4184 1.48465E+01
 -1      4185 2.65283E+01
 -1      4186 2.69151E+01
 -1      4187 2.65283E+01
 -1      4188 2.61414E+01
 -1      4189 2.69151E+01
 -1      4190 2.27146E+01
 -1      4191 2.62173E+01
 -1      4192 2.62681E+01
 -1      4193 2.71362E+01
 -1      4194 2.71870E+01
 -1      4195 2.58434E+01
 -1      4196 2.58434E+01
 -1      4197 2.53433E+01
 -1      4198 2.57353E+01
 -1      4199 2.57353E+01
 -1      4200 2.56725E+01
 -1      4201 2.51140E+01
 -1      4202 2.55401E+01
 -1      4203 2.56725E+01
 -1      4204 2.56725E+01
 -1      4205 2.48491E+01
 -1      4206 2.34475E+01
 -1      4207 2.46258E+01
 -1      4208 2.53101E+01
 -1      4209 2.64884E+01
 -1      4210 2.62019E+01
 -1      4211 2.71664E+01
 -1      4212 2.71664E+01
 -1      4213 2.71664E+01
 -1      4214 2.61649E+01
 -1      4215 2.49485E+01
 -1      4216 2.56709E+01
 -1      4217 2.47191E+01
 -1      4218 2.42171E+01
 -1      4219 2.51689E+01
 -1      4220 2.34054E+01
 -1      4221 2.44614E+01
 -1      4222 2.49432E+01
 -1      4223 2.35537E+01
 -1      4224 2.37383E+01
 -1      4225 2.35537E+01
 -1      4226 2.35537E+01
 -1      4227 2.46931E+01
 -1      4228 2.60529E+01
 -1      4229 2.50526E+01
 -1      4230 2.53237E+01
 -1      4231 2.60529E+01
 -1      4232 2.60529E+01
 -1      4233 2.67783E+01
 -1      4234 2.57630E+01
 -1      4235 2.46013E+01
 -1      4236 2.38713E+01
 -1      4237 2.27096E+01
 -1      4238 2.43896E+01
 -1      4239 2.30082E+01
 -1      4240 2.39814E+01
 -1      4241 2.48294E+01
 -1      4242 2.38561E+01
 -1      4243 2.48493E+01
 -1      4244 2.59775E+01
 -1      4245 2.64696E+01
 -1      4246 2.65642E+01
 -1      4247 2.70563E+01
 -1      4248 2.57283E+01
 -1      4249 2.60219E+01
 -1      4250 2.60219E+01
 -1      4251 2.60219E+01
 -1      4252 2.51602E+01
 -1      4253 2.63357E+01
 -1      4254 2.63357E+01
 -1      4255 2.61061E+01
 -1      4256 2.60111E+01
 -1      4257 2.61995E+01
 -1      4258 2.44930E+01
 -1      4259 2.40547E+01
 -1      4260 2.48969E+01
 -1      4261 2.62041E+01
 -1      4262 2.53619E+01
 -1      4263 2.60860E+01
 -1      4264 2.66517E+01
 -1      4265 2.66517E+01
 -1      4266 2.36778E+01
 -1      4267 2.35297E+01
 -1      4268 2.35891E+01
 -1      4269 2.10986E+01
 -1      4270 2.24224E+01
 -1      4271 2.53670E+01
 -1      4272 2.53670E+01
 -1      4273 2.42942E+01
 -1      4274 2.42942E+01
 -1      4275 2.45589E+01
 -1      4276 2.41677E+01
 -1      4277 2.19569E+01
 -1      4278 2.17733E+01
 -1      4279 2.44578E+01
 -1      4280 2.39841E+01
 -1      4281 2.38083E+01
 -1      4282 2.38083E+01
 -1      4283 2.26876E+01
 -1      4284 2.40834E+01
 -1      4285 2.39237E+01
 -1      4286 2.64367E+01
 -1      4287 2.57485E+01
 -1      4288 2.71249E+01
 -1      4289 2.71249E+01
 -1      4290 2.64367E+01
 -1      4291 2.63520E+01
 -1      4292 2.63520E+01
 -1      4293 2.59026E+01
 -1      4294 2.56369E+01
 -1      4295 2.44413E+01
 -1      4296 2.44413E+01
 -1      4297 2.32457E+01
 -1      4298 2.26280E+01
 -1      4299 2.58869E+01
 -1      4300 2.61531E+01
 -1      4301 2.66687E+01
 -1      4302 2.69349E+01
 -1      4303 2.53714E+01
 -1      4304 1.03733E+01
 -1      4305 8.79608E+00
 -1      4306 8.86131E+00
 -1      4307 7.29503E+00
 -1      4308 6.95590E+00
 -1      4309 8.13686E+00
 -1      4310 8.60909E+00
 -1      4311 7.67601E+00
 -1      4312 8.14823E+00
 -1      4313 8.14041E+00
 -1      4314 1.19577E+01
 -1      4315 1.12247E+01
 -1      4316 1.16066E+01
 -1      4317 1.08736E+01
 -1      4318 1.08198E+01
 -1      4319 1.15866E+01
 -1      4320 1.18120E+01
 -1      4321 1.14273E+01
 -1      4322 1.16527E+01
 -1      4323 1.14273E+01
 -1      4324 1.56592E+01
 -1      4325 1.75934E+01
 -1      4326 1.43071E+01
 -1      4327 1.51697E+01
 -1      4328 1.35303E+01
 -1      4329 1.75194E+01
 -1      4330 1.53908E+01
 -1      4331 1.42550E+01
 -1      4332 1.32326E+01
 -1      4333 1.54057E+01
 -1      4334 2.50160E+01
 -1      4335 2.61305E+01
 -1      4336 2.63580E+01
 -1      4337 2.63580E+01
 -1      4338 2.61305E+01
 -1      4339 2.63164E+01
 -1      4340 2.63164E+01
 -1      4341 2.57864E+01
 -1      4342 2.47366E+01
 -1      4343 2.68464E+01
 -1      4344 2.50707E+01
 -1      4345 2.60250E+01
 -1      4346 2.66317E+01
 -1      4347 2.64496E+01
 -1      4348 2.70563E+01
 -1      4349 2.59596E+01
 -1      4350 2.70899E+01
 -1      4351 2.70899E+01
 -1      4352 2.70899E+01
 -1      4353 2.70767E+01
 -1      4354 2.27096E+01
 -1      4355 2.30694E+01
 -1      4356 2.42872E+01
 -1      4357 2.50050E+01
 -1      4358 2.39274E+01
 -1      4359 2.37913E+01
 -1      4360 2.32844E+01
 -1      4361 2.38547E+01
 -1      4362 2.44808E+01
 -1      4363 2.29312E+01
 -1      4364 2.43332E+01
 -1      4365 2.27835E+01
 -1      4366 2.37722E+01
 -1      4367 2.37722E+01
 -1      4368 2.35889E+01
 -1      4369 2.38690E+01
 -1      4370 2.38294E+01
 -1      4371 2.68464E+01
 -1      4372 2.46027E+01
 -1      4373 2.46027E+01
 -1      4374 2.23590E+01
 -1      4375 2.10069E+01
 -1      4376 1.90760E+01
 -1      4377 2.10069E+01
 -1      4378 2.32220E+01
 -1      4379 2.54637E+01
 -1      4380 2.14589E+01
 -1      4381 2.32613E+01
 -1      4382 2.05148E+01
 -1      4383 2.68464E+01
 -1      4384 2.68376E+01
 -1      4385 2.63618E+01
 -1      4386 2.55236E+01
 -1      4387 2.59031E+01
 -1      4388 2.59031E+01
 -1      4389 2.59031E+01
 -1      4390 1.08198E+01
 -1      4391 1.08089E+01
 -1      4392 1.08198E+01
 -1      4393 1.12554E+01
 -1      4394 1.02535E+01
 -1      4395 9.80695E+00
 -1      4396 9.79479E+00
 -1      4397 8.29374E+00
 -1      4398 9.23937E+00
 -1      4399 1.13047E+01
 -1      4400 1.03028E+01
 -1      4401 1.14184E+01
 -1      4402 1.14677E+01
 -1      4403 1.12554E+01
 -1      4404 1.14184E+01
 -1      4405 1.12554E+01
 -1      4406 9.53928E+00
 -1      4407 8.60580E+00
 -1      4408 9.08477E+00
 -1      4409 7.83922E+00
 -1      4410 9.55031E+00
 -1      4411 9.86238E+00
 -1      4412 9.20257E+00
 -1      4413 9.52566E+00
 -1      4414 9.54686E+00
 -1      4415 9.53470E+00
 -1      4416 9.51006E+00
 -1      4417 9.94195E+00
 -1      4418 9.94195E+00
 -1      4419 1.00513E+01
 -1      4420 1.13841E+01
 -1      4421 9.50481E+00
 -1      4422 1.08377E+01
 -1      4423 9.94195E+00
 -1      4424 1.12748E+01
 -1      4425 8.66381E+00
 -1      4426 9.12467E+00
 -1      4427 1.00204E+01
 -1      4428 1.14482E+01
 -1      4429 1.18854E+01
 -1      4430 1.22623E+01
 -1      4431 1.16518E+01
 -1      4432 1.18150E+01
 -1      4433 1.14380E+01
 -1      4434 1.14380E+01
 -1      4435 8.78039E+00
 -1      4436 9.75683E+00
 -1      4437 9.23343E+00
 -1      4438 1.10623E+01
 -1      4439 1.21100E+01
 -1      4440 9.57908E+00
 -1      4441 1.02409E+01
 -1      4442 9.19895E+00
 -1      4443 1.29883E+01
 -1      4444 1.27547E+01
 -1      4445 1.28264E+01
 -1      4446 1.35498E+01
 -1      4447 1.32193E+01
 -1      4448 1.37117E+01
 -1      4449 1.24405E+01
 -1      4450 1.23717E+01
 -1      4451 1.21579E+01
 -1      4452 1.28049E+01
 -1      4453 1.31478E+01
 -1      4454 1.35309E+01
 -1      4455 1.42654E+01
 -1      4456 1.46583E+01
 -1      4457 1.59801E+01
 -1      4458 1.52646E+01
 -1      4459 1.58862E+01
 -1      4460 1.45644E+01
 -1      4461 1.52646E+01
 -1      4462 1.65864E+01
 -1      4463 1.43334E+01
 -1      4464 1.38765E+01
 -1      4465 1.49850E+01
 -1      4466 1.31569E+01
 -1      4467 1.38765E+01
 -1      4468 1.24405E+01
 -1      4469 1.41947E+01
 -1      4470 1.43835E+01
 -1      4471 1.49972E+01
 -1      4472 1.56292E+01
 -1      4473 1.54404E+01
 -1      4474 1.43334E+01
 -1      4475 1.56292E+01
 -1      4476 1.51860E+01
 -1      4477 1.52669E+01
 -1      4478 1.56558E+01
 -1      4479 1.61914E+01
 -1      4480 1.59094E+01
 -1      4481 1.65157E+01
 -1      4482 1.31638E+01
 -1      4483 1.38834E+01
 -1      4484 1.42176E+01
 -1      4485 1.49302E+01
 -1      4486 1.56559E+01
 -1      4487 1.53217E+01
 -1      4488 1.59926E+01
 -1      4489 1.27352E+01
 -1      4490 1.27422E+01
 -1      4491 1.06065E+01
 -1      4492 1.13229E+01
 -1      4493 1.09012E+01
 -1      4494 1.37457E+01
 -1      4495 1.47924E+01
 -1      4496 1.31748E+01
 -1      4497 1.37496E+01
 -1      4498 1.27461E+01
 -1      4499 1.52623E+01
 -1      4500 1.57342E+01
 -1      4501 1.71638E+01
 -1      4502 1.66940E+01
 -1      4503 1.77940E+01
 -1      4504 1.74025E+01
 -1      4505 1.88321E+01
 -1      4506 1.41662E+01
 -1      4507 1.47371E+01
 -1      4508 1.50895E+01
 -1      4509 1.46730E+01
 -1      4510 1.52623E+01
 -1      4511 1.62040E+01
 -1      4512 1.56147E+01
 -1      4513 1.31787E+01
 -1      4514 1.41662E+01
 -1      4515 1.12265E+01
 -1      4516 1.12265E+01
 -1      4517 1.07939E+01
 -1      4518 1.31440E+01
 -1      4519 1.41314E+01
 -1      4520 1.41314E+01
 -1      4521 1.51536E+01
 -1      4522 1.63188E+01
 -1      4523 1.63188E+01
 -1      4524 1.58238E+01
 -1      4525 1.58879E+01
 -1      4526 1.70530E+01
 -1      4527 1.24656E+01
 -1      4528 1.24308E+01
 -1      4529 1.00060E+01
 -1      4530 1.19582E+01
 -1      4531 1.12451E+01
 -1      4532 1.48517E+01
 -1      4533 1.58739E+01
 -1      4534 1.30191E+01
 -1      4535 1.47616E+01
 -1      4536 1.23407E+01
 -1      4537 9.48693E+00
 -1      4538 1.02187E+01
 -1      4539 9.38156E+00
 -1      4540 9.59420E+00
 -1      4541 1.63579E+01
 -1      4542 1.56376E+01
 -1      4543 1.62372E+01
 -1      4544 1.57533E+01
 -1      4545 1.69184E+01
 -1      4546 1.48208E+01
 -1      4547 1.66535E+01
 -1      4548 1.75291E+01
 -1      4549 1.74699E+01
 -1      4550 1.95988E+01
 -1      4551 1.87232E+01
 -1      4552 1.84868E+01
 -1      4553 1.31164E+01
 -1      4554 1.50083E+01
 -1      4555 1.21134E+01
 -1      4556 1.27016E+01
 -1      4557 1.28891E+01
 -1      4558 1.76539E+01
 -1      4559 1.84703E+01
 -1      4560 1.69383E+01
 -1      4561 1.78795E+01
 -1      4562 1.52339E+01
 -1      4563 1.81545E+01
 -1      4564 1.81545E+01
 -1      4565 1.91143E+01
 -1      4566 2.00808E+01
 -1      4567 1.83341E+01
 -1      4568 2.14645E+01
 -1      4569 2.20046E+01
 -1      4570 2.05923E+01
 -1      4571 2.25162E+01
 -1      4572 1.98837E+01
 -1      4573 1.91554E+01
 -1      4574 1.90306E+01
 -1      4575 2.00071E+01
 -1      4576 1.93220E+01
 -1      4577 2.05753E+01
 -1      4578 1.78795E+01
 -1      4579 1.85951E+01
 -1      4580 2.05455E+01
 -1      4581 2.05455E+01
 -1      4582 1.91554E+01
 -1      4583 1.97157E+01
 -1      4584 2.11058E+01
 -1      4585 1.62684E+01
 -1      4586 1.69840E+01
 -1      4587 1.54314E+01
 -1      4588 1.45359E+01
 -1      4589 1.35014E+01
 -1      4590 1.65518E+01
 -1      4591 1.81629E+01
 -1      4592 1.79309E+01
 -1      4593 1.83631E+01
 -1      4594 2.13722E+01
 -1      4595 1.94218E+01
 -1      4596 1.91898E+01
 -1      4597 1.53284E+01
 -1      4598 1.65073E+01
 -1      4599 1.45211E+01
 -1      4600 1.44766E+01
 -1      4601 1.36841E+01
 -1      4602 1.63668E+01
 -1      4603 1.75902E+01
 -1      4604 1.82215E+01
 -1      4605 1.83619E+01
 -1      4606 1.87613E+01
 -1      4607 1.85610E+01
 -1      4608 1.91923E+01
 -1      4609 1.52839E+01
 -1      4610 1.63668E+01
 -1      4611 1.46146E+01
 -1      4612 1.46146E+01
 -1      4613 1.38073E+01
 -1      4614 1.69497E+01
 -1      4615 1.80326E+01
 -1      4616 1.96602E+01
 -1      4617 1.90774E+01
 -1      4618 1.98491E+01
 -1      4619 1.52349E+01
 -1      4620 1.69007E+01
 -1      4621 1.46146E+01
 -1      4622 1.45656E+01
 -1      4623 1.39454E+01
 -1      4624 1.67504E+01
 -1      4625 1.84652E+01
 -1      4626 1.95856E+01
 -1      4627 1.97359E+01
 -1      4628 1.99535E+01
 -1      4629 2.09983E+01
 -1      4630 2.10740E+01
 -1      4631 1.55416E+01
 -1      4632 1.71061E+01
 -1      4633 1.43101E+01
 -1      4634 1.46658E+01
 -1      4635 1.36898E+01
 -1      4636 1.68553E+01
 -1      4637 1.80641E+01
 -1      4638 1.85291E+01
 -1      4639 1.87799E+01
 -1      4640 2.00506E+01
 -1      4641 1.62194E+01
 -1      4642 1.71774E+01
 -1      4643 1.50836E+01
 -1      4644 1.54057E+01
 -1      4645 1.38521E+01
 -1      4646 1.78347E+01
 -1      4647 1.84706E+01
 -1      4648 2.01626E+01
 -1      4649 1.95053E+01
 -1      4650 2.12033E+01
 -1      4651 1.95113E+01
 -1      4652 2.02271E+01
 -1      4653 1.26253E+01
 -1      4654 1.26401E+01
 -1      4655 1.30866E+01
 -1      4656 1.20279E+01
 -1      4657 1.28891E+01
 -1      4658 1.29515E+01
 -1      4659 1.26960E+01
 -1      4660 1.24438E+01
 -1      4661 1.14500E+01
 -1      4662 1.24438E+01
 -1      4663 2.29125E+01
 -1      4664 2.15660E+01
 -1      4665 2.15660E+01
 -1      4666 2.01623E+01
 -1      4667 2.15087E+01
 -1      4668 2.22782E+01
 -1      4669 2.09317E+01
 -1      4670 1.91716E+01
 -1      4671 2.48920E+01
 -1      4672 2.53194E+01
 -1      4673 2.57767E+01
 -1      4674 2.62041E+01
 -1      4675 2.13305E+01
 -1      4676 2.24542E+01
 -1      4677 2.31845E+01
 -1      4678 2.42666E+01
 -1      4679 2.02484E+01
 -1      4680 2.31845E+01
 -1      4681 1.91898E+01
 -1      4682 9.77088E+00
 -1      4683 1.02900E+01
 -1      4684 1.05061E+01
 -1      4685 1.10134E+01
 -1      4686 1.00583E+01
 -1      4687 9.33337E+00
 -1      4688 9.43875E+00
 -1      4689 9.43875E+00
 -1      4690 9.17792E+00
 -1      4691 2.18800E+01
 -1      4692 2.21714E+01
 -1      4693 2.18473E+01
 -1      4694 2.40116E+01
 -1      4695 2.18473E+01
 -1      4696 2.09451E+01
 -1      4697 2.12219E+01
 -1      4698 2.09451E+01
 -1      4699 2.15917E+01
 -1      4700 2.40443E+01
 -1      4701 2.21714E+01
 -1      4702 2.28180E+01
 -1      4703 2.56532E+01
 -1      4704 2.70882E+01
 -1      4705 2.67699E+01
 -1      4706 2.23379E+01
 -1      4707 2.20446E+01
 -1      4708 2.40387E+01
 -1      4709 2.26990E+01
 -1      4710 2.26693E+01
 -1      4711 2.06753E+01
 -1      4712 1.98194E+01
 -1      4713 2.23379E+01
 -1      4714 2.33842E+01
 -1      4715 2.19265E+01
 -1      4716 2.29728E+01
 -1      4717 2.17089E+01
 -1      4718 2.36156E+01
 -1      4719 2.42917E+01
 -1      4720 2.18854E+01
 -1      4721 2.09032E+01
 -1      4722 2.59323E+01
 -1      4723 2.42021E+01
 -1      4724 2.42021E+01
 -1      4725 2.25614E+01
 -1      4726 2.17089E+01
 -1      4727 2.08266E+01
 -1      4728 2.01995E+01
 -1      4729 2.00185E+01
 -1      4730 2.31845E+01
 -1      4731 1.98199E+01
 -1      4732 2.27560E+01
 -1      4733 2.35642E+01
 -1      4734 1.96484E+01
 -1      4735 1.73617E+01
 -1      4736 1.73069E+01
 -1      4737 2.33884E+01
 -1      4738 2.20046E+01
 -1      4739 2.04338E+01
 -1      4740 1.94613E+01
 -1      4741 2.03573E+01
 -1      4742 2.01702E+01
 -1      4743 2.17411E+01
 -1      4744 2.45213E+01
 -1      4745 2.45213E+01
 -1      4746 2.39540E+01
 -1      4747 2.50869E+01
 -1      4748 2.30818E+01
 -1      4749 2.50602E+01
 -1      4750 2.56541E+01
 -1      4751 2.57487E+01
 -1      4752 2.57487E+01
 -1      4753 1.94317E+01
 -1      4754 1.86464E+01
 -1      4755 1.75309E+01
 -1      4756 1.75605E+01
 -1      4757 2.11068E+01
 -1      4758 2.02918E+01
 -1      4759 2.11621E+01
 -1      4760 2.20222E+01
 -1      4761 2.14759E+01
 -1      4762 2.23914E+01
 -1      4763 2.13995E+01
 -1      4764 2.11966E+01
 -1      4765 1.95216E+01
 -1      4766 1.93189E+01
 -1      4767 1.84142E+01
 -1      4768 1.73282E+01
 -1      4769 2.44312E+01
 -1      4770 2.12905E+01
 -1      4771 2.37849E+01
 -1      4772 2.19669E+01
 -1      4773 2.11966E+01
 -1      4774 2.34826E+01
 -1      4775 2.34826E+01
 -1      4776 2.42148E+01
 -1      4777 2.41594E+01
 -1      4778 2.56752E+01
 -1      4779 1.92244E+01
 -1      4780 2.03318E+01
 -1      4781 2.13006E+01
 -1      4782 2.12062E+01
 -1      4783 2.20709E+01
 -1      4784 1.75849E+01
 -1      4785 1.67723E+01
 -1      4786 1.73990E+01
 -1      4787 1.73990E+01
 -1      4788 1.60721E+01
 -1      4789 2.31957E+01
 -1      4790 2.32374E+01
 -1      4791 2.18473E+01
 -1      4792 1.42699E+01
 -1      4793 1.54057E+01
 -1      4794 1.65415E+01
 -1      4795 1.78347E+01
 -1      4796 1.31138E+01
 -1      4797 1.31138E+01
 -1      4798 1.31138E+01
 -1      4799 2.01626E+01
 -1      4800 2.11972E+01
 -1      4801 1.84528E+01
 -1      4802 1.94875E+01
 -1      4803 1.71596E+01
 -1      4804 2.17850E+01
 -1      4805 2.17850E+01
 -1      4806 2.27543E+01
 -1      4807 2.21665E+01
 -1      4808 2.21726E+01
 -1      4809 2.17850E+01
 -1      4810 2.23728E+01
 -1      4811 2.14049E+01
 -1      4812 2.19927E+01
 -1      4813 1.96951E+01
 -1      4814 2.12219E+01
 -1      4815 2.08521E+01
 -1      4816 1.84868E+01
 -1      4817 2.11740E+01
 -1      4818 2.08042E+01
 -1      4819 2.42633E+01
 -1      4820 2.38456E+01
 -1      4821 2.48491E+01
 -1      4822 2.21775E+01
 -1      4823 2.21775E+01
 -1      4824 2.46159E+01
 -1      4825 2.41663E+01
 -1      4826 2.30468E+01
 -1      4827 2.45079E+01
 -1      4828 1.98426E+01
 -1      4829 1.84212E+01
 -1      4830 1.80436E+01
 -1      4831 1.84745E+01
 -1      4832 1.98218E+01
 -1      4833 1.80228E+01
 -1      4834 1.78137E+01
 -1      4835 1.64131E+01
 -1      4836 2.17363E+01
 -1      4837 2.08104E+01
 -1      4838 2.03910E+01
 -1      4839 1.79090E+01
 -1      4840 1.88349E+01
 -1      4841 2.11880E+01
 -1      4842 2.10366E+01
 -1      4843 2.10845E+01
 -1      4844 1.86025E+01
 -1      4845 2.30639E+01
 -1      4846 2.44052E+01
 -1      4847 2.20977E+01
 -1      4848 2.23779E+01
 -1      4849 2.66439E+01
 -1      4850 2.61432E+01
 -1      4851 2.58720E+01
 -1      4852 2.53714E+01
 -1      4853 2.55519E+01
 -1      4854 2.55846E+01
 -1      4855 2.55478E+01
 -1      4856 2.55478E+01
 -1      4857 2.70882E+01
 -1      4858 2.39788E+01
 -1      4859 2.55726E+01
 -1      4860 2.55726E+01
 -1      4861 2.64575E+01
 -1      4862 2.48637E+01
 -1      4863 2.48637E+01
 -1      4864 2.57485E+01
 -1      4865 2.45416E+01
 -1      4866 2.26876E+01
 -1      4867 2.24125E+01
 -1      4868 2.31957E+01
 -1      4869 2.61206E+01
 -1      4870 2.61206E+01
 -1      4871 2.61206E+01
 -1      4872 2.49485E+01
 -1      4873 2.33695E+01
 -1      4874 2.49485E+01
 -1      4875 2.47894E+01
 -1      4876 2.55726E+01
 -1      4877 2.45123E+01
 -1      4878 2.48938E+01
 -1      4879 2.41965E+01
 -1      4880 2.41965E+01
 -1      4881 2.63360E+01
 -1      4882 2.45789E+01
 -1      4883 2.42853E+01
 -1      4884 2.57283E+01
 -1      4885 2.60433E+01
 -1      4886 1.22633E+01
 -1      4887 1.17066E+01
 -1      4888 1.15473E+01
 -1      4889 1.27147E+01
 -1      4890 1.22633E+01
 -1      4891 1.42709E+01
 -1      4892 1.38378E+01
 -1      4893 1.38378E+01
 -1      4894 1.12067E+01
 -1      4895 1.11957E+01
 -1      4896 1.04291E+01
 -1      4897 9.75683E+00
 -1      4898 9.31552E+00
 -1      4899 9.52566E+00
 -1      4900 8.96778E+00
 -1      4901 9.87340E+00
 -1      4902 1.12067E+01
 -1      4903 1.25039E+01
 -1      4904 1.25039E+01
 -1      4905 1.28148E+01
 -1      4906 1.35067E+01
 -1      4907 9.12324E+00
 -1      4908 2.40387E+01
 -1      4909 2.46931E+01
 -1      4910 2.46335E+01
 -1      4911 2.46335E+01
 -1      4912 2.30839E+01
 -1      4913 2.37383E+01
 -1      4914 2.41240E+01
 -1      4915 2.21002E+01
 -1      4916 2.44238E+01
 -1      4917 2.38547E+01
 -1      4918 2.46931E+01
 -1      4919 2.44238E+01
 -1      4920 1.81375E+01
 -1      4921 1.90760E+01
 -1      4922 1.87162E+01
 -1      4923 1.87290E+01
 -1      4924 1.98005E+01
 -1      4925 2.12172E+01
 -1      4926 2.00816E+01
 -1      4927 1.68833E+01
 -1      4928 1.90904E+01
 -1      4929 1.61308E+01
 -1      4930 1.64922E+01
 -1      4931 1.47786E+01
 -1      4932 1.86450E+01
 -1      4933 2.04906E+01
 -1      4934 2.17894E+01
 -1      4935 2.20705E+01
 -1      4936 2.23683E+01
 -1      4937 2.32216E+01
 -1      4938 2.19229E+01
 -1      4939 1.72062E+01
 -1      4940 1.79588E+01
 -1      4941 2.02387E+01
 -1      4942 1.95248E+01
 -1      4943 2.09250E+01
 -1      4944 1.57397E+01
 -1      4945 1.72062E+01
 -1      4946 1.44678E+01
 -1      4947 1.44678E+01
 -1      4948 1.90080E+01
 -1      4949 2.05740E+01
 -1      4950 1.83756E+01
 -1      4951 1.87109E+01
 -1      4952 1.69091E+01
 -1      4953 2.11131E+01
 -1      4954 2.23438E+01
 -1      4955 2.43896E+01
 -1      4956 2.38506E+01
 -1      4957 2.31064E+01
 -1      4958 2.10606E+01
 -1      4959 2.01808E+01
 -1      4960 1.87109E+01
 -1      4961 1.93433E+01
 -1      4962 2.09059E+01
 -1      4963 2.09059E+01
 -1      4964 2.26757E+01
 -1      4965 1.79872E+01
 -1      4966 1.86196E+01
 -1      4967 1.53503E+01
 -1      4968 1.65197E+01
 -1      4969 1.64284E+01
 -1      4970 2.01095E+01
 -1      4971 2.16722E+01
 -1      4972 1.88571E+01
 -1      4973 1.96234E+01
 -1      4974 1.81334E+01
 -1      4975 2.25026E+01
 -1      4976 2.32990E+01
 -1      4977 2.27973E+01
 -1      4978 2.30044E+01
 -1      4979 2.53112E+01
 -1      4980 2.44808E+01
 -1      4981 2.48096E+01
 -1      4982 1.96234E+01
 -1      4983 2.08758E+01
 -1      4984 2.30105E+01
 -1      4985 2.30105E+01
 -1      4986 2.46373E+01
 -1      4987 1.70092E+01
 -1      4988 1.82616E+01
 -1      4989 1.65897E+01
 -1      4990 1.52279E+01
 -1      4991 1.63522E+01
 -1      4992 2.20530E+01
 -1      4993 2.41877E+01
 -1      4994 2.04285E+01
 -1      4995 2.16056E+01
 -1      4996 1.78143E+01
 -1      4997 2.28829E+01
 -1      4998 2.43896E+01
 -1      4999 2.59596E+01
 -1      5000 2.38561E+01
 -1      5001 2.49864E+01
 -1      5002 2.51080E+01
 -1      5003 2.45589E+01
 -1      5004 2.17689E+01
 -1      5005 2.58964E+01
 -1      5006 2.58964E+01
 -1      5007 2.28417E+01
 -1      5008 2.33592E+01
 -1      5009 2.08340E+01
 -1      5010 2.06983E+01
 -1      5011 2.46415E+01
 -1      5012 2.55991E+01
 -1      5013 2.51453E+01
 -1      5014 2.46373E+01
 -1      5015 2.55991E+01
 -1      5016 2.51453E+01
 -1      5017 2.51453E+01
 -1      5018 2.18334E+01
 -1      5019 2.34579E+01
 -1      5020 2.35889E+01
 -1      5021 2.33611E+01
 -1      5022 2.47725E+01
 -1      5023 2.46415E+01
 -1      5024 1.96942E+01
 -1      5025 2.15465E+01
 -1      5026 1.96942E+01
 -1      5027 1.94073E+01
 -1      5028 1.75274E+01
 -1      5029 2.10190E+01
 -1      5030 2.31581E+01
 -1      5031 2.37869E+01
 -1      5032 2.43144E+01
 -1      5033 2.43144E+01
 -1      5034 2.36857E+01
 -1      5035 1.92988E+01
 -1      5036 2.09105E+01
 -1      5037 1.81828E+01
 -1      5038 1.80743E+01
 -1      5039 1.81828E+01
 -1      5040 2.06827E+01
 -1      5041 2.24028E+01
 -1      5042 2.39060E+01
 -1      5043 2.41338E+01
 -1      5044 2.37869E+01
 -1      5045 2.49432E+01
 -1      5046 2.52901E+01
 -1      5047 1.97138E+01
 -1      5048 2.12062E+01
 -1      5049 1.69583E+01
 -1      5050 1.80743E+01
 -1      5051 1.85978E+01
 -1      5052 2.21750E+01
 -1      5053 2.39060E+01
 -1      5054 2.56369E+01
 -1      5055 2.39060E+01
 -1      5056 2.34195E+01
 -1      5057 2.34195E+01
 -1      5058 2.27096E+01
 -1      5059 1.77398E+01
 -1      5060 1.65153E+01
 -1      5061 1.60721E+01
 -1      5062 2.53354E+01
 -1      5063 2.38197E+01
 -1      5064 2.32264E+01
 -1      5065 2.33305E+01
 -1      5066 2.38197E+01
 -1      5067 2.50793E+01
 -1      5068 2.52664E+01
 -1      5069 2.34038E+01
 -1      5070 2.67699E+01
 -1      5071 2.42148E+01
 -1      5072 2.22940E+01
 -1      5073 2.26078E+01
 -1      5074 2.48089E+01
 -1      5075 2.52203E+01
 -1      5076 2.70563E+01
 -1      5077 2.52203E+01
 -1      5078 2.36995E+01
 -1      5079 2.40796E+01
 -1      5080 2.34722E+01
 -1      5081 2.17654E+01
 -1      5082 2.19858E+01
 -1      5083 2.40727E+01
 -1      5084 2.06337E+01
 -1      5085 2.49432E+01
 -1      5086 2.44581E+01
 -1      5087 2.56369E+01
 -1      5088 2.48082E+01
 -1      5089 2.52258E+01
 -1      5090 2.47769E+01
 -1      5091 2.69349E+01
 -1      5092 1.58598E+01
 -1      5093 1.57384E+01
 -1      5094 1.08142E+01
 -1      5095 9.76295E+00
 -1      5096 1.19142E+01
 -1      5097 1.13744E+01
 -1      5098 1.19142E+01
 -1      5099 1.24743E+01
 -1      5100 1.10988E+01
 -1      5101 1.12618E+01
 -1      5102 1.23058E+01
 -1      5103 1.16066E+01
 -1      5104 2.67915E+01
 -1      5105 2.51080E+01
 -1      5106 2.59323E+01
 -1      5107 2.54348E+01
 -1      5108 2.37879E+01
 -1      5109 2.45196E+01
 -1      5110 2.50869E+01
 -1      5111 2.45583E+01
 -1      5112 2.53619E+01
 -1      5113 2.37160E+01
 -1      5114 2.62041E+01
 -1      5115 2.53619E+01
 -1      5116 2.50615E+01
 -1      5117 2.38659E+01
 -1      5118 2.49468E+01
 -1      5119 2.32481E+01
 -1      5120 1.29553E+01
 -1      5121 1.42272E+01
 -1      5122 2.22813E+01
 -1      5123 2.38860E+01
 -1      5124 2.38860E+01
 -1      5125 2.35548E+01
 -1      5126 2.26124E+01
 -1      5127 2.42171E+01
 -1      5128 2.51689E+01
 -1      5129 2.51689E+01
 -1      5130 2.63360E+01
 -1      5131 2.54637E+01
 -1      5132 2.38335E+01
 -1      5133 2.45003E+01
 -1      5134 2.56911E+01
 -1      5135 2.52628E+01
 -1      5136 2.41677E+01
 -1      5137 2.52628E+01
 -1      5138 2.41677E+01
 -1      5139 2.39841E+01
 -1      5140 2.34052E+01
 -1      5141 2.39841E+01
 -1      5142 2.45837E+01
 -1      5143 2.52410E+01
 -1      5144 2.25760E+01
 -1      5145 2.25760E+01
 -1      5146 2.38005E+01
 -1      5147 2.54776E+01
 -1      5148 2.50050E+01
 -1      5149 2.48699E+01
 -1      5150 2.53714E+01
 -1      5151 2.44052E+01
 -1      5152 2.27973E+01
 -1      5153 2.47902E+01
 -1      5154 2.41486E+01
 -1      5155 2.51770E+01
 -1      5156 2.32922E+01
 -1      5157 2.23245E+01
 -1      5158 2.52851E+01
 -1      5159 2.66294E+01
 -1      5160 2.68281E+01
 -1      5161 2.68281E+01
 -1      5162 2.64848E+01
 -1      5163 2.68281E+01
 -1      5164 2.45007E+01
 -1      5165 2.23964E+01
 -1      5166 2.19980E+01
 -1      5167 2.53347E+01
 -1      5168 2.54066E+01
 -1      5169 2.64848E+01
 -1      5170 2.56284E+01
 -1      5171 2.56284E+01
 -1      5172 2.65344E+01
 -1      5173 2.29091E+01
 -1      5174 2.03345E+01
 -1      5175 2.45725E+01
 -1      5176 2.29091E+01
 -1      5177 2.51771E+01
 -1      5178 2.51771E+01
 -1      5179 2.71870E+01
 -1      5180 2.58798E+01
 -1      5181 2.58798E+01
 -1      5182 2.64843E+01
 -1      5183 2.06753E+01
 -1      5184 1.97642E+01
 -1      5185 2.37425E+01
 -1      5186 2.20790E+01
 -1      5187 2.50497E+01
 -1      5188 2.41308E+01
 -1      5189 2.41308E+01
 -1      5190 2.42171E+01
 -1      5191 2.43306E+01
 -1      5192 2.37763E+01
 -1      5193 2.54930E+01
 -1      5194 2.57485E+01
 -1      5195 2.40689E+01
 -1      5196 1.32094E+01
 -1      5197 2.23269E+01
 -1      5198 2.11857E+01
 -1      5199 2.11857E+01
 -1      5200 2.11857E+01
 -1      5201 1.91694E+01
 -1      5202 2.17563E+01
 -1      5203 2.06656E+01
 -1      5204 2.06656E+01
 -1      5205 1.97400E+01
 -1      5206 2.23269E+01
 -1      5207 1.97400E+01
 -1      5208 2.60561E+01
 -1      5209 3.04602E+01
 -1      5210 3.04602E+01
 -1      5211 2.86590E+01
 -1      5212 2.67817E+01
 -1      5213 2.77450E+01
 -1      5214 2.53985E+01
 -1      5215 3.11899E+01
 -1      5216 2.20877E+01
 -1      5217 2.32921E+01
 -1      5218 2.38627E+01
 -1      5219 2.78514E+01
 -1      5220 2.87794E+01
 -1      5221 2.61570E+01
 -1      5222 2.38317E+01
 -1      5223 2.30107E+01
 -1      5224 2.54930E+01
 -1      5225 3.02963E+01
 -1      5226 2.77103E+01
 -1      5227 2.65218E+01
 -1      5228 2.67817E+01
 -1      5229 2.27793E+01
 -1      5230 2.60901E+01
 -1      5231 2.87794E+01
 -1      5232 2.86209E+01
 -1      5233 2.86209E+01
 -1      5234 3.04602E+01
 -1      5235 2.17092E+01
 -1      5236 2.63261E+01
 -1      5237 2.73576E+01
 -1      5238 2.71705E+01
 -1      5239 2.85738E+01
 -1      5240 2.69005E+01
 -1      5241 2.94674E+01
 -1      5242 2.70288E+01
 -1      5243 3.08250E+01
 -1      5244 2.64189E+01
 -1      5245 2.82582E+01
 -1      5246 2.91026E+01
 -1      5247 2.57273E+01
 -1      5248 3.08250E+01
 -1      5249 3.02305E+01
 -1      5250 2.75587E+01
 -1      5251 3.02305E+01
 -1      5252 2.84132E+01
 -1      5253 2.98142E+01
 -1      5254 3.02305E+01
 -1      5255 2.96712E+01
 -1      5256 2.77366E+01
 -1      5257 2.60421E+01
 -1      5258 2.84132E+01
 -1      5259 2.56332E+01
 -1      5260 2.91137E+01
 -1      5261 2.72306E+01
 -1      5262 2.95941E+01
 -1      5263 2.60421E+01
 -1      5264 2.62179E+01
 -1      5265 2.98142E+01
 -1      5266 2.98142E+01
 -1      5267 2.78617E+01
 -1      5268 2.96712E+01
 -1      5269 3.02305E+01
 -1      5270 2.52059E+01
 -1      5271 2.65258E+01
 -1      5272 2.88946E+01
 -1      5273 2.79860E+01
 -1      5274 2.95941E+01
 -1      5275 2.71464E+01
 -1      5276 3.02305E+01
 -1      5277 2.58104E+01
 -1      5278 2.50902E+01
 -1      5279 2.86865E+01
 -1      5280 3.02305E+01
 -1      5281 2.91137E+01
 -1      5282 2.78358E+01
 -1      5283 1.46350E+01
 -1      5284 1.01130E+01
 -1      5285 1.80347E+01
 -1      5286 9.58231E+00
 -1      5287 2.71977E+01
 -1      5288 1.46350E+01
 -1      5289 2.98275E+01
 -1      5290 2.98142E+01
 -1      5291 2.77427E+01
 -1      5292 2.91137E+01
 -1      5293 2.98142E+01
 -1      5294 2.98943E+01
 -1      5295 2.98275E+01
 -1      5296 2.95112E+01
 -1      5297 2.98142E+01
 -1      5298 2.84664E+01
 -1      5299 2.95163E+01
 -1      5300 2.95492E+01
 -1      5301 2.67535E+01
 -1      5302 2.67535E+01
 -1      5303 2.88250E+01
 -1      5304 2.01403E+01
 -1      5305 2.64345E+01
 -1      5306 2.75167E+01
 -1      5307 1.13885E+01
 -1      5308 1.38589E+01
 -1      5309 2.09163E+01
 -1      5310 1.23902E+01
 -1      5311 1.13885E+01
 -1      5312 1.46350E+01
 -1      5313 9.55186E+00
 -1      5314 1.01293E+01
 -1      5315 1.23740E+01
 -1      5316 1.13481E+01
 -1      5317 9.28650E+00
 -1      5318 9.84767E+00
 -1      5319 2.39311E+01
 -1      5320 1.55742E+01
 -1      5321 1.38085E+01
 -1      5322 2.39311E+01
 -1      5323 2.74772E+01
 -1      5324 2.74772E+01
 -1      5325 2.71581E+01
 -1      5326 2.02763E+01
 -1      5327 1.39949E+01
 -1      5328 1.15287E+01
 -1      5329 1.15287E+01
 -1      5330 1.23075E+01
 -1      5331 1.00465E+01
 -1      5332 9.92561E+00
 -1      5333 9.66025E+00
 -1      5334 1.08024E+01
 -1      5335 1.50286E+01
 -1      5336 2.36198E+01
 -1      5337 1.10408E+01
 -1      5338 1.81717E+01
 -1      5339 2.99611E+01
 -1      5340 1.02684E+01
 -1      5341 1.05536E+01
 -1      5342 9.24569E+00
 -1      5343 9.74633E+00
 -1      5344 9.84037E+00
 -1      5345 2.99611E+01
 -1      5346 2.99611E+01
 -1      5347 2.95780E+01
 -1      5348 9.68179E+00
 -1      5349 9.02338E+00
 -1      5350 9.69778E+00
 -1      5351 2.96160E+01
 -1      5352 2.96160E+01
 -1      5353 1.68542E+01
 -1      5354 2.40664E+01
 -1      5355 2.40664E+01
 -1      5356 9.98997E+00
 -1      5357 1.32887E+01
 -1      5358 1.46063E+01
 -1      5359 1.07972E+01
 -1      5360 2.37213E+01
 -1      5361 1.64907E+01
 -1      5362 1.29252E+01
 -1      5363 1.00680E+01
 -1      5364 1.06546E+01
 -1      5365 1.04110E+01
 -1      5366 3.11899E+01
 -1      5367 3.04962E+01
 -1      5368 3.11899E+01
 -1      5369 2.39687E+01
 -1      5370 2.47316E+01
 -1      5371 2.79946E+01
 -1      5372 2.96868E+01
 -1      5373 2.96868E+01
 -1      5374 2.69872E+01
 -1      5375 2.50826E+01
 -1      5376 2.83414E+01
 -1      5377 2.50826E+01
 -1      5378 2.88930E+01
 -1      5379 3.00337E+01
 -1      5380 3.11899E+01
 -1      5381 3.08430E+01
 -1      5382 3.08430E+01
 -1      5383 2.86590E+01
 -1      5384 2.88775E+01
 -1      5385 2.86590E+01
 -1      5386 2.57608E+01
 -1      5387 2.70800E+01
 -1      5388 2.73476E+01
 -1      5389 2.88775E+01
 -1      5390 2.88775E+01
 -1      5391 2.76276E+01
 -1      5392 2.73769E+01
 -1      5393 2.87683E+01
 -1      5394 2.73769E+01
 -1      5395 2.72384E+01
 -1      5396 2.72384E+01
 -1      5397 2.86590E+01
 -1      5398 2.87683E+01
 -1      5399 2.87683E+01
 -1      5400 2.48924E+01
 -1      5401 2.18684E+01
 -1      5402 2.71977E+01
 -1      5403 2.08655E+01
 -1      5404 2.08655E+01
 -1      5405 2.45330E+01
 -1      5406 2.22563E+01
 -1      5407 2.38430E+01
 -1      5408 2.53550E+01
 -1      5409 2.22641E+01
 -1      5410 2.53550E+01
 -1      5411 2.34167E+01
 -1      5412 2.34167E+01
 -1      5413 2.71977E+01
 -1      5414 2.60450E+01
 -1      5415 2.33804E+01
 -1      5416 2.45330E+01
 -1      5417 2.78358E+01
 -1      5418 2.75587E+01
 -1      5419 2.39950E+01
 -1      5420 2.32628E+01
 -1      5421 1.98898E+01
 -1      5422 2.65258E+01
 -1      5423 2.37106E+01
 -1      5424 2.73782E+01
 -1      5425 1.85385E+01
 -1      5426 2.33898E+01
 -1      5427 2.47439E+01
 -1      5428 2.37358E+01
 -1      5429 2.04589E+01
 -1      5430 2.75167E+01
 -1      5431 2.59154E+01
 -1      5432 2.57768E+01
 -1      5433 2.76973E+01
 -1      5434 7.36417E+00
 -1      5435 4.02528E+00
 -1      5436 3.57149E+00
 -1      5437 1.02463E+01
 -1      5438 1.64761E+01
 -1      5439 2.26383E+01
 -1      5440 7.90681E+00
 -1      5441 5.81814E+00
 -1      5442 4.67802E+00
 -1      5443 9.73819E+00
 -1      5444 2.58418E+01
 -1      5445 1.13790E+01
 -1      5446 2.48924E+01
 -1      5447 1.91983E+01
 -1      5448 9.25970E+00
 -1      5449 4.34075E+00
 -1      5450 1.10408E+01
 -1      5451 1.27489E+01
 -1      5452 8.10658E+00
 -1      5453 6.98649E+00
 -1      5454 5.41168E+00
 -1      5455 5.41168E+00
 -1      5456 6.22070E+00
 -1      5457 7.32416E+00
 -1      5458 6.22054E+00
 -1      5459 5.56071E+00
 -1      5460 6.34750E+00
 -1      5461 6.39671E+00
 -1      5462 5.87202E+00
 -1      5463 5.83863E+00
 -1      5464 9.82957E+00
 -1      5465 6.58546E+00
 -1      5466 4.45728E+00
 -1      5467 8.37081E+00
 -1      5468 7.46821E+00
 -1      5469 9.25970E+00
 -1      5470 6.52489E+00
 -1      5471 5.23891E+00
 -1      5472 6.59018E+00
 -1      5473 1.17900E+01
 -1      5474 1.61329E+01
 -1      5475 5.64238E+00
 -1      5476 5.26521E+00
 -1      5477 5.76926E+00
 -1      5478 5.43255E+00
 -1      5479 4.48999E+00
 -1      5480 3.67481E+00
 -1      5481 1.16996E+01
 -1      5482 8.07879E+00
 -1      5483 9.97561E+00
 -1      5484 8.19074E+00
 -1      5485 7.36117E+00
 -1      5486 5.16906E+00
 -1      5487 2.71977E+01
 -1      5488 4.64688E+00
 -1      5489 8.74170E+00
 -1      5490 9.29707E+00
 -1      5491 2.68143E+01
 -1      5492 7.68727E+00
 -1      5493 4.89402E+00
 -1      5494 2.78358E+01
 -1      5495 1.01566E+01
 -1      5496 1.01143E+01
 -1      5497 9.03446E+00
 -1      5498 9.34736E+00
 -1      5499 1.48096E+01
 -1      5500 8.70256E+00
 -1      5501 8.74055E+00
 -1      5502 5.52109E+00
 -1      5503 4.22405E+00
 -1      5504 5.34685E+00
 -1      5505 9.37850E+00
 -1      5506 1.47305E+01
 -1      5507 1.17900E+01
 -1      5508 1.06977E+01
 -1      5509 4.95368E+00
 -1      5510 5.52109E+00
 -1      5511 4.46059E+00
 -1      5512 4.28247E+00
 -1      5513 4.62194E+00
 -1      5514 1.08099E+01
 -1      5515 5.22863E+00
 -1      5516 4.02622E+00
 -1      5517 1.06172E+01
 -1      5518 1.34685E+01
 -1      5519 4.64338E+00
 -1      5520 2.04950E+01
 -1      5521 9.65252E+00
 -1      5522 6.86824E+00
 -1      5523 4.84102E+00
 -1      5524 4.73938E+00
 -1      5525 9.79410E+00
 -1      5526 2.86590E+01
 -1      5527 5.52109E+00
 -1      5528 3.67014E+00
 -1      5529 1.04552E+01
 -1      5530 1.01045E+01
 -1      5531 6.59018E+00
 -1      5532 2.63767E+01
 -1      5533 9.23271E+00
 -1      5534 5.59788E+00
 -1      5535 4.64688E+00
 -1      5536 1.06172E+01
 -1      5537 2.92710E+01
 -1      5538 1.44429E+01
 -1      5539 2.68143E+01
 -1      5540 5.39341E+00
 -1      5541 5.76437E+00
 -1      5542 5.92097E+00
 -1      5543 1.90044E+01
 -1      5544 2.94027E+01
 -1      5545 3.11899E+01
 -1      5546 2.89576E+01
 -1      5547 8.45491E+00
 -1      5548 5.64238E+00
 -1      5549 2.54135E+01
 -1      5550 2.71186E+01
 -1      5551 2.40622E+01
 -1      5552 4.89402E+00
 -1      5553 4.89185E+00
 -1      5554 5.34685E+00
 -1      5555 1.04552E+01
 -1      5556 1.21433E+01
 -1      5557 4.89606E+00
 -1      5558 5.50940E+00
 -1      5559 5.87841E+00
 -1      5560 5.38294E+00
 -1      5561 2.23269E+01
 -1      5562 2.41511E+01
 -1      5563 9.36607E+00
 -1      5564 4.87980E+00
 -1      5565 9.04088E+00
 -1      5566 8.94144E+00
 -1      5567 9.59985E+00
 -1      5568 2.26383E+01
 -1      5569 1.80519E+01
 -1      5570 2.26472E+01
 -1      5571 1.90044E+01
 -1      5572 1.90044E+01
 -1      5573 1.75686E+01
 -1      5574 1.56595E+01
 -1      5575 1.75686E+01
 -1      5576 2.30107E+01
 -1      5577 2.38317E+01
 -1      5578 2.54930E+01
 -1      5579 2.06656E+01
 -1      5580 2.06656E+01
 -1      5581 2.77103E+01
 -1      5582 3.02963E+01
 -1      5583 3.00737E+01
 -1      5584 2.76139E+01
 -1      5585 2.40176E+01
 -1      5586 2.62660E+01
 -1      5587 2.92710E+01
 -1      5588 2.92380E+01
 -1      5589 2.92710E+01
 -1      5590 2.34234E+01
 -1      5591 2.58711E+01
 -1      5592 2.65099E+01
 -1      5593 2.40622E+01
 -1      5594 2.34234E+01
 -1      5595 2.39665E+01
 -1      5596 1.85721E+01
 -1      5597 2.65961E+01
 -1      5598 2.79994E+01
 -1      5599 2.79994E+01
 -1      5600 2.53736E+01
 -1      5601 2.53736E+01
 -1      5602 2.41891E+01
 -1      5603 2.51230E+01
 -1      5604 2.63160E+01
 -1      5605 2.64546E+01
 -1      5606 2.22641E+01
 -1      5607 2.53550E+01
 -1      5608 2.20453E+01
 -1      5609 2.25080E+01
 -1      5610 2.30063E+01
 -1      5611 2.34167E+01
 -1      5612 2.34167E+01
 -1      5613 2.04589E+01
 -1      5614 2.37358E+01
 -1      5615 2.33771E+01
 -1      5616 2.71581E+01
 -1      5617 2.74772E+01
 -1      5618 9.89312E+00
 -1      5619 9.88363E+00
 -1      5620 1.09473E+01
 -1      5621 8.83945E+00
 -1      5622 9.89312E+00
 -1      5623 1.17900E+01
 -1      5624 4.81720E+00
 -1      5625 5.85352E+00
 -1      5626 8.80408E+00
 -1      5627 3.92698E+00
 -1      5628 4.04937E+00
 -1      5629 5.05031E+00
 -1      5630 2.94072E+00
 -1      5631 3.57149E+00
 -1      5632 3.92698E+00
 -1      5633 3.50406E+00
 -1      5634 3.60199E+00
 -1      5635 4.23276E+00
 -1      5636 3.59095E+00
 -1      5637 3.42674E+00
 -1      5638 4.81670E+00
 -1      5639 3.02484E+00
 -1      5640 3.23390E+00
 -1      5641 4.38233E+00
 -1      5642 3.99005E+00
 -1      5643 3.48904E+00
 -1      5644 4.48948E+00
 -1      5645 3.54812E+00
 -1      5646 3.85222E+00
 -1      5647 4.81585E+00
 -1      5648 3.78783E+00
 -1      5649 3.52008E+00
 -1      5650 4.64998E+00
 -1      5651 5.86797E+00
 -1      5652 5.15894E+00
 -1      5653 5.99306E+00
 -1      5654 1.13491E+01
 -1      5655 6.80224E+00
 -1      5656 8.29844E+00
 -1      5657 1.80519E+01
 -1      5658 1.59355E+01
 -1      5659 2.58418E+01
 -1      5660 2.42490E+01
 -1      5661 2.42401E+01
 -1      5662 2.01821E+01
 -1      5663 2.31684E+01
 -1      5664 2.31684E+01
 -1      5665 1.64761E+01
 -1      5666 1.81726E+01
 -1      5667 1.84856E+01
 -1      5668 1.34685E+01
 -1      5669 1.49723E+01
 -1      5670 1.49723E+01
 -1      5671 1.16996E+01
 -1      5672 1.25840E+01
 -1      5673 1.25840E+01
 -1      5674 9.70344E+00
 -1      5675 1.09730E+01
 -1      5676 1.09730E+01
 -1      5677 8.80547E+00
 -1      5678 9.25396E+00
 -1      5679 9.79684E+00
 -1      5680 6.52489E+00
 -1      5681 7.39423E+00
 -1      5682 7.93613E+00
 -1      5683 1.15464E+01
 -1      5684 7.21585E+00
 -1      5685 7.21585E+00
 -1      5686 1.20198E+01
 -1      5687 2.07567E+01
 -1      5688 2.64051E+01
 -1      5689 2.94027E+01
 -1      5690 3.02963E+01
 -1      5691 2.89576E+01
 -1      5692 3.00737E+01
 -1      5693 2.44992E+01
 -1      5694 2.52194E+01
 -1      5695 2.52194E+01
 -1      5696 2.58951E+01
 -1      5697 2.71186E+01
 -1      5698 2.71186E+01
 -1      5699 2.74772E+01
 -1      5700 2.66247E+01
 -1      5701 2.02763E+01
 -1      5702 2.71581E+01
 -1      5703 1.14327E+01
 -1      5704 1.38989E+01
 -1      5705 1.40427E+01
 -1      5706 2.09641E+01
 -1      5707 1.45867E+01
 -1      5708 9.81624E+00
 -1      5709 9.03749E+00
 -1      5710 1.20477E+01
 -1      5711 9.73819E+00
 -1      5712 9.85908E+00
 -1      5713 9.69536E+00
 -1      5714 1.07005E+01
 -1      5715 9.55835E+00
 -1      5716 9.55835E+00
 -1      5717 2.09769E+01
 -1      5718 1.23857E+01
 -1      5719 1.10637E+01
 -1      5720 2.10099E+01
 -1      5721 1.48096E+01
 -1      5722 2.20403E+01
 -1      5723 2.20403E+01
 -1      5724 1.00680E+01
 -1      5725 1.29252E+01
 -1      5726 1.29252E+01
 -1      5727 9.23063E+00
 -1      5728 1.02035E+01
 -1      5729 9.73529E+00
 -1      5730 2.50826E+01
 -1      5731 2.64546E+01
 -1      5732 2.77367E+01
 -1      5733 2.73769E+01
 -1      5734 2.68143E+01
 -1      5735 2.60450E+01
 -1      5736 1.97293E+01
 -1      5737 2.71062E+01
 -1      5738 8.76038E+00
 -1      5739 9.69465E+00
 -1      5740 7.96048E+00
 -1      5741 6.56427E+00
 -1      5742 5.19315E+00
 -1      5743 5.23739E+00
 -1      5744 4.77319E+00
 -1      5745 4.99084E+00
 -1      5746 4.24294E+00
 -1      5747 4.59998E+00
 -1      5748 4.28208E+00
 -1      5749 3.62081E+00
 -1      5750 4.23377E+00
 -1      5751 4.58926E+00
 -1      5752 4.28310E+00
 -1      5753 9.16255E+00
 -1      5754 9.88919E+00
 -1      5755 7.81986E+00
 -1      5756 6.73610E+00
 -1      5757 7.37039E+00
 -1      5758 1.36430E+01
 -1      5759 1.21392E+01
 -1      5760 1.56525E+01
 -1      5761 1.86104E+01
 -1      5762 1.70087E+01
 -1      5763 1.07678E+01
 -1      5764 1.63975E+01
 -1      5765 6.77460E+00
 -1      5766 6.08364E+00
 -1      5767 1.10269E+01
 -1      5768 6.91389E+00
 -1      5769 5.96651E+00
 -1      5770 4.97359E+00
 -1      5771 4.83430E+00
 -1      5772 6.20416E+00
 -1      5773 9.19009E+00
 -1      5774 4.46293E+00
 -1      5775 5.23076E+00
 -1      5776 5.61678E+00
 -1      5777 5.09955E+00
 -1      5778 5.23739E+00
 -1      5779 4.92529E+00
 -1      5780 4.95332E+00
 -1      5781 5.37486E+00
 -1      5782 9.22038E+00
 -1      5783 9.04053E+00
 -1      5784 9.65988E+00
 -1      5785 1.01777E+01
 -1      5786 1.01777E+01
 -1      5787 1.01349E+01
 -1      5788 1.06172E+01
 -1      5789 1.59370E+01
 -1      5790 1.07467E+01
 -1      5791 1.01355E+01
 -1      5792 1.10945E+01
 -1      5793 1.04621E+01
 -1      5794 1.70760E+01
 -1      5795 1.42290E+01
 -1      5796 1.85178E+01
 -1      5797 1.07015E+01
 -1      5798 1.98114E+01
 -1      5799 1.34369E+01
 -1      5800 6.80022E+00
 -1      5801 1.17695E+01
 -1      5802 6.54122E+00
 -1      5803 1.39700E+01
 -1      5804 1.77780E+01
 -1      5805 8.68314E+00
 -1      5806 6.22367E+00
 -1      5807 9.25970E+00
 -1      5808 8.68314E+00
 -1      5809 1.07015E+01
 -1      5810 7.54654E+00
 -1      5811 5.66362E+00
 -1      5812 6.19908E+00
 -1      5813 4.87621E+00
 -1      5814 7.07669E+00
 -1      5815 1.07480E+01
 -1      5816 1.26324E+01
 -1      5817 1.08693E+01
 -1      5818 1.05764E+01
 -1      5819 1.00319E+01
 -1      5820 1.02181E+01
 -1      5821 8.53288E+00
 -1      5822 9.12914E+00
 -1      5823 6.59833E+00
 -1      5824 1.37792E+01
 -1      5825 1.01595E+01
 -1      5826 8.95034E+00
 -1      5827 8.39030E+00
 -1      5828 9.93845E+00
 -1      5829 9.36189E+00
 -1      5830 1.02057E+01
 -1      5831 6.19908E+00
 -1      5832 5.41168E+00
 -1      5833 6.60360E+00
 -1      5834 5.81619E+00
 -1      5835 8.00740E+00
 -1      5836 4.93448E+00
 -1      5837 4.93448E+00
 -1      5838 6.41404E+00
 -1      5839 6.89124E+00
 -1      5840 8.55625E+00
 -1      5841 6.77243E+00
 -1      5842 6.36792E+00
 -1      5843 6.28153E+00
 -1      5844 5.32529E+00
 -1      5845 4.84809E+00
 -1      5846 6.22062E+00
 -1      5847 6.77235E+00
 -1      5848 6.40308E+00
 -1      5849 6.40300E+00
 -1      5850 8.18979E+00
 -1      5851 5.89063E+00
 -1      5852 6.44244E+00
 -1      5853 5.97871E+00
 -1      5854 6.86043E+00
 -1      5855 5.99729E+00
 -1      5856 6.46102E+00
 -1      5857 5.41839E+00
 -1      5858 6.28402E+00
 -1      5859 5.95411E+00
 -1      5860 7.33773E+00
 -1      5861 7.40121E+00
 -1      5862 7.52019E+00
 -1      5863 6.10976E+00
 -1      5864 5.71637E+00
 -1      5865 5.47182E+00
 -1      5866 5.88982E+00
 -1      5867 5.65229E+00
 -1      5868 5.49663E+00
 -1      5869 5.40774E+00
 -1      5870 6.09307E+00
 -1      5871 5.85533E+00
 -1      5872 8.08854E+00
 -1      5873 7.83410E+00
 -1      5874 9.14224E+00
 -1      5875 5.61886E+00
 -1      5876 5.21945E+00
 -1      5877 6.13756E+00
 -1      5878 5.35972E+00
 -1      5879 5.63067E+00
 -1      5880 6.21440E+00
 -1      5881 6.23110E+00
 -1      5882 5.73499E+00
 -1      5883 5.37591E+00
 -1      5884 4.77342E+00
 -1      5885 4.55368E+00
 -1      5886 4.27731E+00
 -1      5887 8.64889E+00
 -1      5888 6.65342E+00
 -1      5889 8.96170E+00
 -1      5890 8.14691E+00
 -1      5891 8.52269E+00
 -1      5892 8.75842E+00
 -1      5893 7.57774E+00
 -1      5894 9.26606E+00
 -1      5895 8.19491E+00
 -1      5896 8.57873E+00
 -1      5897 7.64401E+00
 -1      5898 8.60133E+00
 -1      5899 1.02057E+01
 -1      5900 4.24175E+00
 -1      5901 6.19852E+00
 -1      5902 5.44065E+00
 -1      5903 5.04983E+00
 -1      5904 4.83430E+00
 -1      5905 8.83394E+00
 -1      5906 9.01938E+00
 -1      5907 7.14589E+00
 -1      5908 7.60902E+00
 -1      5909 6.48881E+00
 -1      5910 8.96170E+00
 -1      5911 1.04552E+01
 -1      5912 7.98230E+00
 -1      5913 9.45611E+00
 -1      5914 1.18513E+01
 -1      5915 1.32931E+01
 -1      5916 6.14708E+00
 -1      5917 7.55831E+00
 -1      5918 5.70582E+00
 -1      5919 5.25206E+00
 -1      5920 5.45380E+00
 -1      5921 5.43155E+00
 -1      5922 8.64394E+00
 -1      5923 1.05764E+01
 -1      5924 8.64394E+00
 -1      5925 6.59018E+00
 -1      5926 5.61678E+00
 -1      5927 4.76159E+00
 -1      5928 1.12439E+01
 -1      5929 1.12439E+01
 -1      5930 1.05780E+01
 -1      5931 1.24627E+01
 -1      5932 5.51724E+00
 -1      5933 5.70582E+00
 -1      5934 5.64238E+00
 -1      5935 6.06672E+00
 -1      5936 6.31875E+00
 -1      5937 5.21714E+00
 -1      5938 6.01865E+00
 -1      5939 5.05312E+00
 -1      5940 5.00504E+00
 -1      5941 5.58134E+00
 -1      5942 6.13082E+00
 -1      5943 4.16085E+00
 -1      5944 5.03971E+00
 -1      5945 4.64688E+00
 -1      5946 5.03971E+00
 -1      5947 5.01491E+00
 -1      5948 4.35702E+00
 -1      5949 4.91842E+00
 -1      5950 4.78545E+00
 -1      5951 4.55795E+00
 -1      5952 4.69092E+00
 -1      5953 4.56843E+00
 -1      5954 4.99686E+00
 -1      5955 4.93646E+00
 -1      5956 5.38513E+00
 -1      5957 5.18420E+00
 -1      5958 3.67247E+00
 -1      5959 4.15851E+00
 -1      5960 4.15910E+00
 -1      5961 4.76972E+00
 -1      5962 4.28543E+00
 -1      5963 9.02720E+00
 -1      5964 1.08376E+01
 -1      5965 1.17220E+01
 -1      5966 8.13477E+00
 -1      5967 9.08318E+00
 -1      5968 7.47351E+00
 -1      5969 7.52949E+00
 -1      5970 7.77596E+00
 -1      5971 8.66839E+00
 -1      5972 9.08553E+00
 -1      5973 1.03927E+01
 -1      5974 6.67990E+00
 -1      5975 6.26512E+00
 -1      5976 5.03046E+00
 -1      5977 6.12651E+00
 -1      5978 8.05086E+00
 -1      5979 5.79261E+00
 -1      5980 6.48230E+00
 -1      5981 9.77522E+00
 -1      5982 5.52374E+00
 -1      5983 4.28208E+00
 -1      5984 4.77045E+00
 -1      5985 4.99686E+00
 -1      5986 4.99686E+00
 -1      5987 5.12043E+00
 -1      5988 1.80557E+01
 -1      5989 1.77780E+01
 -1      5990 1.58120E+01
 -1      5991 2.45706E+01
 -1      5992 1.41507E+01
 -1      5993 4.81670E+00
 -1      5994 4.89402E+00
 -1      5995 9.57439E+00
 -1      5996 9.59552E+00
 -1      5997 7.39941E+00
 -1      5998 9.42744E+00
 -1      5999 8.88750E+00
 -1      6000 7.13082E+00
 -1      6001 7.27777E+00
 -1      6002 5.37486E+00
 -1      6003 7.13154E+00
 -1      6004 5.49650E+00
 -1      6005 4.87257E+00
 -1      6006 5.43397E+00
 -1      6007 5.43397E+00
 -1      6008 5.52109E+00
 -1      6009 5.52109E+00
 -1      6010 5.52109E+00
 -1      6011 5.34685E+00
 -1      6012 5.43397E+00
 -1      6013 4.90372E+00
 -1      6014 4.67731E+00
 -1      6015 7.52821E+00
 -1      6016 6.58223E+00
 -1      6017 9.35711E+00
 -1      6018 6.40207E+00
 -1      6019 6.29151E+00
 -1      6020 5.90379E+00
 -1      6021 8.06990E+00
 -1      6022 1.00080E+01
 -1      6023 7.75974E+00
 -1      6024 1.00067E+01
 -1      6025 7.16397E+00
 -1      6026 8.64733E+00
 -1      6027 9.19925E+00
 -1      6028 8.95333E+00
 -1      6029 7.90636E+00
 -1      6030 8.74055E+00
 -1      6031 5.37367E+00
 -1      6032 5.81044E+00
 -1      6033 1.09939E+01
 -1      6034 7.78998E+00
 -1      6035 9.91338E+00
 -1      6036 8.48975E+00
 -1      6037 5.57774E+00
 -1      6038 9.20943E+00
 -1      6039 1.17244E+01
 -1      6040 1.10833E+01
 -1      6041 9.31224E+00
 -1      6042 1.27195E+01
 -1      6043 1.13454E+01
 -1      6044 6.63325E+00
 -1      6045 9.11057E+00
 -1      6046 1.31101E+01
 -1      6047 1.04164E+01
 -1      6048 1.02204E+01
 -1      6049 8.87321E+00
 -1      6050 5.37011E+00
 -1      6051 9.96391E+00
 -1      6052 7.23192E+00
 -1      6053 6.51633E+00
 -1      6054 9.91338E+00
 -1      6055 9.23390E+00
 -1      6056 4.85480E+00
 -1      6057 7.41846E+00
 -1      6058 8.19074E+00
 -1      6059 6.37191E+00
 -1      6060 1.14286E+01
 -1      6061 6.01509E+00
 -1      6062 1.00080E+01
 -1      6063 1.19868E+01
 -1      6064 1.12935E+01
 -1      6065 6.36016E+00
 -1      6066 9.96391E+00
 -1      6067 1.48702E+01
 -1      6068 1.35975E+01
 -1      6069 1.39872E+01
 -1      6070 1.07742E+01
 -1      6071 8.39631E+00
 -1      6072 6.92053E+00
 -1      6073 1.10924E+01
 -1      6074 1.03970E+01
 -1      6075 7.39867E+00
 -1      6076 7.66515E+00
 -1      6077 1.07707E+01
 -1      6078 1.17279E+01
 -1      6079 8.85143E+00
 -1      6080 9.29747E+00
 -1      6081 1.35975E+01
 -1      6082 6.62545E+00
 -1      6083 6.79928E+00
 -1      6084 1.01424E+01
 -1      6085 1.78959E+01
 -1      6086 1.01989E+01
 -1      6087 9.15247E+00
 -1      6088 1.17279E+01
 -1      6089 8.14042E+00
 -1      6090 7.63943E+00
 -1      6091 7.62894E+00
 -1      6092 6.50404E+00
 -1      6093 9.03446E+00
 -1      6094 1.06340E+01
 -1      6095 1.17279E+01
 -1      6096 6.43428E+00
 -1      6097 6.25962E+00
 -1      6098 1.11486E+01
 -1      6099 1.94073E+01
 -1      6100 1.01676E+01
 -1      6101 1.08079E+01
 -1      6102 9.13316E+00
 -1      6103 1.04552E+01
 -1      6104 1.91279E+01
 -1      6105 5.18001E+00
 -1      6106 1.21938E+01
 -1      6107 1.94650E+01
 -1      6108 8.34235E+00
 -1      6109 2.39788E+01
 -1      6110 5.28192E+00
 -1      6111 9.90414E+00
 -1      6112 9.15468E+00
 -1      6113 5.65727E+00
 -1      6114 7.77426E+00
 -1      6115 9.14815E+00
 -1      6116 5.60154E+00
 -1      6117 7.56122E+00
 -1      6118 9.64025E+00
 -1      6119 1.06918E+01
 -1      6120 8.72304E+00
 -1      6121 1.00352E+01
 -1      6122 5.47077E+00
 -1      6123 6.09695E+00
 -1      6124 1.09598E+01
 -1      6125 1.86154E+01
 -1      6126 1.03003E+01
 -1      6127 8.26460E+00
 -1      6128 8.34462E+00
 -1      6129 2.31260E+01
 -1      6130 1.58863E+01
 -1      6131 7.34326E+00
 -1      6132 8.21932E+00
 -1      6133 2.15917E+01
 -1      6134 1.16976E+01
 -1      6135 1.78092E+01
 -1      6136 8.64962E+00
 -1      6137 1.86728E+01
 -1      6138 8.93247E+00
 -1      6139 8.46500E+00
 -1      6140 2.44288E+01
 -1      6141 1.12554E+01
 -1      6142 9.25739E+00
 -1      6143 1.85951E+01
 -1      6144 1.91903E+01
 -1      6145 9.51720E+00
 -1      6146 2.49432E+01
 -1      6147 1.95407E+01
 -1      6148 1.83961E+01
 -1      6149 1.57712E+01
 -1      6150 5.86017E+00
 -1      6151 2.35665E+01
 -1      6152 2.25614E+01
 -1      6153 6.83639E+00
 -1      6154 7.52821E+00
 -1      6155 7.42776E+00
 -1      6156 8.04908E+00
 -1      6157 7.71794E+00
 -1      6158 1.24541E+01
 -1      6159 2.23590E+01
 -1      6160 6.09245E+00
 -1      6161 2.13515E+01
 -1      6162 7.32416E+00
 -1      6163 7.56122E+00
 -1      6164 1.24743E+01
 -1      6165 5.10313E+00
 -1      6166 4.95060E+00
 -1      6167 8.85232E+00
 -1      6168 2.07236E+01
 -1      6169 2.12456E+01
 -1      6170 5.47077E+00
 -1      6171 2.24143E+01
 -1      6172 1.81859E+01
 -1      6173 1.06131E+01
 -1      6174 6.65184E+00
 -1      6175 2.00706E+01
 -1      6176 1.14934E+01
 -1      6177 9.22027E+00
 -1      6178 1.53543E+01
 -1      6179 7.31069E+00
 -1      6180 1.41086E+01
 -1      6181 7.41846E+00
 -1      6182 2.19669E+01
 -1      6183 2.02800E+01
 -1      6184 1.31787E+01
 -1      6185 1.65864E+01
 -1      6186 6.23921E+00
 -1      6187 1.73690E+01
 -1      6188 6.36016E+00
 -1      6189 6.46692E+00
 -1      6190 2.51453E+01
 -1      6191 2.10448E+01
 -1      6192 5.72657E+00
 -1      6193 4.79977E+00
 -1      6194 1.00038E+01
 -1      6195 8.25306E+00
 -1      6196 2.00801E+01
 -1      6197 2.35898E+01
 -1      6198 7.90636E+00
 -1      6199 1.90652E+01
 -1      6200 2.36857E+01
 -1      6201 2.08758E+01
 -1      6202 2.31359E+01
 -1      6203 4.82377E+00
 -1      6204 9.31771E+00
 -1      6205 6.53899E+00
 -1      6206 8.21932E+00
 -1      6207 1.72523E+01
 -1      6208 9.84219E+00
 -1      6209 2.13169E+01
 -1      6210 1.72527E+01
 -1      6211 6.27976E+00
 -1      6212 9.96391E+00
 -1      6213 8.07355E+00
 -1      6214 2.14165E+01
 -1      6215 8.42471E+00
 -1      6216 7.66619E+00
 -1      6217 6.39676E+00
 -1      6218 2.40443E+01
 -1      6219 8.21932E+00
 -1      6220 2.13802E+01
 -1      6221 9.13316E+00
 -1      6222 2.14983E+01
 -1      6223 1.66030E+01
 -1      6224 1.07377E+01
 -1      6225 1.82349E+01
 -1      6226 5.01983E+00
 -1      6227 1.55276E+01
 -1      6228 2.24125E+01
 -1      6229 8.52245E+00
 -1      6230 6.25962E+00
 -1      6231 4.82498E+00
 -1      6232 2.50243E+01
 -1      6233 7.27324E+00
 -1      6234 2.21750E+01
 -1      6235 7.41846E+00
 -1      6236 4.71624E+00
 -1      6237 5.18487E+00
 -1      6238 2.10393E+01
 -1      6239 9.93024E+00
 -1      6240 1.46350E+01
 -1      6241 1.65415E+01
 -1      6242 7.62894E+00
 -1      6243 1.09862E+01
 -1      6244 1.53193E+01
 -1      6245 1.20288E+01
 -1      6246 9.07903E+00
 -1      6247 4.68499E+00
 -1      6248 2.07050E+01
 -1      6249 2.58964E+01
 -1      6250 2.33842E+01
 -1      6251 2.52211E+01
 -1      6252 5.34362E+00
 -1      6253 5.57132E+00
 -1      6254 2.45196E+01
 -1      6255 2.06209E+01
 -1      6256 8.14115E+00
 -1      6257 1.06172E+01
 -1      6258 1.28040E+01
 -1      6259 2.30788E+01
 -1      6260 7.88559E+00
 -1      6261 8.71509E+00
 -1      6262 5.18487E+00
 -1      6263 8.52245E+00
 -1      6264 9.35711E+00
 -1      6265 1.53309E+01
 -1      6266 7.96400E+00
 -1      6267 6.79928E+00
 -1      6268 2.56541E+01
 -1      6269 8.64962E+00
 -1      6270 6.80971E+00
 -1      6271 5.99839E+00
 -1      6272 2.48294E+01
 -1      6273 1.34497E+01
 -1      6274 2.18029E+01
 -1      6275 1.81312E+01
 -1      6276 1.87345E+01
 -1      6277 1.91142E+01
 -1      6278 8.87321E+00
 -1      6279 2.45725E+01
 -1      6280 7.41846E+00
 -1      6281 5.72583E+00
 -1      6282 5.60154E+00
 -1      6283 6.45151E+00
 -1      6284 8.04908E+00
 -1      6285 1.81315E+01
 -1      6286 7.52821E+00
 -1      6287 8.04908E+00
 -1      6288 6.23222E+00
 -1      6289 6.36685E+00
 -1      6290 6.27976E+00
 -1      6291 2.02639E+01
 -1      6292 5.08930E+00
 -1      6293 1.60474E+01
 -1      6294 1.31569E+01
 -1      6295 7.90636E+00
 -1      6296 9.05079E+00
 -1      6297 2.16605E+01
 -1      6298 2.58428E+01
 -1      6299 1.19577E+01
 -1      6300 7.52821E+00
 -1      6301 2.47256E+01
 -1      6302 2.71664E+01
 -1      6303 1.10833E+01
 -1      6304 6.37191E+00
 -1      6305 7.37932E+00
 -1      6306 1.22524E+01
 -1      6307 1.97157E+01
 -1      6308 1.85888E+01
 -1      6309 2.18676E+01
 -1      6310 1.67958E+01
 -1      6311 2.23011E+01
 -1      6312 4.86600E+00
 -1      6313 8.83138E+00
 -1      6314 1.57397E+01
 -1      6315 5.45121E+00
 -1      6316 2.69349E+01
 -1      6317 2.59031E+01
 -1      6318 2.57485E+01
 -1      6319 6.65184E+00
 -1      6320 1.93085E+01
 -1      6321 9.27734E+00
 -1      6322 2.16825E+01
 -1      6323 1.27788E+01
 -1      6324 8.63745E+00
 -1      6325 1.18120E+01
 -1      6326 8.53592E+00
 -1      6327 2.41677E+01
 -1      6328 6.80965E+00
 -1      6329 8.82290E+00
 -1      6330 9.86692E+00
 -1      6331 6.63325E+00
 -1      6332 1.04765E+01
 -1      6333 5.25559E+00
 -1      6334 7.43114E+00
 -1      6335 6.39061E+00
 -1      6336 6.36016E+00
 -1      6337 1.51859E+01
 -1      6338 2.41294E+01
 -1      6339 2.45272E+01
 -1      6340 1.48134E+01
 -1      6341 1.84974E+01
 -1      6342 8.49436E+00
 -1      6343 1.02710E+01
 -1      6344 1.11486E+01
 -1      6345 5.22863E+00
 -1      6346 2.28829E+01
 -1      6347 1.01417E+01
 -1      6348 6.07914E+00
 -1      6349 1.81717E+01
 -1      6350 9.64025E+00
 -1      6351 7.16397E+00
 -1      6352 6.18444E+00
 -1      6353 2.46931E+01
 -1      6354 6.63325E+00
 -1      6355 8.72304E+00
 -1      6356 2.17549E+01
 -1      6357 5.98799E+00
 -1      6358 6.87342E+00
 -1      6359 6.71126E+00
 -1      6360 2.26306E+01
 -1      6361 5.75315E+00
 -1      6362 1.52827E+01
 -1      6363 8.56516E+00
 -1      6364 9.13316E+00
 -1      6365 1.78133E+01
 -1      6366 4.92896E+00
 -1      6367 1.42038E+01
 -1      6368 1.72793E+01
 -1      6369 7.66515E+00
 -1      6370 7.29743E+00
 -1      6371 6.76386E+00
 -1      6372 5.63140E+00
 -1      6373 2.71249E+01
 -1      6374 1.57178E+01
 -1      6375 2.64884E+01
 -1      6376 2.41545E+01
 -1      6377 1.39479E+01
 -1      6378 2.29125E+01
 -1      6379 1.60594E+01
 -1      6380 7.91303E+00
 -1      6381 2.52211E+01
 -1      6382 7.71828E+00
 -1      6383 1.14376E+01
 -1      6384 4.97265E+00
 -1      6385 7.66515E+00
 -1      6386 5.34030E+00
 -1      6387 1.74839E+01
 -1      6388 9.31771E+00
 -1      6389 1.65454E+01
 -1      6390 2.88342E+01
 -1      6391 1.74526E+01
 -1      6392 9.16118E+00
 -1      6393 5.40843E+00
 -1      6394 1.32663E+01
 -1      6395 7.93779E+00
 -1      6396 2.40523E+01
 -1      6397 1.52303E+01
 -1      6398 5.28505E+00
 -1      6399 6.66243E+00
 -1      6400 1.06172E+01
 -1      6401 8.02570E+00
 -1      6402 2.68464E+01
 -1      6403 1.31092E+01
 -1      6404 1.47663E+01
 -1      6405 2.02202E+01
 -1      6406 7.75974E+00
 -1      6407 2.53714E+01
 -1      6408 9.90414E+00
 -1      6409 2.56369E+01
 -1      6410 5.28192E+00
 -1      6411 5.58198E+00
 -1      6412 9.19925E+00
 -1      6413 6.65483E+00
 -1      6414 9.24387E+00
 -1      6415 1.17561E+01
 -1      6416 8.35242E+00
 -1      6417 1.40760E+01
 -1      6418 7.04823E+00
 -1      6419 8.87321E+00
 -1      6420 6.34828E+00
 -1      6421 2.27052E+01
 -1      6422 8.65182E+00
 -1      6423 9.14815E+00
 -1      6424 2.01182E+01
 -1      6425 7.46195E+00
 -1      6426 7.33728E+00
 -1      6427 5.06486E+00
 -1      6428 2.63520E+01
 -1      6429 2.70563E+01
 -1      6430 2.42171E+01
 -1      6431 1.17244E+01
 -1      6432 1.52644E+01
 -1      6433 4.89606E+00
 -1      6434 5.03930E+00
 -1      6435 1.69583E+01
 -1      6436 1.53925E+01
 -1      6437 7.50669E+00
 -1      6438 6.29151E+00
 -1      6439 5.33408E+00
 -1      6440 7.09303E+00
 -1      6441 6.10976E+00
 -1      6442 1.34807E+01
 -1      6443 9.87340E+00
 -1      6444 9.08114E+00
 -1      6445 7.40357E+00
 -1      6446 2.02467E+01
 -1      6447 6.06966E+00
 -1      6448 6.56321E+00
 -1      6449 2.64307E+01
 -1      6450 2.68281E+01
 -1      6451 8.14042E+00
 -1      6452 6.42411E+00
 -1      6453 6.80694E+00
 -1      6454 7.75974E+00
 -1      6455 2.53670E+01
 -1      6456 9.57829E+00
 -1      6457 6.46692E+00
 -1      6458 4.82498E+00
 -1      6459 1.55223E+01
 -1      6460 1.26465E+01
 -1      6461 5.65316E+00
 -1      6462 1.38700E+01
 -1      6463 9.22721E+00
 -1      6464 2.08521E+01
 -1      6465 8.14901E+00
 -1      6466 1.01623E+01
 -1      6467 1.56065E+01
 -1      6468 2.24959E+01
 -1      6469 1.07707E+01
 -1      6470 2.66517E+01
 -1      6471 5.65727E+00
 -1      6472 7.36117E+00
 -1      6473 1.51627E+01
 -1      6474 1.18579E+01
 -1      6475 1.81048E+01
 -1      6476 2.48924E+01
 -1      6477 2.63580E+01
 -1      6478 1.85034E+01
 -1      6479 8.71509E+00
 -1      6480 5.75315E+00
 -1      6481 6.87351E+00
 -1      6482 2.60529E+01
 -1      6483 2.66174E+01
 -1      6484 4.51744E+00
 -1      6485 1.00114E+01
 -1      6486 6.83639E+00
 -1      6487 2.56725E+01
 -1      6488 6.63325E+00
 -1      6489 8.63600E+00
 -1      6490 6.68939E+00
 -1      6491 2.23728E+01
 -1      6492 5.19456E+00
 -1      6493 6.27976E+00
 -1      6494 1.81236E+01
 -1      6495 1.47965E+01
 -1      6496 2.62041E+01
 -1      6497 4.38915E+00
 -1      6498 4.10576E+00
 -1      6499 5.31140E+00
 -1      6500 1.06034E+01
 -1      6501 5.60154E+00
 -1      6502 6.98460E+00
 -1      6503 6.84860E+00
 -1      6504 1.16331E+01
 -1      6505 5.99360E+00
 -1      6506 7.71794E+00
 -1      6507 2.60219E+01
 -1      6508 2.71870E+01
 -1      6509 4.96326E+00
 -1      6510 9.97561E+00
 -1      6511 6.14475E+00
 -1      6512 4.70424E+00
 -1      6513 1.78052E+01
 -1      6514 2.68289E+01
 -1      6515 6.76130E+00
 -1      6516 9.35711E+00
 -1      6517 3.84308E+00
 -1      6518 1.38228E+01
 -1      6519 9.15786E+00
 -1      6520 2.69151E+01
 -1      6521 1.31101E+01
 -1      6522 2.52042E+01
 -1      6523 2.09838E+01
 -1      6524 2.70899E+01
 -1      6525 4.91501E+00
 -1      6526 2.61206E+01
 -1      6527 1.44327E+01
 -1      6528 3.37071E+00
 -1      6529 6.65184E+00
 -1      6530 2.58434E+01
 -1      6531 5.62052E+00
 -1      6532 5.52109E+00
 -1      6533 9.68204E+00
 -1      6534 5.18487E+00
 -1      6535 8.04908E+00
 -1      6536 6.47601E+00
 -1      6537 6.85003E+00
 -1      6538 6.27781E+00
 -1      6539 6.16395E+00
 -1      6540 6.53798E+00
 -1      6541 6.73617E+00
 -1      6542 1.54057E+01
 -1      6543 1.54057E+01
 -1      6544 1.42496E+01
 -1      6545 1.28942E+01
 -1      6546 1.28942E+01
 -1      6547 8.46500E+00
 -1      6548 5.03249E+00
 -1      6549 5.02933E+00
 -1      6550 4.86600E+00
 -1      6551 4.86284E+00
 -1      6552 5.03249E+00
 -1      6553 2.51453E+01
 -1      6554 2.51453E+01
 -1      6555 2.46373E+01
 -1      6556 2.46373E+01
 -1      6557 2.46373E+01
 -1      6558 8.83591E+00
 -1      6559 9.37421E+00
 -1      6560 1.05450E+01
 -1      6561 7.70755E+00
 -1      6562 8.24585E+00
 -1      6563 6.53679E+00
 -1      6564 2.25614E+01
 -1      6565 2.17089E+01
 -1      6566 2.09032E+01
 -1      6567 8.46500E+00
 -1      6568 7.43510E+00
 -1      6569 1.12156E+01
 -1      6570 1.13312E+01
 -1      6571 1.26169E+01
 -1      6572 8.78516E+00
 -1      6573 6.91534E+00
 -1      6574 8.03432E+00
 -1      6575 8.65386E+00
 -1      6576 6.78403E+00
 -1      6577 7.53488E+00
 -1      6578 1.53166E+01
 -1      6579 1.43700E+01
 -1      6580 1.01458E+01
 -1      6581 1.61690E+01
 -1      6582 1.52224E+01
 -1      6583 2.03932E+01
 -1      6584 6.42031E+00
 -1      6585 5.56871E+00
 -1      6586 5.63028E+00
 -1      6587 4.56633E+00
 -1      6588 4.49107E+00
 -1      6589 5.68555E+00
 -1      6590 5.61029E+00
 -1      6591 6.29923E+00
 -1      6592 7.09945E+00
 -1      6593 7.56592E+00
 -1      6594 6.93478E+00
 -1      6595 4.48685E+00
 -1      6596 4.48685E+00
 -1      6597 3.89462E+00
 -1      6598 2.51453E+01
 -1      6599 6.44516E+00
 -1      6600 5.44689E+00
 -1      6601 5.88432E+00
 -1      6602 1.29623E+01
 -1      6603 1.89710E+01
 -1      6604 1.64057E+01
 -1      6605 1.60287E+01
 -1      6606 2.20374E+01
 -1      6607 1.85941E+01
 -1      6608 2.22562E+01
 -1      6609 2.17925E+01
 -1      6610 2.02377E+01
 -1      6611 4.34909E+00
 -1      6612 4.57508E+00
 -1      6613 4.75413E+00
 -1      6614 2.96160E+01
 -1      6615 2.11924E+01
 -1      6616 2.37213E+01
 -1      6617 1.56428E+01
 -1      6618 2.40664E+01
 -1      6619 1.17279E+01
 -1      6620 1.17279E+01
 -1      6621 1.17279E+01
 -1      6622 1.58992E+01
 -1      6623 1.58992E+01
 -1      6624 1.58992E+01
 -1      6625 2.00801E+01
 -1      6626 2.00801E+01
 -1      6627 2.01587E+01
 -1      6628 4.35172E+00
 -1      6629 4.85038E+00
 -1      6630 4.68216E+00
 -1      6631 1.47366E+01
 -1      6632 1.24174E+01
 -1      6633 1.37201E+01
 -1      6634 2.25614E+01
 -1      6635 2.21203E+01
 -1      6636 2.29728E+01
 -1      6637 2.29728E+01
 -1      6638 8.88296E+00
 -1      6639 8.95957E+00
 -1      6640 7.18491E+00
 -1      6641 2.16505E+01
 -1      6642 1.81859E+01
 -1      6643 1.89660E+01
 -1      6644 9.90414E+00
 -1      6645 9.13729E+00
 -1      6646 1.02607E+01
 -1      6647 9.49382E+00
 -1      6648 1.02607E+01
 -1      6649 9.91338E+00
 -1      6650 1.42644E+01
 -1      6651 1.42644E+01
 -1      6652 1.00378E+01
 -1      6653 1.43889E+01
 -1      6654 1.00378E+01
 -1      6655 4.58513E+00
 -1      6656 3.65492E+00
 -1      6657 4.53660E+00
 -1      6658 4.30319E+00
 -1      6659 5.23339E+00
 -1      6660 4.55684E+00
 -1      6661 4.30131E+00
 -1      6662 4.55684E+00
 -1      6663 7.97596E+00
 -1      6664 7.08824E+00
 -1      6665 8.91144E+00
 -1      6666 8.02372E+00
 -1      6667 9.07589E+00
 -1      6668 2.58798E+01
 -1      6669 2.26481E+01
 -1      6670 2.39553E+01
 -1      6671 2.71870E+01
 -1      6672 2.39553E+01
 -1      6673 2.58798E+01
 -1      6674 7.28341E+00
 -1      6675 9.06173E+00
 -1      6676 8.12582E+00
 -1      6677 7.19829E+00
 -1      6678 8.97661E+00
 -1      6679 8.13420E+00
 -1      6680 4.86600E+00
 -1      6681 8.06819E+00
 -1      6682 7.63775E+00
 -1      6683 6.64683E+00
 -1      6684 1.00591E+01
 -1      6685 9.24097E+00
 -1      6686 1.19014E+01
 -1      6687 1.01923E+01
 -1      6688 7.53191E+00
 -1      6689 1.26343E+01
 -1      6690 1.26343E+01
 -1      6691 1.14773E+01
 -1      6692 1.14773E+01
 -1      6693 9.29817E+00
 -1      6694 2.66247E+01
 -1      6695 2.71062E+01
 -1      6696 2.81245E+01
 -1      6697 2.73950E+01
 -1      6698 2.69134E+01
 -1      6699 5.59830E+00
 -1      6700 5.76813E+00
 -1      6701 5.64060E+00
 -1      6702 5.80776E+00
 -1      6703 5.97759E+00
 -1      6704 5.93529E+00
 -1      6705 1.20912E+01
 -1      6706 1.23918E+01
 -1      6707 9.61281E+00
 -1      6708 1.00432E+01
 -1      6709 1.03438E+01
 -1      6710 1.28222E+01
 -1      6711 1.35178E+01
 -1      6712 1.71977E+01
 -1      6713 1.63814E+01
 -1      6714 9.28137E+00
 -1      6715 1.04561E+01
 -1      6716 9.51706E+00
 -1      6717 7.95178E+00
 -1      6718 9.12649E+00
 -1      6719 8.89081E+00
 -1      6720 2.62681E+01
 -1      6721 2.71362E+01
 -1      6722 9.21229E+00
 -1      6723 9.37674E+00
 -1      6724 1.03122E+01
 -1      6725 1.49689E+01
 -1      6726 1.39342E+01
 -1      6727 9.77522E+00
 -1      6728 1.04861E+01
 -1      6729 9.45143E+00
 -1      6730 1.46451E+01
 -1      6731 2.50793E+01
 -1      6732 2.55401E+01
 -1      6733 2.38414E+01
 -1      6734 1.16712E+01
 -1      6735 1.26390E+01
 -1      6736 1.29279E+01
 -1      6737 6.49847E+00
 -1      6738 6.44025E+00
 -1      6739 6.49847E+00
 -1      6740 1.98699E+01
 -1      6741 2.23011E+01
 -1      6742 2.00174E+01
 -1      6743 1.01923E+01
 -1      6744 7.53191E+00
 -1      6745 7.66515E+00
 -1      6746 5.08970E+00
 -1      6747 4.71588E+00
 -1      6748 4.62420E+00
 -1      6749 1.87090E+01
 -1      6750 6.46442E+00
 -1      6751 6.24726E+00
 -1      6752 6.61923E+00
 -1      6753 6.41219E+00
 -1      6754 6.19503E+00
 -1      6755 6.04022E+00
 -1      6756 4.57508E+00
 -1      6757 4.75413E+00
 -1      6758 5.00777E+00
 -1      6759 5.18682E+00
 -1      6760 6.03423E+00
 -1      6761 8.33359E+00
 -1      6762 7.39820E+00
 -1      6763 7.84200E+00
 -1      6764 1.78967E+01
 -1      6765 1.73318E+01
 -1      6766 1.29902E+01
 -1      6767 1.22693E+01
 -1      6768 9.88659E+00
 -1      6769 1.07274E+01
 -1      6770 1.01917E+01
 -1      6771 7.80893E+00
 -1      6772 9.35090E+00
 -1      6773 6.20419E+00
 -1      6774 2.50050E+01
 -1      6775 2.42872E+01
 -1      6776 5.08970E+00
 -1      6777 5.22577E+00
 -1      6778 4.71588E+00
 -1      6779 2.13802E+01
 -1      6780 1.97830E+01
 -1      6781 2.32476E+01
 -1      6782 1.29314E+01
 -1      6783 1.54603E+01
 -1      6784 1.22605E+01
 -1      6785 1.23371E+01
 -1      6786 1.20150E+01
 -1      6787 7.78713E+00
 -1      6788 8.72616E+00
 -1      6789 7.39657E+00
 -1      6790 4.48927E+00
 -1      6791 6.16583E+00
 -1      6792 6.32064E+00
 -1      6793 5.87119E+00
 -1      6794 5.78976E+00
 -1      6795 5.71638E+00
 -1      6796 6.03620E+00
 -1      6797 6.03620E+00
 -1      6798 5.48147E+00
 -1      6799 1.15090E+01
 -1      6800 1.09638E+01
 -1      6801 1.11792E+01
 -1      6802 1.04288E+01
 -1      6803 9.88358E+00
 -1      6804 1.02133E+01
 -1      6805 2.88250E+01
 -1      6806 2.76139E+01
 -1      6807 2.91137E+01
 -1      6808 9.88358E+00
 -1      6809 1.02133E+01
 -1      6810 9.13316E+00
 -1      6811 2.13401E+01
 -1      6812 1.93899E+01
 -1      6813 2.24143E+01
 -1      6814 1.13631E+01
 -1      6815 1.11159E+01
 -1      6816 1.05776E+01
 -1      6817 1.19340E+01
 -1      6818 2.75167E+01
 -1      6819 2.78358E+01
 -1      6820 2.74281E+01
 -1      6821 2.74281E+01
 -1      6822 2.71091E+01
 -1      6823 2.27104E+01
 -1      6824 2.20926E+01
 -1      6825 2.27104E+01
 -1      6826 2.26898E+01
 -1      6827 1.80058E+01
 -1      6828 2.88342E+01
 -1      6829 2.41502E+01
 -1      6830 2.26898E+01
 -1      6831 1.69111E+01
 -1      6832 1.31792E+01
 -1      6833 1.27880E+01
 -1      6834 1.06975E+01
 -1      6835 1.06975E+01
 -1      6836 1.77061E+01
 -1      6837 1.70437E+01
 -1      6838 1.77061E+01
 -1      6839 4.00397E+00
 -1      6840 4.89099E+00
 -1      6841 4.00397E+00
 -1      6842 2.23871E+01
 -1      6843 1.98752E+01
 -1      6844 2.34596E+01
 -1      6845 2.22236E+01
 -1      6846 2.56419E+01
 -1      6847 2.46249E+01
 -1      6848 7.45910E+00
 -1      6849 7.45910E+00
 -1      6850 7.89428E+00
 -1      6851 7.00913E+00
 -1      6852 8.57382E+00
 -1      6853 8.57382E+00
 -1      6854 7.83988E+00
 -1      6855 7.25490E+00
 -1      6856 7.27904E+00
 -1      6857 1.36443E+01
 -1      6858 1.75065E+01
 -1      6859 1.74993E+01
 -1      6860 5.47464E+00
 -1      6861 4.86961E+00
 -1      6862 4.84350E+00
 -1      6863 9.29992E+00
 -1      6864 9.74122E+00
 -1      6865 9.21984E+00
 -1      6866 9.66114E+00
 -1      6867 9.76211E+00
 -1      6868 1.03139E+01
 -1      6869 1.12605E+01
 -1      6870 1.63371E+01
 -1      6871 7.10963E+00
 -1      6872 6.57792E+00
 -1      6873 7.21339E+00
 -1      6874 9.44927E+00
 -1      6875 8.48150E+00
 -1      6876 1.23379E+01
 -1      6877 2.32374E+01
 -1      6878 2.39788E+01
 -1      6879 2.24959E+01
 -1      6880 2.32374E+01
 -1      6881 2.32374E+01
 -1      6882 9.17953E+00
 -1      6883 9.86686E+00
 -1      6884 9.53606E+00
 -1      6885 1.02234E+01
 -1      6886 5.82817E+00
 -1      6887 2.88250E+01
 -1      6888 2.78358E+01
 -1      6889 2.23697E+01
 -1      6890 1.99584E+01
 -1      6891 2.16605E+01
 -1      6892 1.88523E+01
 -1      6893 1.98657E+01
 -1      6894 1.83961E+01
 -1      6895 1.78589E+01
 -1      6896 1.24184E+01
 -1      6897 1.79452E+01
 -1      6898 2.21665E+01
 -1      6899 2.21665E+01
 -1      6900 2.27543E+01
 -1      6901 8.22067E+00
 -1      6902 9.71492E+00
 -1      6903 8.77589E+00
 -1      6904 1.18574E+01
 -1      6905 1.03406E+01
 -1      6906 1.04701E+01
 -1      6907 1.18422E+01
 -1      6908 1.03255E+01
 -1      6909 1.17127E+01
 -1      6910 5.75332E+00
 -1      6911 6.44553E+00
 -1      6912 5.54701E+00
 -1      6913 7.02703E+00
 -1      6914 7.71923E+00
 -1      6915 7.92555E+00
 -1      6916 1.74839E+01
 -1      6917 1.63188E+01
 -1      6918 1.51581E+01
 -1      6919 1.63233E+01
 -1      6920 1.63233E+01
 -1      6921 5.61998E+00
 -1      6922 7.28974E+00
 -1      6923 6.54956E+00
 -1      6924 5.61998E+00
 -1      6925 7.28974E+00
 -1      6926 6.36016E+00
 -1      6927 1.43859E+01
 -1      6928 1.73810E+01
 -1      6929 1.43290E+01
 -1      6930 7.43398E+00
 -1      6931 7.43398E+00
 -1      6932 7.43398E+00
 -1      6933 7.92432E+00
 -1      6934 4.46682E+00
 -1      6935 4.37514E+00
 -1      6936 5.22171E+00
 -1      6937 5.40398E+00
 -1      6938 6.46692E+00
 -1      6939 5.08413E+00
 -1      6940 7.66601E+00
 -1      6941 1.37299E+01
 -1      6942 1.03938E+01
 -1      6943 9.91868E+00
 -1      6944 9.55437E+00
 -1      6945 8.78779E+00
 -1      6946 1.27289E+01
 -1      6947 1.19623E+01
 -1      6948 1.24319E+01
 -1      6949 7.05037E+00
 -1      6950 6.91906E+00
 -1      6951 1.82652E+01
 -1      6952 1.85950E+01
 -1      6953 1.70882E+01
 -1      6954 2.43896E+01
 -1      6955 1.67584E+01
 -1      6956 6.01097E+00
 -1      6957 6.94188E+00
 -1      6958 6.30101E+00
 -1      6959 6.26704E+00
 -1      6960 7.19795E+00
 -1      6961 6.90791E+00
 -1      6962 6.01897E+00
 -1      6963 6.01897E+00
 -1      6964 6.01897E+00
 -1      6965 5.35082E+00
 -1      6966 5.71986E+00
 -1      6967 6.44797E+00
 -1      6968 6.81701E+00
 -1      6969 6.20028E+00
 -1      6970 4.47945E+00
 -1      6971 4.48261E+00
 -1      6972 8.57382E+00
 -1      6973 7.00913E+00
 -1      6974 6.39054E+00
 -1      6975 4.44572E+00
 -1      6976 4.44572E+00
 -1      6977 3.64506E+00
 -1      6978 4.37621E+00
 -1      6979 6.10911E+00
 -1      6980 5.29295E+00
 -1      6981 7.02586E+00
 -1      6982 5.71651E+00
 -1      6983 1.05856E+01
 -1      6984 1.65943E+01
 -1      6985 1.31509E+01
 -1      6986 1.17127E+01
 -1      6987 1.58841E+01
 -1      6988 5.48632E+00
 -1      6989 1.51300E+01
 -1      6990 2.08444E+01
 -1      6991 1.63721E+01
 -1      6992 2.99611E+01
 -1      6993 2.96160E+01
 -1      6994 2.40664E+01
 -1      6995 8.16557E+00
 -1      6996 1.08260E+01
 -1      6997 8.29881E+00
 -1      6998 2.86865E+01
 -1      6999 2.72896E+01
 -1      7000 2.84173E+01
 -1      7001 1.72766E+01
 -1      7002 1.25543E+01
 -1      7003 1.77669E+01
 -1      7004 2.44581E+01
 -1      7005 2.49432E+01
 -1      7006 2.28553E+01
 -1      7007 1.47784E+01
 -1      7008 1.37263E+01
 -1      7009 1.57139E+01
 -1      7010 2.39841E+01
 -1      7011 2.46414E+01
 -1      7012 2.19569E+01
 -1      7013 1.59747E+01
 -1      7014 8.83530E+00
 -1      7015 8.83530E+00
 -1      7016 8.52245E+00
 -1      7017 7.54283E+00
 -1      7018 7.54283E+00
 -1      7019 7.85568E+00
 -1      7020 9.17696E+00
 -1      7021 1.01236E+01
 -1      7022 9.40519E+00
 -1      7023 8.43631E+00
 -1      7024 8.45860E+00
 -1      7025 1.09746E+01
 -1      7026 1.31537E+01
 -1      7027 9.81755E+00
 -1      7028 8.38630E+00
 -1      7029 9.13671E+00
 -1      7030 8.38630E+00
 -1      7031 9.88358E+00
 -1      7032 9.13316E+00
 -1      7033 1.90080E+01
 -1      7034 1.83756E+01
 -1      7035 1.90080E+01
 -1      7036 6.96544E+00
 -1      7037 7.27829E+00
 -1      7038 5.98582E+00
 -1      7039 5.44870E+00
 -1      7040 5.44870E+00
 -1      7041 5.44870E+00
 -1      7042 9.74467E+00
 -1      7043 8.04908E+00
 -1      7044 7.78865E+00
 -1      7045 7.78865E+00
 -1      7046 8.04908E+00
 -1      7047 7.78865E+00
 -1      7048 8.04908E+00
 -1      7049 1.36979E+01
 -1      7050 8.91781E+00
 -1      7051 1.36753E+01
 -1      7052 1.97177E+01
 -1      7053 4.23829E+00
 -1      7054 5.12530E+00
 -1      7055 4.96063E+00
 -1      7056 8.65080E+00
 -1      7057 9.88712E+00
 -1      7058 9.37674E+00
 -1      7059 8.14042E+00
 -1      7060 8.65080E+00
 -1      7061 7.67382E+00
 -1      7062 8.21450E+00
 -1      7063 8.21450E+00
 -1      7064 1.78286E+01
 -1      7065 1.64297E+01
 -1      7066 1.40966E+01
 -1      7067 4.92983E+00
 -1      7068 6.07150E+00
 -1      7069 7.55152E+00
 -1      7070 2.79860E+01
 -1      7071 1.00114E+01
 -1      7072 8.78516E+00
 -1      7073 9.90414E+00
 -1      7074 9.90414E+00
 -1      7075 8.78516E+00
 -1      7076 8.24322E+00
 -1      7077 6.74070E+00
 -1      7078 7.21339E+00
 -1      7079 2.24143E+01
 -1      7080 2.19305E+01
 -1      7081 1.31168E+01
 -1      7082 1.78147E+01
 -1      7083 1.36183E+01
 -1      7084 8.06284E+00
 -1      7085 8.06284E+00
 -1      7086 7.90636E+00
 -1      7087 7.90636E+00
 -1      7088 7.90636E+00
 -1      7089 8.06284E+00
 -1      7090 2.08273E+01
 -1      7091 2.18676E+01
 -1      7092 2.18676E+01
 -1      7093 1.48134E+01
 -1      7094 1.48134E+01
 -1      7095 1.48134E+01
 -1      7096 1.35975E+01
 -1      7097 1.22957E+01
 -1      7098 1.22957E+01
 -1      7099 1.72367E+01
 -1      7100 1.59349E+01
 -1      7101 1.72367E+01
 -1      7102 1.33500E+01
 -1      7103 1.56364E+01
 -1      7104 1.64156E+01
 -1      7105 7.94275E+00
 -1      7106 7.32693E+00
 -1      7107 7.81144E+00
 -1      7108 2.49432E+01
 -1      7109 2.16825E+01
 -1      7110 2.18463E+01
 -1      7111 2.13230E+01
 -1      7112 1.96942E+01
 -1      7113 1.94073E+01
 -1      7114 1.94073E+01
 -1      7115 1.13149E+01
 -1      7116 8.53599E+00
 -1      7117 9.42151E+00
 -1      7118 1.01978E+01
 -1      7119 1.29767E+01
 -1      7120 5.33488E+00
 -1      7121 5.33488E+00
 -1      7122 5.21326E+00
 -1      7123 4.83989E+00
 -1      7124 5.22817E+00
 -1      7125 5.21326E+00
 -1      7126 4.83989E+00
 -1      7127 4.82498E+00
 -1      7128 6.00345E+00
 -1      7129 6.00345E+00
 -1      7130 2.69677E+01
 -1      7131 7.28974E+00
 -1      7132 7.15813E+00
 -1      7133 6.22856E+00
 -1      7134 5.99578E+00
 -1      7135 5.86418E+00
 -1      7136 6.92536E+00
 -1      7137 1.52966E+01
 -1      7138 1.41314E+01
 -1      7139 1.41359E+01
 -1      7140 5.86418E+00
 -1      7141 7.11905E+00
 -1      7142 6.88627E+00
 -1      7143 5.63140E+00
 -1      7144 6.88627E+00
 -1      7145 7.00684E+00
 -1      7146 7.94275E+00
 -1      7147 2.28180E+01
 -1      7148 2.21714E+01
 -1      7149 2.05753E+01
 -1      7150 2.24482E+01
 -1      7151 2.12219E+01
 -1      7152 9.06069E+00
 -1      7153 9.06069E+00
 -1      7154 1.04552E+01
 -1      7155 1.43135E+01
 -1      7156 1.43135E+01
 -1      7157 1.29190E+01
 -1      7158 7.68977E+00
 -1      7159 7.68977E+00
 -1      7160 7.10963E+00
 -1      7161 2.42633E+01
 -1      7162 2.21775E+01
 -1      7163 2.28618E+01
 -1      7164 1.12232E+01
 -1      7165 1.26240E+01
 -1      7166 1.23232E+01
 -1      7167 1.26343E+01
 -1      7168 1.26343E+01
 -1      7169 1.04552E+01
 -1      7170 1.43135E+01
 -1      7171 1.64925E+01
 -1      7172 1.62054E+01
 -1      7173 5.77811E+00
 -1      7174 4.71517E+00
 -1      7175 5.77811E+00
 -1      7176 7.22289E+00
 -1      7177 7.22289E+00
 -1      7178 7.22289E+00
 -1      7179 8.04908E+00
 -1      7180 8.04908E+00
 -1      7181 1.96602E+01
 -1      7182 2.07050E+01
 -1      7183 1.90774E+01
 -1      7184 5.12619E+00
 -1      7185 1.59466E+01
 -1      7186 2.23379E+01
 -1      7187 2.46281E+01
 -1      7188 2.26696E+01
 -1      7189 2.20795E+01
 -1      7190 7.41846E+00
 -1      7191 7.41846E+00
 -1      7192 7.41846E+00
 -1      7193 7.41846E+00
 -1      7194 7.41846E+00
 -1      7195 7.41846E+00
 -1      7196 7.66619E+00
 -1      7197 9.06069E+00
 -1      7198 1.29190E+01
 -1      7199 1.58561E+01
 -1      7200 1.58561E+01
 -1      7201 1.08382E+01
 -1      7202 2.10393E+01
 -1      7203 1.97177E+01
 -1      7204 2.10393E+01
 -1      7205 4.48927E+00
 -1      7206 4.95969E+00
 -1      7207 4.77584E+00
 -1      7208 5.24626E+00
 -1      7209 5.46658E+00
 -1      7210 1.85063E+01
 -1      7211 1.92766E+01
 -1      7212 2.11966E+01
 -1      7213 2.03365E+01
 -1      7214 2.11068E+01
 -1      7215 1.84165E+01
 -1      7216 7.90738E+00
 -1      7217 7.45632E+00
 -1      7218 6.96739E+00
 -1      7219 6.96739E+00
 -1      7220 7.90738E+00
 -1      7221 7.56592E+00
 -1      7222 7.52066E+00
 -1      7223 7.56592E+00
 -1      7224 7.35812E+00
 -1      7225 7.35812E+00
 -1      7226 7.01513E+00
 -1      7227 6.17991E+00
 -1      7228 6.63325E+00
 -1      7229 6.17991E+00
 -1      7230 6.17991E+00
 -1      7231 6.63325E+00
 -1      7232 6.63325E+00
 -1      7233 2.39045E+01
 -1      7234 2.04018E+01
 -1      7235 2.30364E+01
 -1      7236 2.26306E+01
 -1      7237 2.31581E+01
 -1      7238 2.10190E+01
 -1      7239 2.57485E+01
 -1      7240 2.39368E+01
 -1      7241 2.64367E+01
 -1      7242 1.01552E+01
 -1      7243 1.01552E+01
 -1      7244 1.66488E+01
 -1      7245 1.68906E+01
 -1      7246 1.66488E+01
 -1      7247 1.73249E+01
 -1      7248 1.81430E+01
 -1      7249 1.62176E+01
 -1      7250 2.16411E+01
 -1      7251 1.53995E+01
 -1      7252 9.59025E+00
 -1      7253 1.21900E+01
 -1      7254 1.05764E+01
 -1      7255 1.27555E+01
 -1      7256 1.70195E+01
 -1      7257 1.53087E+01
 -1      7258 1.22443E+01
 -1      7259 1.11321E+01
 -1      7260 1.11321E+01
 -1      7261 1.07707E+01
 -1      7262 1.12913E+01
 -1      7263 1.12913E+01
 -1      7264 1.16527E+01
 -1      7265 1.15713E+01
 -1      7266 1.13480E+01
 -1      7267 9.74055E+00
 -1      7268 9.96391E+00
 -1      7269 9.74055E+00
 -1      7270 1.15713E+01
 -1      7271 1.50631E+01
 -1      7272 1.26470E+01
 -1      7273 9.94826E+00
 -1      7274 5.02613E+00
 -1      7275 4.81616E+00
 -1      7276 3.99596E+00
 -1      7277 7.32416E+00
 -1      7278 6.46102E+00
 -1      7279 7.68662E+00
 -1      7280 6.82348E+00
 -1      7281 7.68662E+00
 -1      7282 1.73590E+01
 -1      7283 1.24237E+01
 -1      7284 1.73643E+01
 -1      7285 3.82971E+00
 -1      7286 3.23748E+00
 -1      7287 4.02785E+00
 -1      7288 8.99504E+00
 -1      7289 9.06117E+00
 -1      7290 1.21103E+01
 -1      7291 1.21764E+01
 -1      7292 1.16511E+01
 -1      7293 9.62465E+00
 -1      7294 9.81325E+00
 -1      7295 5.40279E+00
 -1      7296 4.95931E+00
 -1      7297 5.53887E+00
 -1      7298 1.38085E+01
 -1      7299 9.58231E+00
 -1      7300 1.39694E+01
 -1      7301 9.74323E+00
 -1      7302 9.74323E+00
 -1      7303 8.81410E+00
 -1      7304 6.64181E+00
 -1      7305 7.41116E+00
 -1      7306 5.23887E+00
 -1      7307 7.85445E+00
 -1      7308 9.48041E+00
 -1      7309 1.37066E+01
 -1      7310 9.64132E+00
 -1      7311 1.54321E+01
 -1      7312 2.54012E+01
 -1      7313 2.23395E+01
 -1      7314 2.47684E+01
 -1      7315 1.21764E+01
 -1      7316 1.11638E+01
 -1      7317 5.71375E+00
 -1      7318 5.88850E+00
 -1      7319 5.01450E+00
 -1      7320 5.83726E+00
 -1      7321 4.83975E+00
 -1      7322 5.01749E+00
 -1      7323 5.01749E+00
 -1      7324 2.48096E+01
 -1      7325 2.51080E+01
 -1      7326 2.31260E+01
 -1      7327 9.95060E+00
 -1      7328 1.81880E+01
 -1      7329 1.61668E+01
 -1      7330 1.58108E+01
 -1      7331 2.55991E+01
 -1      7332 2.55991E+01
 -1      7333 2.55991E+01
 -1      7334 7.65650E+00
 -1      7335 7.80407E+00
 -1      7336 8.42109E+00
 -1      7337 2.35928E+01
 -1      7338 2.62041E+01
 -1      7339 2.30328E+01
 -1      7340 2.23651E+01
 -1      7341 2.32702E+01
 -1      7342 2.60529E+01
 -1      7343 2.30085E+01
 -1      7344 4.80185E+00
 -1      7345 1.22278E+01
 -1      7346 1.08787E+01
 -1      7347 9.99637E+00
 -1      7348 1.54052E+01
 -1      7349 1.40562E+01
 -1      7350 1.62876E+01
 -1      7351 1.72300E+01
 -1      7352 1.48010E+01
 -1      7353 1.24980E+01
 -1      7354 6.39898E+00
 -1      7355 5.79395E+00
 -1      7356 5.87494E+00
 -1      7357 1.01978E+01
 -1      7358 1.01904E+01
 -1      7359 9.30486E+00
 -1      7360 7.93773E+00
 -1      7361 7.93034E+00
 -1      7362 8.82325E+00
 -1      7363 1.13639E+01
 -1      7364 1.15108E+01
 -1      7365 8.88750E+00
 -1      7366 8.88750E+00
 -1      7367 9.03446E+00
 -1      7368 1.15108E+01
 -1      7369 9.76854E+00
 -1      7370 1.02267E+01
 -1      7371 1.26520E+01
 -1      7372 1.23240E+01
 -1      7373 1.27821E+01
 -1      7374 9.89870E+00
 -1      7375 1.26141E+01
 -1      7376 1.42215E+01
 -1      7377 1.23908E+01
 -1      7378 1.23232E+01
 -1      7379 2.26160E+01
 -1      7380 1.94361E+01
 -1      7381 2.08965E+01
 -1      7382 2.55806E+01
 -1      7383 6.60089E+00
 -1      7384 7.63071E+00
 -1      7385 2.04805E+01
 -1      7386 2.71977E+01
 -1      7387 2.71977E+01
 -1      7388 2.60450E+01
 -1      7389 2.60450E+01
 -1      7390 2.60450E+01
 -1      7391 7.79319E+00
 -1      7392 8.91307E+00
 -1      7393 8.88513E+00
 -1      7394 8.99164E+00
 -1      7395 9.15485E+00
 -1      7396 8.23310E+00
 -1      7397 7.91482E+00
 -1      7398 8.07802E+00
 -1      7399 8.83656E+00
 -1      7400 8.90405E+00
 -1      7401 8.17810E+00
 -1      7402 7.66772E+00
 -1      7403 1.48718E+01
 -1      7404 1.30094E+01
 -1      7405 1.67326E+01
 -1      7406 1.65139E+01
 -1      7407 1.46514E+01
 -1      7408 1.27906E+01
 -1      7409 1.85649E+01
 -1      7410 5.07084E+00
 -1      7411 4.99440E+00
 -1      7412 4.93015E+00
 -1      7413 4.85372E+00
 -1      7414 6.13908E+00
 -1      7415 1.08860E+01
 -1      7416 1.15977E+01
 -1      7417 1.31354E+01
 -1      7418 1.57416E+01
 -1      7419 1.83068E+01
 -1      7420 1.88949E+01
 -1      7421 2.00706E+01
 -1      7422 7.16185E+00
 -1      7423 7.97407E+00
 -1      7424 7.16185E+00
 -1      7425 2.37706E+01
 -1      7426 2.12723E+01
 -1      7427 2.12723E+01
 -1      7428 4.58264E+00
 -1      7429 5.80831E+00
 -1      7430 5.80831E+00
 -1      7431 4.96814E+00
 -1      7432 8.99164E+00
 -1      7433 9.11610E+00
 -1      7434 7.83988E+00
 -1      7435 6.37937E+00
 -1      7436 4.18333E+00
 -1      7437 4.18648E+00
 -1      7438 1.57106E+01
 -1      7439 1.53217E+01
 -1      7440 1.59926E+01
 -1      7441 4.41572E+00
 -1      7442 4.46741E+00
 -1      7443 4.19269E+00
 -1      7444 2.38176E+01
 -1      7445 2.03067E+01
 -1      7446 1.76016E+01
 -1      7447 1.94317E+01
 -1      7448 2.23590E+01
 -1      7449 2.10069E+01
 -1      7450 2.23590E+01
 -1      7451 5.00514E+00
 -1      7452 5.19456E+00
 -1      7453 5.91863E+00
 -1      7454 5.13931E+00
 -1      7455 5.98673E+00
 -1      7456 4.75413E+00
 -1      7457 5.60154E+00
 -1      7458 5.98673E+00
 -1      7459 1.05930E+01
 -1      7460 9.07629E+00
 -1      7461 8.02318E+00
 -1      7462 8.14614E+00
 -1      7463 9.53992E+00
 -1      7464 5.81487E+00
 -1      7465 6.74577E+00
 -1      7466 6.45573E+00
 -1      7467 1.96366E+01
 -1      7468 2.04628E+01
 -1      7469 1.98491E+01
 -1      7470 2.06753E+01
 -1      7471 2.04925E+01
 -1      7472 9.38285E+00
 -1      7473 7.98992E+00
 -1      7474 1.00153E+01
 -1      7475 9.17455E+00
 -1      7476 7.09689E+00
 -1      7477 5.38985E+00
 -1      7478 5.44155E+00
 -1      7479 5.65912E+00
 -1      7480 6.41941E+00
 -1      7481 6.36016E+00
 -1      7482 6.36016E+00
 -1      7483 1.57139E+01
 -1      7484 8.55841E+00
 -1      7485 1.29876E+01
 -1      7486 8.65182E+00
 -1      7487 5.63332E+00
 -1      7488 5.69489E+00
 -1      7489 6.56865E+00
 -1      7490 2.43144E+01
 -1      7491 1.69530E+01
 -1      7492 1.75818E+01
 -1      7493 2.37869E+01
 -1      7494 1.64255E+01
 -1      7495 2.31581E+01
 -1      7496 9.26431E+00
 -1      7497 9.02099E+00
 -1      7498 1.51027E+01
 -1      7499 4.86314E+00
 -1      7500 4.99365E+00
 -1      7501 5.18565E+00
 -1      7502 7.42619E+00
 -1      7503 7.68662E+00
 -1      7504 2.36528E+01
 -1      7505 1.55742E+01
 -1      7506 2.39979E+01
 -1      7507 6.86672E+00
 -1      7508 2.51080E+01
 -1      7509 2.78358E+01
 -1      7510 1.46512E+01
 -1      7511 1.73936E+01
 -1      7512 1.97988E+01
 -1      7513 7.02586E+00
 -1      7514 7.02586E+00
 -1      7515 6.63325E+00
 -1      7516 7.02586E+00
 -1      7517 6.63325E+00
 -1      7518 8.58210E+00
 -1      7519 8.11250E+00
 -1      7520 1.17566E+01
 -1      7521 8.53254E+00
 -1      7522 8.53254E+00
 -1      7523 1.11387E+01
 -1      7524 1.15977E+01
 -1      7525 7.69381E+00
 -1      7526 8.48952E+00
 -1      7527 7.22999E+00
 -1      7528 7.81677E+00
 -1      7529 8.61248E+00
 -1      7530 2.32844E+01
 -1      7531 2.02600E+01
 -1      7532 2.37913E+01
 -1      7533 7.10963E+00
 -1      7534 2.12266E+01
 -1      7535 1.70025E+01
 -1      7536 2.20790E+01
 -1      7537 5.47077E+00
 -1      7538 4.95105E+00
 -1      7539 4.95105E+00
 -1      7540 4.42493E+00
 -1      7541 9.88712E+00
 -1      7542 9.16118E+00
 -1      7543 6.45573E+00
 -1      7544 6.01097E+00
 -1      7545 6.65184E+00
 -1      7546 1.61297E+01
 -1      7547 5.33488E+00
 -1      7548 6.17209E+00
 -1      7549 6.28153E+00
 -1      7550 5.84521E+00
 -1      7551 6.88783E+00
 -1      7552 6.88783E+00
 -1      7553 1.98357E+01
 -1      7554 1.85622E+01
 -1      7555 1.92056E+01
 -1      7556 1.87613E+01
 -1      7557 1.30132E+01
 -1      7558 1.29853E+01
 -1      7559 1.31792E+01
 -1      7560 6.43687E+00
 -1      7561 6.61703E+00
 -1      7562 6.47167E+00
 -1      7563 6.86132E+00
 -1      7564 7.04149E+00
 -1      7565 7.00668E+00
 -1      7566 7.56251E+00
 -1      7567 8.07289E+00
 -1      7568 6.98460E+00
 -1      7569 8.07289E+00
 -1      7570 7.56251E+00
 -1      7571 1.97400E+01
 -1      7572 6.75584E+00
 -1      7573 5.82493E+00
 -1      7574 6.26969E+00
 -1      7575 2.15536E+01
 -1      7576 2.03982E+01
 -1      7577 2.09632E+01
 -1      7578 7.58918E+00
 -1      7579 7.66515E+00
 -1      7580 1.01923E+01
 -1      7581 7.66515E+00
 -1      7582 1.52564E+01
 -1      7583 1.61390E+01
 -1      7584 1.61390E+01
 -1      7585 1.82497E+01
 -1      7586 2.36239E+01
 -1      7587 1.63225E+01
 -1      7588 2.21172E+01
 -1      7589 3.65492E+00
 -1      7590 4.30319E+00
 -1      7591 2.04338E+01
 -1      7592 1.96484E+01
 -1      7593 2.02467E+01
 -1      7594 1.94613E+01
 -1      7595 2.04338E+01
 -1      7596 1.43685E+01
 -1      7597 1.53908E+01
 -1      7598 7.80471E+00
 -1      7599 8.20967E+00
 -1      7600 6.79855E+00
 -1      7601 2.43975E+01
 -1      7602 2.15337E+01
 -1      7603 2.57810E+01
 -1      7604 9.13316E+00
 -1      7605 7.83197E+00
 -1      7606 5.53285E+00
 -1      7607 6.66121E+00
 -1      7608 9.19925E+00
 -1      7609 1.05930E+01
 -1      7610 8.14614E+00
 -1      7611 9.92968E+00
 -1      7612 8.86232E+00
 -1      7613 9.91879E+00
 -1      7614 9.92968E+00
 -1      7615 8.86232E+00
 -1      7616 8.87321E+00
 -1      7617 1.88523E+01
 -1      7618 1.76740E+01
 -1      7619 1.43572E+01
 -1      7620 5.06461E+00
 -1      7621 1.45650E+01
 -1      7622 1.92171E+01
 -1      7623 1.74526E+01
 -1      7624 9.23384E+00
 -1      7625 9.68047E+00
 -1      7626 9.55720E+00
 -1      7627 8.43515E+00
 -1      7628 8.88178E+00
 -1      7629 8.55842E+00
 -1      7630 1.77792E+01
 -1      7631 6.51121E+00
 -1      7632 5.22285E+00
 -1      7633 5.59998E+00
 -1      7634 4.80774E+00
 -1      7635 4.67281E+00
 -1      7636 5.04994E+00
 -1      7637 5.46505E+00
 -1      7638 2.98943E+01
 -1      7639 2.95492E+01
 -1      7640 5.93159E+00
 -1      7641 7.29596E+00
 -1      7642 6.77605E+00
 -1      7643 7.06736E+00
 -1      7644 8.43173E+00
 -1      7645 7.58727E+00
 -1      7646 2.32922E+01
 -1      7647 2.44288E+01
 -1      7648 2.33414E+01
 -1      7649 2.44780E+01
 -1      7650 2.44780E+01
 -1      7651 2.38054E+01
 -1      7652 1.83819E+01
 -1      7653 2.18800E+01
 -1      7654 8.09475E+00
 -1      7655 6.73038E+00
 -1      7656 7.25029E+00
 -1      7657 8.88144E+00
 -1      7658 9.04070E+00
 -1      7659 1.26786E+01
 -1      7660 1.03356E+01
 -1      7661 8.75106E+00
 -1      7662 3.86623E+00
 -1      7663 4.55875E+00
 -1      7664 4.48232E+00
 -1      7665 7.02897E+00
 -1      7666 6.75241E+00
 -1      7667 1.59363E+01
 -1      7668 2.10365E+01
 -1      7669 2.06683E+01
 -1      7670 1.54826E+01
 -1      7671 2.43093E+01
 -1      7672 2.20795E+01
 -1      7673 2.20569E+01
 -1      7674 1.45189E+01
 -1      7675 1.79211E+01
 -1      7676 1.45600E+01
 -1      7677 7.40475E+00
 -1      7678 7.12818E+00
 -1      7679 5.95108E+00
 -1      7680 8.74788E+00
 -1      7681 4.87974E+00
 -1      7682 8.99022E+00
 -1      7683 8.54692E+00
 -1      7684 7.58727E+00
 -1      7685 7.47799E+00
 -1      7686 7.47799E+00
 -1      7687 7.52821E+00
 -1      7688 7.18841E+00
 -1      7689 7.18841E+00
 -1      7690 7.13818E+00
 -1      7691 8.18023E+00
 -1      7692 6.92536E+00
 -1      7693 1.18116E+01
 -1      7694 9.63252E+00
 -1      7695 1.34908E+01
 -1      7696 9.41379E+00
 -1      7697 6.24826E+00
 -1      7698 7.46462E+00
 -1      7699 6.63118E+00
 -1      7700 1.37299E+01
 -1      7701 1.11358E+01
 -1      7702 1.17696E+01
 -1      7703 1.58294E+01
 -1      7704 1.15090E+01
 -1      7705 1.53918E+01
 -1      7706 1.13265E+01
 -1      7707 6.42137E+00
 -1      7708 6.43884E+00
 -1      7709 6.33521E+00
 -1      7710 2.31087E+01
 -1      7711 2.31087E+01
 -1      7712 2.53717E+01
 -1      7713 1.85394E+01
 -1      7714 5.44188E+00
 -1      7715 5.12804E+00
 -1      7716 5.12804E+00
 -1      7717 6.42691E+00
 -1      7718 2.50243E+01
 -1      7719 2.54637E+01
 -1      7720 2.54637E+01
 -1      7721 9.30562E+00
 -1      7722 1.47145E+01
 -1      7723 8.64166E+00
 -1      7724 1.40505E+01
 -1      7725 9.29995E+00
 -1      7726 1.41314E+01
 -1      7727 1.51581E+01
 -1      7728 8.83591E+00
 -1      7729 5.02683E+00
 -1      7730 5.30933E+00
 -1      7731 7.54637E+00
 -1      7732 7.38989E+00
 -1      7733 7.38989E+00
 -1      7734 1.88600E+01
 -1      7735 9.34434E+00
 -1      7736 2.48699E+01
 -1      7737 2.28164E+01
 -1      7738 2.29027E+01
 -1      7739 7.70509E+00
 -1      7740 7.14449E+00
 -1      7741 1.69583E+01
 -1      7742 1.81828E+01
 -1      7743 1.65153E+01
 -1      7744 1.68542E+01
 -1      7745 2.40664E+01
 -1      7746 1.81717E+01
 -1      7747 1.68542E+01
 -1      7748 8.71350E+00
 -1      7749 7.86198E+00
 -1      7750 7.21837E+00
 -1      7751 7.41688E+00
 -1      7752 6.56535E+00
 -1      7753 8.06048E+00
 -1      7754 1.64907E+01
 -1      7755 2.37213E+01
 -1      7756 1.64907E+01
 -1      7757 5.86971E+00
 -1      7758 5.86971E+00
 -1      7759 8.24322E+00
 -1      7760 7.96400E+00
 -1      7761 7.90994E+00
 -1      7762 7.63071E+00
 -1      7763 7.15902E+00
 -1      7764 9.93638E+00
 -1      7765 1.19473E+01
 -1      7766 9.63553E+00
 -1      7767 5.85053E+00
 -1      7768 2.51230E+01
 -1      7769 2.28852E+01
 -1      7770 2.35384E+01
 -1      7771 1.79211E+01
 -1      7772 7.18056E+00
 -1      7773 7.13489E+00
 -1      7774 1.98036E+01
 -1      7775 1.94683E+01
 -1      7776 1.98036E+01
 -1      7777 7.56345E+00
 -1      7778 7.64494E+00
 -1      7779 7.58319E+00
 -1      7780 9.74122E+00
 -1      7781 9.64025E+00
 -1      7782 9.66114E+00
 -1      7783 1.02607E+01
 -1      7784 2.37726E+01
 -1      7785 1.75310E+01
 -1      7786 2.18473E+01
 -1      7787 6.43107E+00
 -1      7788 7.30067E+00
 -1      7789 7.38346E+00
 -1      7790 6.67513E+00
 -1      7791 7.54473E+00
 -1      7792 6.59234E+00
 -1      7793 6.32689E+00
 -1      7794 7.47159E+00
 -1      7795 5.70158E+00
 -1      7796 6.84629E+00
 -1      7797 7.28773E+00
 -1      7798 1.40379E+01
 -1      7799 1.43333E+01
 -1      7800 1.35649E+01
 -1      7801 1.00023E+01
 -1      7802 1.00073E+01
 -1      7803 9.23888E+00
 -1      7804 1.35699E+01
 -1      7805 5.36389E+00
 -1      7806 8.83656E+00
 -1      7807 1.52527E+01
 -1      7808 1.44000E+01
 -1      7809 1.52527E+01
 -1      7810 5.43994E+00
 -1      7811 5.64797E+00
 -1      7812 6.48519E+00
 -1      7813 2.52664E+01
 -1      7814 2.40881E+01
 -1      7815 2.34038E+01
 -1      7816 1.08987E+01
 -1      7817 1.40733E+01
 -1      7818 6.25990E+00
 -1      7819 6.16257E+00
 -1      7820 7.49128E+00
 -1      7821 8.69219E+00
 -1      7822 8.18670E+00
 -1      7823 7.19795E+00
 -1      7824 2.71977E+01
 -1      7825 2.71977E+01
 -1      7826 2.71977E+01
 -1      7827 4.25523E+00
 -1      7828 5.17197E+00
 -1      7829 2.34741E+01
 -1      7830 5.15193E+00
 -1      7831 5.67499E+00
 -1      7832 6.25513E+00
 -1      7833 6.76365E+00
 -1      7834 8.22674E+00
 -1      7835 6.03045E+00
 -1      7836 8.22674E+00
 -1      7837 9.42151E+00
 -1      7838 1.10833E+01
 -1      7839 2.06438E+01
 -1      7840 4.75498E+00
 -1      7841 4.09784E+00
 -1      7842 6.96739E+00
 -1      7843 5.76264E+00
 -1      7844 5.42009E+00
 -1      7845 6.02445E+00
 -1      7846 1.62120E+01
 -1      7847 1.50697E+01
 -1      7848 9.86528E+00
 -1      7849 1.37764E+01
 -1      7850 1.26342E+01
 -1      7851 1.89809E+01
 -1      7852 1.97138E+01
 -1      7853 1.87009E+01
 -1      7854 1.98083E+01
 -1      7855 2.40127E+01
 -1      7856 2.24098E+01
 -1      7857 2.40127E+01
 -1      7858 6.41087E+00
 -1      7859 5.91537E+00
 -1      7860 6.76483E+00
 -1      7861 6.94348E+00
 -1      7862 8.86042E+00
 -1      7863 7.70340E+00
 -1      7864 1.80257E+01
 -1      7865 5.45439E+00
 -1      7866 2.31957E+01
 -1      7867 2.31957E+01
 -1      7868 2.24542E+01
 -1      7869 1.22934E+01
 -1      7870 1.75837E+01
 -1      7871 1.94110E+01
 -1      7872 7.95291E+00
 -1      7873 9.35427E+00
 -1      7874 1.05601E+01
 -1      7875 7.44989E+00
 -1      7876 6.04695E+00
 -1      7877 7.95611E+00
 -1      7878 6.55317E+00
 -1      7879 6.14861E+00
 -1      7880 7.96622E+00
 -1      7881 7.21936E+00
 -1      7882 1.04288E+01
 -1      7883 9.68192E+00
 -1      7884 9.26184E+00
 -1      7885 2.44977E+01
 -1      7886 3.61086E+00
 -1      7887 3.90740E+00
 -1      7888 3.90740E+00
 -1      7889 1.07081E+01
 -1      7890 1.10303E+01
 -1      7891 1.40856E+01
 -1      7892 6.92470E+00
 -1      7893 7.92221E+00
 -1      7894 9.68047E+00
 -1      7895 9.35711E+00
 -1      7896 8.55842E+00
 -1      7897 5.80359E+00
 -1      7898 4.50567E+00
 -1      7899 5.10544E+00
 -1      7900 4.67389E+00
 -1      7901 2.39501E+01
 -1      7902 2.51254E+01
 -1      7903 2.76590E+01
 -1      7904 2.51254E+01
 -1      7905 5.26343E+00
 -1      7906 5.84817E+00
 -1      7907 5.93159E+00
 -1      7908 5.55000E+00
 -1      7909 6.13474E+00
 -1      7910 2.22807E+01
 -1      7911 2.20530E+01
 -1      7912 2.04285E+01
 -1      7913 2.51453E+01
 -1      7914 2.56725E+01
 -1      7915 2.40728E+01
 -1      7916 2.01626E+01
 -1      7917 2.01626E+01
 -1      7918 1.91279E+01
 -1      7919 2.15465E+01
 -1      7920 1.85394E+01
 -1      7921 2.10626E+01
 -1      7922 1.61963E+01
 -1      7923 1.82497E+01
 -1      7924 6.82202E+00
 -1      7925 6.82202E+00
 -1      7926 6.01509E+00
 -1      7927 5.36566E+00
 -1      7928 5.36566E+00
 -1      7929 6.17259E+00
 -1      7930 8.58164E+00
 -1      7931 7.52313E+00
 -1      7932 8.12724E+00
 -1      7933 5.74013E+00
 -1      7934 5.66086E+00
 -1      7935 6.54619E+00
 -1      7936 6.98137E+00
 -1      7937 6.90210E+00
 -1      7938 6.09604E+00
 -1      7939 5.63534E+00
 -1      7940 5.26875E+00
 -1      7941 5.64850E+00
 -1      7942 5.59998E+00
 -1      7943 5.23339E+00
 -1      7944 5.22023E+00
 -1      7945 1.20220E+01
 -1      7946 9.68192E+00
 -1      7947 1.23597E+01
 -1      7948 1.91721E+01
 -1      7949 1.88466E+01
 -1      7950 2.22220E+01
 -1      7951 1.52155E+01
 -1      7952 1.07637E+01
 -1      7953 5.19429E+00
 -1      7954 4.96583E+00
 -1      7955 3.79996E+00
 -1      7956 4.46224E+00
 -1      7957 4.23377E+00
 -1      7958 5.62811E+00
 -1      7959 1.97606E+01
 -1      7960 1.63699E+01
 -1      7961 1.40581E+01
 -1      7962 2.35537E+01
 -1      7963 9.93680E+00
 -1      7964 8.76603E+00
 -1      7965 8.44009E+00
 -1      7966 7.26933E+00
 -1      7967 8.37021E+00
 -1      7968 6.60634E+00
 -1      7969 7.37911E+00
 -1      7970 9.50123E+00
 -1      7971 8.35434E+00
 -1      7972 8.72845E+00
 -1      7973 5.34542E+00
 -1      7974 4.97129E+00
 -1      7975 4.21566E+00
 -1      7976 1.86196E+01
 -1      7977 1.79872E+01
 -1      7978 1.78959E+01
 -1      7979 9.25560E+00
 -1      7980 2.20867E+01
 -1      7981 1.97266E+01
 -1      7982 1.95924E+01
 -1      7983 4.98989E+00
 -1      7984 2.50602E+01
 -1      7985 2.56541E+01
 -1      7986 2.50869E+01
 -1      7987 9.23020E+00
 -1      7988 7.36033E+00
 -1      7989 2.66517E+01
 -1      7990 2.39935E+01
 -1      7991 2.29801E+01
 -1      7992 2.33338E+01
 -1      7993 2.18029E+01
 -1      7994 1.02979E+01
 -1      7995 1.00561E+01
 -1      7996 9.52561E+00
 -1      7997 7.15813E+00
 -1      7998 8.06284E+00
 -1      7999 7.00166E+00
 -1      8000 7.15813E+00
 -1      8001 8.21932E+00
 -1      8002 5.97995E+00
 -1      8003 6.41087E+00
 -1      8004 5.94861E+00
 -1      8005 6.46692E+00
 -1      8006 5.32743E+00
 -1      8007 6.46692E+00
 -1      8008 7.95304E+00
 -1      8009 1.93085E+01
 -1      8010 7.13190E+00
 -1      8011 9.68733E+00
 -1      8012 1.00618E+01
 -1      8013 1.20728E+01
 -1      8014 4.32859E+00
 -1      8015 4.38594E+00
 -1      8016 4.32859E+00
 -1      8017 5.60154E+00
 -1      8018 2.21361E+01
 -1      8019 2.39814E+01
 -1      8020 2.36102E+01
 -1      8021 8.73237E+00
 -1      8022 8.54692E+00
 -1      8023 8.72304E+00
 -1      8024 8.73237E+00
 -1      8025 4.14375E+00
 -1      8026 4.37716E+00
 -1      8027 5.07396E+00
 -1      8028 5.70193E+00
 -1      8029 7.71794E+00
 -1      8030 6.87058E+00
 -1      8031 7.99895E+00
 -1      8032 2.34795E+01
 -1      8033 2.52042E+01
 -1      8034 2.52042E+01
 -1      8035 1.79204E+01
 -1      8036 1.21958E+01
 -1      8037 1.64462E+01
 -1      8038 9.90072E+00
 -1      8039 9.90072E+00
 -1      8040 9.87680E+00
 -1      8041 9.87680E+00
 -1      8042 8.04962E+00
 -1      8043 2.36857E+01
 -1      8044 2.43144E+01
 -1      8045 2.37869E+01
 -1      8046 5.80454E+00
 -1      8047 5.80454E+00
 -1      8048 6.22904E+00
 -1      8049 9.00024E+00
 -1      8050 9.96116E+00
 -1      8051 4.29378E+00
 -1      8052 4.34909E+00
 -1      8053 5.94687E+00
 -1      8054 7.04188E+00
 -1      8055 4.77764E+00
 -1      8056 5.17080E+00
 -1      8057 2.70899E+01
 -1      8058 2.51080E+01
 -1      8059 2.70899E+01
 -1      8060 7.65497E+00
 -1      8061 7.65497E+00
 -1      8062 1.27310E+01
 -1      8063 1.75973E+01
 -1      8064 1.75973E+01
 -1      8065 2.19858E+01
 -1      8066 8.19074E+00
 -1      8067 8.77393E+00
 -1      8068 8.77393E+00
 -1      8069 1.00742E+01
 -1      8070 1.06574E+01
 -1      8071 1.00742E+01
 -1      8072 1.15396E+01
 -1      8073 1.57638E+01
 -1      8074 2.69661E+01
 -1      8075 2.80939E+01
 -1      8076 1.38543E+01
 -1      8077 1.28319E+01
 -1      8078 1.50050E+01
 -1      8079 7.67349E+00
 -1      8080 5.70972E+00
 -1      8081 8.04291E+00
 -1      8082 8.38399E+00
 -1      8083 6.42022E+00
 -1      8084 6.05080E+00
 -1      8085 2.45766E+01
 -1      8086 2.56911E+01
 -1      8087 2.20327E+01
 -1      8088 5.90533E+00
 -1      8089 1.69133E+01
 -1      8090 1.93530E+01
 -1      8091 7.56122E+00
 -1      8092 2.18319E+01
 -1      8093 2.57699E+01
 -1      8094 2.42716E+01
 -1      8095 1.51027E+01
 -1      8096 6.39054E+00
 -1      8097 1.50143E+01
 -1      8098 1.04709E+01
 -1      8099 9.73992E+00
 -1      8100 1.55271E+01
 -1      8101 1.47961E+01
 -1      8102 1.52238E+01
 -1      8103 6.94868E+00
 -1      8104 6.81545E+00
 -1      8105 7.58235E+00
 -1      8106 2.20374E+01
 -1      8107 1.07707E+01
 -1      8108 1.07707E+01
 -1      8109 1.11321E+01
 -1      8110 1.18574E+01
 -1      8111 1.03406E+01
 -1      8112 9.23527E+00
 -1      8113 1.06225E+01
 -1      8114 1.07520E+01
 -1      8115 1.67521E+01
 -1      8116 1.79309E+01
 -1      8117 1.83631E+01
 -1      8118 5.28192E+00
 -1      8119 5.64850E+00
 -1      8120 5.64850E+00
 -1      8121 6.39431E+00
 -1      8122 6.76089E+00
 -1      8123 6.39431E+00
 -1      8124 2.40523E+01
 -1      8125 2.40523E+01
 -1      8126 2.20082E+01
 -1      8127 2.60450E+01
 -1      8128 1.05707E+01
 -1      8129 8.43173E+00
 -1      8130 9.57397E+00
 -1      8131 2.22574E+01
 -1      8132 6.98949E+00
 -1      8133 6.68007E+00
 -1      8134 6.63099E+00
 -1      8135 8.20967E+00
 -1      8136 8.19902E+00
 -1      8137 8.20967E+00
 -1      8138 5.48761E+00
 -1      8139 5.11423E+00
 -1      8140 5.09932E+00
 -1      8141 9.26696E+00
 -1      8142 8.53599E+00
 -1      8143 1.40581E+01
 -1      8144 2.05786E+01
 -1      8145 1.78884E+01
 -1      8146 9.29760E+00
 -1      8147 8.62432E+00
 -1      8148 8.94666E+00
 -1      8149 7.22347E+00
 -1      8150 7.91707E+00
 -1      8151 9.17767E+00
 -1      8152 7.45449E+00
 -1      8153 8.48408E+00
 -1      8154 2.73934E+01
 -1      8155 1.48102E+01
 -1      8156 1.57467E+01
 -1      8157 1.26610E+01
 -1      8158 1.59941E+01
 -1      8159 1.69307E+01
 -1      8160 1.90799E+01
 -1      8161 7.44731E+00
 -1      8162 8.03230E+00
 -1      8163 8.84204E+00
 -1      8164 6.43135E+00
 -1      8165 5.50177E+00
 -1      8166 9.59025E+00
 -1      8167 2.12219E+01
 -1      8168 9.06173E+00
 -1      8169 5.86971E+00
 -1      8170 1.77269E+01
 -1      8171 5.54621E+00
 -1      8172 6.04383E+00
 -1      8173 6.01871E+00
 -1      8174 5.52109E+00
 -1      8175 6.01871E+00
 -1      8176 5.54621E+00
 -1      8177 2.64496E+01
 -1      8178 2.46135E+01
 -1      8179 2.52203E+01
 -1      8180 2.70563E+01
 -1      8181 2.52203E+01
 -1      8182 2.64496E+01
 -1      8183 7.94364E+00
 -1      8184 7.38158E+00
 -1      8185 7.72461E+00
 -1      8186 7.88782E+00
 -1      8187 6.87308E+00
 -1      8188 2.00222E+01
 -1      8189 1.62940E+01
 -1      8190 1.32206E+01
 -1      8191 2.66517E+01
 -1      8192 2.38483E+01
 -1      8193 2.60860E+01
 -1      8194 1.96458E+01
 -1      8195 6.02084E+00
 -1      8196 7.14920E+00
 -1      8197 6.14526E+00
 -1      8198 9.86238E+00
 -1      8199 1.12067E+01
 -1      8200 9.56540E+00
 -1      8201 2.53724E+01
 -1      8202 2.18832E+01
 -1      8203 2.26996E+01
 -1      8204 7.68662E+00
 -1      8205 9.30562E+00
 -1      8206 9.96391E+00
 -1      8207 9.29995E+00
 -1      8208 2.07752E+01
 -1      8209 8.47374E+00
 -1      8210 8.28132E+00
 -1      8211 1.47307E+01
 -1      8212 1.34287E+01
 -1      8213 1.80743E+01
 -1      8214 1.67723E+01
 -1      8215 1.36146E+01
 -1      8216 2.51858E+01
 -1      8217 7.79019E+00
 -1      8218 7.75920E+00
 -1      8219 7.88609E+00
 -1      8220 9.60927E+00
 -1      8221 7.10963E+00
 -1      8222 7.68977E+00
 -1      8223 2.42021E+01
 -1      8224 2.48089E+01
 -1      8225 1.78347E+01
 -1      8226 1.36757E+01
 -1      8227 1.46536E+01
 -1      8228 1.75194E+01
 -1      8229 1.88126E+01
 -1      8230 6.27976E+00
 -1      8231 6.75584E+00
 -1      8232 6.27976E+00
 -1      8233 6.75584E+00
 -1      8234 6.27976E+00
 -1      8235 1.61744E+01
 -1      8236 1.63038E+01
 -1      8237 1.50690E+01
 -1      8238 9.96391E+00
 -1      8239 1.15713E+01
 -1      8240 7.79319E+00
 -1      8241 2.34054E+01
 -1      8242 1.19887E+01
 -1      8243 2.34579E+01
 -1      8244 2.22807E+01
 -1      8245 8.40401E+00
 -1      8246 8.37055E+00
 -1      8247 1.24314E+01
 -1      8248 1.73990E+01
 -1      8249 8.89999E+00
 -1      8250 9.20111E+00
 -1      8251 1.20897E+01
 -1      8252 2.31421E+01
 -1      8253 2.31421E+01
 -1      8254 2.53194E+01
 -1      8255 2.51815E+01
 -1      8256 2.39540E+01
 -1      8257 2.57487E+01
 -1      8258 2.45213E+01
 -1      8259 2.50869E+01
 -1      8260 1.83200E+01
 -1      8261 1.79289E+01
 -1      8262 1.86815E+01
 -1      8263 7.01853E+00
 -1      8264 7.67255E+00
 -1      8265 8.70310E+00
 -1      8266 7.02134E+00
 -1      8267 7.67536E+00
 -1      8268 5.99079E+00
 -1      8269 7.82078E+00
 -1      8270 6.81701E+00
 -1      8271 1.27399E+01
 -1      8272 7.39657E+00
 -1      8273 8.89081E+00
 -1      8274 1.02990E+01
 -1      8275 8.81849E+00
 -1      8276 8.38105E+00
 -1      8277 9.57060E+00
 -1      8278 8.75737E+00
 -1      8279 8.31993E+00
 -1      8280 7.56782E+00
 -1      8281 8.13204E+00
 -1      8282 8.57199E+00
 -1      8283 7.72708E+00
 -1      8284 1.04687E+01
 -1      8285 1.41999E+01
 -1      8286 1.54591E+01
 -1      8287 1.68474E+01
 -1      8288 1.55882E+01
 -1      8289 5.80301E+00
 -1      8290 1.93859E+01
 -1      8291 2.05699E+01
 -1      8292 1.63169E+01
 -1      8293 1.59801E+01
 -1      8294 1.48716E+01
 -1      8295 1.42654E+01
 -1      8296 1.46021E+01
 -1      8297 2.51251E+01
 -1      8298 5.60154E+00
 -1      8299 7.91235E+00
 -1      8300 7.91235E+00
 -1      8301 8.26827E+00
 -1      8302 8.26827E+00
 -1      8303 5.72029E+00
 -1      8304 5.16838E+00
 -1      8305 1.00929E+01
 -1      8306 1.00929E+01
 -1      8307 1.02538E+01
 -1      8308 8.76581E+00
 -1      8309 9.53266E+00
 -1      8310 9.88919E+00
 -1      8311 2.12456E+01
 -1      8312 2.06753E+01
 -1      8313 2.03345E+01
 -1      8314 9.99096E+00
 -1      8315 1.84132E+01
 -1      8316 2.66687E+01
 -1      8317 2.69349E+01
 -1      8318 2.58869E+01
 -1      8319 2.61531E+01
 -1      8320 2.61531E+01
 -1      8321 6.89943E+00
 -1      8322 8.00262E+00
 -1      8323 6.90073E+00
 -1      8324 7.53138E+00
 -1      8325 7.36321E+00
 -1      8326 1.33500E+01
 -1      8327 7.49242E+00
 -1      8328 7.20111E+00
 -1      8329 1.91554E+01
 -1      8330 1.90306E+01
 -1      8331 1.82142E+01
 -1      8332 2.63520E+01
 -1      8333 2.20356E+01
 -1      8334 2.20429E+01
 -1      8335 2.21855E+01
 -1      8336 2.65140E+01
 -1      8337 2.55334E+01
 -1      8338 8.19362E+00
 -1      8339 8.19362E+00
 -1      8340 7.76823E+00
 -1      8341 2.49432E+01
 -1      8342 7.75446E+00
 -1      8343 5.45909E+00
 -1      8344 5.66224E+00
 -1      8345 1.33427E+01
 -1      8346 7.35812E+00
 -1      8347 1.24781E+01
 -1      8348 2.06437E+01
 -1      8349 6.12939E+00
 -1      8350 5.13112E+00
 -1      8351 5.54440E+00
 -1      8352 8.65066E+00
 -1      8353 1.05341E+01
 -1      8354 2.53714E+01
 -1      8355 6.34695E+00
 -1      8356 6.25962E+00
 -1      8357 6.34695E+00
 -1      8358 6.35702E+00
 -1      8359 6.26969E+00
 -1      8360 6.26969E+00
 -1      8361 5.88781E+00
 -1      8362 6.09808E+00
 -1      8363 6.09808E+00
 -1      8364 2.24865E+01
 -1      8365 2.19174E+01
 -1      8366 9.84677E+00
 -1      8367 9.54979E+00
 -1      8368 9.85780E+00
 -1      8369 7.22289E+00
 -1      8370 8.04908E+00
 -1      8371 1.59944E+01
 -1      8372 1.59944E+01
 -1      8373 1.45289E+01
 -1      8374 2.00808E+01
 -1      8375 2.34795E+01
 -1      8376 2.17549E+01
 -1      8377 2.34591E+01
 -1      8378 5.69260E+00
 -1      8379 5.48284E+00
 -1      8380 5.16035E+00
 -1      8381 5.31285E+00
 -1      8382 5.10309E+00
 -1      8383 1.73617E+01
 -1      8384 1.73321E+01
 -1      8385 1.81470E+01
 -1      8386 6.65184E+00
 -1      8387 6.85003E+00
 -1      8388 6.53798E+00
 -1      8389 9.27521E+00
 -1      8390 9.26431E+00
 -1      8391 1.38993E+01
 -1      8392 2.46931E+01
 -1      8393 2.46931E+01
 -1      8394 2.44238E+01
 -1      8395 2.44238E+01
 -1      8396 2.44238E+01
 -1      8397 2.13662E+01
 -1      8398 2.11131E+01
 -1      8399 2.15734E+01
 -1      8400 2.26757E+01
 -1      8401 7.02104E+00
 -1      8402 6.93825E+00
 -1      8403 7.18230E+00
 -1      8404 2.49068E+01
 -1      8405 2.36857E+01
 -1      8406 2.38294E+01
 -1      8407 4.19269E+00
 -1      8408 4.50125E+00
 -1      8409 4.72653E+00
 -1      8410 5.48751E+00
 -1      8411 4.64514E+00
 -1      8412 1.68431E+01
 -1      8413 1.56887E+01
 -1      8414 7.80745E+00
 -1      8415 7.80745E+00
 -1      8416 6.97223E+00
 -1      8417 6.89113E+00
 -1      8418 8.48408E+00
 -1      8419 6.66011E+00
 -1      8420 5.70772E+00
 -1      8421 7.53169E+00
 -1      8422 4.75793E+00
 -1      8423 5.13293E+00
 -1      8424 5.01596E+00
 -1      8425 5.10687E+00
 -1      8426 2.11058E+01
 -1      8427 2.11058E+01
 -1      8428 1.03406E+01
 -1      8429 1.04687E+01
 -1      8430 9.08138E+00
 -1      8431 2.30834E+01
 -1      8432 1.94832E+01
 -1      8433 2.39555E+01
 -1      8434 8.17757E+00
 -1      8435 8.52746E+00
 -1      8436 8.13987E+00
 -1      8437 7.31929E+00
 -1      8438 7.66918E+00
 -1      8439 7.70688E+00
 -1      8440 2.67915E+01
 -1      8441 1.30132E+01
 -1      8442 4.97205E+00
 -1      8443 5.77811E+00
 -1      8444 5.66086E+00
 -1      8445 6.46692E+00
 -1      8446 9.33726E+00
 -1      8447 8.52269E+00
 -1      8448 7.57785E+00
 -1      8449 7.51324E+00
 -1      8450 6.56865E+00
 -1      8451 5.95623E+00
 -1      8452 7.44833E+00
 -1      8453 8.52773E+00
 -1      8454 7.49216E+00
 -1      8455 1.86728E+01
 -1      8456 8.48654E+00
 -1      8457 7.40715E+00
 -1      8458 9.05079E+00
 -1      8459 2.22057E+01
 -1      8460 2.37122E+01
 -1      8461 2.59541E+01
 -1      8462 6.01897E+00
 -1      8463 5.70193E+00
 -1      8464 5.70193E+00
 -1      8465 1.68474E+01
 -1      8466 1.19577E+01
 -1      8467 1.42496E+01
 -1      8468 1.31138E+01
 -1      8469 1.13841E+01
 -1      8470 1.13841E+01
 -1      8471 1.15473E+01
 -1      8472 9.24230E+00
 -1      8473 9.53470E+00
 -1      8474 6.89265E+00
 -1      8475 7.58910E+00
 -1      8476 7.06329E+00
 -1      8477 1.82843E+01
 -1      8478 2.30788E+01
 -1      8479 2.44808E+01
 -1      8480 2.34473E+01
 -1      8481 7.60887E+00
 -1      8482 7.99646E+00
 -1      8483 5.32017E+00
 -1      8484 5.58198E+00
 -1      8485 5.65303E+00
 -1      8486 2.34741E+01
 -1      8487 1.21648E+01
 -1      8488 2.76806E+01
 -1      8489 2.51470E+01
 -1      8490 2.88559E+01
 -1      8491 2.00550E+01
 -1      8492 1.98473E+01
 -1      8493 2.17850E+01
 -1      8494 2.04351E+01
 -1      8495 2.19927E+01
 -1      8496 2.46027E+01
 -1      8497 2.46027E+01
 -1      8498 5.78386E+00
 -1      8499 5.40719E+00
 -1      8500 9.12471E+00
 -1      8501 8.13201E+00
 -1      8502 1.28527E+01
 -1      8503 1.18600E+01
 -1      8504 1.15023E+01
 -1      8505 6.53363E+00
 -1      8506 2.45007E+01
 -1      8507 2.54066E+01
 -1      8508 2.53347E+01
 -1      8509 2.54297E+01
 -1      8510 2.63357E+01
 -1      8511 2.55016E+01
 -1      8512 1.60761E+01
 -1      8513 1.59080E+01
 -1      8514 2.09846E+01
 -1      8515 1.96730E+01
 -1      8516 5.78386E+00
 -1      8517 4.48612E+00
 -1      8518 4.09784E+00
 -1      8519 2.50869E+01
 -1      8520 7.89006E+00
 -1      8521 7.17170E+00
 -1      8522 4.28369E+00
 -1      8523 5.74005E+00
 -1      8524 6.07319E+00
 -1      8525 4.18430E+00
 -1      8526 4.61684E+00
 -1      8527 2.23395E+01
 -1      8528 5.39061E+00
 -1      8529 1.51986E+01
 -1      8530 1.49831E+01
 -1      8531 1.46534E+01
 -1      8532 1.33399E+01
 -1      8533 1.50748E+01
 -1      8534 6.68856E+00
 -1      8535 6.85840E+00
 -1      8536 5.64060E+00
 -1      8537 6.68856E+00
 -1      8538 2.40443E+01
 -1      8539 2.38054E+01
 -1      8540 2.18800E+01
 -1      8541 2.50802E+01
 -1      8542 2.50802E+01
 -1      8543 1.44449E+01
 -1      8544 1.87786E+01
 -1      8545 9.15485E+00
 -1      8546 8.21932E+00
 -1      8547 6.54956E+00
 -1      8548 7.28974E+00
 -1      8549 3.71496E+00
 -1      8550 4.02401E+00
 -1      8551 3.88128E+00
 -1      8552 1.56690E+01
 -1      8553 1.11264E+01
 -1      8554 1.56690E+01
 -1      8555 1.52155E+01
 -1      8556 1.60721E+01
 -1      8557 1.67723E+01
 -1      8558 1.43334E+01
 -1      8559 1.50336E+01
 -1      8560 1.52195E+01
 -1      8561 8.56701E+00
 -1      8562 8.77270E+00
 -1      8563 9.24230E+00
 -1      8564 1.31092E+01
 -1      8565 6.30971E+00
 -1      8566 6.35497E+00
 -1      8567 2.26078E+01
 -1      8568 2.38823E+01
 -1      8569 2.13879E+01
 -1      8570 7.09243E+00
 -1      8571 7.52761E+00
 -1      8572 1.14036E+01
 -1      8573 6.54969E+00
 -1      8574 5.95972E+00
 -1      8575 7.75974E+00
 -1      8576 1.09668E+01
 -1      8577 1.02484E+01
 -1      8578 8.89607E+00
 -1      8579 8.17770E+00
 -1      8580 7.85476E+00
 -1      8581 2.24125E+01
 -1      8582 2.47894E+01
 -1      8583 7.65213E+00
 -1      8584 6.81869E+00
 -1      8585 7.53077E+00
 -1      8586 2.71249E+01
 -1      8587 8.06855E+00
 -1      8588 6.69823E+00
 -1      8589 7.82331E+00
 -1      8590 7.05218E+00
 -1      8591 6.53780E+00
 -1      8592 6.63025E+00
 -1      8593 6.33166E+00
 -1      8594 6.41309E+00
 -1      8595 1.70701E+01
 -1      8596 1.83580E+01
 -1      8597 1.62879E+01
 -1      8598 7.89428E+00
 -1      8599 2.34270E+01
 -1      8600 2.52250E+01
 -1      8601 2.22236E+01
 -1      8602 4.37219E+00
 -1      8603 1.87663E+01
 -1      8604 1.47145E+01
 -1      8605 9.29995E+00
 -1      8606 2.41154E+01
 -1      8607 2.50378E+01
 -1      8608 2.77367E+01
 -1      8609 2.78243E+01
 -1      8610 2.87466E+01
 -1      8611 2.45812E+01
 -1      8612 2.34195E+01
 -1      8613 2.14010E+01
 -1      8614 5.12804E+00
 -1      8615 2.38547E+01
 -1      8616 2.22173E+01
 -1      8617 1.45895E+01
 -1      8618 1.84825E+01
 -1      8619 1.58637E+01
 -1      8620 1.47279E+01
 -1      8621 1.35718E+01
 -1      8622 3.64506E+00
 -1      8623 7.38575E+00
 -1      8624 9.23582E+00
 -1      8625 9.20484E+00
 -1      8626 1.29271E+01
 -1      8627 1.46063E+01
 -1      8628 2.02536E+01
 -1      8629 8.51362E+00
 -1      8630 1.03356E+01
 -1      8631 1.31537E+01
 -1      8632 8.83591E+00
 -1      8633 5.08115E+00
 -1      8634 5.77326E+00
 -1      8635 7.21685E+00
 -1      8636 6.86598E+00
 -1      8637 7.01330E+00
 -1      8638 5.42238E+00
 -1      8639 2.39662E+01
 -1      8640 2.55224E+01
 -1      8641 2.39662E+01
 -1      8642 4.19335E+00
 -1      8643 5.64454E+00
 -1      8644 6.54306E+00
 -1      8645 6.45573E+00
 -1      8646 5.55721E+00
 -1      8647 1.73462E+01
 -1      8648 1.63806E+01
 -1      8649 2.12950E+01
 -1      8650 4.29915E+00
 -1      8651 5.09694E+00
 -1      8652 5.31710E+00
 -1      8653 5.59027E+00
 -1      8654 5.32601E+00
 -1      8655 5.54618E+00
 -1      8656 5.05284E+00
 -1      8657 1.88375E+01
 -1      8658 1.32715E+01
 -1      8659 1.91622E+01
 -1      8660 1.60594E+01
 -1      8661 1.71578E+01
 -1      8662 1.55386E+01
 -1      8663 5.63140E+00
 -1      8664 4.89382E+00
 -1      8665 1.41666E+01
 -1      8666 7.88559E+00
 -1      8667 7.58192E+00
 -1      8668 1.26608E+01
 -1      8669 1.95924E+01
 -1      8670 5.38457E+00
 -1      8671 6.02445E+00
 -1      8672 6.64996E+00
 -1      8673 7.09243E+00
 -1      8674 6.01008E+00
 -1      8675 1.06151E+01
 -1      8676 9.88919E+00
 -1      8677 9.92968E+00
 -1      8678 8.87321E+00
 -1      8679 1.10150E+01
 -1      8680 1.10150E+01
 -1      8681 1.20715E+01
 -1      8682 4.65145E+00
 -1      8683 8.06234E+00
 -1      8684 7.13481E+00
 -1      8685 1.98752E+01
 -1      8686 1.04329E+01
 -1      8687 1.18150E+01
 -1      8688 1.17611E+01
 -1      8689 1.16518E+01
 -1      8690 7.42619E+00
 -1      8691 7.08638E+00
 -1      8692 2.09097E+01
 -1      8693 4.73938E+00
 -1      8694 4.73938E+00
 -1      8695 5.24626E+00
 -1      8696 5.24626E+00
 -1      8697 1.67553E+01
 -1      8698 1.63311E+01
 -1      8699 2.03910E+01
 -1      8700 1.62462E+01
 -1      8701 5.62128E+00
 -1      8702 5.81442E+00
 -1      8703 6.53849E+00
 -1      8704 5.73716E+00
 -1      8705 6.46123E+00
 -1      8706 1.08662E+01
 -1      8707 1.06508E+01
 -1      8708 4.74238E+00
 -1      8709 4.52480E+00
 -1      8710 5.71651E+00
 -1      8711 1.74221E+01
 -1      8712 1.82385E+01
 -1      8713 1.89236E+01
 -1      8714 1.00561E+01
 -1      8715 1.97359E+01
 -1      8716 1.99535E+01
 -1      8717 2.09998E+01
 -1      8718 8.83530E+00
 -1      8719 8.58713E+00
 -1      8720 5.26875E+00
 -1      8721 4.64699E+00
 -1      8722 1.15058E+01
 -1      8723 1.16687E+01
 -1      8724 1.15058E+01
 -1      8725 1.76944E+01
 -1      8726 1.37683E+01
 -1      8727 2.07930E+01
 -1      8728 1.71923E+01
 -1      8729 2.47191E+01
 -1      8730 1.18114E+01
 -1      8731 1.11486E+01
 -1      8732 1.18114E+01
 -1      8733 1.34535E+01
 -1      8734 1.27906E+01
 -1      8735 1.88187E+01
 -1      8736 1.83605E+01
 -1      8737 2.19961E+01
 -1      8738 2.15917E+01
 -1      8739 2.15917E+01
 -1      8740 6.20605E+00
 -1      8741 2.64307E+01
 -1      8742 2.25324E+01
 -1      8743 2.52947E+01
 -1      8744 7.65910E+00
 -1      8745 2.52410E+01
 -1      8746 2.53670E+01
 -1      8747 2.33736E+01
 -1      8748 6.24242E+00
 -1      8749 5.25789E+00
 -1      8750 2.16999E+01
 -1      8751 2.41677E+01
 -1      8752 1.52125E+01
 -1      8753 1.45502E+01
 -1      8754 2.15588E+01
 -1      8755 5.98945E+00
 -1      8756 6.25126E+00
 -1      8757 6.69373E+00
 -1      8758 9.85780E+00
 -1      8759 9.87340E+00
 -1      8760 1.91210E+01
 -1      8761 2.02149E+01
 -1      8762 1.91210E+01
 -1      8763 4.85372E+00
 -1      8764 1.05685E+01
 -1      8765 1.05665E+01
 -1      8766 1.09787E+01
 -1      8767 1.10253E+01
 -1      8768 1.10274E+01
 -1      8769 2.13092E+01
 -1      8770 2.54513E+01
 -1      8771 2.15337E+01
 -1      8772 7.06329E+00
 -1      8773 7.91482E+00
 -1      8774 7.87386E+00
 -1      8775 6.37873E+00
 -1      8776 6.57723E+00
 -1      8777 3.63323E+00
 -1      8778 4.16920E+00
 -1      8779 4.44272E+00
 -1      8780 4.44272E+00
 -1      8781 3.90675E+00
 -1      8782 8.14115E+00
 -1      8783 8.57629E+00
 -1      8784 8.41033E+00
 -1      8785 1.26764E+01
 -1      8786 2.68281E+01
 -1      8787 2.66294E+01
 -1      8788 2.68281E+01
 -1      8789 2.56541E+01
 -1      8790 1.48711E+01
 -1      8791 1.96886E+01
 -1      8792 2.08770E+01
 -1      8793 2.06209E+01
 -1      8794 4.47419E+00
 -1      8795 2.39867E+01
 -1      8796 2.53714E+01
 -1      8797 1.85649E+01
 -1      8798 1.63805E+01
 -1      8799 1.63805E+01
 -1      8800 2.17654E+01
 -1      8801 2.40796E+01
 -1      8802 2.30298E+01
 -1      8803 2.18854E+01
 -1      8804 2.37706E+01
 -1      8805 2.40109E+01
 -1      8806 2.44987E+01
 -1      8807 7.41392E+00
 -1      8808 1.67916E+01
 -1      8809 1.12932E+01
 -1      8810 1.05077E+01
 -1      8811 4.15545E+00
 -1      8812 5.32132E+00
 -1      8813 7.44989E+00
 -1      8814 7.43480E+00
 -1      8815 2.22782E+01
 -1      8816 2.15660E+01
 -1      8817 2.29125E+01
 -1      8818 1.93863E+01
 -1      8819 1.99097E+01
 -1      8820 1.97458E+01
 -1      8821 4.95055E+00
 -1      8822 2.23269E+01
 -1      8823 2.06656E+01
 -1      8824 1.89667E+01
 -1      8825 1.73054E+01
 -1      8826 1.89667E+01
 -1      8827 2.18473E+01
 -1      8828 2.11880E+01
 -1      8829 2.23737E+01
 -1      8830 2.23245E+01
 -1      8831 2.75587E+01
 -1      8832 2.79860E+01
 -1      8833 1.38210E+01
 -1      8834 1.37515E+01
 -1      8835 1.27351E+01
 -1      8836 1.59283E+01
 -1      8837 1.48392E+01
 -1      8838 1.48392E+01
 -1      8839 1.53995E+01
 -1      8840 1.91554E+01
 -1      8841 1.07377E+01
 -1      8842 1.02187E+01
 -1      8843 1.02900E+01
 -1      8844 5.76767E+00
 -1      8845 7.75446E+00
 -1      8846 2.55334E+01
 -1      8847 2.69349E+01
 -1      8848 2.64367E+01
 -1      8849 5.62811E+00
 -1      8850 1.71621E+01
 -1      8851 1.65308E+01
 -1      8852 1.67311E+01
 -1      8853 4.26854E+00
 -1      8854 4.34729E+00
 -1      8855 4.26854E+00
 -1      8856 1.97157E+01
 -1      8857 2.27563E+01
 -1      8858 2.31957E+01
 -1      8859 2.09540E+01
 -1      8860 9.22733E+00
 -1      8861 9.22733E+00
 -1      8862 1.79626E+01
 -1      8863 1.96458E+01
 -1      8864 2.35537E+01
 -1      8865 2.32844E+01
 -1      8866 5.18978E+00
 -1      8867 5.15692E+00
 -1      8868 5.29076E+00
 -1      8869 5.55219E+00
 -1      8870 1.13370E+01
 -1      8871 1.31678E+01
 -1      8872 1.42106E+01
 -1      8873 4.12749E+00
 -1      8874 1.79925E+01
 -1      8875 1.30919E+01
 -1      8876 1.30675E+01
 -1      8877 2.42131E+01
 -1      8878 1.97902E+01
 -1      8879 7.94275E+00
 -1      8880 9.33726E+00
 -1      8881 2.14096E+01
 -1      8882 1.73810E+01
 -1      8883 9.46123E+00
 -1      8884 9.00239E+00
 -1      8885 7.17010E+00
 -1      8886 8.71350E+00
 -1      8887 8.06048E+00
 -1      8888 6.26235E+00
 -1      8889 1.63904E+01
 -1      8890 1.80180E+01
 -1      8891 2.10190E+01
 -1      8892 4.25008E+00
 -1      8893 5.55721E+00
 -1      8894 5.54230E+00
 -1      8895 5.54230E+00
 -1      8896 1.06986E+01
 -1      8897 1.08615E+01
 -1      8898 1.09489E+01
 -1      8899 7.84844E+00
 -1      8900 7.31924E+00
 -1      8901 7.49559E+00
 -1      8902 9.57325E+00
 -1      8903 1.99376E+01
 -1      8904 1.34891E+01
 -1      8905 6.90791E+00
 -1      8906 7.16397E+00
 -1      8907 7.62881E+00
 -1      8908 8.61756E+00
 -1      8909 8.18402E+00
 -1      8910 9.38292E+00
 -1      8911 9.57325E+00
 -1      8912 7.71794E+00
 -1      8913 7.52761E+00
 -1      8914 1.28110E+01
 -1      8915 9.07903E+00
 -1      8916 1.40966E+01
 -1      8917 1.29883E+01
 -1      8918 1.26024E+01
 -1      8919 1.33188E+01
 -1      8920 2.05178E+01
 -1      8921 2.15599E+01
 -1      8922 2.15599E+01
 -1      8923 2.50160E+01
 -1      8924 2.24721E+01
 -1      8925 2.50160E+01
 -1      8926 5.29031E+00
 -1      8927 6.18883E+00
 -1      8928 5.98252E+00
 -1      8929 7.47159E+00
 -1      8930 6.42510E+00
 -1      8931 1.23642E+01
 -1      8932 1.22769E+01
 -1      8933 1.19098E+01
 -1      8934 2.01739E+01
 -1      8935 1.36881E+01
 -1      8936 1.30104E+01
 -1      8937 8.97661E+00
 -1      8938 7.13481E+00
 -1      8939 9.28150E+00
 -1      8940 9.39601E+00
 -1      8941 1.00279E+01
 -1      8942 8.64635E+00
 -1      8943 8.76086E+00
 -1      8944 8.01447E+00
 -1      8945 2.45837E+01
 -1      8946 2.47673E+01
 -1      8947 1.98915E+01
 -1      8948 1.91764E+01
 -1      8949 1.11854E+01
 -1      8950 1.04537E+01
 -1      8951 1.06664E+01
 -1      8952 1.14273E+01
 -1      8953 1.14934E+01
 -1      8954 1.14273E+01
 -1      8955 2.42942E+01
 -1      8956 2.28417E+01
 -1      8957 2.56317E+01
 -1      8958 8.21932E+00
 -1      8959 5.28192E+00
 -1      8960 9.53077E+00
 -1      8961 7.06736E+00
 -1      8962 5.01430E+00
 -1      8963 4.52201E+00
 -1      8964 8.29374E+00
 -1      8965 9.22721E+00
 -1      8966 9.53928E+00
 -1      8967 9.14815E+00
 -1      8968 8.83530E+00
 -1      8969 8.45394E+00
 -1      8970 8.14109E+00
 -1      8971 8.45394E+00
 -1      8972 7.65237E+00
 -1      8973 7.54659E+00
 -1      8974 7.92221E+00
 -1      8975 4.70551E+00
 -1      8976 2.35889E+01
 -1      8977 8.87745E+00
 -1      8978 8.14945E+00
 -1      8979 2.54930E+01
 -1      8980 2.48004E+01
 -1      8981 1.38765E+01
 -1      8982 1.96691E+01
 -1      8983 2.07972E+01
 -1      8984 1.32206E+01
 -1      8985 9.72137E+00
 -1      8986 9.91921E+00
 -1      8987 9.91921E+00
 -1      8988 9.53606E+00
 -1      8989 1.02607E+01
 -1      8990 8.41887E+00
 -1      8991 1.18406E+01
 -1      8992 7.70677E+00
 -1      8993 1.11704E+01
 -1      8994 7.03662E+00
 -1      8995 4.69786E+00
 -1      8996 4.70835E+00
 -1      8997 9.78495E+00
 -1      8998 1.01972E+01
 -1      8999 1.06072E+01
 -1      9000 1.19090E+01
 -1      9001 1.52006E+01
 -1      9002 1.65024E+01
 -1      9003 1.48139E+01
 -1      9004 4.81772E+00
 -1      9005 4.81772E+00
 -1      9006 5.32460E+00
 -1      9007 7.52851E+00
 -1      9008 8.55841E+00
 -1      9009 1.21764E+01
 -1      9010 1.89022E+01
 -1      9011 1.86749E+01
 -1      9012 5.42009E+00
 -1      9013 1.99209E+01
 -1      9014 8.12385E+00
 -1      9015 5.63539E+00
 -1      9016 5.17604E+00
 -1      9017 5.91202E+00
 -1      9018 9.05079E+00
 -1      9019 1.15622E+01
 -1      9020 2.05884E+01
 -1      9021 1.06508E+01
 -1      9022 1.40969E+01
 -1      9023 1.47397E+01
 -1      9024 1.01722E+01
 -1      9025 1.36183E+01
 -1      9026 9.52942E+00
 -1      9027 1.45142E+01
 -1      9028 1.67518E+01
 -1      9029 1.52454E+01
 -1      9030 2.43896E+01
 -1      9031 2.28829E+01
 -1      9032 2.30082E+01
 -1      9033 2.33305E+01
 -1      9034 1.78133E+01
 -1      9035 1.84706E+01
 -1      9036 1.95053E+01
 -1      9037 6.53576E+00
 -1      9038 7.76637E+00
 -1      9039 7.47506E+00
 -1      9040 6.49810E+00
 -1      9041 6.49810E+00
 -1      9042 6.49810E+00
 -1      9043 8.52369E+00
 -1      9044 7.12075E+00
 -1      9045 7.22241E+00
 -1      9046 5.39022E+00
 -1      9047 7.00703E+00
 -1      9048 5.39022E+00
 -1      9049 1.11531E+01
 -1      9050 1.07731E+01
 -1      9051 2.53670E+01
 -1      9052 2.33592E+01
 -1      9053 7.21984E+00
 -1      9054 7.40647E+00
 -1      9055 8.18023E+00
 -1      9056 1.12760E+01
 -1      9057 1.12760E+01
 -1      9058 1.12760E+01
 -1      9059 2.56284E+01
 -1      9060 5.76032E+00
 -1      9061 5.33581E+00
 -1      9062 4.75413E+00
 -1      9063 2.11428E+01
 -1      9064 1.58266E+01
 -1      9065 9.58158E+00
 -1      9066 1.47523E+01
 -1      9067 1.56048E+01
 -1      9068 5.14787E+00
 -1      9069 1.87880E+01
 -1      9070 1.87786E+01
 -1      9071 2.24641E+01
 -1      9072 2.19287E+01
 -1      9073 7.84140E+00
 -1      9074 7.84140E+00
 -1      9075 7.84140E+00
 -1      9076 2.08561E+01
 -1      9077 8.04857E+00
 -1      9078 2.41294E+01
 -1      9079 7.02556E+00
 -1      9080 1.29170E+01
 -1      9081 9.31630E+00
 -1      9082 7.13326E+00
 -1      9083 7.28974E+00
 -1      9084 6.58490E+00
 -1      9085 7.51448E+00
 -1      9086 7.35800E+00
 -1      9087 1.18023E+01
 -1      9088 9.98536E+00
 -1      9089 1.40694E+01
 -1      9090 1.38721E+01
 -1      9091 1.20552E+01
 -1      9092 9.78809E+00
 -1      9093 5.96002E+00
 -1      9094 8.95512E+00
 -1      9095 8.26031E+00
 -1      9096 7.31116E+00
 -1      9097 1.03063E+01
 -1      9098 8.00597E+00
 -1      9099 6.29151E+00
 -1      9100 6.43687E+00
 -1      9101 6.47167E+00
 -1      9102 1.98243E+01
 -1      9103 1.06315E+01
 -1      9104 8.77721E+00
 -1      9105 1.06857E+01
 -1      9106 9.35239E+00
 -1      9107 9.29822E+00
 -1      9108 2.14543E+01
 -1      9109 1.64686E+01
 -1      9110 1.57293E+01
 -1      9111 1.06062E+01
 -1      9112 1.55919E+01
 -1      9113 8.54922E+00
 -1      9114 2.06675E+01
 -1      9115 2.55726E+01
 -1      9116 2.55726E+01
 -1      9117 5.22171E+00
 -1      9118 2.29236E+01
 -1      9119 1.18396E+01
 -1      9120 9.17923E+00
 -1      9121 9.94613E+00
 -1      9122 7.65497E+00
 -1      9123 1.88931E+01
 -1      9124 1.86062E+01
 -1      9125 1.86062E+01
 -1      9126 2.86590E+01
 -1      9127 2.86590E+01
 -1      9128 2.86590E+01
 -1      9129 2.86590E+01
 -1      9130 2.86590E+01
 -1      9131 4.76778E+00
 -1      9132 5.33429E+00
 -1      9133 5.44330E+00
 -1      9134 4.92602E+00
 -1      9135 3.98035E+00
 -1      9136 3.72083E+00
 -1      9137 4.10709E+00
 -1      9138 8.80185E+00
 -1      9139 8.41895E+00
 -1      9140 9.37881E+00
 -1      9141 1.57385E+01
 -1      9142 1.97764E+01
 -1      9143 1.95147E+01
 -1      9144 7.25391E+00
 -1      9145 9.08109E+00
 -1      9146 6.98986E+00
 -1      9147 7.78865E+00
 -1      9148 2.33804E+01
 -1      9149 5.62699E+00
 -1      9150 4.28307E+00
 -1      9151 5.35131E+00
 -1      9152 4.97991E+00
 -1      9153 1.79446E+01
 -1      9154 1.32073E+01
 -1      9155 6.44159E+00
 -1      9156 6.94783E+00
 -1      9157 6.52987E+00
 -1      9158 6.85924E+00
 -1      9159 9.66805E+00
 -1      9160 8.79978E+00
 -1      9161 1.06151E+01
 -1      9162 9.67012E+00
 -1      9163 1.11638E+01
 -1      9164 6.97899E+00
 -1      9165 2.37793E+01
 -1      9166 4.96814E+00
 -1      9167 6.99857E+00
 -1      9168 2.87466E+01
 -1      9169 2.87466E+01
 -1      9170 2.19669E+01
 -1      9171 2.20709E+01
 -1      9172 7.00913E+00
 -1      9173 8.88007E+00
 -1      9174 8.79774E+00
 -1      9175 8.42543E+00
 -1      9176 2.23630E+01
 -1      9177 2.37160E+01
 -1      9178 2.01878E+01
 -1      9179 1.90483E+01
 -1      9180 2.34473E+01
 -1      9181 2.53629E+01
 -1      9182 2.38561E+01
 -1      9183 9.20350E+00
 -1      9184 8.45711E+00
 -1      9185 9.39601E+00
 -1      9186 9.70987E+00
 -1      9187 8.96348E+00
 -1      9188 8.77097E+00
 -1      9189 1.81375E+01
 -1      9190 1.88126E+01
 -1      9191 1.97830E+01
 -1      9192 9.35982E+00
 -1      9193 8.41481E+00
 -1      9194 1.22255E+01
 -1      9195 1.58697E+01
 -1      9196 2.35250E+01
 -1      9197 2.56589E+01
 -1      9198 2.35250E+01
 -1      9199 5.54230E+00
 -1      9200 9.75683E+00
 -1      9201 9.87340E+00
 -1      9202 9.75683E+00
 -1      9203 9.75683E+00
 -1      9204 2.10845E+01
 -1      9205 2.12219E+01
 -1      9206 1.53595E+01
 -1      9207 8.48131E+00
 -1      9208 7.11418E+00
 -1      9209 5.03968E+00
 -1      9210 4.43085E+00
 -1      9211 4.21494E+00
 -1      9212 5.00432E+00
 -1      9213 4.39549E+00
 -1      9214 5.63460E+00
 -1      9215 1.05776E+01
 -1      9216 1.11159E+01
 -1      9217 6.94112E+00
 -1      9218 7.12863E+00
 -1      9219 2.09105E+01
 -1      9220 7.82055E+00
 -1      9221 2.47191E+01
 -1      9222 2.31024E+01
 -1      9223 2.37879E+01
 -1      9224 2.71664E+01
 -1      9225 2.47894E+01
 -1      9226 2.61649E+01
 -1      9227 2.11319E+01
 -1      9228 1.84706E+01
 -1      9229 2.04746E+01
 -1      9230 2.58434E+01
 -1      9231 2.58434E+01
 -1      9232 2.57353E+01
 -1      9233 9.07895E+00
 -1      9234 8.71748E+00
 -1      9235 1.06325E+01
 -1      9236 1.02457E+01
 -1      9237 4.01508E+00
 -1      9238 4.09384E+00
 -1      9239 4.64260E+00
 -1      9240 2.64884E+01
 -1      9241 2.53101E+01
 -1      9242 2.52664E+01
 -1      9243 1.75751E+01
 -1      9244 5.46505E+00
 -1      9245 4.81563E+00
 -1      9246 1.21383E+01
 -1      9247 1.22605E+01
 -1      9248 1.83170E+01
 -1      9249 2.17363E+01
 -1      9250 2.13169E+01
 -1      9251 2.23779E+01
 -1      9252 6.47046E+00
 -1      9253 8.70310E+00
 -1      9254 7.12448E+00
 -1      9255 5.82785E+00
 -1      9256 9.33314E+00
 -1      9257 1.03486E+01
 -1      9258 1.30363E+01
 -1      9259 1.04741E+01
 -1      9260 2.48294E+01
 -1      9261 2.48294E+01
 -1      9262 1.03132E+01
 -1      9263 1.03132E+01
 -1      9264 1.03341E+01
 -1      9265 2.01416E+01
 -1      9266 2.53237E+01
 -1      9267 1.02036E+01
 -1      9268 1.02057E+01
 -1      9269 1.67308E+01
 -1      9270 1.56592E+01
 -1      9271 1.78663E+01
 -1      9272 2.16132E+01
 -1      9273 1.45942E+01
 -1      9274 1.77150E+01
 -1      9275 7.55707E+00
 -1      9276 1.07893E+01
 -1      9277 1.04080E+01
 -1      9278 1.03894E+01
 -1      9279 1.03894E+01
 -1      9280 1.07893E+01
 -1      9281 1.14187E+01
 -1      9282 1.42760E+01
 -1      9283 8.19421E+00
 -1      9284 9.61375E+00
 -1      9285 1.02900E+01
 -1      9286 9.16597E+00
 -1      9287 9.31573E+00
 -1      9288 9.99195E+00
 -1      9289 1.04397E+01
 -1      9290 9.25712E+00
 -1      9291 1.46660E+01
 -1      9292 7.57785E+00
 -1      9293 2.30105E+01
 -1      9294 2.30105E+01
 -1      9295 2.25026E+01
 -1      9296 2.60308E+01
 -1      9297 2.60308E+01
 -1      9298 2.48781E+01
 -1      9299 2.88559E+01
 -1      9300 2.88559E+01
 -1      9301 2.88342E+01
 -1      9302 2.03573E+01
 -1      9303 2.60250E+01
 -1      9304 2.58428E+01
 -1      9305 2.15527E+01
 -1      9306 1.69317E+01
 -1      9307 1.77876E+01
 -1      9308 8.51362E+00
 -1      9309 4.69531E+00
 -1      9310 4.64678E+00
 -1      9311 2.29220E+01
 -1      9312 5.59480E+00
 -1      9313 5.32017E+00
 -1      9314 1.11550E+01
 -1      9315 1.10889E+01
 -1      9316 1.15866E+01
 -1      9317 1.13143E+01
 -1      9318 4.78458E+00
 -1      9319 4.59446E+00
 -1      9320 1.55391E+01
 -1      9321 3.37037E+00
 -1      9322 4.09261E+00
 -1      9323 4.52201E+00
 -1      9324 9.00185E+00
 -1      9325 8.66984E+00
 -1      9326 7.48029E+00
 -1      9327 8.81849E+00
 -1      9328 7.81230E+00
 -1      9329 2.10448E+01
 -1      9330 2.23728E+01
 -1      9331 1.40401E+01
 -1      9332 1.36159E+01
 -1      9333 1.22231E+01
 -1      9334 1.17989E+01
 -1      9335 1.74528E+01
 -1      9336 8.13420E+00
 -1      9337 7.20462E+00
 -1      9338 7.42936E+00
 -1      9339 7.50330E+00
 -1      9340 7.64866E+00
 -1      9341 8.07312E+00
 -1      9342 9.17608E+00
 -1      9343 1.16525E+01
 -1      9344 9.17608E+00
 -1      9345 1.83618E+01
 -1      9346 1.74252E+01
 -1      9347 2.16950E+01
 -1      9348 2.12293E+01
 -1      9349 1.71627E+01
 -1      9350 2.19945E+01
 -1      9351 6.12019E+00
 -1      9352 6.11533E+00
 -1      9353 7.50728E+00
 -1      9354 6.14144E+00
 -1      9355 6.69753E+00
 -1      9356 7.73573E+00
 -1      9357 1.25189E+01
 -1      9358 1.06254E+01
 -1      9359 6.90791E+00
 -1      9360 1.35089E+01
 -1      9361 1.35912E+01
 -1      9362 1.35912E+01
 -1      9363 4.63862E+00
 -1      9364 3.79850E+00
 -1      9365 5.03249E+00
 -1      9366 7.65497E+00
 -1      9367 7.81144E+00
 -1      9368 7.13850E+00
 -1      9369 7.75446E+00
 -1      9370 7.59484E+00
 -1      9371 7.33877E+00
 -1      9372 5.49425E+00
 -1      9373 2.04018E+01
 -1      9374 7.83949E+00
 -1      9375 8.87769E+00
 -1      9376 7.83949E+00
 -1      9377 1.61928E+01
 -1      9378 2.02536E+01
 -1      9379 1.22766E+01
 -1      9380 1.66076E+01
 -1      9381 1.06313E+01
 -1      9382 1.49623E+01
 -1      9383 1.36740E+01
 -1      9384 9.91541E+00
 -1      9385 2.18329E+01
 -1      9386 2.48053E+01
 -1      9387 2.65642E+01
 -1      9388 2.54360E+01
 -1      9389 2.64696E+01
 -1      9390 1.15977E+01
 -1      9391 2.13006E+01
 -1      9392 2.20709E+01
 -1      9393 2.21750E+01
 -1      9394 1.31537E+01
 -1      9395 1.31537E+01
 -1      9396 1.10954E+01
 -1      9397 1.17794E+01
 -1      9398 1.18382E+01
 -1      9399 1.61388E+01
 -1      9400 1.44000E+01
 -1      9401 1.10889E+01
 -1      9402 6.58408E+00
 -1      9403 1.82794E+01
 -1      9404 8.36261E+00
 -1      9405 7.70432E+00
 -1      9406 8.36261E+00
 -1      9407 1.46187E+01
 -1      9408 1.84686E+01
 -1      9409 2.14986E+01
 -1      9410 1.97637E+01
 -1      9411 1.52962E+01
 -1      9412 5.06773E+00
 -1      9413 8.83656E+00
 -1      9414 7.75974E+00
 -1      9415 1.51157E+01
 -1      9416 1.33672E+01
 -1      9417 1.64225E+01
 -1      9418 2.38904E+01
 -1      9419 9.69955E+00
 -1      9420 9.68446E+00
 -1      9421 7.40475E+00
 -1      9422 9.33726E+00
 -1      9423 7.80259E+00
 -1      9424 7.42856E+00
 -1      9425 9.44179E+00
 -1      9426 7.91701E+00
 -1      9427 8.29104E+00
 -1      9428 1.10151E+01
 -1      9429 9.18431E+00
 -1      9430 9.40767E+00
 -1      9431 8.77223E+00
 -1      9432 5.07170E+00
 -1      9433 4.58301E+00
 -1      9434 4.95714E+00
 -1      9435 1.40716E+01
 -1      9436 1.74956E+01
 -1      9437 1.90760E+01
 -1      9438 1.84974E+01
 -1      9439 2.04282E+01
 -1      9440 4.35852E+00
 -1      9441 4.50125E+00
 -1      9442 7.92221E+00
 -1      9443 7.60361E+00
 -1      9444 6.99381E+00
 -1      9445 7.76042E+00
 -1      9446 6.10691E+00
 -1      9447 7.23271E+00
 -1      9448 6.72306E+00
 -1      9449 8.33987E+00
 -1      9450 1.69732E+01
 -1      9451 1.10408E+01
 -1      9452 1.29271E+01
 -1      9453 1.46063E+01
 -1      9454 4.00397E+00
 -1      9455 2.09838E+01
 -1      9456 2.09838E+01
 -1      9457 2.22693E+01
 -1      9458 7.82676E+00
 -1      9459 7.83949E+00
 -1      9460 2.18473E+01
 -1      9461 2.37726E+01
 -1      9462 2.48637E+01
 -1      9463 2.46575E+01
 -1      9464 2.27321E+01
 -1      9465 2.43549E+01
 -1      9466 9.35823E+00
 -1      9467 2.12315E+01
 -1      9468 1.85166E+01
 -1      9469 9.49990E+00
 -1      9470 9.27677E+00
 -1      9471 6.39898E+00
 -1      9472 6.70933E+00
 -1      9473 7.05232E+00
 -1      9474 7.76775E+00
 -1      9475 1.52855E+01
 -1      9476 1.56203E+01
 -1      9477 9.35795E+00
 -1      9478 1.54202E+01
 -1      9479 9.02324E+00
 -1      9480 7.49216E+00
 -1      9481 4.89606E+00
 -1      9482 5.23339E+00
 -1      9483 5.18487E+00
 -1      9484 5.59998E+00
 -1      9485 5.18487E+00
 -1      9486 5.18487E+00
 -1      9487 1.45389E+01
 -1      9488 1.46350E+01
 -1      9489 1.45389E+01
 -1      9490 1.29402E+01
 -1      9491 1.30363E+01
 -1      9492 7.21685E+00
 -1      9493 1.24743E+01
 -1      9494 1.24743E+01
 -1      9495 1.19142E+01
 -1      9496 5.02933E+00
 -1      9497 1.31440E+01
 -1      9498 1.24308E+01
 -1      9499 5.81442E+00
 -1      9500 6.76076E+00
 -1      9501 8.09739E+00
 -1      9502 7.31778E+00
 -1      9503 8.65440E+00
 -1      9504 7.86770E+00
 -1      9505 9.10946E+00
 -1      9506 1.30653E+01
 -1      9507 1.00680E+01
 -1      9508 1.26365E+01
 -1      9509 1.43157E+01
 -1      9510 1.85951E+01
 -1      9511 1.85951E+01
 -1      9512 1.78795E+01
 -1      9513 6.80971E+00
 -1      9514 6.64153E+00
 -1      9515 7.53138E+00
 -1      9516 5.86819E+00
 -1      9517 7.96400E+00
 -1      9518 1.13080E+01
 -1      9519 1.20279E+01
 -1      9520 1.21152E+01
 -1      9521 2.39831E+01
 -1      9522 5.76589E+00
 -1      9523 4.95983E+00
 -1      9524 6.20107E+00
 -1      9525 2.03910E+01
 -1      9526 2.08104E+01
 -1      9527 1.46350E+01
 -1      9528 1.46350E+01
 -1      9529 1.30363E+01
 -1      9530 1.25194E+01
 -1      9531 1.02489E+01
 -1      9532 9.53185E+00
 -1      9533 8.43538E+00
 -1      9534 2.07778E+01
 -1      9535 2.21750E+01
 -1      9536 2.12062E+01
 -1      9537 4.26753E+00
 -1      9538 4.87636E+00
 -1      9539 5.05691E+00
 -1      9540 5.41485E+00
 -1      9541 6.69586E+00
 -1      9542 6.38414E+00
 -1      9543 5.19409E+00
 -1      9544 6.47510E+00
 -1      9545 5.50581E+00
 -1      9546 2.59596E+01
 -1      9547 2.70899E+01
 -1      9548 5.59168E+00
 -1      9549 7.77731E+00
 -1      9550 6.45347E+00
 -1      9551 5.86873E+00
 -1      9552 5.78531E+00
 -1      9553 6.07026E+00
 -1      9554 1.91898E+01
 -1      9555 2.03136E+01
 -1      9556 2.13722E+01
 -1      9557 2.03136E+01
 -1      9558 6.58408E+00
 -1      9559 4.03298E+00
 -1      9560 1.12391E+01
 -1      9561 1.05762E+01
 -1      9562 1.05762E+01
 -1      9563 1.84652E+01
 -1      9564 1.86154E+01
 -1      9565 6.04704E+00
 -1      9566 8.31411E+00
 -1      9567 8.71618E+00
 -1      9568 7.87377E+00
 -1      9569 7.81144E+00
 -1      9570 7.46589E+00
 -1      9571 2.18180E+01
 -1      9572 4.29378E+00
 -1      9573 2.38772E+01
 -1      9574 2.66317E+01
 -1      9575 2.70563E+01
 -1      9576 6.58580E+00
 -1      9577 1.07925E+01
 -1      9578 1.18649E+01
 -1      9579 1.01830E+01
 -1      9580 1.04333E+01
 -1      9581 1.15058E+01
 -1      9582 6.20550E+00
 -1      9583 7.05041E+00
 -1      9584 6.97279E+00
 -1      9585 7.08781E+00
 -1      9586 2.37383E+01
 -1      9587 2.52880E+01
 -1      9588 2.38860E+01
 -1      9589 7.09152E+00
 -1      9590 1.09360E+01
 -1      9591 1.20324E+01
 -1      9592 1.71556E+01
 -1      9593 1.53721E+01
 -1      9594 9.50528E+00
 -1      9595 2.70882E+01
 -1      9596 2.71249E+01
 -1      9597 2.71249E+01
 -1      9598 7.01853E+00
 -1      9599 7.02134E+00
 -1      9600 1.16060E+01
 -1      9601 1.12451E+01
 -1      9602 1.27918E+01
 -1      9603 1.19235E+01
 -1      9604 6.10503E+00
 -1      9605 5.73306E+00
 -1      9606 6.82302E+00
 -1      9607 6.45105E+00
 -1      9608 6.09166E+00
 -1      9609 2.19008E+01
 -1      9610 2.51266E+01
 -1      9611 2.27950E+01
 -1      9612 6.96055E+00
 -1      9613 6.74081E+00
 -1      9614 6.11609E+00
 -1      9615 5.89636E+00
 -1      9616 7.20462E+00
 -1      9617 6.26969E+00
 -1      9618 1.78505E+01
 -1      9619 1.80880E+01
 -1      9620 1.85742E+01
 -1      9621 5.18632E+00
 -1      9622 5.18632E+00
 -1      9623 6.58580E+00
 -1      9624 1.79925E+01
 -1      9625 1.71522E+01
 -1      9626 8.68069E+00
 -1      9627 8.33252E+00
 -1      9628 9.58207E+00
 -1      9629 1.01006E+01
 -1      9630 9.75244E+00
 -1      9631 8.85106E+00
 -1      9632 5.17080E+00
 -1      9633 2.40446E+01
 -1      9634 2.35461E+01
 -1      9635 2.53670E+01
 -1      9636 1.65007E+01
 -1      9637 4.36274E+00
 -1      9638 1.58830E+01
 -1      9639 1.58830E+01
 -1      9640 1.59743E+01
 -1      9641 1.24008E+01
 -1      9642 1.30631E+01
 -1      9643 8.06334E+00
 -1      9644 1.13997E+01
 -1      9645 4.05980E+00
 -1      9646 5.30933E+00
 -1      9647 7.86256E+00
 -1      9648 1.25999E+01
 -1      9649 1.28243E+01
 -1      9650 5.86418E+00
 -1      9651 1.44925E+01
 -1      9652 1.43863E+01
 -1      9653 1.44925E+01
 -1      9654 1.45427E+01
 -1      9655 1.26884E+01
 -1      9656 1.22189E+01
 -1      9657 1.60759E+01
 -1      9658 1.01296E+01
 -1      9659 1.17716E+01
 -1      9660 1.06151E+01
 -1      9661 1.06172E+01
 -1      9662 1.10274E+01
 -1      9663 4.34729E+00
 -1      9664 5.03803E+00
 -1      9665 4.44883E+00
 -1      9666 5.55176E+00
 -1      9667 4.70835E+00
 -1      9668 9.61821E+00
 -1      9669 7.94180E+00
 -1      9670 2.10187E+01
 -1      9671 1.90399E+01
 -1      9672 2.32113E+01
 -1      9673 2.41594E+01
 -1      9674 9.08318E+00
 -1      9675 9.08318E+00
 -1      9676 9.66636E+00
 -1      9677 8.51575E+00
 -1      9678 1.92324E+01
 -1      9679 1.09549E+01
 -1      9680 1.05935E+01
 -1      9681 1.05935E+01
 -1      9682 4.81670E+00
 -1      9683 5.32359E+00
 -1      9684 5.71611E+00
 -1      9685 5.95915E+00
 -1      9686 5.04201E+00
 -1      9687 2.24125E+01
 -1      9688 1.58637E+01
 -1      9689 1.55416E+01
 -1      9690 6.41357E+00
 -1      9691 6.41357E+00
 -1      9692 7.12899E+00
 -1      9693 1.75310E+01
 -1      9694 1.67896E+01
 -1      9695 6.94868E+00
 -1      9696 6.66121E+00
 -1      9697 7.52821E+00
 -1      9698 7.52821E+00
 -1      9699 7.52821E+00
 -1      9700 7.52821E+00
 -1      9701 7.52821E+00
 -1      9702 5.79395E+00
 -1      9703 5.70822E+00
 -1      9704 2.29091E+01
 -1      9705 2.29091E+01
 -1      9706 1.34387E+01
 -1      9707 1.00008E+01
 -1      9708 2.32113E+01
 -1      9709 2.00706E+01
 -1      9710 4.19821E+00
 -1      9711 1.86516E+01
 -1      9712 1.07502E+01
 -1      9713 2.24542E+01
 -1      9714 1.86025E+01
 -1      9715 2.22204E+01
 -1      9716 7.66619E+00
 -1      9717 8.78516E+00
 -1      9718 7.71729E+00
 -1      9719 7.87377E+00
 -1      9720 5.44155E+00
 -1      9721 5.12138E+00
 -1      9722 5.12138E+00
 -1      9723 6.63325E+00
 -1      9724 1.32951E+01
 -1      9725 1.17427E+01
 -1      9726 1.11478E+01
 -1      9727 1.01139E+01
 -1      9728 1.43206E+01
 -1      9729 1.83563E+01
 -1      9730 1.63161E+01
 -1      9731 1.85089E+01
 -1      9732 1.85089E+01
 -1      9733 1.25516E+01
 -1      9734 1.29190E+01
 -1      9735 2.61507E+01
 -1      9736 2.36171E+01
 -1      9737 1.86416E+01
 -1      9738 2.15465E+01
 -1      9739 8.50257E+00
 -1      9740 8.64953E+00
 -1      9741 1.11259E+01
 -1      9742 9.96116E+00
 -1      9743 1.28200E+01
 -1      9744 7.56720E+00
 -1      9745 8.68618E+00
 -1      9746 1.85978E+01
 -1      9747 1.75849E+01
 -1      9748 5.39154E+00
 -1      9749 9.05897E+00
 -1      9750 1.03143E+01
 -1      9751 9.68446E+00
 -1      9752 4.27455E+00
 -1      9753 2.39788E+01
 -1      9754 2.48637E+01
 -1      9755 1.87694E+01
 -1      9756 2.19469E+01
 -1      9757 9.60927E+00
 -1      9758 9.72585E+00
 -1      9759 1.15508E+01
 -1      9760 7.56592E+00
 -1      9761 2.58434E+01
 -1      9762 1.00080E+01
 -1      9763 8.66984E+00
 -1      9764 1.18600E+01
 -1      9765 8.88862E+00
 -1      9766 1.33406E+01
 -1      9767 2.42021E+01
 -1      9768 1.91903E+01
 -1      9769 2.06827E+01
 -1      9770 1.01043E+01
 -1      9771 9.74290E+00
 -1      9772 1.45650E+01
 -1      9773 1.98767E+01
 -1      9774 9.41046E+00
 -1      9775 2.23245E+01
 -1      9776 1.72014E+01
 -1      9777 1.72165E+01
 -1      9778 2.13879E+01
 -1      9779 7.48362E+00
 -1      9780 7.27658E+00
 -1      9781 6.58169E+00
 -1      9782 6.37465E+00
 -1      9783 7.66323E+00
 -1      9784 2.63164E+01
 -1      9785 2.52666E+01
 -1      9786 2.63164E+01
 -1      9787 6.39882E+00
 -1      9788 2.20303E+01
 -1      9789 2.03745E+01
 -1      9790 8.91763E+00
 -1      9791 1.49408E+01
 -1      9792 1.00323E+01
 -1      9793 6.69902E+00
 -1      9794 6.11824E+00
 -1      9795 7.17665E+00
 -1      9796 2.28180E+01
 -1      9797 1.54255E+01
 -1      9798 1.98616E+01
 -1      9799 2.10879E+01
 -1      9800 4.03152E+00
 -1      9801 4.24743E+00
 -1      9802 1.44925E+01
 -1      9803 8.81849E+00
 -1      9804 7.81230E+00
 -1      9805 7.62894E+00
 -1      9806 1.50336E+01
 -1      9807 1.44273E+01
 -1      9808 1.33188E+01
 -1      9809 4.24292E+00
 -1      9810 4.34231E+00
 -1      9811 1.08329E+01
 -1      9812 8.21958E+00
 -1      9813 1.13516E+01
 -1      9814 1.26765E+01
 -1      9815 4.73975E+00
 -1      9816 4.54707E+00
 -1      9817 4.60870E+00
 -1      9818 4.41603E+00
 -1      9819 5.15087E+00
 -1      9820 1.65864E+01
 -1      9821 1.16527E+01
 -1      9822 1.50697E+01
 -1      9823 1.53092E+01
 -1      9824 1.57396E+01
 -1      9825 1.55510E+01
 -1      9826 5.97230E+00
 -1      9827 1.94093E+01
 -1      9828 7.29755E+00
 -1      9829 8.54711E+00
 -1      9830 1.41571E+01
 -1      9831 1.59873E+01
 -1      9832 2.73260E+01
 -1      9833 7.18230E+00
 -1      9834 7.18230E+00
 -1      9835 7.18230E+00
 -1      9836 7.18230E+00
 -1      9837 6.83639E+00
 -1      9838 1.98548E+01
 -1      9839 1.99002E+01
 -1      9840 2.17195E+01
 -1      9841 5.50008E+00
 -1      9842 5.68950E+00
 -1      9843 1.18286E+01
 -1      9844 1.41206E+01
 -1      9845 1.18286E+01
 -1      9846 8.79115E+00
 -1      9847 2.63160E+01
 -1      9848 9.12467E+00
 -1      9849 9.64025E+00
 -1      9850 1.00204E+01
 -1      9851 2.21726E+01
 -1      9852 1.95113E+01
 -1      9853 8.67052E+00
 -1      9854 8.18973E+00
 -1      9855 4.19626E+00
 -1      9856 2.66294E+01
 -1      9857 6.69823E+00
 -1      9858 7.66647E+00
 -1      9859 6.69823E+00
 -1      9860 6.76089E+00
 -1      9861 2.41545E+01
 -1      9862 7.15177E+00
 -1      9863 5.69764E+00
 -1      9864 8.83169E+00
 -1      9865 8.16246E+00
 -1      9866 1.22623E+01
 -1      9867 1.20288E+01
 -1      9868 2.17750E+01
 -1      9869 6.06966E+00
 -1      9870 5.17018E+00
 -1      9871 6.06966E+00
 -1      9872 7.57413E+00
 -1      9873 7.51324E+00
 -1      9874 2.33592E+01
 -1      9875 2.56317E+01
 -1      9876 2.41249E+01
 -1      9877 1.15366E+01
 -1      9878 1.37239E+01
 -1      9879 1.25633E+01
 -1      9880 1.69583E+01
 -1      9881 8.34094E+00
 -1      9882 6.15162E+00
 -1      9883 6.72897E+00
 -1      9884 6.23907E+00
 -1      9885 6.89715E+00
 -1      9886 2.55806E+01
 -1      9887 2.55806E+01
 -1      9888 1.23986E+01
 -1      9889 1.65576E+01
 -1      9890 1.65844E+01
 -1      9891 2.07435E+01
 -1      9892 1.81731E+01
 -1      9893 1.27310E+01
 -1      9894 1.16707E+01
 -1      9895 1.65830E+01
 -1      9896 1.73780E+01
 -1      9897 1.66594E+01
 -1      9898 2.62041E+01
 -1      9899 2.48969E+01
 -1      9900 2.53619E+01
 -1      9901 2.71664E+01
 -1      9902 2.55726E+01
 -1      9903 6.83890E+00
 -1      9904 8.79477E+00
 -1      9905 7.13905E+00
 -1      9906 5.87279E+00
 -1      9907 5.98673E+00
 -1      9908 5.98673E+00
 -1      9909 5.48761E+00
 -1      9910 1.03994E+01
 -1      9911 9.86369E+00
 -1      9912 3.84715E+00
 -1      9913 5.17080E+00
 -1      9914 7.97045E+00
 -1      9915 5.88685E+00
 -1      9916 5.00420E+00
 -1      9917 6.53581E+00
 -1      9918 7.41917E+00
 -1      9919 2.50526E+01
 -1      9920 2.51771E+01
 -1      9921 2.45725E+01
 -1      9922 4.80185E+00
 -1      9923 1.33441E+01
 -1      9924 6.63061E+00
 -1      9925 7.29596E+00
 -1      9926 1.45389E+01
 -1      9927 1.46350E+01
 -1      9928 2.71164E+01
 -1      9929 2.71380E+01
 -1      9930 2.71164E+01
 -1      9931 8.15112E+00
 -1      9932 9.23271E+00
 -1      9933 1.13491E+01
 -1      9934 1.05061E+01
 -1      9935 8.11267E+00
 -1      9936 9.41297E+00
 -1      9937 1.66076E+01
 -1      9938 1.44501E+01
 -1      9939 1.50639E+01
 -1      9940 5.95108E+00
 -1      9941 2.14649E+01
 -1      9942 1.06172E+01
 -1      9943 9.56983E+00
 -1      9944 1.45603E+01
 -1      9945 1.08291E+01
 -1      9946 1.48718E+01
 -1      9947 2.69151E+01
 -1      9948 2.66990E+01
 -1      9949 2.51436E+01
 -1      9950 2.80954E+01
 -1      9951 2.76139E+01
 -1      9952 1.44154E+01
 -1      9953 2.13472E+01
 -1      9954 1.74644E+01
 -1      9955 1.28049E+01
 -1      9956 1.36074E+01
 -1      9957 1.02520E+01
 -1      9958 9.69662E+00
 -1      9959 2.69151E+01
 -1      9960 2.66439E+01
 -1      9961 2.69151E+01
 -1      9962 8.87981E+00
 -1      9963 9.89935E+00
 -1      9964 9.92373E+00
 -1      9965 8.66627E+00
 -1      9966 8.72845E+00
 -1      9967 1.88694E+01
 -1      9968 1.78347E+01
 -1      9969 1.81828E+01
 -1      9970 1.81828E+01
 -1      9971 2.28829E+01
 -1      9972 7.40357E+00
 -1      9973 1.05616E+01
 -1      9974 1.10205E+01
 -1      9975 1.06103E+01
 -1      9976 2.69677E+01
 -1      9977 2.75587E+01
 -1      9978 5.18999E+00
 -1      9979 8.13477E+00
 -1      9980 1.00182E+01
 -1      9981 7.13154E+00
 -1      9982 4.85692E+00
 -1      9983 4.90599E+00
 -1      9984 6.68007E+00
 -1      9985 6.86338E+00
 -1      9986 2.13515E+01
 -1      9987 2.25760E+01
 -1      9988 2.25760E+01
 -1      9989 1.46350E+01
 -1      9990 8.74055E+00
 -1      9991 1.13639E+01
 -1      9992 2.98943E+01
 -1      9993 1.06933E+01
 -1      9994 1.03132E+01
 -1      9995 1.37870E+01
 -1      9996 8.43173E+00
 -1      9997 9.36720E+00
 -1      9998 6.19210E+00
 -1      9999 2.71664E+01
 -1     10000 5.56549E+00
 -1     10001 5.56549E+00
 -1     10002 6.92936E+00
 -1     10003 1.66732E+01
 -1     10004 4.86638E+00
 -1     10005 9.86686E+00
 -1     10006 1.05656E+01
 -1     10007 1.22254E+01
 -1     10008 7.91674E+00
 -1     10009 2.11768E+01
 -1     10010 5.50008E+00
 -1     10011 2.53343E+01
 -1     10012 6.49094E+00
 -1     10013 1.75148E+01
 -1     10014 9.40173E+00
 -1     10015 9.05356E+00
 -1     10016 8.15217E+00
 -1     10017 6.80489E+00
 -1     10018 6.80489E+00
 -1     10019 9.88919E+00
 -1     10020 2.71581E+01
 -1     10021 2.71581E+01
 -1     10022 7.29976E+00
 -1     10023 6.53517E+00
 -1     10024 7.29976E+00
 -1     10025 7.33034E+00
 -1     10026 8.17770E+00
 -1     10027 1.32586E+01
 -1     10028 1.09667E+01
 -1     10029 2.41259E+01
 -1     10030 2.41259E+01
 -1     10031 2.33441E+01
 -1     10032 2.09983E+01
 -1     10033 4.53181E+00
 -1     10034 5.07056E+00
 -1     10035 2.53457E+01
 -1     10036 3.11899E+01
 -1     10037 3.11899E+01
 -1     10038 3.11899E+01
 -1     10039 3.11899E+01
 -1     10040 3.11899E+01
 -1     10041 7.78865E+00
 -1     10042 6.50357E+00
 -1     10043 6.96374E+00
 -1     10044 6.32113E+00
 -1     10045 7.26716E+00
 -1     10046 5.72980E+00
 -1     10047 6.05407E+00
 -1     10048 5.78548E+00
 -1     10049 7.32284E+00
 -1     10050 2.64345E+01
 -1     10051 2.64345E+01
 -1     10052 2.38860E+01
 -1     10053 2.42171E+01
 -1     10054 2.26124E+01
 -1     10055 6.49866E+00
 -1     10056 6.42761E+00
 -1     10057 6.42761E+00
 -1     10058 1.17010E+01
 -1     10059 1.63989E+01
 -1     10060 1.67701E+01
 -1     10061 5.85611E+00
 -1     10062 6.23218E+00
 -1     10063 5.57865E+00
 -1     10064 5.71838E+00
 -1     10065 5.20258E+00
 -1     10066 5.87026E+00
 -1     10067 6.86118E+00
 -1     10068 7.57585E+00
 -1     10069 8.19486E+00
 -1     10070 4.67276E+00
 -1     10071 1.00289E+01
 -1     10072 1.05495E+01
 -1     10073 5.55176E+00
 -1     10074 1.90657E+01
 -1     10075 1.24518E+01
 -1     10076 9.40103E+00
 -1     10077 1.05294E+01
 -1     10078 4.48735E+00
 -1     10079 8.32071E+00
 -1     10080 8.33160E+00
 -1     10081 8.33160E+00
 -1     10082 1.10041E+01
 -1     10083 8.97797E+00
 -1     10084 1.93955E+01
 -1     10085 1.97307E+01
 -1     10086 2.09615E+01
 -1     10087 2.30912E+01
 -1     10088 2.54513E+01
 -1     10089 8.19902E+00
 -1     10090 8.64962E+00
 -1     10091 6.90453E+00
 -1     10092 5.98418E+00
 -1     10093 2.57485E+01
 -1     10094 2.42163E+01
 -1     10095 2.29091E+01
 -1     10096 5.22023E+00
 -1     10097 1.63989E+01
 -1     10098 9.34663E+00
 -1     10099 8.67334E+00
 -1     10100 8.44534E+00
 -1     10101 4.34332E+00
 -1     10102 4.34332E+00
 -1     10103 5.94553E+00
 -1     10104 1.07731E+01
 -1     10105 1.07731E+01
 -1     10106 1.05238E+01
 -1     10107 9.27521E+00
 -1     10108 2.29661E+01
 -1     10109 1.96602E+01
 -1     10110 2.20446E+01
 -1     10111 2.57283E+01
 -1     10112 2.53737E+01
 -1     10113 2.57283E+01
 -1     10114 2.02267E+01
 -1     10115 4.70051E+00
 -1     10116 4.70051E+00
 -1     10117 4.70051E+00
 -1     10118 5.54170E+00
 -1     10119 1.92442E+01
 -1     10120 1.68152E+01
 -1     10121 2.14106E+01
 -1     10122 2.40727E+01
 -1     10123 9.07895E+00
 -1     10124 8.69219E+00
 -1     10125 1.06650E+01
 -1     10126 1.16402E+01
 -1     10127 8.64170E+00
 -1     10128 9.80548E+00
 -1     10129 5.18876E+00
 -1     10130 6.10550E+00
 -1     10131 6.29610E+00
 -1     10132 7.22917E+00
 -1     10133 7.88937E+00
 -1     10134 1.74645E+01
 -1     10135 1.99645E+01
 -1     10136 4.99440E+00
 -1     10137 5.19276E+00
 -1     10138 1.16883E+01
 -1     10139 1.21483E+01
 -1     10140 5.38407E+00
 -1     10141 2.05272E+01
 -1     10142 8.49372E+00
 -1     10143 2.55846E+01
 -1     10144 2.55478E+01
 -1     10145 2.55846E+01
 -1     10146 6.01459E+00
 -1     10147 5.69192E+00
 -1     10148 6.04924E+00
 -1     10149 6.01459E+00
 -1     10150 5.69192E+00
 -1     10151 5.65727E+00
 -1     10152 6.24060E+00
 -1     10153 1.95924E+01
 -1     10154 4.20100E+00
 -1     10155 1.53503E+01
 -1     10156 1.69091E+01
 -1     10157 1.57397E+01
 -1     10158 6.03503E+00
 -1     10159 6.23114E+00
 -1     10160 2.27046E+01
 -1     10161 2.21966E+01
 -1     10162 2.21966E+01
 -1     10163 1.08731E+01
 -1     10164 7.96622E+00
 -1     10165 8.63283E+00
 -1     10166 1.16060E+01
 -1     10167 1.27918E+01
 -1     10168 2.74772E+01
 -1     10169 4.89504E+00
 -1     10170 2.12137E+01
 -1     10171 1.60065E+01
 -1     10172 7.40066E+00
 -1     10173 2.01586E+01
 -1     10174 2.32993E+01
 -1     10175 1.93174E+01
 -1     10176 2.05699E+01
 -1     10177 9.04247E+00
 -1     10178 8.40881E+00
 -1     10179 8.29881E+00
 -1     10180 7.36853E+00
 -1     10181 9.46586E+00
 -1     10182 8.89660E+00
 -1     10183 9.26184E+00
 -1     10184 1.13592E+01
 -1     10185 9.83110E+00
 -1     10186 2.44413E+01
 -1     10187 2.56369E+01
 -1     10188 2.44413E+01
 -1     10189 1.20508E+01
 -1     10190 3.53603E+00
 -1     10191 3.85588E+00
 -1     10192 3.08430E+01
 -1     10193 2.07329E+01
 -1     10194 1.98218E+01
 -1     10195 1.87735E+01
 -1     10196 1.91719E+01
 -1     10197 1.96846E+01
 -1     10198 2.67535E+01
 -1     10199 1.04035E+01
 -1     10200 1.45036E+01
 -1     10201 5.13122E+00
 -1     10202 2.16950E+01
 -1     10203 2.33785E+01
 -1     10204 2.56900E+01
 -1     10205 4.53181E+00
 -1     10206 5.44041E+00
 -1     10207 4.90955E+00
 -1     10208 2.52628E+01
 -1     10209 2.34052E+01
 -1     10210 2.41677E+01
 -1     10211 5.17113E+00
 -1     10212 5.22852E+00
 -1     10213 6.14526E+00
 -1     10214 9.99182E+00
 -1     10215 7.10839E+00
 -1     10216 2.30044E+01
 -1     10217 6.75172E+00
 -1     10218 1.18600E+01
 -1     10219 6.14526E+00
 -1     10220 7.46383E+00
 -1     10221 6.89715E+00
 -1     10222 7.61883E+00
 -1     10223 6.38614E+00
 -1     10224 8.91721E+00
 -1     10225 6.58398E+00
 -1     10226 7.49216E+00
 -1     10227 8.44890E+00
 -1     10228 6.28111E+00
 -1     10229 6.74411E+00
 -1     10230 6.07497E+00
 -1     10231 4.70551E+00
 -1     10232 5.73716E+00
 -1     10233 4.44883E+00
 -1     10234 8.41478E+00
 -1     10235 8.86538E+00
 -1     10236 7.46577E+00
 -1     10237 7.63174E+00
 -1     10238 6.34589E+00
 -1     10239 2.58964E+01
 -1     10240 7.10876E+00
 -1     10241 1.12398E+01
 -1     10242 1.07013E+01
 -1     10243 1.12226E+01
 -1     10244 1.15075E+01
 -1     10245 5.86873E+00
 -1     10246 5.93159E+00
 -1     10247 6.64009E+00
 -1     10248 6.05535E+00
 -1     10249 8.30622E+00
 -1     10250 2.01766E+01
 -1     10251 2.38483E+01
 -1     10252 1.21423E+01
 -1     10253 1.20199E+01
 -1     10254 1.19612E+01
 -1     10255 1.07479E+01
 -1     10256 6.46203E+00
 -1     10257 9.43062E+00
 -1     10258 2.34195E+01
 -1     10259 2.41677E+01
 -1     10260 1.61592E+01
 -1     10261 1.28149E+01
 -1     10262 7.51374E+00
 -1     10263 1.28149E+01
 -1     10264 5.13632E+00
 -1     10265 5.06844E+00
 -1     10266 5.10917E+00
 -1     10267 8.01447E+00
 -1     10268 9.17652E+00
 -1     10269 1.33519E+01
 -1     10270 1.23661E+01
 -1     10271 1.32586E+01
 -1     10272 1.00690E+01
 -1     10273 9.38807E+00
 -1     10274 4.04477E+00
 -1     10275 2.20529E+01
 -1     10276 2.42633E+01
 -1     10277 1.06172E+01
 -1     10278 1.10274E+01
 -1     10279 4.37054E+00
 -1     10280 4.35629E+00
 -1     10281 4.37054E+00
 -1     10282 1.13059E+01
 -1     10283 1.31564E+01
 -1     10284 8.95617E+00
 -1     10285 6.30936E+00
 -1     10286 9.07469E+00
 -1     10287 7.57229E+00
 -1     10288 1.30995E+01
 -1     10289 1.12554E+01
 -1     10290 1.12554E+01
 -1     10291 6.18022E+00
 -1     10292 7.26360E+00
 -1     10293 6.93032E+00
 -1     10294 1.20418E+01
 -1     10295 1.27836E+01
 -1     10296 1.33043E+01
 -1     10297 1.13312E+01
 -1     10298 2.38690E+01
 -1     10299 7.96072E+00
 -1     10300 8.48923E+00
 -1     10301 7.23968E+00
 -1     10302 7.93865E+00
 -1     10303 7.93865E+00
 -1     10304 1.06105E+01
 -1     10305 1.22736E+01
 -1     10306 1.62677E+01
 -1     10307 1.48391E+01
 -1     10308 1.20897E+01
 -1     10309 1.24589E+01
 -1     10310 1.33017E+01
 -1     10311 5.69973E+00
 -1     10312 6.54419E+00
 -1     10313 5.92447E+00
 -1     10314 7.29968E+00
 -1     10315 6.92376E+00
 -1     10316 7.02474E+00
 -1     10317 1.00690E+01
 -1     10318 9.97561E+00
 -1     10319 7.49216E+00
 -1     10320 8.67994E+00
 -1     10321 8.67994E+00
 -1     10322 2.87683E+01
 -1     10323 1.99708E+01
 -1     10324 8.66381E+00
 -1     10325 4.37407E+00
 -1     10326 4.23047E+00
 -1     10327 1.37299E+01
 -1     10328 1.22183E+01
 -1     10329 1.26465E+01
 -1     10330 1.22183E+01
 -1     10331 1.37299E+01
 -1     10332 6.24530E+00
 -1     10333 2.20709E+01
 -1     10334 4.86963E+00
 -1     10335 5.66768E+00
 -1     10336 1.31876E+01
 -1     10337 2.25239E+01
 -1     10338 2.20038E+01
 -1     10339 2.50612E+01
 -1     10340 2.66174E+01
 -1     10341 8.39555E+00
 -1     10342 9.94788E+00
 -1     10343 1.18831E+01
 -1     10344 1.11305E+01
 -1     10345 1.22334E+01
 -1     10346 1.23778E+01
 -1     10347 1.27547E+01
 -1     10348 1.26786E+01
 -1     10349 2.70563E+01
 -1     10350 5.36762E+00
 -1     10351 6.46262E+00
 -1     10352 8.84698E+00
 -1     10353 9.24691E+00
 -1     10354 9.22831E+00
 -1     10355 1.52644E+01
 -1     10356 1.49302E+01
 -1     10357 1.42176E+01
 -1     10358 1.27547E+01
 -1     10359 1.89476E+01
 -1     10360 1.81660E+01
 -1     10361 1.31938E+01
 -1     10362 1.26549E+01
 -1     10363 8.58668E+00
 -1     10364 8.78775E+00
 -1     10365 1.47144E+01
 -1     10366 1.97177E+01
 -1     10367 5.86820E+00
 -1     10368 5.49879E+00
 -1     10369 9.58158E+00
 -1     10370 6.64622E+00
 -1     10371 5.71513E+00
 -1     10372 6.25126E+00
 -1     10373 5.97694E+00
 -1     10374 1.19996E+01
 -1     10375 5.54975E+00
 -1     10376 5.27541E+00
 -1     10377 1.69034E+01
 -1     10378 1.00561E+01
 -1     10379 1.93714E+01
 -1     10380 1.88635E+01
 -1     10381 1.94650E+01
 -1     10382 1.84745E+01
 -1     10383 1.98426E+01
 -1     10384 1.88521E+01
 -1     10385 1.98426E+01
 -1     10386 2.41797E+01
 -1     10387 2.42743E+01
 -1     10388 2.42743E+01
 -1     10389 2.57487E+01
 -1     10390 1.74574E+01
 -1     10391 2.56911E+01
 -1     10392 2.14390E+01
 -1     10393 2.43029E+01
 -1     10394 7.99007E+00
 -1     10395 1.01189E+01
 -1     10396 4.93519E+00
 -1     10397 2.15596E+01
 -1     10398 2.41308E+01
 -1     10399 2.50497E+01
 -1     10400 5.51547E+00
 -1     10401 5.62941E+00
 -1     10402 1.05009E+01
 -1     10403 1.95691E+01
 -1     10404 2.23697E+01
 -1     10405 6.09070E+00
 -1     10406 8.94220E+00
 -1     10407 7.84573E+00
 -1     10408 7.10207E+00
 -1     10409 8.92375E+00
 -1     10410 9.64479E+00
 -1     10411 8.73230E+00
 -1     10412 1.51006E+01
 -1     10413 1.86746E+01
 -1     10414 2.22059E+01
 -1     10415 2.25691E+01
 -1     10416 6.14550E+00
 -1     10417 6.85759E+00
 -1     10418 6.45545E+00
 -1     10419 1.01904E+01
 -1     10420 1.03063E+01
 -1     10421 1.16066E+01
 -1     10422 7.78865E+00
 -1     10423 2.45725E+01
 -1     10424 2.68464E+01
 -1     10425 2.68464E+01
 -1     10426 2.46027E+01
 -1     10427 9.42426E+00
 -1     10428 8.52296E+00
 -1     10429 9.08318E+00
 -1     10430 4.89882E+00
 -1     10431 9.47693E+00
 -1     10432 7.52106E+00
 -1     10433 8.59519E+00
 -1     10434 6.62499E+00
 -1     10435 5.74419E+00
 -1     10436 1.46400E+01
 -1     10437 1.51785E+01
 -1     10438 2.60614E+01
 -1     10439 2.70767E+01
 -1     10440 6.75810E+00
 -1     10441 1.05610E+01
 -1     10442 5.21926E+00
 -1     10443 5.33320E+00
 -1     10444 1.73629E+01
 -1     10445 8.61537E+00
 -1     10446 9.49711E+00
 -1     10447 2.47191E+01
 -1     10448 2.51689E+01
 -1     10449 2.42171E+01
 -1     10450 7.14700E+00
 -1     10451 1.32541E+01
 -1     10452 1.33672E+01
 -1     10453 6.71601E+00
 -1     10454 6.71601E+00
 -1     10455 7.43373E+00
 -1     10456 8.36973E+00
 -1     10457 9.41379E+00
 -1     10458 7.96730E+00
 -1     10459 1.15245E+01
 -1     10460 8.04669E+00
 -1     10461 1.88523E+01
 -1     10462 1.03927E+01
 -1     10463 9.35808E+00
 -1     10464 7.55152E+00
 -1     10465 7.71923E+00
 -1     10466 6.23114E+00
 -1     10467 5.38219E+00
 -1     10468 6.25262E+00
 -1     10469 2.42309E+01
 -1     10470 2.25080E+01
 -1     10471 2.03074E+01
 -1     10472 6.89702E+00
 -1     10473 3.95551E+00
 -1     10474 4.96768E+00
 -1     10475 5.10965E+00
 -1     10476 4.71422E+00
 -1     10477 1.02413E+01
 -1     10478 7.43480E+00
 -1     10479 7.94102E+00
 -1     10480 2.25536E+01
 -1     10481 2.10972E+01
 -1     10482 1.17066E+01
 -1     10483 1.18120E+01
 -1     10484 1.27356E+01
 -1     10485 1.28410E+01
 -1     10486 1.28410E+01
 -1     10487 6.41829E+00
 -1     10488 7.44884E+00
 -1     10489 1.45036E+01
 -1     10490 9.06182E+00
 -1     10491 1.31569E+01
 -1     10492 1.22026E+01
 -1     10493 7.04567E+00
 -1     10494 7.78865E+00
 -1     10495 7.16893E+00
 -1     10496 1.89017E+01
 -1     10497 1.59293E+01
 -1     10498 1.55312E+01
 -1     10499 1.83580E+01
 -1     10500 1.00475E+01
 -1     10501 1.28022E+01
 -1     10502 4.76778E+00
 -1     10503 2.15588E+01
 -1     10504 5.40573E+00
 -1     10505 4.78797E+00
 -1     10506 2.33441E+01
 -1     10507 2.10366E+01
 -1     10508 1.62665E+01
 -1     10509 1.50631E+01
 -1     10510 1.42272E+01
 -1     10511 1.44678E+01
 -1     10512 5.28192E+00
 -1     10513 5.15087E+00
 -1     10514 2.37869E+01
 -1     10515 1.49863E+01
 -1     10516 5.80103E+00
 -1     10517 5.83583E+00
 -1     10518 5.65567E+00
 -1     10519 7.52470E+00
 -1     10520 8.18299E+00
 -1     10521 4.19335E+00
 -1     10522 4.34332E+00
 -1     10523 3.93359E+00
 -1     10524 6.46692E+00
 -1     10525 2.68464E+01
 -1     10526 1.02237E+01
 -1     10527 7.12891E+00
 -1     10528 5.80644E+00
 -1     10529 1.15333E+01
 -1     10530 1.17161E+01
 -1     10531 1.27351E+01
 -1     10532 6.29469E+00
 -1     10533 8.34064E+00
 -1     10534 1.84745E+01
 -1     10535 1.73138E+01
 -1     10536 1.15462E+01
 -1     10537 1.16809E+01
 -1     10538 9.02275E+00
 -1     10539 2.35898E+01
 -1     10540 2.40281E+01
 -1     10541 2.40547E+01
 -1     10542 2.77367E+01
 -1     10543 2.78243E+01
 -1     10544 6.55190E+00
 -1     10545 6.99185E+00
 -1     10546 1.50791E+01
 -1     10547 9.32697E+00
 -1     10548 9.44147E+00
 -1     10549 8.05994E+00
 -1     10550 8.87321E+00
 -1     10551 9.33834E+00
 -1     10552 5.12804E+00
 -1     10553 5.12804E+00
 -1     10554 6.90791E+00
 -1     10555 1.57183E+01
 -1     10556 1.61668E+01
 -1     10557 2.68281E+01
 -1     10558 5.05284E+00
 -1     10559 5.54618E+00
 -1     10560 1.50776E+01
 -1     10561 2.30044E+01
 -1     10562 2.38860E+01
 -1     10563 8.79570E+00
 -1     10564 8.03051E+00
 -1     10565 5.59713E+00
 -1     10566 1.68178E+01
 -1     10567 1.72062E+01
 -1     10568 2.05923E+01
 -1     10569 2.14645E+01
 -1     10570 2.30818E+01
 -1     10571 2.39540E+01
 -1     10572 2.20302E+01
 -1     10573 2.19612E+01
 -1     10574 5.43397E+00
 -1     10575 1.78505E+01
 -1     10576 4.93322E+00
 -1     10577 5.55098E+00
 -1     10578 4.86811E+00
 -1     10579 1.66381E+01
 -1     10580 1.06918E+01
 -1     10581 9.79887E+00
 -1     10582 1.71395E+01
 -1     10583 6.85840E+00
 -1     10584 6.68856E+00
 -1     10585 9.83012E+00
 -1     10586 1.00073E+01
 -1     10587 1.24559E+01
 -1     10588 2.94674E+01
 -1     10589 3.08250E+01
 -1     10590 7.45097E+00
 -1     10591 1.19904E+01
 -1     10592 1.19884E+01
 -1     10593 1.28299E+01
 -1     10594 7.26309E+00
 -1     10595 7.61776E+00
 -1     10596 7.50420E+00
 -1     10597 6.21491E+00
 -1     10598 8.50073E+00
 -1     10599 8.76263E+00
 -1     10600 8.91217E+00
 -1     10601 6.81523E+00
 -1     10602 6.50317E+00
 -1     10603 6.61703E+00
 -1     10604 1.06863E+01
 -1     10605 1.07996E+01
 -1     10606 1.08382E+01
 -1     10607 2.52628E+01
 -1     10608 8.96348E+00
 -1     10609 4.05358E+00
 -1     10610 8.24676E+00
 -1     10611 1.15841E+01
 -1     10612 2.59596E+01
 -1     10613 9.45415E+00
 -1     10614 8.88178E+00
 -1     10615 7.75974E+00
 -1     10616 9.45415E+00
 -1     10617 5.07788E+00
 -1     10618 5.69973E+00
 -1     10619 6.12651E+00
 -1     10620 7.06252E+00
 -1     10621 8.66839E+00
 -1     10622 1.13149E+01
 -1     10623 2.43685E+01
 -1     10624 6.01897E+00
 -1     10625 9.35239E+00
 -1     10626 9.50123E+00
 -1     10627 2.33661E+01
 -1     10628 1.19086E+01
 -1     10629 2.03259E+01
 -1     10630 1.88655E+01
 -1     10631 1.85291E+01
 -1     10632 2.01874E+01
 -1     10633 1.93348E+01
 -1     10634 7.02586E+00
 -1     10635 6.10550E+00
 -1     10636 1.96676E+01
 -1     10637 1.97637E+01
 -1     10638 7.12824E+00
 -1     10639 6.18825E+00
 -1     10640 6.63932E+00
 -1     10641 1.83341E+01
 -1     10642 1.31101E+01
 -1     10643 1.02237E+01
 -1     10644 1.22693E+01
 -1     10645 8.20967E+00
 -1     10646 2.40523E+01
 -1     10647 2.51001E+01
 -1     10648 8.10286E+00
 -1     10649 1.56958E+01
 -1     10650 4.87399E+00
 -1     10651 4.68816E+00
 -1     10652 4.87399E+00
 -1     10653 3.75858E+00
 -1     10654 3.57274E+00
 -1     10655 4.48612E+00
 -1     10656 2.33842E+01
 -1     10657 2.52203E+01
 -1     10658 6.08580E+00
 -1     10659 5.14078E+00
 -1     10660 6.14694E+00
 -1     10661 6.99185E+00
 -1     10662 1.04575E+01
 -1     10663 1.08345E+01
 -1     10664 1.05668E+01
 -1     10665 1.54206E+01
 -1     10666 1.27547E+01
 -1     10667 2.25830E+01
 -1     10668 8.51233E+00
 -1     10669 6.39883E+00
 -1     10670 6.77980E+00
 -1     10671 7.18025E+00
 -1     10672 6.98163E+00
 -1     10673 7.36259E+00
 -1     10674 6.58118E+00
 -1     10675 5.62692E+00
 -1     10676 8.02152E+00
 -1     10677 7.84041E+00
 -1     10678 7.31319E+00
 -1     10679 7.13208E+00
 -1     10680 2.39238E+01
 -1     10681 3.80107E+00
 -1     10682 3.07393E+00
 -1     10683 2.03236E+01
 -1     10684 2.03674E+01
 -1     10685 2.15457E+01
 -1     10686 1.18569E+01
 -1     10687 1.34710E+01
 -1     10688 2.40162E+01
 -1     10689 8.95493E+00
 -1     10690 8.95493E+00
 -1     10691 2.06827E+01
 -1     10692 8.75187E+00
 -1     10693 2.20705E+01
 -1     10694 2.12172E+01
 -1     10695 2.26494E+01
 -1     10696 1.68553E+01
 -1     10697 1.64996E+01
 -1     10698 1.71774E+01
 -1     10699 7.37138E+00
 -1     10700 6.47720E+00
 -1     10701 6.49057E+00
 -1     10702 6.77649E+00
 -1     10703 6.18652E+00
 -1     10704 7.06329E+00
 -1     10705 1.65415E+01
 -1     10706 5.60913E+00
 -1     10707 6.19758E+00
 -1     10708 4.76895E+00
 -1     10709 2.00808E+01
 -1     10710 2.20046E+01
 -1     10711 7.14449E+00
 -1     10712 8.98271E+00
 -1     10713 8.43174E+00
 -1     10714 7.99895E+00
 -1     10715 7.71794E+00
 -1     10716 7.71729E+00
 -1     10717 1.21423E+01
 -1     10718 1.40034E+01
 -1     10719 1.91764E+01
 -1     10720 1.68027E+01
 -1     10721 1.70391E+01
 -1     10722 2.41663E+01
 -1     10723 6.00155E+00
 -1     10724 6.60566E+00
 -1     10725 1.86515E+01
 -1     10726 1.47886E+01
 -1     10727 4.53178E+00
 -1     10728 7.91707E+00
 -1     10729 7.85176E+00
 -1     10730 9.60927E+00
 -1     10731 4.53843E+00
 -1     10732 4.26276E+00
 -1     10733 1.45947E+01
 -1     10734 1.29494E+01
 -1     10735 2.29452E+01
 -1     10736 2.28929E+01
 -1     10737 2.25591E+01
 -1     10738 7.80407E+00
 -1     10739 7.80407E+00
 -1     10740 6.17341E+00
 -1     10741 6.37627E+00
 -1     10742 9.27000E+00
 -1     10743 2.32826E+01
 -1     10744 2.28852E+01
 -1     10745 1.82525E+01
 -1     10746 1.30191E+01
 -1     10747 1.32751E+01
 -1     10748 1.35025E+01
 -1     10749 1.35926E+01
 -1     10750 4.65092E+00
 -1     10751 4.44498E+00
 -1     10752 4.95080E+00
 -1     10753 1.81048E+01
 -1     10754 6.48164E+00
 -1     10755 5.59913E+00
 -1     10756 6.51949E+00
 -1     10757 5.99368E+00
 -1     10758 2.38690E+01
 -1     10759 1.66652E+01
 -1     10760 1.62876E+01
 -1     10761 1.66652E+01
 -1     10762 8.97292E+00
 -1     10763 9.83110E+00
 -1     10764 8.53548E+00
 -1     10765 1.97637E+01
 -1     10766 1.08198E+01
 -1     10767 1.12554E+01
 -1     10768 1.16066E+01
 -1     10769 1.11710E+01
 -1     10770 6.61515E+00
 -1     10771 1.62621E+01
 -1     10772 4.89748E+00
 -1     10773 5.76258E+00
 -1     10774 6.23114E+00
 -1     10775 7.27910E+00
 -1     10776 7.27910E+00
 -1     10777 7.47506E+00
 -1     10778 4.21134E+00
 -1     10779 1.31440E+01
 -1     10780 1.41662E+01
 -1     10781 1.41707E+01
 -1     10782 2.63580E+01
 -1     10783 1.20957E+01
 -1     10784 1.00256E+01
 -1     10785 7.71729E+00
 -1     10786 6.96556E+00
 -1     10787 7.12732E+00
 -1     10788 5.34924E+00
 -1     10789 1.63082E+01
 -1     10790 7.29985E+00
 -1     10791 8.34156E+00
 -1     10792 2.02202E+01
 -1     10793 1.84212E+01
 -1     10794 2.40109E+01
 -1     10795 2.52211E+01
 -1     10796 1.11159E+01
 -1     10797 1.93714E+01
 -1     10798 8.35954E+00
 -1     10799 2.30073E+01
 -1     10800 2.02173E+01
 -1     10801 7.14449E+00
 -1     10802 5.35652E+00
 -1     10803 1.32583E+01
 -1     10804 1.29101E+01
 -1     10805 2.20790E+01
 -1     10806 1.16750E+01
 -1     10807 1.26812E+01
 -1     10808 1.14916E+01
 -1     10809 2.54930E+01
 -1     10810 7.00500E+00
 -1     10811 7.13208E+00
 -1     10812 6.70931E+00
 -1     10813 6.92594E+00
 -1     10814 5.19934E+00
 -1     10815 5.39264E+00
 -1     10816 1.14916E+01
 -1     10817 9.65988E+00
 -1     10818 9.69081E+00
 -1     10819 1.06576E+01
 -1     10820 9.58543E+00
 -1     10821 1.48048E+01
 -1     10822 8.71512E+00
 -1     10823 9.25673E+00
 -1     10824 5.99269E+00
 -1     10825 6.69373E+00
 -1     10826 5.76589E+00
 -1     10827 1.08089E+01
 -1     10828 1.06986E+01
 -1     10829 8.65059E+00
 -1     10830 7.98664E+00
 -1     10831 1.32751E+01
 -1     10832 2.46575E+01
 -1     10833 2.53457E+01
 -1     10834 6.13590E+00
 -1     10835 5.37888E+00
 -1     10836 8.22498E+00
 -1     10837 1.67428E+01
 -1     10838 5.38985E+00
 -1     10839 1.58266E+01
 -1     10840 6.81698E+00
 -1     10841 7.56251E+00
 -1     10842 5.16731E+00
 -1     10843 3.57559E+00
 -1     10844 4.74035E+00
 -1     10845 1.75739E+01
 -1     10846 1.53943E+01
 -1     10847 1.63355E+01
 -1     10848 1.68958E+01
 -1     10849 9.28555E+00
 -1     10850 2.48938E+01
 -1     10851 2.45123E+01
 -1     10852 2.27543E+01
 -1     10853 2.23728E+01
 -1     10854 2.45123E+01
 -1     10855 8.75293E+00
 -1     10856 1.26156E+01
 -1     10857 1.55361E+01
 -1     10858 1.27974E+01
 -1     10859 1.16734E+01
 -1     10860 3.80107E+00
 -1     10861 2.03674E+01
 -1     10862 1.65622E+01
 -1     10863 1.68791E+01
 -1     10864 1.99234E+01
 -1     10865 1.36995E+01
 -1     10866 1.46147E+01
 -1     10867 5.39519E+00
 -1     10868 5.80666E+00
 -1     10869 5.39519E+00
 -1     10870 1.56199E+01
 -1     10871 1.63355E+01
 -1     10872 1.08198E+01
 -1     10873 2.09105E+01
 -1     10874 2.24028E+01
 -1     10875 5.83583E+00
 -1     10876 6.65184E+00
 -1     10877 1.28026E+01
 -1     10878 8.71509E+00
 -1     10879 1.01043E+01
 -1     10880 9.74290E+00
 -1     10881 1.79431E+01
 -1     10882 5.62811E+00
 -1     10883 2.02149E+01
 -1     10884 8.35425E+00
 -1     10885 8.35425E+00
 -1     10886 1.31295E+01
 -1     10887 1.18819E+01
 -1     10888 1.08683E+01
 -1     10889 1.07181E+01
 -1     10890 9.70447E+00
 -1     10891 2.39777E+01
 -1     10892 2.59596E+01
 -1     10893 8.84166E+00
 -1     10894 6.92668E+00
 -1     10895 8.45490E+00
 -1     10896 2.05212E+01
 -1     10897 2.22856E+01
 -1     10898 2.05212E+01
 -1     10899 5.04994E+00
 -1     10900 2.42633E+01
 -1     10901 6.74411E+00
 -1     10902 1.48243E+01
 -1     10903 1.39138E+01
 -1     10904 9.94070E+00
 -1     10905 6.74566E+00
 -1     10906 6.22919E+00
 -1     10907 1.03807E+01
 -1     10908 1.00002E+01
 -1     10909 8.98066E+00
 -1     10910 5.02468E+00
 -1     10911 5.91001E+00
 -1     10912 4.86166E+00
 -1     10913 2.85738E+01
 -1     10914 3.02963E+01
 -1     10915 3.02963E+01
 -1     10916 1.45262E+01
 -1     10917 1.34608E+01
 -1     10918 5.01450E+00
 -1     10919 2.39060E+01
 -1     10920 1.94054E+01
 -1     10921 5.04201E+00
 -1     10922 4.03357E+00
 -1     10923 1.71549E+01
 -1     10924 1.67263E+01
 -1     10925 1.43404E+01
 -1     10926 1.04841E+01
 -1     10927 9.62595E+00
 -1     10928 1.39583E+01
 -1     10929 8.50212E+00
 -1     10930 1.25295E+01
 -1     10931 1.51611E+01
 -1     10932 7.48129E+00
 -1     10933 8.79885E+00
 -1     10934 5.48286E+00
 -1     10935 2.71870E+01
 -1     10936 2.71870E+01
 -1     10937 5.87486E+00
 -1     10938 5.87486E+00
 -1     10939 2.54360E+01
 -1     10940 2.00121E+01
 -1     10941 2.57892E+01
 -1     10942 7.14920E+00
 -1     10943 5.83510E+00
 -1     10944 5.61751E+00
 -1     10945 5.44457E+00
 -1     10946 5.48433E+00
 -1     10947 5.70192E+00
 -1     10948 2.43134E+01
 -1     10949 2.14543E+01
 -1     10950 2.51825E+01
 -1     10951 2.60529E+01
 -1     10952 9.79479E+00
 -1     10953 1.08720E+01
 -1     10954 9.26453E+00
 -1     10955 9.26453E+00
 -1     10956 3.45967E+00
 -1     10957 2.94438E+00
 -1     10958 8.56314E+00
 -1     10959 8.15049E+00
 -1     10960 1.16721E+01
 -1     10961 5.13931E+00
 -1     10962 8.64272E+00
 -1     10963 6.72774E+00
 -1     10964 7.11465E+00
 -1     10965 7.55088E+00
 -1     10966 6.42137E+00
 -1     10967 1.73633E+01
 -1     10968 2.20867E+01
 -1     10969 2.23914E+01
 -1     10970 2.45286E+01
 -1     10971 1.04499E+01
 -1     10972 1.04499E+01
 -1     10973 1.88600E+01
 -1     10974 2.27563E+01
 -1     10975 1.11854E+01
 -1     10976 1.88655E+01
 -1     10977 7.63145E+00
 -1     10978 9.31771E+00
 -1     10979 6.91601E+00
 -1     10980 6.99857E+00
 -1     10981 2.98142E+01
 -1     10982 1.63381E+01
 -1     10983 2.11438E+01
 -1     10984 2.14249E+01
 -1     10985 2.34054E+01
 -1     10986 2.53112E+01
 -1     10987 2.56096E+01
 -1     10988 9.81916E+00
 -1     10989 1.05562E+01
 -1     10990 9.22683E+00
 -1     10991 1.07995E+01
 -1     10992 1.21289E+01
 -1     10993 6.18883E+00
 -1     10994 7.99591E+00
 -1     10995 8.42622E+00
 -1     10996 8.38257E+00
 -1     10997 6.80495E+00
 -1     10998 7.16896E+00
 -1     10999 7.95646E+00
 -1     11000 7.72224E+00
 -1     11001 4.12005E+00
 -1     11002 4.12005E+00
 -1     11003 4.05005E+00
 -1     11004 9.86583E+00
 -1     11005 1.03014E+01
 -1     11006 9.28729E+00
 -1     11007 9.80575E+00
 -1     11008 9.64025E+00
 -1     11009 9.87175E+00
 -1     11010 7.33007E+00
 -1     11011 5.50637E+00
 -1     11012 5.75864E+00
 -1     11013 5.62811E+00
 -1     11014 5.99578E+00
 -1     11015 5.47503E+00
 -1     11016 2.42853E+01
 -1     11017 2.45789E+01
 -1     11018 2.31359E+01
 -1     11019 3.23049E+00
 -1     11020 3.61675E+00
 -1     11021 4.33342E+00
 -1     11022 3.66910E+00
 -1     11023 4.56269E+00
 -1     11024 5.04904E+00
 -1     11025 5.17607E+00
 -1     11026 8.66694E+00
 -1     11027 1.12731E+01
 -1     11028 7.90215E+00
 -1     11029 8.33750E+00
 -1     11030 9.10092E+00
 -1     11031 1.16707E+01
 -1     11032 7.12530E+00
 -1     11033 1.07274E+01
 -1     11034 1.08731E+01
 -1     11035 1.71779E+01
 -1     11036 2.40443E+01
 -1     11037 4.10729E+00
 -1     11038 1.24405E+01
 -1     11039 1.31569E+01
 -1     11040 1.38006E+01
 -1     11041 1.71478E+01
 -1     11042 6.36285E+00
 -1     11043 2.36750E+01
 -1     11044 2.03046E+01
 -1     11045 1.12914E+01
 -1     11046 4.30802E+00
 -1     11047 5.66405E+00
 -1     11048 1.03244E+01
 -1     11049 8.78245E+00
 -1     11050 2.15004E+01
 -1     11051 2.21886E+01
 -1     11052 5.03702E+00
 -1     11053 5.32359E+00
 -1     11054 1.95407E+01
 -1     11055 1.83341E+01
 -1     11056 1.77940E+01
 -1     11057 1.77940E+01
 -1     11058 2.52211E+01
 -1     11059 2.56709E+01
 -1     11060 1.09094E+01
 -1     11061 1.30226E+01
 -1     11062 6.97644E+00
 -1     11063 6.44419E+00
 -1     11064 6.65395E+00
 -1     11065 7.49824E+00
 -1     11066 9.84219E+00
 -1     11067 9.99195E+00
 -1     11068 5.52065E+00
 -1     11069 5.46316E+00
 -1     11070 2.23438E+01
 -1     11071 1.49109E+01
 -1     11072 1.56204E+01
 -1     11073 1.48517E+01
 -1     11074 1.71774E+01
 -1     11075 5.18682E+00
 -1     11076 2.64307E+01
 -1     11077 2.24788E+01
 -1     11078 6.06969E+00
 -1     11079 7.11329E+00
 -1     11080 7.31263E+00
 -1     11081 6.89820E+00
 -1     11082 4.91953E+00
 -1     11083 1.90345E+01
 -1     11084 1.27129E+01
 -1     11085 1.36899E+01
 -1     11086 1.49028E+01
 -1     11087 1.60816E+01
 -1     11088 1.62819E+01
 -1     11089 2.34643E+01
 -1     11090 1.07857E+01
 -1     11091 2.34195E+01
 -1     11092 2.46096E+01
 -1     11093 2.38083E+01
 -1     11094 2.20837E+01
 -1     11095 2.22719E+01
 -1     11096 6.11740E+00
 -1     11097 3.61086E+00
 -1     11098 3.85978E+00
 -1     11099 5.87494E+00
 -1     11100 6.08469E+00
 -1     11101 6.61975E+00
 -1     11102 2.56725E+01
 -1     11103 2.38197E+01
 -1     11104 1.51241E+01
 -1     11105 1.33891E+01
 -1     11106 1.85178E+01
 -1     11107 1.26123E+01
 -1     11108 5.07268E+00
 -1     11109 9.72372E+00
 -1     11110 5.99273E+00
 -1     11111 5.61614E+00
 -1     11112 1.53074E+01
 -1     11113 1.86016E+01
 -1     11114 2.06288E+01
 -1     11115 1.73964E+01
 -1     11116 2.60529E+01
 -1     11117 2.47725E+01
 -1     11118 1.88007E+01
 -1     11119 2.68067E+01
 -1     11120 6.58580E+00
 -1     11121 2.66294E+01
 -1     11122 2.44987E+01
 -1     11123 2.52211E+01
 -1     11124 1.32751E+01
 -1     11125 1.38874E+01
 -1     11126 9.17767E+00
 -1     11127 1.32586E+01
 -1     11128 8.80658E+00
 -1     11129 5.26063E+00
 -1     11130 6.46309E+00
 -1     11131 5.05120E+00
 -1     11132 6.49447E+00
 -1     11133 5.71543E+00
 -1     11134 5.68405E+00
 -1     11135 2.51140E+01
 -1     11136 1.23533E+01
 -1     11137 6.87086E+00
 -1     11138 2.29125E+01
 -1     11139 7.18230E+00
 -1     11140 2.08994E+01
 -1     11141 2.43281E+01
 -1     11142 2.39307E+01
 -1     11143 6.81434E+00
 -1     11144 5.66884E+00
 -1     11145 5.25126E+00
 -1     11146 5.05207E+00
 -1     11147 6.63873E+00
 -1     11148 2.38690E+01
 -1     11149 2.46415E+01
 -1     11150 2.48693E+01
 -1     11151 6.97899E+00
 -1     11152 2.45196E+01
 -1     11153 2.37160E+01
 -1     11154 1.38876E+01
 -1     11155 1.29888E+01
 -1     11156 8.88750E+00
 -1     11157 1.61037E+01
 -1     11158 5.14326E+00
 -1     11159 7.97045E+00
 -1     11160 6.41344E+00
 -1     11161 7.50330E+00
 -1     11162 6.46765E+00
 -1     11163 1.39962E+01
 -1     11164 1.43071E+01
 -1     11165 1.33043E+01
 -1     11166 2.32305E+01
 -1     11167 2.23964E+01
 -1     11168 7.40475E+00
 -1     11169 6.32992E+00
 -1     11170 7.10207E+00
 -1     11171 6.63334E+00
 -1     11172 9.71602E+00
 -1     11173 1.39992E+01
 -1     11174 9.74021E+00
 -1     11175 1.08499E+01
 -1     11176 1.04080E+01
 -1     11177 1.21007E+01
 -1     11178 1.20956E+01
 -1     11179 1.20956E+01
 -1     11180 1.05668E+01
 -1     11181 1.05007E+01
 -1     11182 5.78567E+00
 -1     11183 5.65250E+00
 -1     11184 6.04303E+00
 -1     11185 5.01515E+00
 -1     11186 4.28310E+00
 -1     11187 9.56573E+00
 -1     11188 9.85063E+00
 -1     11189 1.38630E+01
 -1     11190 1.22208E+01
 -1     11191 1.69732E+01
 -1     11192 2.46931E+01
 -1     11193 2.39841E+01
 -1     11194 1.30961E+01
 -1     11195 1.16148E+01
 -1     11196 2.43266E+01
 -1     11197 2.18156E+01
 -1     11198 8.24851E+00
 -1     11199 8.39827E+00
 -1     11200 5.68425E+00
 -1     11201 5.03717E+00
 -1     11202 5.75176E+00
 -1     11203 7.08981E+00
 -1     11204 6.33625E+00
 -1     11205 1.33282E+01
 -1     11206 6.51958E+00
 -1     11207 2.56284E+01
 -1     11208 1.69184E+01
 -1     11209 1.84745E+01
 -1     11210 6.12689E+00
 -1     11211 5.06397E+00
 -1     11212 4.40555E+00
 -1     11213 1.81967E+01
 -1     11214 2.23964E+01
 -1     11215 2.53354E+01
 -1     11216 2.56725E+01
 -1     11217 2.05455E+01
 -1     11218 2.14759E+01
 -1     11219 2.13995E+01
 -1     11220 2.27052E+01
 -1     11221 1.91143E+01
 -1     11222 1.71638E+01
 -1     11223 8.86042E+00
 -1     11224 7.74249E+00
 -1     11225 3.10572E+00
 -1     11226 1.65864E+01
 -1     11227 1.52646E+01
 -1     11228 1.62374E+01
 -1     11229 9.26673E+00
 -1     11230 8.73601E+00
 -1     11231 8.40881E+00
 -1     11232 7.37138E+00
 -1     11233 7.37138E+00
 -1     11234 5.72709E+00
 -1     11235 2.45142E+01
 -1     11236 2.21731E+01
 -1     11237 9.09198E+00
 -1     11238 7.88103E+00
 -1     11239 1.56798E+01
 -1     11240 5.88850E+00
 -1     11241 1.08382E+01
 -1     11242 2.69349E+01
 -1     11243 2.39774E+01
 -1     11244 2.05233E+01
 -1     11245 1.53827E+01
 -1     11246 1.06185E+01
 -1     11247 1.24461E+01
 -1     11248 1.54251E+01
 -1     11249 2.01894E+01
 -1     11250 1.95278E+01
 -1     11251 9.82514E+00
 -1     11252 2.50676E+01
 -1     11253 1.19486E+01
 -1     11254 1.11770E+01
 -1     11255 1.18569E+01
 -1     11256 1.13492E+01
 -1     11257 1.78175E+01
 -1     11258 1.66612E+01
 -1     11259 7.71554E+00
 -1     11260 7.89064E+00
 -1     11261 7.06046E+00
 -1     11262 2.28330E+01
 -1     11263 9.23384E+00
 -1     11264 9.35711E+00
 -1     11265 9.68047E+00
 -1     11266 1.35093E+01
 -1     11267 1.98880E+01
 -1     11268 1.99921E+01
 -1     11269 1.56922E+01
 -1     11270 7.16893E+00
 -1     11271 1.04814E+01
 -1     11272 1.64508E+01
 -1     11273 2.68716E+01
 -1     11274 2.64848E+01
 -1     11275 1.02141E+01
 -1     11276 9.79705E+00
 -1     11277 2.57768E+01
 -1     11278 5.15087E+00
 -1     11279 6.26326E+00
 -1     11280 7.70340E+00
 -1     11281 2.17280E+01
 -1     11282 6.79928E+00
 -1     11283 7.36853E+00
 -1     11284 1.08682E+01
 -1     11285 1.09172E+01
 -1     11286 1.51157E+01
 -1     11287 1.00955E+01
 -1     11288 1.26835E+01
 -1     11289 2.36277E+01
 -1     11290 5.66405E+00
 -1     11291 2.39868E+01
 -1     11292 2.38860E+01
 -1     11293 2.26004E+01
 -1     11294 2.26004E+01
 -1     11295 1.33672E+01
 -1     11296 1.65157E+01
 -1     11297 6.80489E+00
 -1     11298 5.85189E+00
 -1     11299 7.99230E+00
 -1     11300 2.07348E+01
 -1     11301 2.00817E+01
 -1     11302 4.16082E+00
 -1     11303 9.51006E+00
 -1     11304 1.25633E+01
 -1     11305 3.07102E+01
 -1     11306 3.07102E+01
 -1     11307 3.07102E+01
 -1     11308 9.28450E+00
 -1     11309 9.24679E+00
 -1     11310 7.62553E+00
 -1     11311 1.33053E+01
 -1     11312 8.76263E+00
 -1     11313 1.31748E+01
 -1     11314 1.31787E+01
 -1     11315 1.37496E+01
 -1     11316 8.37528E+00
 -1     11317 9.13870E+00
 -1     11318 2.19008E+01
 -1     11319 7.71049E+00
 -1     11320 9.35823E+00
 -1     11321 1.17410E+01
 -1     11322 5.72709E+00
 -1     11323 1.16066E+01
 -1     11324 2.50445E+01
 -1     11325 2.50445E+01
 -1     11326 1.47924E+01
 -1     11327 2.47251E+01
 -1     11328 1.94918E+01
 -1     11329 1.71265E+01
 -1     11330 1.91680E+01
 -1     11331 1.78077E+01
 -1     11332 1.55215E+01
 -1     11333 2.21713E+01
 -1     11334 4.12961E+00
 -1     11335 5.01983E+00
 -1     11336 2.14963E+01
 -1     11337 2.20038E+01
 -1     11338 8.11267E+00
 -1     11339 1.73795E+01
 -1     11340 7.02586E+00
 -1     11341 8.20795E+00
 -1     11342 7.74382E+00
 -1     11343 3.03634E+01
 -1     11344 1.47686E+01
 -1     11345 6.26969E+00
 -1     11346 5.74378E+00
 -1     11347 5.13931E+00
 -1     11348 9.21253E+00
 -1     11349 7.29755E+00
 -1     11350 2.40387E+01
 -1     11351 6.55190E+00
 -1     11352 1.98837E+01
 -1     11353 2.05180E+01
 -1     11354 2.13216E+01
 -1     11355 4.26639E+00
 -1     11356 8.17770E+00
 -1     11357 1.23204E+01
 -1     11358 1.28045E+01
 -1     11359 1.34119E+01
 -1     11360 2.14986E+01
 -1     11361 1.19473E+01
 -1     11362 1.36823E+01
 -1     11363 4.67646E+00
 -1     11364 5.19986E+00
 -1     11365 2.64884E+01
 -1     11366 1.60721E+01
 -1     11367 1.61668E+01
 -1     11368 1.19475E+01
 -1     11369 2.35537E+01
 -1     11370 1.88321E+01
 -1     11371 4.82742E+00
 -1     11372 2.17689E+01
 -1     11373 7.68094E+00
 -1     11374 2.17257E+01
 -1     11375 2.48969E+01
 -1     11376 2.56369E+01
 -1     11377 2.39060E+01
 -1     11378 1.10292E+01
 -1     11379 1.25409E+01
 -1     11380 2.64307E+01
 -1     11381 2.61061E+01
 -1     11382 8.33987E+00
 -1     11383 5.50105E+00
 -1     11384 8.55842E+00
 -1     11385 2.35642E+01
 -1     11386 2.61206E+01
 -1     11387 2.27560E+01
 -1     11388 6.25246E+00
 -1     11389 7.65273E+00
 -1     11390 7.34693E+00
 -1     11391 2.42148E+01
 -1     11392 2.45286E+01
 -1     11393 2.63520E+01
 -1     11394 2.59031E+01
 -1     11395 2.59031E+01
 -1     11396 2.45583E+01
 -1     11397 2.53619E+01
 -1     11398 2.45583E+01
 -1     11399 2.01586E+01
 -1     11400 2.10845E+01
 -1     11401 8.84947E+00
 -1     11402 1.23379E+01
 -1     11403 3.49223E+00
 -1     11404 2.95403E+00
 -1     11405 3.49223E+00
 -1     11406 9.35711E+00
 -1     11407 7.55219E+00
 -1     11408 9.71144E+00
 -1     11409 2.64575E+01
 -1     11410 2.57485E+01
 -1     11411 1.04575E+01
 -1     11412 6.49094E+00
 -1     11413 4.37148E+00
 -1     11414 2.38561E+01
 -1     11415 8.44053E+00
 -1     11416 7.97795E+00
 -1     11417 9.64968E+00
 -1     11418 2.51689E+01
 -1     11419 1.19577E+01
 -1     11420 1.21423E+01
 -1     11421 2.08758E+01
 -1     11422 2.08758E+01
 -1     11423 1.20418E+01
 -1     11424 1.12914E+01
 -1     11425 7.10610E+00
 -1     11426 6.74411E+00
 -1     11427 7.27910E+00
 -1     11428 5.39763E+00
 -1     11429 7.02750E+00
 -1     11430 1.01865E+01
 -1     11431 1.01865E+01
 -1     11432 1.01045E+01
 -1     11433 1.24589E+01
 -1     11434 1.25409E+01
 -1     11435 1.35397E+01
 -1     11436 1.26884E+01
 -1     11437 1.65454E+01
 -1     11438 1.80653E+01
 -1     11439 1.54935E+01
 -1     11440 2.22485E+01
 -1     11441 2.16630E+01
 -1     11442 4.92182E+00
 -1     11443 1.90973E+01
 -1     11444 2.00816E+01
 -1     11445 1.81474E+01
 -1     11446 1.82532E+01
 -1     11447 1.78060E+01
 -1     11448 5.65204E+00
 -1     11449 2.05523E+01
 -1     11450 1.55375E+01
 -1     11451 2.59031E+01
 -1     11452 3.87615E+00
 -1     11453 1.68800E+01
 -1     11454 1.73036E+01
 -1     11455 1.48583E+01
 -1     11456 1.45001E+01
 -1     11457 1.46382E+01
 -1     11458 1.53074E+01
 -1     11459 1.54321E+01
 -1     11460 2.16991E+01
 -1     11461 9.64479E+00
 -1     11462 5.18660E+00
 -1     11463 5.85053E+00
 -1     11464 1.65139E+01
 -1     11465 2.21556E+01
 -1     11466 2.51874E+01
 -1     11467 2.12452E+01
 -1     11468 5.06142E+00
 -1     11469 7.87695E+00
 -1     11470 8.34470E+00
 -1     11471 6.78865E+00
 -1     11472 7.25640E+00
 -1     11473 4.48108E+00
 -1     11474 2.11857E+01
 -1     11475 1.88655E+01
 -1     11476 6.13474E+00
 -1     11477 5.75315E+00
 -1     11478 9.42998E+00
 -1     11479 7.31116E+00
 -1     11480 7.09907E+00
 -1     11481 6.44505E+00
 -1     11482 6.65714E+00
 -1     11483 1.46048E+01
 -1     11484 1.95691E+01
 -1     11485 2.45196E+01
 -1     11486 1.41494E+01
 -1     11487 1.46072E+01
 -1     11488 2.02826E+01
 -1     11489 2.64575E+01
 -1     11490 1.90533E+01
 -1     11491 1.62910E+01
 -1     11492 2.01893E+01
 -1     11493 1.48818E+01
 -1     11494 7.78865E+00
 -1     11495 7.83432E+00
 -1     11496 8.60513E+00
 -1     11497 1.02058E+01
 -1     11498 1.00611E+01
 -1     11499 1.00763E+01
 -1     11500 6.78825E+00
 -1     11501 1.73104E+01
 -1     11502 3.89974E+00
 -1     11503 5.05135E+00
 -1     11504 1.82557E+01
 -1     11505 2.33736E+01
 -1     11506 2.17764E+01
 -1     11507 1.65415E+01
 -1     11508 1.91395E+01
 -1     11509 1.28786E+01
 -1     11510 6.53189E+00
 -1     11511 4.89504E+00
 -1     11512 1.06650E+01
 -1     11513 6.14526E+00
 -1     11514 2.57487E+01
 -1     11515 8.75010E+00
 -1     11516 1.37117E+01
 -1     11517 1.64907E+01
 -1     11518 1.28423E+01
 -1     11519 1.22104E+01
 -1     11520 1.29568E+01
 -1     11521 5.42222E+00
 -1     11522 1.23864E+01
 -1     11523 8.20689E+00
 -1     11524 8.05086E+00
 -1     11525 8.19781E+00
 -1     11526 7.37025E+00
 -1     11527 5.86819E+00
 -1     11528 6.38414E+00
 -1     11529 2.06826E+01
 -1     11530 7.83432E+00
 -1     11531 7.27446E+00
 -1     11532 8.27059E+00
 -1     11533 7.28718E+00
 -1     11534 1.10484E+01
 -1     11535 8.81609E+00
 -1     11536 9.26386E+00
 -1     11537 3.67051E+00
 -1     11538 4.27544E+00
 -1     11539 4.18153E+00
 -1     11540 7.78865E+00
 -1     11541 9.77088E+00
 -1     11542 9.01806E+00
 -1     11543 1.80641E+01
 -1     11544 1.54834E+01
 -1     11545 2.58964E+01
 -1     11546 2.58964E+01
 -1     11547 6.40162E+00
 -1     11548 1.74102E+01
 -1     11549 2.53629E+01
 -1     11550 8.59083E+00
 -1     11551 5.13122E+00
 -1     11552 8.28330E+00
 -1     11553 6.53581E+00
 -1     11554 2.23269E+01
 -1     11555 9.47693E+00
 -1     11556 1.42929E+01
 -1     11557 6.37191E+00
 -1     11558 5.98673E+00
 -1     11559 6.96055E+00
 -1     11560 6.74081E+00
 -1     11561 1.37255E+01
 -1     11562 2.65240E+01
 -1     11563 2.66174E+01
 -1     11564 2.61995E+01
 -1     11565 8.88124E+00
 -1     11566 9.73254E+00
 -1     11567 1.42013E+01
 -1     11568 1.37662E+01
 -1     11569 2.60219E+01
 -1     11570 2.59323E+01
 -1     11571 2.60219E+01
 -1     11572 4.26993E+00
 -1     11573 4.49855E+00
 -1     11574 1.27823E+01
 -1     11575 1.26549E+01
 -1     11576 1.18175E+01
 -1     11577 7.85480E+00
 -1     11578 5.93159E+00
 -1     11579 2.40286E+01
 -1     11580 2.47776E+01
 -1     11581 4.71057E+00
 -1     11582 4.30235E+00
 -1     11583 4.34376E+00
 -1     11584 2.20446E+01
 -1     11585 2.33842E+01
 -1     11586 1.86630E+01
 -1     11587 1.63429E+01
 -1     11588 4.98673E+00
 -1     11589 2.19612E+01
 -1     11590 2.42171E+01
 -1     11591 7.76769E+00
 -1     11592 8.53110E+00
 -1     11593 4.91344E+00
 -1     11594 4.77147E+00
 -1     11595 1.94004E+01
 -1     11596 2.28487E+01
 -1     11597 7.84140E+00
 -1     11598 4.75169E+00
 -1     11599 4.86963E+00
 -1     11600 4.54102E+00
 -1     11601 3.37330E+00
 -1     11602 3.32509E+00
 -1     11603 4.25498E+00
 -1     11604 4.25498E+00
 -1     11605 1.60474E+01
 -1     11606 5.67446E+00
 -1     11607 4.47918E+00
 -1     11608 5.06434E+00
 -1     11609 5.14193E+00
 -1     11610 1.13573E+01
 -1     11611 7.09243E+00
 -1     11612 4.75383E+00
 -1     11613 4.95368E+00
 -1     11614 5.26250E+00
 -1     11615 5.26250E+00
 -1     11616 5.06265E+00
 -1     11617 1.81691E+01
 -1     11618 1.34807E+01
 -1     11619 9.17924E+00
 -1     11620 1.75020E+01
 -1     11621 1.37814E+01
 -1     11622 1.46612E+01
 -1     11623 4.44254E+00
 -1     11624 5.44626E+00
 -1     11625 1.50282E+01
 -1     11626 1.26610E+01
 -1     11627 1.26610E+01
 -1     11628 8.10156E+00
 -1     11629 5.37016E+00
 -1     11630 2.43896E+01
 -1     11631 5.84685E+00
 -1     11632 6.07319E+00
 -1     11633 4.29111E+00
 -1     11634 2.60450E+01
 -1     11635 2.48924E+01
 -1     11636 2.48924E+01
 -1     11637 2.48924E+01
 -1     11638 6.70931E+00
 -1     11639 6.46526E+00
 -1     11640 6.50006E+00
 -1     11641 1.12433E+01
 -1     11642 2.19669E+01
 -1     11643 2.11068E+01
 -1     11644 1.46382E+01
 -1     11645 2.56709E+01
 -1     11646 2.27596E+01
 -1     11647 7.17606E+00
 -1     11648 2.24297E+01
 -1     11649 5.51874E+00
 -1     11650 1.68542E+01
 -1     11651 1.57983E+01
 -1     11652 2.49864E+01
 -1     11653 2.32003E+01
 -1     11654 8.23268E+00
 -1     11655 1.35718E+01
 -1     11656 6.59414E+00
 -1     11657 6.41766E+00
 -1     11658 5.36970E+00
 -1     11659 7.72772E+00
 -1     11660 8.15217E+00
 -1     11661 7.96072E+00
 -1     11662 8.44522E+00
 -1     11663 7.46143E+00
 -1     11664 7.69245E+00
 -1     11665 8.71509E+00
 -1     11666 9.74290E+00
 -1     11667 8.71509E+00
 -1     11668 8.96102E+00
 -1     11669 3.83606E+00
 -1     11670 9.79785E+00
 -1     11671 2.38547E+01
 -1     11672 2.25691E+01
 -1     11673 5.87713E+00
 -1     11674 6.74756E+00
 -1     11675 1.65128E+01
 -1     11676 1.04281E+01
 -1     11677 4.18497E+00
 -1     11678 4.18497E+00
 -1     11679 3.64506E+00
 -1     11680 9.91921E+00
 -1     11681 2.05455E+01
 -1     11682 2.15088E+01
 -1     11683 1.84414E+01
 -1     11684 2.56284E+01
 -1     11685 1.96411E+01
 -1     11686 2.27084E+01
 -1     11687 8.46576E+00
 -1     11688 4.66078E+00
 -1     11689 4.45010E+00
 -1     11690 1.28243E+01
 -1     11691 1.05879E+01
 -1     11692 2.25703E+01
 -1     11693 8.78969E+00
 -1     11694 7.75887E+00
 -1     11695 9.19521E+00
 -1     11696 7.38850E+00
 -1     11697 9.40173E+00
 -1     11698 6.28121E+00
 -1     11699 6.94972E+00
 -1     11700 9.64845E+00
 -1     11701 2.58340E+01
 -1     11702 2.55093E+01
 -1     11703 2.22093E+01
 -1     11704 3.86639E+00
 -1     11705 8.40522E+00
 -1     11706 1.80743E+01
 -1     11707 1.97944E+01
 -1     11708 7.36955E+00
 -1     11709 1.93405E+01
 -1     11710 6.38618E+00
 -1     11711 5.96273E+00
 -1     11712 7.15273E+00
 -1     11713 1.45656E+01
 -1     11714 1.28507E+01
 -1     11715 9.51006E+00
 -1     11716 4.40786E+00
 -1     11717 7.26765E+00
 -1     11718 1.84902E+01
 -1     11719 2.34795E+01
 -1     11720 1.19356E+01
 -1     11721 2.44052E+01
 -1     11722 2.53714E+01
 -1     11723 2.61432E+01
 -1     11724 1.82144E+01
 -1     11725 6.97616E+00
 -1     11726 2.52901E+01
 -1     11727 2.37523E+01
 -1     11728 2.52901E+01
 -1     11729 1.51785E+01
 -1     11730 7.71813E+00
 -1     11731 6.91944E+00
 -1     11732 7.48882E+00
 -1     11733 6.69013E+00
 -1     11734 5.84983E+00
 -1     11735 2.26990E+01
 -1     11736 1.43101E+01
 -1     11737 4.10336E+00
 -1     11738 4.13237E+00
 -1     11739 1.03508E+01
 -1     11740 1.19582E+01
 -1     11741 9.65145E+00
 -1     11742 9.63553E+00
 -1     11743 2.09804E+01
 -1     11744 9.81723E+00
 -1     11745 7.97524E+00
 -1     11746 1.34031E+01
 -1     11747 3.77897E+00
 -1     11748 4.00614E+00
 -1     11749 8.46911E+00
 -1     11750 6.53581E+00
 -1     11751 5.05558E+00
 -1     11752 2.06910E+01
 -1     11753 6.39829E+00
 -1     11754 7.82196E+00
 -1     11755 1.14611E+01
 -1     11756 7.71170E+00
 -1     11757 8.45856E+00
 -1     11758 1.22079E+01
 -1     11759 9.12467E+00
 -1     11760 2.17060E+01
 -1     11761 2.03845E+01
 -1     11762 2.18540E+01
 -1     11763 6.94033E+00
 -1     11764 7.75682E+00
 -1     11765 1.26831E+01
 -1     11766 1.68690E+01
 -1     11767 1.62367E+01
 -1     11768 1.27275E+01
 -1     11769 1.21152E+01
 -1     11770 2.58798E+01
 -1     11771 4.36314E+00
 -1     11772 4.47918E+00
 -1     11773 2.52042E+01
 -1     11774 7.20186E+00
 -1     11775 4.23829E+00
 -1     11776 2.17409E+01
 -1     11777 2.04282E+01
 -1     11778 4.98853E+00
 -1     11779 4.98853E+00
 -1     11780 2.67699E+01
 -1     11781 2.53717E+01
 -1     11782 2.07329E+01
 -1     11783 1.05536E+01
 -1     11784 1.26835E+01
 -1     11785 6.74434E+00
 -1     11786 1.74025E+01
 -1     11787 1.74025E+01
 -1     11788 1.56559E+01
 -1     11789 2.62041E+01
 -1     11790 2.57767E+01
 -1     11791 2.45789E+01
 -1     11792 1.52567E+01
 -1     11793 1.63687E+01
 -1     11794 1.75194E+01
 -1     11795 1.32924E+01
 -1     11796 7.66647E+00
 -1     11797 1.71774E+01
 -1     11798 1.57909E+01
 -1     11799 4.29378E+00
 -1     11800 4.30802E+00
 -1     11801 2.63580E+01
 -1     11802 2.63580E+01
 -1     11803 7.93385E+00
 -1     11804 1.04820E+01
 -1     11805 1.52681E+01
 -1     11806 1.91716E+01
 -1     11807 2.37315E+01
 -1     11808 2.46037E+01
 -1     11809 2.60219E+01
 -1     11810 4.64514E+00
 -1     11811 9.61177E+00
 -1     11812 2.04775E+01
 -1     11813 9.86583E+00
 -1     11814 1.06525E+01
 -1     11815 2.65258E+01
 -1     11816 2.54929E+01
 -1     11817 2.65258E+01
 -1     11818 2.54929E+01
 -1     11819 7.65213E+00
 -1     11820 2.14963E+01
 -1     11821 9.61834E+00
 -1     11822 2.08340E+01
 -1     11823 7.87893E+00
 -1     11824 7.87893E+00
 -1     11825 1.14545E+01
 -1     11826 1.46218E+01
 -1     11827 2.21053E+01
 -1     11828 8.05086E+00
 -1     11829 1.67479E+01
 -1     11830 1.00351E+01
 -1     11831 9.64484E+00
 -1     11832 1.01435E+01
 -1     11833 1.77888E+01
 -1     11834 4.41999E+00
 -1     11835 4.41999E+00
 -1     11836 8.63073E+00
 -1     11837 7.66760E+00
 -1     11838 6.45452E+00
 -1     11839 2.23659E+01
 -1     11840 3.88260E+00
 -1     11841 5.37465E+00
 -1     11842 5.71838E+00
 -1     11843 1.49411E+01
 -1     11844 9.41856E+00
 -1     11845 2.44030E+01
 -1     11846 2.51602E+01
 -1     11847 1.77317E+01
 -1     11848 1.29583E+01
 -1     11849 1.92043E+01
 -1     11850 2.00560E+01
 -1     11851 7.27777E+00
 -1     11852 7.27777E+00
 -1     11853 7.13082E+00
 -1     11854 4.74643E+00
 -1     11855 5.75176E+00
 -1     11856 4.66070E+00
 -1     11857 1.64294E+01
 -1     11858 6.35620E+00
 -1     11859 1.07377E+01
 -1     11860 2.14983E+01
 -1     11861 1.30866E+01
 -1     11862 1.83631E+01
 -1     11863 1.66391E+01
 -1     11864 1.63519E+01
 -1     11865 1.01524E+01
 -1     11866 1.63619E+01
 -1     11867 1.66491E+01
 -1     11868 4.54211E+00
 -1     11869 3.04782E+01
 -1     11870 1.32223E+01
 -1     11871 2.22057E+01
 -1     11872 2.22886E+01
 -1     11873 1.82036E+01
 -1     11874 5.09116E+00
 -1     11875 5.09116E+00
 -1     11876 2.75587E+01
 -1     11877 5.18978E+00
 -1     11878 1.51859E+01
 -1     11879 1.52349E+01
 -1     11880 5.66224E+00
 -1     11881 1.91663E+01
 -1     11882 2.36435E+01
 -1     11883 2.02484E+01
 -1     11884 2.08965E+01
 -1     11885 2.42917E+01
 -1     11886 3.03454E+01
 -1     11887 3.04782E+01
 -1     11888 8.51285E+00
 -1     11889 4.89821E+00
 -1     11890 1.71340E+01
 -1     11891 2.48082E+01
 -1     11892 2.30468E+01
 -1     11893 8.71618E+00
 -1     11894 4.79830E+00
 -1     11895 4.88922E+00
 -1     11896 2.64848E+01
 -1     11897 1.83680E+01
 -1     11898 2.11863E+01
 -1     11899 5.78671E+00
 -1     11900 6.22295E+00
 -1     11901 6.60986E+00
 -1     11902 2.40547E+01
 -1     11903 1.77883E+01
 -1     11904 1.88205E+01
 -1     11905 2.46219E+01
 -1     11906 8.89999E+00
 -1     11907 7.34266E+00
 -1     11908 7.09126E+00
 -1     11909 6.71417E+00
 -1     11910 1.42365E+01
 -1     11911 2.65258E+01
 -1     11912 4.54102E+00
 -1     11913 2.62019E+01
 -1     11914 1.54642E+01
 -1     11915 7.44327E+00
 -1     11916 2.31768E+01
 -1     11917 2.37383E+01
 -1     11918 1.18860E+01
 -1     11919 8.51903E+00
 -1     11920 7.80194E+00
 -1     11921 7.23800E+00
 -1     11922 7.13905E+00
 -1     11923 2.56911E+01
 -1     11924 6.03356E+00
 -1     11925 2.64575E+01
 -1     11926 1.13551E+01
 -1     11927 3.82263E+00
 -1     11928 1.97157E+01
 -1     11929 1.17132E+01
 -1     11930 8.97055E+00
 -1     11931 8.08881E+00
 -1     11932 7.76240E+00
 -1     11933 5.82844E+00
 -1     11934 1.14195E+01
 -1     11935 9.30335E+00
 -1     11936 5.39108E+00
 -1     11937 4.99819E+00
 -1     11938 5.32751E+00
 -1     11939 2.05148E+01
 -1     11940 6.87801E+00
 -1     11941 8.28238E+00
 -1     11942 7.46589E+00
 -1     11943 7.34266E+00
 -1     11944 5.80806E+00
 -1     11945 5.64218E+00
 -1     11946 1.80006E+01
 -1     11947 2.01766E+01
 -1     11948 2.29801E+01
 -1     11949 9.76391E+00
 -1     11950 2.63360E+01
 -1     11951 2.21556E+01
 -1     11952 1.18567E+01
 -1     11953 1.29659E+01
 -1     11954 1.56559E+01
 -1     11955 2.26990E+01
 -1     11956 5.99181E+00
 -1     11957 4.80196E+00
 -1     11958 4.15489E+00
 -1     11959 5.08273E+00
 -1     11960 7.03720E+00
 -1     11961 8.74279E+00
 -1     11962 5.40700E+00
 -1     11963 1.76914E+01
 -1     11964 4.00570E+00
 -1     11965 4.00570E+00
 -1     11966 2.78296E+01
 -1     11967 2.96688E+01
 -1     11968 2.98491E+01
 -1     11969 2.90578E+01
 -1     11970 2.80099E+01
 -1     11971 2.53619E+01
 -1     11972 5.19276E+00
 -1     11973 5.85738E+00
 -1     11974 2.39281E+01
 -1     11975 2.32613E+01
 -1     11976 1.87390E+01
 -1     11977 1.80437E+01
 -1     11978 2.68289E+01
 -1     11979 2.68376E+01
 -1     11980 2.68376E+01
 -1     11981 2.52628E+01
 -1     11982 1.23083E+01
 -1     11983 1.15927E+01
 -1     11984 1.30850E+01
 -1     11985 1.40198E+01
 -1     11986 1.03690E+01
 -1     11987 1.03153E+01
 -1     11988 1.11020E+01
 -1     11989 1.12247E+01
 -1     11990 7.71113E+00
 -1     11991 1.10484E+01
 -1     11992 8.37654E+00
 -1     11993 2.52126E+01
 -1     11994 2.40919E+01
 -1     11995 2.50530E+01
 -1     11996 2.53460E+01
 -1     11997 2.69022E+01
 -1     11998 4.33612E+00
 -1     11999 4.50373E+00
 -1     12000 5.01027E+00
 -1     12001 1.72062E+01
 -1     12002 1.33036E+01
 -1     12003 2.36597E+01
 -1     12004 1.09157E+01
 -1     12005 1.47786E+01
 -1     12006 1.57397E+01
 -1     12007 4.18497E+00
 -1     12008 4.18497E+00
 -1     12009 4.05005E+00
 -1     12010 2.56369E+01
 -1     12011 1.59829E+01
 -1     12012 1.44281E+01
 -1     12013 1.37923E+01
 -1     12014 2.06156E+01
 -1     12015 2.04094E+01
 -1     12016 2.38108E+01
 -1     12017 8.79415E+00
 -1     12018 2.08521E+01
 -1     12019 1.87333E+01
 -1     12020 1.60276E+01
 -1     12021 2.28668E+01
 -1     12022 2.44606E+01
 -1     12023 1.78781E+01
 -1     12024 1.80209E+01
 -1     12025 1.01013E+01
 -1     12026 1.00611E+01
 -1     12027 4.69786E+00
 -1     12028 4.94678E+00
 -1     12029 5.19276E+00
 -1     12030 1.47217E+01
 -1     12031 1.47403E+01
 -1     12032 1.09473E+01
 -1     12033 2.42534E+01
 -1     12034 2.26762E+01
 -1     12035 2.26762E+01
 -1     12036 2.11367E+01
 -1     12037 5.12804E+00
 -1     12038 2.52126E+01
 -1     12039 2.27519E+01
 -1     12040 1.70015E+01
 -1     12041 7.59631E+00
 -1     12042 6.85003E+00
 -1     12043 8.05058E+00
 -1     12044 2.01893E+01
 -1     12045 3.70089E+00
 -1     12046 2.00552E+01
 -1     12047 5.44918E+00
 -1     12048 5.36346E+00
 -1     12049 6.45452E+00
 -1     12050 7.86445E+00
 -1     12051 5.94390E+00
 -1     12052 8.16101E+00
 -1     12053 8.71242E+00
 -1     12054 8.45344E+00
 -1     12055 8.33447E+00
 -1     12056 9.08587E+00
 -1     12057 8.82689E+00
 -1     12058 8.30650E+00
 -1     12059 1.04297E+01
 -1     12060 2.17060E+01
 -1     12061 6.74923E+00
 -1     12062 1.30207E+01
 -1     12063 6.69013E+00
 -1     12064 1.62522E+01
 -1     12065 1.62797E+01
 -1     12066 1.03636E+01
 -1     12067 1.35912E+01
 -1     12068 2.63520E+01
 -1     12069 1.97205E+01
 -1     12070 1.55936E+01
 -1     12071 1.42693E+01
 -1     12072 1.83971E+01
 -1     12073 1.69950E+01
 -1     12074 9.51929E+00
 -1     12075 6.43483E+00
 -1     12076 1.30758E+01
 -1     12077 2.39060E+01
 -1     12078 7.99593E+00
 -1     12079 7.90167E+00
 -1     12080 2.14589E+01
 -1     12081 8.04148E+00
 -1     12082 1.81312E+01
 -1     12083 7.28677E+00
 -1     12084 7.57585E+00
 -1     12085 6.94201E+00
 -1     12086 7.23109E+00
 -1     12087 1.26817E+01
 -1     12088 4.81720E+00
 -1     12089 4.94296E+00
 -1     12090 5.94390E+00
 -1     12091 7.54104E+00
 -1     12092 6.21340E+00
 -1     12093 6.46309E+00
 -1     12094 5.41513E+00
 -1     12095 1.01278E+01
 -1     12096 1.18164E+01
 -1     12097 1.68604E+01
 -1     12098 2.38197E+01
 -1     12099 1.67706E+01
 -1     12100 1.86169E+01
 -1     12101 1.05536E+01
 -1     12102 1.05536E+01
 -1     12103 1.26835E+01
 -1     12104 8.61537E+00
 -1     12105 8.30990E+00
 -1     12106 3.06267E+00
 -1     12107 8.92048E+00
 -1     12108 8.72025E+00
 -1     12109 4.25360E+00
 -1     12110 6.35670E+00
 -1     12111 2.36383E+01
 -1     12112 2.73576E+01
 -1     12113 2.70288E+01
 -1     12114 1.28777E+01
 -1     12115 4.44572E+00
 -1     12116 5.54458E+00
 -1     12117 6.08259E+00
 -1     12118 5.88344E+00
 -1     12119 6.02468E+00
 -1     12120 2.34283E+01
 -1     12121 2.07617E+01
 -1     12122 2.41858E+01
 -1     12123 1.00053E+01
 -1     12124 8.61385E+00
 -1     12125 4.23920E+00
 -1     12126 4.08442E+00
 -1     12127 3.82577E+00
 -1     12128 1.12786E+01
 -1     12129 1.48178E+01
 -1     12130 6.87248E+00
 -1     12131 5.81437E+00
 -1     12132 8.79415E+00
 -1     12133 7.77574E+00
 -1     12134 5.64218E+00
 -1     12135 1.02684E+01
 -1     12136 1.05009E+01
 -1     12137 1.48594E+01
 -1     12138 6.96807E+00
 -1     12139 1.73411E+01
 -1     12140 1.58924E+01
 -1     12141 2.36707E+01
 -1     12142 2.36707E+01
 -1     12143 2.36619E+01
 -1     12144 2.68376E+01
 -1     12145 2.60433E+01
 -1     12146 1.37694E+01
 -1     12147 2.07503E+01
 -1     12148 1.94918E+01
 -1     12149 8.45459E+00
 -1     12150 7.87605E+00
 -1     12151 2.71705E+01
 -1     12152 2.15005E+01
 -1     12153 1.06103E+01
 -1     12154 9.65298E+00
 -1     12155 2.02387E+01
 -1     12156 2.37523E+01
 -1     12157 1.61917E+01
 -1     12158 1.75132E+01
 -1     12159 1.81800E+01
 -1     12160 1.63068E+01
 -1     12161 1.37865E+01
 -1     12162 8.79115E+00
 -1     12163 1.43131E+01
 -1     12164 1.72631E+01
 -1     12165 6.66121E+00
 -1     12166 2.98491E+01
 -1     12167 2.98671E+01
 -1     12168 7.39941E+00
 -1     12169 8.60133E+00
 -1     12170 8.60133E+00
 -1     12171 3.08400E+00
 -1     12172 6.89910E+00
 -1     12173 1.66430E+01
 -1     12174 1.63798E+01
 -1     12175 6.62271E+00
 -1     12176 1.40437E+01
 -1     12177 2.38792E+01
 -1     12178 2.00290E+01
 -1     12179 7.35811E+00
 -1     12180 2.47776E+01
 -1     12181 1.46250E+01
 -1     12182 5.89939E+00
 -1     12183 1.15927E+01
 -1     12184 1.88264E+01
 -1     12185 1.75162E+01
 -1     12186 1.13183E+01
 -1     12187 1.41732E+01
 -1     12188 1.28629E+01
 -1     12189 2.03710E+01
 -1     12190 8.79820E+00
 -1     12191 2.65642E+01
 -1     12192 2.12893E+01
 -1     12193 1.31638E+01
 -1     12194 1.77846E+01
 -1     12195 1.22183E+01
 -1     12196 1.08504E+01
 -1     12197 1.22183E+01
 -1     12198 2.17280E+01
 -1     12199 1.19582E+01
 -1     12200 1.31787E+01
 -1     12201 2.20046E+01
 -1     12202 2.31375E+01
 -1     12203 1.73633E+01
 -1     12204 5.04994E+00
 -1     12205 1.93405E+01
 -1     12206 1.76923E+01
 -1     12207 2.18120E+01
 -1     12208 4.78125E+00
 -1     12209 6.70625E+00
 -1     12210 1.24603E+01
 -1     12211 1.27298E+01
 -1     12212 1.24059E+01
 -1     12213 8.70830E+00
 -1     12214 2.28248E+01
 -1     12215 9.35808E+00
 -1     12216 2.53457E+01
 -1     12217 1.86759E+01
 -1     12218 1.70394E+01
 -1     12219 4.36274E+00
 -1     12220 1.87826E+01
 -1     12221 5.96688E+00
 -1     12222 1.13080E+01
 -1     12223 1.02080E+01
 -1     12224 8.67994E+00
 -1     12225 8.86538E+00
 -1     12226 2.74668E+01
 -1     12227 2.71380E+01
 -1     12228 1.63429E+01
 -1     12229 8.65245E+00
 -1     12230 3.98318E+00
 -1     12231 3.98318E+00
 -1     12232 7.07159E+00
 -1     12233 2.52628E+01
 -1     12234 4.43876E+00
 -1     12235 4.34702E+00
 -1     12236 4.23099E+00
 -1     12237 2.07348E+01
 -1     12238 2.27426E+01
 -1     12239 2.54637E+01
 -1     12240 1.92150E+01
 -1     12241 5.37465E+00
 -1     12242 3.03634E+01
 -1     12243 3.03454E+01
 -1     12244 2.90943E+01
 -1     12245 2.90763E+01
 -1     12246 6.48731E+00
 -1     12247 5.64017E+00
 -1     12248 1.03460E+01
 -1     12249 1.05896E+01
 -1     12250 1.24759E+01
 -1     12251 2.89614E+01
 -1     12252 1.37758E+01
 -1     12253 1.32552E+01
 -1     12254 1.52681E+01
 -1     12255 1.23255E+01
 -1     12256 1.37763E+01
 -1     12257 7.06954E+00
 -1     12258 2.19718E+01
 -1     12259 2.41303E+01
 -1     12260 2.19718E+01
 -1     12261 8.26625E+00
 -1     12262 8.55360E+00
 -1     12263 8.80016E+00
 -1     12264 8.51288E+00
 -1     12265 8.27249E+00
 -1     12266 8.17439E+00
 -1     12267 8.32441E+00
 -1     12268 8.67555E+00
 -1     12269 9.55186E+00
 -1     12270 1.07753E+01
 -1     12271 1.07916E+01
 -1     12272 7.21984E+00
 -1     12273 4.33403E+00
 -1     12274 6.05197E+00
 -1     12275 1.05451E+01
 -1     12276 1.07088E+01
 -1     12277 1.07916E+01
 -1     12278 2.05180E+01
 -1     12279 1.17244E+01
 -1     12280 1.04841E+01
 -1     12281 9.34681E+00
 -1     12282 9.79458E+00
 -1     12283 1.95838E+01
 -1     12284 1.56798E+01
 -1     12285 1.35350E+01
 -1     12286 1.23371E+01
 -1     12287 1.06859E+01
 -1     12288 1.06859E+01
 -1     12289 1.64598E+01
 -1     12290 1.40510E+01
 -1     12291 9.50312E+00
 -1     12292 9.92561E+00
 -1     12293 1.72930E+01
 -1     12294 1.66431E+01
 -1     12295 4.95368E+00
 -1     12296 5.09116E+00
 -1     12297 6.61094E+00
 -1     12298 1.04679E+01
 -1     12299 9.89134E+00
 -1     12300 8.98768E+00
 -1     12301 9.74933E+00
 -1     12302 1.43662E+01
 -1     12303 8.64133E+00
 -1     12304 4.18497E+00
 -1     12305 1.88566E+01
 -1     12306 1.74400E+01
 -1     12307 1.55057E+01
 -1     12308 7.25640E+00
 -1     12309 6.91049E+00
 -1     12310 8.86767E+00
 -1     12311 2.63618E+01
 -1     12312 1.65841E+01
 -1     12313 2.63441E+01
 -1     12314 2.63353E+01
 -1     12315 7.08459E+00
 -1     12316 7.96534E+00
 -1     12317 1.16610E+01
 -1     12318 6.82810E+00
 -1     12319 6.93655E+00
 -1     12320 8.22817E+00
 -1     12321 1.42208E+01
 -1     12322 6.28121E+00
 -1     12323 6.85609E+00
 -1     12324 1.63722E+01
 -1     12325 1.74044E+01
 -1     12326 6.29610E+00
 -1     12327 2.15580E+01
 -1     12328 2.56776E+01
 -1     12329 2.15534E+01
 -1     12330 6.56209E+00
 -1     12331 5.37869E+00
 -1     12332 1.34989E+01
 -1     12333 6.31989E+00
 -1     12334 1.93955E+01
 -1     12335 1.91680E+01
 -1     12336 1.74892E+01
 -1     12337 7.74957E+00
 -1     12338 1.00384E+01
 -1     12339 2.14986E+01
 -1     12340 2.14986E+01
 -1     12341 9.36713E+00
 -1     12342 1.20719E+01
 -1     12343 9.73715E+00
 -1     12344 2.31845E+01
 -1     12345 1.98663E+01
 -1     12346 6.45545E+00
 -1     12347 7.01853E+00
 -1     12348 7.01853E+00
 -1     12349 2.27519E+01
 -1     12350 7.96072E+00
 -1     12351 8.79820E+00
 -1     12352 5.30427E+00
 -1     12353 4.92928E+00
 -1     12354 5.39998E+00
 -1     12355 8.05086E+00
 -1     12356 7.36117E+00
 -1     12357 1.41021E+01
 -1     12358 2.06179E+01
 -1     12359 6.14247E+00
 -1     12360 7.79801E+00
 -1     12361 8.15049E+00
 -1     12362 2.48938E+01
 -1     12363 1.13143E+01
 -1     12364 1.18120E+01
 -1     12365 1.87694E+01
 -1     12366 2.55950E+01
 -1     12367 1.79188E+01
 -1     12368 1.68964E+01
 -1     12369 1.11462E+01
 -1     12370 2.40387E+01
 -1     12371 1.64586E+01
 -1     12372 1.63867E+01
 -1     12373 1.73876E+01
 -1     12374 5.78671E+00
 -1     12375 2.59323E+01
 -1     12376 9.56573E+00
 -1     12377 1.40479E+01
 -1     12378 1.21326E+01
 -1     12379 6.85759E+00
 -1     12380 1.50921E+01
 -1     12381 2.41338E+01
 -1     12382 6.60907E+00
 -1     12383 2.56887E+01
 -1     12384 1.04921E+01
 -1     12385 1.24262E+01
 -1     12386 1.63314E+01
 -1     12387 1.44139E+01
 -1     12388 2.42917E+01
 -1     12389 1.35683E+01
 -1     12390 1.33304E+01
 -1     12391 2.18349E+01
 -1     12392 1.87663E+01
 -1     12393 1.46352E+01
 -1     12394 7.89268E+00
 -1     12395 6.58645E+00
 -1     12396 5.95259E+00
 -1     12397 1.03582E+01
 -1     12398 5.79495E+00
 -1     12399 8.09783E+00
 -1     12400 1.52584E+01
 -1     12401 1.42505E+01
 -1     12402 1.64334E+01
 -1     12403 9.51813E+00
 -1     12404 5.77008E+00
 -1     12405 6.12427E+00
 -1     12406 2.14759E+01
 -1     12407 5.17535E+00
 -1     12408 5.30852E+00
 -1     12409 5.51645E+00
 -1     12410 8.10286E+00
 -1     12411 2.39428E+01
 -1     12412 1.69007E+01
 -1     12413 1.69007E+01
 -1     12414 9.20690E+00
 -1     12415 9.39092E+00
 -1     12416 1.01708E+01
 -1     12417 2.26876E+01
 -1     12418 2.58104E+01
 -1     12419 5.50352E+00
 -1     12420 1.32924E+01
 -1     12421 1.48048E+01
 -1     12422 1.42543E+01
 -1     12423 1.06700E+01
 -1     12424 1.61871E+01
 -1     12425 1.50124E+01
 -1     12426 5.65303E+00
 -1     12427 5.78548E+00
 -1     12428 2.55236E+01
 -1     12429 3.96579E+00
 -1     12430 5.83578E+00
 -1     12431 5.72807E+00
 -1     12432 2.69022E+01
 -1     12433 1.66940E+01
 -1     12434 1.88321E+01
 -1     12435 1.66940E+01
 -1     12436 1.81236E+01
 -1     12437 2.66517E+01
 -1     12438 1.05445E+01
 -1     12439 2.08082E+01
 -1     12440 4.62194E+00
 -1     12441 4.40214E+00
 -1     12442 5.64218E+00
 -1     12443 1.24934E+01
 -1     12444 7.10539E+00
 -1     12445 5.96918E+00
 -1     12446 6.24416E+00
 -1     12447 3.45189E+00
 -1     12448 4.11417E+00
 -1     12449 6.37539E+00
 -1     12450 1.86276E+01
 -1     12451 4.22750E+00
 -1     12452 3.81406E+00
 -1     12453 4.50574E+00
 -1     12454 6.68274E+00
 -1     12455 8.92343E+00
 -1     12456 9.74941E+00
 -1     12457 1.24859E+01
 -1     12458 2.47164E+01
 -1     12459 1.49719E+01
 -1     12460 1.93078E+01
 -1     12461 2.14270E+01
 -1     12462 2.14270E+01
 -1     12463 2.19612E+01
 -1     12464 5.88344E+00
 -1     12465 3.70089E+00
 -1     12466 3.98318E+00
 -1     12467 1.22443E+01
 -1     12468 2.78296E+01
 -1     12469 1.03016E+01
 -1     12470 9.19521E+00
 -1     12471 1.56833E+01
 -1     12472 1.55262E+01
 -1     12473 6.86550E+00
 -1     12474 6.93655E+00
 -1     12475 7.13154E+00
 -1     12476 5.94553E+00
 -1     12477 5.34253E+00
 -1     12478 1.91898E+01
 -1     12479 2.21259E+01
 -1     12480 2.59026E+01
 -1     12481 7.64866E+00
 -1     12482 7.51545E+00
 -1     12483 1.35330E+01
 -1     12484 1.07031E+01
 -1     12485 1.29850E+01
 -1     12486 8.66839E+00
 -1     12487 1.87620E+01
 -1     12488 2.07660E+01
 -1     12489 6.62271E+00
 -1     12490 9.61834E+00
 -1     12491 1.68492E+01
 -1     12492 1.63798E+01
 -1     12493 5.51874E+00
 -1     12494 5.70537E+00
 -1     12495 6.45021E+00
 -1     12496 4.81585E+00
 -1     12497 4.95332E+00
 -1     12498 6.46309E+00
 -1     12499 1.84974E+01
 -1     12500 2.38935E+01
 -1     12501 2.08042E+01
 -1     12502 6.44113E+00
 -1     12503 2.74772E+01
 -1     12504 1.09750E+01
 -1     12505 5.88677E+00
 -1     12506 5.00514E+00
 -1     12507 1.98252E+01
 -1     12508 8.36229E+00
 -1     12509 1.28773E+01
 -1     12510 1.24059E+01
 -1     12511 1.24059E+01
 -1     12512 1.24020E+01
 -1     12513 9.35808E+00
 -1     12514 6.06052E+00
 -1     12515 2.50526E+01
 -1     12516 1.71638E+01
 -1     12517 2.46335E+01
 -1     12518 2.31139E+01
 -1     12519 4.90004E+00
 -1     12520 2.86230E+01
 -1     12521 2.63261E+01
 -1     12522 2.52887E+01
 -1     12523 1.91680E+01
 -1     12524 4.16920E+00
 -1     12525 1.09978E+01
 -1     12526 1.14195E+01
 -1     12527 1.21437E+01
 -1     12528 1.61950E+01
 -1     12529 1.57531E+01
 -1     12530 1.61531E+01
 -1     12531 2.58720E+01
 -1     12532 2.61432E+01
 -1     12533 2.38083E+01
 -1     12534 2.38083E+01
 -1     12535 1.74810E+01
 -1     12536 1.32738E+01
 -1     12537 1.23104E+01
 -1     12538 1.74868E+01
 -1     12539 1.94176E+01
 -1     12540 1.74868E+01
 -1     12541 4.28963E+00
 -1     12542 1.23717E+01
 -1     12543 1.25039E+01
 -1     12544 3.32509E+00
 -1     12545 4.12005E+00
 -1     12546 2.04334E+01
 -1     12547 1.67907E+01
 -1     12548 2.04334E+01
 -1     12549 1.23902E+01
 -1     12550 1.91236E+01
 -1     12551 1.98114E+01
 -1     12552 1.97867E+01
 -1     12553 1.89876E+01
 -1     12554 7.61266E+00
 -1     12555 4.94678E+00
 -1     12556 5.50699E+00
 -1     12557 2.56752E+01
 -1     12558 2.41594E+01
 -1     12559 5.75921E+00
 -1     12560 1.75450E+01
 -1     12561 1.60797E+01
 -1     12562 2.05809E+01
 -1     12563 2.05809E+01
 -1     12564 1.80519E+01
 -1     12565 8.10286E+00
 -1     12566 1.74340E+01
 -1     12567 3.70897E+00
 -1     12568 3.88309E+00
 -1     12569 1.64483E+01
 -1     12570 5.35030E+00
 -1     12571 2.50707E+01
 -1     12572 1.55862E+01
 -1     12573 1.38990E+01
 -1     12574 7.23183E+00
 -1     12575 5.44188E+00
 -1     12576 4.82388E+00
 -1     12577 5.41487E+00
 -1     12578 9.23232E+00
 -1     12579 6.64622E+00
 -1     12580 1.04921E+01
 -1     12581 1.27352E+01
 -1     12582 8.19401E+00
 -1     12583 7.49464E+00
 -1     12584 2.08521E+01
 -1     12585 2.51540E+01
 -1     12586 2.51540E+01
 -1     12587 2.31957E+01
 -1     12588 7.57234E+00
 -1     12589 5.41709E+00
 -1     12590 6.89910E+00
 -1     12591 1.53913E+01
 -1     12592 8.98754E+00
 -1     12593 7.69245E+00
 -1     12594 2.56317E+01
 -1     12595 8.22851E+00
 -1     12596 9.72194E+00
 -1     12597 5.27585E+00
 -1     12598 5.27585E+00
 -1     12599 8.24682E+00
 -1     12600 6.97223E+00
 -1     12601 1.50941E+01
 -1     12602 1.47416E+01
 -1     12603 1.99866E+01
 -1     12604 1.99866E+01
 -1     12605 1.56833E+01
 -1     12606 2.44987E+01
 -1     12607 2.31361E+01
 -1     12608 2.38585E+01
 -1     12609 2.27293E+01
 -1     12610 1.77002E+01
 -1     12611 1.93405E+01
 -1     12612 5.71575E+00
 -1     12613 1.21328E+01
 -1     12614 6.87735E+00
 -1     12615 6.53821E+00
 -1     12616 2.22626E+01
 -1     12617 1.40477E+01
 -1     12618 1.36754E+01
 -1     12619 4.08930E+00
 -1     12620 2.57211E+01
 -1     12621 2.49493E+01
 -1     12622 6.86520E+00
 -1     12623 8.70310E+00
 -1     12624 9.13213E+00
 -1     12625 1.87705E+01
 -1     12626 5.51447E+00
 -1     12627 2.83940E+00
 -1     12628 3.74828E+00
 -1     12629 5.37486E+00
 -1     12630 5.54621E+00
 -1     12631 5.52109E+00
 -1     12632 5.37486E+00
 -1     12633 2.41858E+01
 -1     12634 1.39878E+01
 -1     12635 1.11020E+01
 -1     12636 6.33826E+00
 -1     12637 4.33403E+00
 -1     12638 1.40658E+01
 -1     12639 1.30944E+01
 -1     12640 1.67504E+01
 -1     12641 5.37465E+00
 -1     12642 2.78617E+01
 -1     12643 3.07102E+01
 -1     12644 3.03634E+01
 -1     12645 2.38168E+01
 -1     12646 1.70145E+01
 -1     12647 2.21340E+01
 -1     12648 1.00413E+01
 -1     12649 1.97687E+01
 -1     12650 4.11315E+00
 -1     12651 1.92988E+01
 -1     12652 7.51411E+00
 -1     12653 2.34826E+01
 -1     12654 1.58790E+01
 -1     12655 2.41965E+01
 -1     12656 1.89236E+01
 -1     12657 6.03637E+00
 -1     12658 6.22299E+00
 -1     12659 5.80706E+00
 -1     12660 6.53038E+00
 -1     12661 6.06149E+00
 -1     12662 1.10667E+01
 -1     12663 2.61145E+01
 -1     12664 2.48464E+01
 -1     12665 3.41310E+00
 -1     12666 2.50451E+01
 -1     12667 2.16145E+01
 -1     12668 1.90424E+01
 -1     12669 1.72618E+01
 -1     12670 1.46827E+01
 -1     12671 2.43083E+01
 -1     12672 8.58021E+00
 -1     12673 1.52454E+01
 -1     12674 6.26539E+00
 -1     12675 2.24028E+01
 -1     12676 6.12427E+00
 -1     12677 2.00098E+01
 -1     12678 2.09933E+01
 -1     12679 2.08104E+01
 -1     12680 2.06123E+01
 -1     12681 2.54538E+01
 -1     12682 2.60123E+01
 -1     12683 2.24323E+01
 -1     12684 2.95332E+00
 -1     12685 1.60730E+01
 -1     12686 1.41387E+01
 -1     12687 7.20720E+00
 -1     12688 1.23950E+01
 -1     12689 1.19733E+01
 -1     12690 7.10280E+00
 -1     12691 1.45748E+01
 -1     12692 2.55016E+01
 -1     12693 1.67379E+01
 -1     12694 1.66389E+01
 -1     12695 2.32315E+01
 -1     12696 1.20296E+01
 -1     12697 1.58720E+01
 -1     12698 1.54630E+01
 -1     12699 2.41338E+01
 -1     12700 2.32613E+01
 -1     12701 1.06172E+01
 -1     12702 1.46580E+01
 -1     12703 5.71495E+00
 -1     12704 1.78731E+01
 -1     12705 8.54923E+00
 -1     12706 1.47965E+01
 -1     12707 2.83112E+01
 -1     12708 2.57211E+01
 -1     12709 2.53343E+01
 -1     12710 1.62901E+01
 -1     12711 1.58550E+01
 -1     12712 2.03237E+01
 -1     12713 6.68088E+00
 -1     12714 9.79705E+00
 -1     12715 1.37166E+01
 -1     12716 1.01708E+01
 -1     12717 1.63369E+01
 -1     12718 1.83302E+01
 -1     12719 1.71373E+01
 -1     12720 1.94783E+01
 -1     12721 1.03148E+01
 -1     12722 1.43511E+01
 -1     12723 1.27127E+01
 -1     12724 2.98040E+01
 -1     12725 2.96712E+01
 -1     12726 2.11859E+01
 -1     12727 5.52109E+00
 -1     12728 4.19728E+00
 -1     12729 5.68705E+00
 -1     12730 5.57997E+00
 -1     12731 8.53110E+00
 -1     12732 1.94962E+01
 -1     12733 1.93006E+01
 -1     12734 8.46911E+00
 -1     12735 2.16132E+01
 -1     12736 4.64998E+00
 -1     12737 4.92529E+00
 -1     12738 1.89667E+01
 -1     12739 9.74343E+00
 -1     12740 3.00737E+01
 -1     12741 2.72252E+01
 -1     12742 5.49395E+00
 -1     12743 5.79261E+00
 -1     12744 1.70129E+01
 -1     12745 8.13960E+00
 -1     12746 8.71919E+00
 -1     12747 1.22633E+01
 -1     12748 1.24724E+01
 -1     12749 1.02708E+01
 -1     12750 8.14901E+00
 -1     12751 1.24724E+01
 -1     12752 1.59656E+01
 -1     12753 1.54059E+01
 -1     12754 1.86617E+01
 -1     12755 5.05135E+00
 -1     12756 1.87241E+01
 -1     12757 2.58682E+01
 -1     12758 1.46174E+01
 -1     12759 5.22863E+00
 -1     12760 7.20696E+00
 -1     12761 2.64051E+01
 -1     12762 2.64051E+01
 -1     12763 8.62146E+00
 -1     12764 1.88413E+01
 -1     12765 2.04946E+01
 -1     12766 1.81843E+01
 -1     12767 2.65240E+01
 -1     12768 1.79289E+01
 -1     12769 1.35435E+01
 -1     12770 1.20083E+01
 -1     12771 2.13754E+01
 -1     12772 2.78296E+01
 -1     12773 2.53880E+01
 -1     12774 4.87257E+00
 -1     12775 1.06546E+01
 -1     12776 2.65076E+01
 -1     12777 2.96712E+01
 -1     12778 2.16991E+01
 -1     12779 1.33620E+01
 -1     12780 1.41387E+01
 -1     12781 5.67022E+00
 -1     12782 5.44030E+00
 -1     12783 8.15509E+00
 -1     12784 2.14759E+01
 -1     12785 2.11621E+01
 -1     12786 2.95941E+01
 -1     12787 2.57211E+01
 -1     12788 1.02423E+01
 -1     12789 1.54210E+01
 -1     12790 1.46547E+01
 -1     12791 1.23475E+01
 -1     12792 3.19141E+00
 -1     12793 1.57342E+01
 -1     12794 2.04687E+01
 -1     12795 1.25702E+01
 -1     12796 1.49530E+01
 -1     12797 2.95941E+01
 -1     12798 2.71380E+01
 -1     12799 2.88775E+01
 -1     12800 2.78296E+01
 -1     12801 2.56709E+01
 -1     12802 1.59829E+01
 -1     12803 1.28507E+01
 -1     12804 1.46519E+01
 -1     12805 1.38569E+01
 -1     12806 1.76944E+01
 -1     12807 1.86483E+01
 -1     12808 2.47746E+01
 -1     12809 2.56317E+01
 -1     12810 1.04110E+01
 -1     12811 8.06463E+00
 -1     12812 1.52135E+01
 -1     12813 2.51036E+01
 -1     12814 7.41004E+00
 -1     12815 2.45583E+01
 -1     12816 8.58668E+00
 -1     12817 2.13722E+01
 -1     12818 2.61206E+01
 -1     12819 2.43083E+01
 -1     12820 5.91158E+00
 -1     12821 1.74896E+01
 -1     12822 1.21115E+01
 -1     12823 5.69063E+00
 -1     12824 2.61206E+01
 -1     12825 2.56709E+01
 -1     12826 2.49485E+01
 -1     12827 2.88775E+01
 -1     12828 1.95545E+01
 -1     12829 2.45960E+01
 -1     12830 2.95780E+01
 -1     12831 2.26383E+01
 -1     12832 2.28264E+01
 -1     12833 1.81441E+01
 -1     12834 1.72508E+01
 -1     12835 1.53718E+01
 -1     12836 1.32364E+01
 -1     12837 4.04937E+00
 -1     12838 2.51689E+01
 -1     12839 2.51689E+01
 -1     12840 1.81643E+01
 -1     12841 5.37486E+00
 -1     12842 8.97305E+00
 -1     12843 1.31291E+01
 -1     12844 2.32993E+01
 -1     12845 2.08070E+01
 -1     12846 2.73024E+01
 -1     12847 7.59241E+00
 -1     12848 1.15370E+01
 -1     12849 1.83735E+01
 -1     12850 1.16525E+01
 -1     12851 6.44113E+00
 -1     12852 4.62194E+00
 -1     12853 2.45987E+01
 -1     12854 1.70879E+01
 -1     12855 1.28442E+01
 -1     12856 2.21581E+01
 -1     12857 1.63318E+01
 -1     12858 1.92658E+01
 -1     12859 1.92299E+01
 -1     12860 1.27438E+01
 -1     12861 1.35765E+01
 -1     12862 2.13658E+01
 -1     12863 2.25920E+01
 -1     12864 7.85168E+00
 -1     12865 2.45939E+01
 -1     12866 2.43647E+01
 -1     12867 1.28606E+01
 -1     12868 2.04168E+01
 -1     12869 1.20615E+01
 -1     12870 2.47336E+01
 -1     12871 1.74868E+01
 -1     12872 1.79581E+01
 -1     12873 1.30020E+01
 -1     12874 2.43647E+01
 -1     12875 1.92721E+01
 -1     12876 2.47336E+01
 -1     12877 2.56709E+01
 -1     12878 1.81830E+01
 -1     12879 1.91040E+01
 -1     12880 2.42401E+01
 -1     12881 2.36157E+01
 -1     12882 2.33180E+01
 -1     12883 7.66284E+00
 -1     12884 8.05680E+00
 -1     12885 7.56251E+00
 -1     12886 1.06172E+01
 -1     12887 1.58494E+01
 -1     12888 6.13451E+00
 -1     12889 2.10879E+01
 -1     12890 1.00289E+01
 -1     12891 6.48056E+00
 -1     12892 6.10897E+00
 -1     12893 7.43009E+00
 -1     12894 1.48102E+01
 -1     12895 6.46580E+00
 -1     12896 5.15357E+00
 -1     12897 5.37486E+00
 -1     12898 8.88321E+00
 -1     12899 2.19594E+01
 -1     12900 2.52851E+01
 -1     12901 1.82338E+01
 -3
 9999
